# vtk DataFile Version 2.0
               (MEGA VTK FILE)
ASCII
DATASET UNSTRUCTURED_GRID
POINTS       1950    double
  0.10378E-02  0.67292E-03 -0.16301E-01
  0.17452E-02  0.12308E-02 -0.16292E-01
  0.23177E-02  0.59151E-03 -0.16290E-01
  0.16698E-02 -0.33775E-03 -0.16307E-01
  0.10379E-02  0.67237E-03 -0.11750E-01
  0.17453E-02  0.12301E-02 -0.11750E-01
  0.23178E-02  0.59098E-03 -0.11750E-01
  0.16700E-02 -0.33851E-03 -0.11750E-01
  0.30377E-02  0.14882E-03 -0.16274E-01
  0.27791E-02 -0.67643E-03 -0.16293E-01
  0.30377E-02  0.14846E-03 -0.11750E-01
  0.27788E-02 -0.67692E-03 -0.11750E-01
  0.12850E-02  0.18412E-02 -0.16282E-01
  0.65139E-03  0.14576E-02 -0.16295E-01
  0.12851E-02  0.18410E-02 -0.11750E-01
  0.65164E-03  0.14566E-02 -0.11750E-01
  0.12757E-03  0.29933E-03 -0.16301E-01
 -0.12822E-03  0.11672E-02 -0.16304E-01
  0.12783E-03  0.29819E-03 -0.11750E-01
 -0.12804E-03  0.11655E-02 -0.11750E-01
  0.94500E-03  0.22748E-02 -0.16276E-01
  0.11327E-02  0.28286E-02 -0.16268E-01
  0.17490E-02  0.24238E-02 -0.16272E-01
  0.94533E-03  0.22746E-02 -0.11750E-01
  0.11330E-02  0.28291E-02 -0.11750E-01
  0.17494E-02  0.24236E-02 -0.11750E-01
  0.40588E-03  0.21685E-02 -0.16291E-01
  0.39779E-03  0.29366E-02 -0.16286E-01
  0.40594E-03  0.21684E-02 -0.11750E-01
  0.39781E-03  0.29369E-02 -0.11750E-01
 -0.76303E-03 -0.10033E-02 -0.16308E-01
 -0.86604E-03  0.78969E-04 -0.16313E-01
  0.46119E-03 -0.70318E-03 -0.16305E-01
 -0.76268E-03 -0.10032E-02 -0.11750E-01
 -0.86593E-03  0.78160E-04 -0.11750E-01
  0.46164E-03 -0.70391E-03 -0.11750E-01
 -0.18300E-02 -0.71196E-03 -0.16291E-01
 -0.18440E-02  0.82749E-04 -0.16309E-01
 -0.18297E-02 -0.71210E-03 -0.11750E-01
 -0.18441E-02  0.82626E-04 -0.11750E-01
 -0.27238E-02 -0.77865E-03 -0.16286E-01
 -0.28028E-02  0.40713E-04 -0.16301E-01
 -0.27238E-02 -0.77882E-03 -0.11750E-01
 -0.28031E-02  0.40439E-04 -0.11750E-01
 -0.25365E-02 -0.15195E-02 -0.16272E-01
 -0.19287E-02 -0.13230E-02 -0.16279E-01
 -0.25363E-02 -0.15195E-02 -0.11750E-01
 -0.19283E-02 -0.13231E-02 -0.11750E-01
 -0.99363E-03  0.98847E-03 -0.16314E-01
 -0.99377E-03  0.98712E-03 -0.11750E-01
 -0.14380E-02 -0.17325E-02 -0.16289E-01
 -0.14377E-02 -0.17325E-02 -0.11750E-01
 -0.31574E-03  0.20220E-02 -0.16307E-01
 -0.31594E-03  0.20217E-02 -0.11750E-01
 -0.11068E-02  0.18615E-02 -0.16313E-01
 -0.11071E-02  0.18616E-02 -0.11750E-01
 -0.18845E-02  0.17175E-02 -0.16298E-01
 -0.18713E-02  0.90940E-03 -0.16310E-01
 -0.18846E-02  0.17175E-02 -0.11750E-01
 -0.18714E-02  0.90916E-03 -0.11750E-01
 -0.15871E-03 -0.19800E-02 -0.16304E-01
 -0.94089E-03 -0.23489E-02 -0.16288E-01
 -0.15844E-03 -0.19800E-02 -0.11750E-01
 -0.94029E-03 -0.23489E-02 -0.11750E-01
  0.78856E-03 -0.17074E-02 -0.16303E-01
  0.78922E-03 -0.17074E-02 -0.11750E-01
  0.17211E-02 -0.14894E-02 -0.16297E-01
  0.17211E-02 -0.14892E-02 -0.11750E-01
  0.32050E-02  0.76036E-03 -0.16249E-01
  0.28046E-02  0.12477E-02 -0.16269E-01
  0.32047E-02  0.75936E-03 -0.11750E-01
  0.28047E-02  0.12473E-02 -0.11750E-01
  0.23059E-02  0.18665E-02 -0.16276E-01
  0.23060E-02  0.18664E-02 -0.11750E-01
 -0.40614E-03  0.29038E-02 -0.16296E-01
 -0.40627E-03  0.29049E-02 -0.11750E-01
 -0.12092E-02  0.27207E-02 -0.16294E-01
 -0.12092E-02  0.27212E-02 -0.11750E-01
 -0.19448E-02  0.24642E-02 -0.16276E-01
 -0.19448E-02  0.24645E-02 -0.11750E-01
 -0.25029E-02  0.22359E-02 -0.16256E-01
 -0.26371E-02  0.16503E-02 -0.16281E-01
 -0.25029E-02  0.22359E-02 -0.11750E-01
 -0.26372E-02  0.16503E-02 -0.11750E-01
 -0.27671E-02  0.87493E-03 -0.16302E-01
 -0.27674E-02  0.87466E-03 -0.11750E-01
 -0.21123E-02 -0.21373E-02 -0.16273E-01
 -0.21122E-02 -0.21373E-02 -0.11750E-01
 -0.16087E-02 -0.26931E-02 -0.16266E-01
 -0.16087E-02 -0.26931E-02 -0.11750E-01
 -0.11939E-02 -0.31291E-02 -0.16247E-01
 -0.58641E-03 -0.30382E-02 -0.16273E-01
 -0.11937E-02 -0.31291E-02 -0.11750E-01
 -0.58606E-03 -0.30382E-02 -0.11750E-01
  0.20912E-03 -0.28748E-02 -0.16290E-01
  0.20952E-03 -0.28748E-02 -0.11750E-01
  0.10586E-02 -0.26423E-02 -0.16288E-01
  0.10589E-02 -0.26420E-02 -0.11750E-01
  0.18413E-02 -0.23707E-02 -0.16274E-01
  0.18413E-02 -0.23705E-02 -0.11750E-01
  0.24544E-02 -0.21445E-02 -0.16254E-01
  0.26022E-02 -0.15105E-02 -0.16277E-01
  0.24543E-02 -0.21439E-02 -0.11750E-01
  0.26021E-02 -0.15106E-02 -0.11750E-01
  0.37964E-02  0.93572E-03 -0.16197E-01
  0.39100E-02  0.00000E+00 -0.16206E-01
  0.37964E-02  0.93572E-03 -0.11750E-01
  0.39100E-02  0.00000E+00 -0.11750E-01
  0.34621E-02  0.18171E-02 -0.16205E-01
  0.34621E-02  0.18171E-02 -0.11750E-01
  0.29267E-02  0.25928E-02 -0.16198E-01
  0.29267E-02  0.25928E-02 -0.11750E-01
  0.22211E-02  0.32179E-02 -0.16199E-01
  0.22211E-02  0.32179E-02 -0.11750E-01
  0.13865E-02  0.36559E-02 -0.16198E-01
  0.13865E-02  0.36559E-02 -0.11750E-01
  0.47130E-03  0.38815E-02 -0.16203E-01
  0.47130E-03  0.38815E-02 -0.11750E-01
 -0.47130E-03  0.38815E-02 -0.16205E-01
 -0.47130E-03  0.38815E-02 -0.11750E-01
 -0.13865E-02  0.36559E-02 -0.16204E-01
 -0.13865E-02  0.36559E-02 -0.11750E-01
 -0.22211E-02  0.32179E-02 -0.16203E-01
 -0.22211E-02  0.32179E-02 -0.11750E-01
 -0.29267E-02  0.25928E-02 -0.16195E-01
 -0.29267E-02  0.25928E-02 -0.11750E-01
 -0.34621E-02  0.18171E-02 -0.16205E-01
 -0.34621E-02  0.18171E-02 -0.11750E-01
 -0.37964E-02  0.93572E-03 -0.16209E-01
 -0.37964E-02  0.93572E-03 -0.11750E-01
 -0.39100E-02  0.22152E-17 -0.16208E-01
 -0.39100E-02 -0.47884E-18 -0.11750E-01
 -0.37964E-02 -0.93572E-03 -0.16204E-01
 -0.37964E-02 -0.93572E-03 -0.11750E-01
 -0.34621E-02 -0.18171E-02 -0.16200E-01
 -0.34621E-02 -0.18171E-02 -0.11750E-01
 -0.29267E-02 -0.25928E-02 -0.16198E-01
 -0.29267E-02 -0.25928E-02 -0.11750E-01
 -0.22211E-02 -0.32179E-02 -0.16204E-01
 -0.22211E-02 -0.32179E-02 -0.11750E-01
 -0.13865E-02 -0.36559E-02 -0.16198E-01
 -0.13865E-02 -0.36559E-02 -0.11750E-01
 -0.47130E-03 -0.38815E-02 -0.16207E-01
 -0.47130E-03 -0.38815E-02 -0.11750E-01
  0.47130E-03 -0.38815E-02 -0.16204E-01
  0.47130E-03 -0.38815E-02 -0.11750E-01
  0.13865E-02 -0.36559E-02 -0.16201E-01
  0.13865E-02 -0.36559E-02 -0.11750E-01
  0.22211E-02 -0.32179E-02 -0.16206E-01
  0.22211E-02 -0.32179E-02 -0.11750E-01
  0.29267E-02 -0.25928E-02 -0.16199E-01
  0.29267E-02 -0.25928E-02 -0.11750E-01
  0.34621E-02 -0.18171E-02 -0.16206E-01
  0.34621E-02 -0.18171E-02 -0.11750E-01
  0.37964E-02 -0.93572E-03 -0.16206E-01
  0.37964E-02 -0.93572E-03 -0.11750E-01
  0.10376E-02  0.67348E-03 -0.17586E-01
  0.17450E-02  0.12314E-02 -0.17584E-01
  0.23175E-02  0.59203E-03 -0.17584E-01
  0.16696E-02 -0.33700E-03 -0.17586E-01
  0.30377E-02  0.14918E-03 -0.17582E-01
  0.27795E-02 -0.67594E-03 -0.17585E-01
  0.12849E-02  0.18414E-02 -0.17583E-01
  0.65115E-03  0.14586E-02 -0.17585E-01
  0.12731E-03  0.30048E-03 -0.17586E-01
 -0.12841E-03  0.11690E-02 -0.17586E-01
  0.94467E-03  0.22749E-02 -0.17582E-01
  0.11323E-02  0.28282E-02 -0.17581E-01
  0.17487E-02  0.24239E-02 -0.17581E-01
  0.40583E-03  0.21685E-02 -0.17584E-01
  0.39777E-03  0.29364E-02 -0.17583E-01
 -0.76338E-03 -0.10035E-02 -0.17587E-01
 -0.86615E-03  0.79778E-04 -0.17588E-01
  0.46074E-03 -0.70245E-03 -0.17587E-01
 -0.18303E-02 -0.71182E-03 -0.17584E-01
 -0.18439E-02  0.82873E-04 -0.17587E-01
 -0.27238E-02 -0.77848E-03 -0.17583E-01
 -0.28025E-02  0.40986E-04 -0.17586E-01
 -0.25366E-02 -0.15194E-02 -0.17581E-01
 -0.19292E-02 -0.13228E-02 -0.17582E-01
 -0.99349E-03  0.98983E-03 -0.17588E-01
 -0.14384E-02 -0.17324E-02 -0.17584E-01
 -0.31554E-03  0.20223E-02 -0.17587E-01
 -0.11064E-02  0.18614E-02 -0.17587E-01
 -0.18845E-02  0.17175E-02 -0.17585E-01
 -0.18712E-02  0.90964E-03 -0.17587E-01
 -0.15899E-03 -0.19800E-02 -0.17586E-01
 -0.94149E-03 -0.23489E-02 -0.17584E-01
  0.78790E-03 -0.17074E-02 -0.17586E-01
  0.17210E-02 -0.14896E-02 -0.17585E-01
  0.32053E-02  0.76137E-03 -0.17578E-01
  0.28046E-02  0.12481E-02 -0.17581E-01
  0.23058E-02  0.18665E-02 -0.17582E-01
 -0.40600E-03  0.29027E-02 -0.17585E-01
 -0.12092E-02  0.27202E-02 -0.17585E-01
 -0.19447E-02  0.24640E-02 -0.17582E-01
 -0.25028E-02  0.22359E-02 -0.17579E-01
 -0.26370E-02  0.16503E-02 -0.17583E-01
 -0.27668E-02  0.87519E-03 -0.17586E-01
 -0.21125E-02 -0.21373E-02 -0.17581E-01
 -0.16088E-02 -0.26932E-02 -0.17580E-01
 -0.11940E-02 -0.31291E-02 -0.17578E-01
 -0.58676E-03 -0.30382E-02 -0.17581E-01
  0.20871E-03 -0.28748E-02 -0.17584E-01
  0.10583E-02 -0.26426E-02 -0.17584E-01
  0.18413E-02 -0.23709E-02 -0.17581E-01
  0.24545E-02 -0.21450E-02 -0.17579E-01
  0.26022E-02 -0.15104E-02 -0.17582E-01
  0.37964E-02  0.93572E-03 -0.17573E-01
  0.39100E-02  0.00000E+00 -0.17574E-01
  0.34621E-02  0.18171E-02 -0.17574E-01
  0.29267E-02  0.25928E-02 -0.17573E-01
  0.22211E-02  0.32179E-02 -0.17573E-01
  0.13865E-02  0.36559E-02 -0.17573E-01
  0.47130E-03  0.38815E-02 -0.17574E-01
 -0.47130E-03  0.38815E-02 -0.17574E-01
 -0.13865E-02  0.36559E-02 -0.17574E-01
 -0.22211E-02  0.32179E-02 -0.17573E-01
 -0.29267E-02  0.25928E-02 -0.17572E-01
 -0.34621E-02  0.18171E-02 -0.17574E-01
 -0.37964E-02  0.93572E-03 -0.17575E-01
 -0.39100E-02 -0.47884E-18 -0.17575E-01
 -0.37964E-02 -0.93572E-03 -0.17574E-01
 -0.34621E-02 -0.18171E-02 -0.17573E-01
 -0.29267E-02 -0.25928E-02 -0.17573E-01
 -0.22211E-02 -0.32179E-02 -0.17574E-01
 -0.13865E-02 -0.36559E-02 -0.17573E-01
 -0.47130E-03 -0.38815E-02 -0.17574E-01
  0.47130E-03 -0.38815E-02 -0.17574E-01
  0.13865E-02 -0.36559E-02 -0.17574E-01
  0.22211E-02 -0.32179E-02 -0.17574E-01
  0.29267E-02 -0.25928E-02 -0.17573E-01
  0.34621E-02 -0.18171E-02 -0.17574E-01
  0.37964E-02 -0.93572E-03 -0.17575E-01
  0.10375E-02  0.67403E-03 -0.16792E-01
  0.17448E-02  0.12321E-02 -0.16792E-01
  0.23174E-02  0.59255E-03 -0.16792E-01
  0.16694E-02 -0.33624E-03 -0.16792E-01
  0.30377E-02  0.14955E-03 -0.16792E-01
  0.27798E-02 -0.67544E-03 -0.16792E-01
  0.12848E-02  0.18415E-02 -0.16792E-01
  0.65090E-03  0.14596E-02 -0.16792E-01
  0.12705E-03  0.30163E-03 -0.16792E-01
 -0.12859E-03  0.11707E-02 -0.16792E-01
  0.94434E-03  0.22750E-02 -0.16792E-01
  0.11320E-02  0.28277E-02 -0.16792E-01
  0.17483E-02  0.24241E-02 -0.16792E-01
  0.40577E-03  0.21685E-02 -0.16792E-01
  0.39776E-03  0.29361E-02 -0.16792E-01
 -0.76374E-03 -0.10036E-02 -0.16792E-01
 -0.86626E-03  0.80588E-04 -0.16792E-01
  0.46029E-03 -0.70173E-03 -0.16792E-01
 -0.18306E-02 -0.71168E-03 -0.16792E-01
 -0.18438E-02  0.82996E-04 -0.16792E-01
 -0.27238E-02 -0.77831E-03 -0.16792E-01
 -0.28022E-02  0.41259E-04 -0.16792E-01
 -0.25368E-02 -0.15194E-02 -0.16792E-01
 -0.19296E-02 -0.13227E-02 -0.16792E-01
 -0.99334E-03  0.99119E-03 -0.16792E-01
 -0.14387E-02 -0.17324E-02 -0.16792E-01
 -0.31534E-03  0.20226E-02 -0.16792E-01
 -0.11061E-02  0.18613E-02 -0.16792E-01
 -0.18844E-02  0.17175E-02 -0.16792E-01
 -0.18710E-02  0.90988E-03 -0.16792E-01
 -0.15926E-03 -0.19801E-02 -0.16792E-01
 -0.94209E-03 -0.23490E-02 -0.16792E-01
  0.78724E-03 -0.17074E-02 -0.16792E-01
  0.17210E-02 -0.14899E-02 -0.16792E-01
  0.32056E-02  0.76237E-03 -0.16792E-01
  0.28046E-02  0.12485E-02 -0.16792E-01
  0.23057E-02  0.18666E-02 -0.16792E-01
 -0.40586E-03  0.29017E-02 -0.16792E-01
 -0.12092E-02  0.27198E-02 -0.16792E-01
 -0.19447E-02  0.24638E-02 -0.16792E-01
 -0.25028E-02  0.22359E-02 -0.16792E-01
 -0.26369E-02  0.16503E-02 -0.16792E-01
 -0.27665E-02  0.87545E-03 -0.16792E-01
 -0.21126E-02 -0.21374E-02 -0.16792E-01
 -0.16088E-02 -0.26932E-02 -0.16792E-01
 -0.11941E-02 -0.31291E-02 -0.16792E-01
 -0.58711E-03 -0.30382E-02 -0.16792E-01
  0.20830E-03 -0.28748E-02 -0.16792E-01
  0.10580E-02 -0.26428E-02 -0.16792E-01
  0.18414E-02 -0.23711E-02 -0.16792E-01
  0.24546E-02 -0.21456E-02 -0.16792E-01
  0.26023E-02 -0.15103E-02 -0.16792E-01
  0.37964E-02  0.93572E-03 -0.16792E-01
  0.39100E-02  0.00000E+00 -0.16792E-01
  0.34621E-02  0.18171E-02 -0.16792E-01
  0.29267E-02  0.25928E-02 -0.16792E-01
  0.22211E-02  0.32179E-02 -0.16792E-01
  0.13865E-02  0.36559E-02 -0.16792E-01
  0.47130E-03  0.38815E-02 -0.16792E-01
 -0.47130E-03  0.38815E-02 -0.16792E-01
 -0.13865E-02  0.36559E-02 -0.16792E-01
 -0.22211E-02  0.32179E-02 -0.16792E-01
 -0.29267E-02  0.25928E-02 -0.16792E-01
 -0.34621E-02  0.18171E-02 -0.16792E-01
 -0.37964E-02  0.93572E-03 -0.16792E-01
 -0.39100E-02  0.39516E-17 -0.16792E-01
 -0.37964E-02 -0.93572E-03 -0.16792E-01
 -0.34621E-02 -0.18171E-02 -0.16792E-01
 -0.29267E-02 -0.25928E-02 -0.16792E-01
 -0.22211E-02 -0.32179E-02 -0.16792E-01
 -0.13865E-02 -0.36559E-02 -0.16792E-01
 -0.47130E-03 -0.38815E-02 -0.16792E-01
  0.47130E-03 -0.38815E-02 -0.16792E-01
  0.13865E-02 -0.36559E-02 -0.16792E-01
  0.22211E-02 -0.32179E-02 -0.16792E-01
  0.29267E-02 -0.25928E-02 -0.16792E-01
  0.34621E-02 -0.18171E-02 -0.16792E-01
  0.37964E-02 -0.93572E-03 -0.16792E-01
  0.10374E-02  0.67459E-03 -0.15813E-01
  0.17446E-02  0.12328E-02 -0.15813E-01
  0.23173E-02  0.59308E-03 -0.15813E-01
  0.16692E-02 -0.33549E-03 -0.15813E-01
  0.30376E-02  0.14991E-03 -0.15813E-01
  0.27801E-02 -0.67495E-03 -0.15813E-01
  0.12847E-02  0.18417E-02 -0.15813E-01
  0.65065E-03  0.14606E-02 -0.15813E-01
  0.12678E-03  0.30278E-03 -0.15813E-01
 -0.12878E-03  0.11725E-02 -0.15813E-01
  0.94401E-03  0.22752E-02 -0.15813E-01
  0.11316E-02  0.28273E-02 -0.15813E-01
  0.17479E-02  0.24242E-02 -0.15813E-01
  0.40572E-03  0.21686E-02 -0.15813E-01
  0.39774E-03  0.29359E-02 -0.15813E-01
 -0.76409E-03 -0.10038E-02 -0.15813E-01
 -0.86637E-03  0.81397E-04 -0.15813E-01
  0.45985E-03 -0.70100E-03 -0.15813E-01
 -0.18309E-02 -0.71154E-03 -0.15813E-01
 -0.18437E-02  0.83120E-04 -0.15813E-01
 -0.27237E-02 -0.77814E-03 -0.15813E-01
 -0.28020E-02  0.41533E-04 -0.15813E-01
 -0.25369E-02 -0.15193E-02 -0.15813E-01
 -0.19300E-02 -0.13227E-02 -0.15813E-01
 -0.99320E-03  0.99254E-03 -0.15813E-01
 -0.14391E-02 -0.17324E-02 -0.15813E-01
 -0.31514E-03  0.20228E-02 -0.15813E-01
 -0.11057E-02  0.18611E-02 -0.15813E-01
 -0.18844E-02  0.17175E-02 -0.15813E-01
 -0.18709E-02  0.91012E-03 -0.15813E-01
 -0.15954E-03 -0.19801E-02 -0.15813E-01
 -0.94269E-03 -0.23490E-02 -0.15813E-01
  0.78658E-03 -0.17074E-02 -0.15813E-01
  0.17209E-02 -0.14901E-02 -0.15813E-01
  0.32060E-02  0.76338E-03 -0.15813E-01
  0.28046E-02  0.12490E-02 -0.15813E-01
  0.23056E-02  0.18666E-02 -0.15813E-01
 -0.40572E-03  0.29006E-02 -0.15813E-01
 -0.12092E-02  0.27193E-02 -0.15813E-01
 -0.19446E-02  0.24636E-02 -0.15813E-01
 -0.25028E-02  0.22359E-02 -0.15813E-01
 -0.26368E-02  0.16503E-02 -0.15813E-01
 -0.27662E-02  0.87571E-03 -0.15813E-01
 -0.21128E-02 -0.21374E-02 -0.15813E-01
 -0.16088E-02 -0.26932E-02 -0.15813E-01
 -0.11942E-02 -0.31291E-02 -0.15813E-01
 -0.58746E-03 -0.30382E-02 -0.15813E-01
  0.20790E-03 -0.28748E-02 -0.15813E-01
  0.10577E-02 -0.26431E-02 -0.15813E-01
  0.18414E-02 -0.23713E-02 -0.15813E-01
  0.24548E-02 -0.21461E-02 -0.15813E-01
  0.26024E-02 -0.15102E-02 -0.15813E-01
  0.37964E-02  0.93572E-03 -0.15813E-01
  0.39100E-02  0.00000E+00 -0.15813E-01
  0.34621E-02  0.18171E-02 -0.15813E-01
  0.29267E-02  0.25928E-02 -0.15813E-01
  0.22211E-02  0.32179E-02 -0.15813E-01
  0.13865E-02  0.36559E-02 -0.15813E-01
  0.47130E-03  0.38815E-02 -0.15813E-01
 -0.47130E-03  0.38815E-02 -0.15813E-01
 -0.13865E-02  0.36559E-02 -0.15813E-01
 -0.22211E-02  0.32179E-02 -0.15813E-01
 -0.29267E-02  0.25928E-02 -0.15813E-01
 -0.34621E-02  0.18171E-02 -0.15813E-01
 -0.37964E-02  0.93572E-03 -0.15813E-01
 -0.39100E-02 -0.47884E-18 -0.15813E-01
 -0.37964E-02 -0.93572E-03 -0.15813E-01
 -0.34621E-02 -0.18171E-02 -0.15813E-01
 -0.29267E-02 -0.25928E-02 -0.15813E-01
 -0.22211E-02 -0.32179E-02 -0.15813E-01
 -0.13865E-02 -0.36559E-02 -0.15813E-01
 -0.47130E-03 -0.38815E-02 -0.15813E-01
  0.47130E-03 -0.38815E-02 -0.15813E-01
  0.13865E-02 -0.36559E-02 -0.15813E-01
  0.22211E-02 -0.32179E-02 -0.15813E-01
  0.29267E-02 -0.25928E-02 -0.15813E-01
  0.34621E-02 -0.18171E-02 -0.15813E-01
  0.37964E-02 -0.93572E-03 -0.15813E-01
  0.10373E-02  0.67514E-03 -0.14834E-01
  0.17445E-02  0.12334E-02 -0.14834E-01
  0.23172E-02  0.59360E-03 -0.14834E-01
  0.16689E-02 -0.33474E-03 -0.14834E-01
  0.30376E-02  0.15027E-03 -0.14834E-01
  0.27805E-02 -0.67446E-03 -0.14834E-01
  0.12846E-02  0.18419E-02 -0.14834E-01
  0.65041E-03  0.14616E-02 -0.14834E-01
  0.12652E-03  0.30393E-03 -0.14834E-01
 -0.12896E-03  0.11742E-02 -0.14834E-01
  0.94367E-03  0.22753E-02 -0.14834E-01
  0.11313E-02  0.28269E-02 -0.14834E-01
  0.17475E-02  0.24244E-02 -0.14834E-01
  0.40566E-03  0.21686E-02 -0.14834E-01
  0.39772E-03  0.29356E-02 -0.14834E-01
 -0.76444E-03 -0.10039E-02 -0.14834E-01
 -0.86648E-03  0.82206E-04 -0.14834E-01
  0.45940E-03 -0.70028E-03 -0.14834E-01
 -0.18312E-02 -0.71140E-03 -0.14834E-01
 -0.18436E-02  0.83243E-04 -0.14834E-01
 -0.27237E-02 -0.77797E-03 -0.14834E-01
 -0.28017E-02  0.41806E-04 -0.14834E-01
 -0.25371E-02 -0.15193E-02 -0.14834E-01
 -0.19305E-02 -0.13226E-02 -0.14834E-01
 -0.99305E-03  0.99390E-03 -0.14834E-01
 -0.14394E-02 -0.17323E-02 -0.14834E-01
 -0.31494E-03  0.20231E-02 -0.14834E-01
 -0.11054E-02  0.18610E-02 -0.14834E-01
 -0.18843E-02  0.17175E-02 -0.14834E-01
 -0.18708E-02  0.91036E-03 -0.14834E-01
 -0.15981E-03 -0.19801E-02 -0.14834E-01
 -0.94328E-03 -0.23490E-02 -0.14834E-01
  0.78592E-03 -0.17074E-02 -0.14834E-01
  0.17209E-02 -0.14904E-02 -0.14834E-01
  0.32063E-02  0.76439E-03 -0.14834E-01
  0.28045E-02  0.12494E-02 -0.14834E-01
  0.23055E-02  0.18666E-02 -0.14834E-01
 -0.40558E-03  0.28995E-02 -0.14834E-01
 -0.12092E-02  0.27188E-02 -0.14834E-01
 -0.19446E-02  0.24633E-02 -0.14834E-01
 -0.25027E-02  0.22359E-02 -0.14834E-01
 -0.26367E-02  0.16503E-02 -0.14834E-01
 -0.27658E-02  0.87597E-03 -0.14834E-01
 -0.21129E-02 -0.21374E-02 -0.14834E-01
 -0.16089E-02 -0.26932E-02 -0.14834E-01
 -0.11943E-02 -0.31291E-02 -0.14834E-01
 -0.58781E-03 -0.30382E-02 -0.14834E-01
  0.20749E-03 -0.28748E-02 -0.14834E-01
  0.10574E-02 -0.26434E-02 -0.14834E-01
  0.18415E-02 -0.23715E-02 -0.14834E-01
  0.24549E-02 -0.21467E-02 -0.14834E-01
  0.26025E-02 -0.15101E-02 -0.14834E-01
  0.37964E-02  0.93572E-03 -0.14834E-01
  0.39100E-02  0.00000E+00 -0.14834E-01
  0.34621E-02  0.18171E-02 -0.14834E-01
  0.29267E-02  0.25928E-02 -0.14834E-01
  0.22211E-02  0.32179E-02 -0.14834E-01
  0.13865E-02  0.36559E-02 -0.14834E-01
  0.47130E-03  0.38815E-02 -0.14834E-01
 -0.47130E-03  0.38815E-02 -0.14834E-01
 -0.13865E-02  0.36559E-02 -0.14834E-01
 -0.22211E-02  0.32179E-02 -0.14834E-01
 -0.29267E-02  0.25928E-02 -0.14834E-01
 -0.34621E-02  0.18171E-02 -0.14834E-01
 -0.37964E-02  0.93572E-03 -0.14834E-01
 -0.39100E-02 -0.47884E-18 -0.14834E-01
 -0.37964E-02 -0.93572E-03 -0.14834E-01
 -0.34621E-02 -0.18171E-02 -0.14834E-01
 -0.29267E-02 -0.25928E-02 -0.14834E-01
 -0.22211E-02 -0.32179E-02 -0.14834E-01
 -0.13865E-02 -0.36559E-02 -0.14834E-01
 -0.47130E-03 -0.38815E-02 -0.14834E-01
  0.47130E-03 -0.38815E-02 -0.14834E-01
  0.13865E-02 -0.36559E-02 -0.14834E-01
  0.22211E-02 -0.32179E-02 -0.14834E-01
  0.29267E-02 -0.25928E-02 -0.14834E-01
  0.34621E-02 -0.18171E-02 -0.14834E-01
  0.37964E-02 -0.93572E-03 -0.14834E-01
  0.10372E-02  0.67570E-03 -0.13855E-01
  0.17443E-02  0.12341E-02 -0.13855E-01
  0.23171E-02  0.59412E-03 -0.13855E-01
  0.16687E-02 -0.33398E-03 -0.13855E-01
  0.30376E-02  0.15064E-03 -0.13855E-01
  0.27808E-02 -0.67396E-03 -0.13855E-01
  0.12845E-02  0.18421E-02 -0.13855E-01
  0.65016E-03  0.14626E-02 -0.13855E-01
  0.12626E-03  0.30507E-03 -0.13855E-01
 -0.12915E-03  0.11760E-02 -0.13855E-01
  0.94334E-03  0.22754E-02 -0.13855E-01
  0.11310E-02  0.28264E-02 -0.13855E-01
  0.17471E-02  0.24245E-02 -0.13855E-01
  0.40561E-03  0.21686E-02 -0.13855E-01
  0.39770E-03  0.29353E-02 -0.13855E-01
 -0.76480E-03 -0.10040E-02 -0.13855E-01
 -0.86659E-03  0.83015E-04 -0.13855E-01
  0.45895E-03 -0.69955E-03 -0.13855E-01
 -0.18315E-02 -0.71126E-03 -0.13855E-01
 -0.18435E-02  0.83367E-04 -0.13855E-01
 -0.27237E-02 -0.77780E-03 -0.13855E-01
 -0.28014E-02  0.42080E-04 -0.13855E-01
 -0.25372E-02 -0.15192E-02 -0.13855E-01
 -0.19309E-02 -0.13224E-02 -0.13855E-01
 -0.99291E-03  0.99526E-03 -0.13855E-01
 -0.14398E-02 -0.17323E-02 -0.13855E-01
 -0.31474E-03  0.20234E-02 -0.13855E-01
 -0.11051E-02  0.18609E-02 -0.13855E-01
 -0.18843E-02  0.17175E-02 -0.13855E-01
 -0.18706E-02  0.91060E-03 -0.13855E-01
 -0.16009E-03 -0.19801E-02 -0.13855E-01
 -0.94388E-03 -0.23490E-02 -0.13855E-01
  0.78526E-03 -0.17074E-02 -0.13855E-01
  0.17208E-02 -0.14906E-02 -0.13855E-01
  0.32066E-02  0.76539E-03 -0.13855E-01
  0.28045E-02  0.12498E-02 -0.13855E-01
  0.23053E-02  0.18667E-02 -0.13855E-01
 -0.40545E-03  0.28984E-02 -0.13855E-01
 -0.12092E-02  0.27184E-02 -0.13855E-01
 -0.19446E-02  0.24631E-02 -0.13855E-01
 -0.25027E-02  0.22359E-02 -0.13855E-01
 -0.26366E-02  0.16503E-02 -0.13855E-01
 -0.27655E-02  0.87623E-03 -0.13855E-01
 -0.21130E-02 -0.21374E-02 -0.13855E-01
 -0.16089E-02 -0.26932E-02 -0.13855E-01
 -0.11944E-02 -0.31291E-02 -0.13855E-01
 -0.58816E-03 -0.30382E-02 -0.13855E-01
  0.20709E-03 -0.28748E-02 -0.13855E-01
  0.10571E-02 -0.26436E-02 -0.13855E-01
  0.18415E-02 -0.23717E-02 -0.13855E-01
  0.24550E-02 -0.21472E-02 -0.13855E-01
  0.26025E-02 -0.15100E-02 -0.13855E-01
  0.37964E-02  0.93572E-03 -0.13855E-01
  0.39100E-02  0.00000E+00 -0.13855E-01
  0.34621E-02  0.18171E-02 -0.13855E-01
  0.29267E-02  0.25928E-02 -0.13855E-01
  0.22211E-02  0.32179E-02 -0.13855E-01
  0.13865E-02  0.36559E-02 -0.13855E-01
  0.47130E-03  0.38815E-02 -0.13855E-01
 -0.47130E-03  0.38815E-02 -0.13855E-01
 -0.13865E-02  0.36559E-02 -0.13855E-01
 -0.22211E-02  0.32179E-02 -0.13855E-01
 -0.29267E-02  0.25928E-02 -0.13855E-01
 -0.34621E-02  0.18171E-02 -0.13855E-01
 -0.37964E-02  0.93572E-03 -0.13855E-01
 -0.39100E-02 -0.47884E-18 -0.13855E-01
 -0.37964E-02 -0.93572E-03 -0.13855E-01
 -0.34621E-02 -0.18171E-02 -0.13855E-01
 -0.29267E-02 -0.25928E-02 -0.13855E-01
 -0.22211E-02 -0.32179E-02 -0.13855E-01
 -0.13865E-02 -0.36559E-02 -0.13855E-01
 -0.47130E-03 -0.38815E-02 -0.13855E-01
  0.47130E-03 -0.38815E-02 -0.13855E-01
  0.13865E-02 -0.36559E-02 -0.13855E-01
  0.22211E-02 -0.32179E-02 -0.13855E-01
  0.29267E-02 -0.25928E-02 -0.13855E-01
  0.34621E-02 -0.18171E-02 -0.13855E-01
  0.37964E-02 -0.93572E-03 -0.13855E-01
  0.10371E-02  0.67625E-03 -0.12875E-01
  0.17441E-02  0.12348E-02 -0.12875E-01
  0.23169E-02  0.59465E-03 -0.12875E-01
  0.16685E-02 -0.33323E-03 -0.12875E-01
  0.30376E-02  0.15100E-03 -0.12875E-01
  0.27812E-02 -0.67347E-03 -0.12875E-01
  0.12844E-02  0.18423E-02 -0.12875E-01
  0.64992E-03  0.14636E-02 -0.12875E-01
  0.12600E-03  0.30622E-03 -0.12875E-01
 -0.12933E-03  0.11777E-02 -0.12875E-01
  0.94301E-03  0.22755E-02 -0.12875E-01
  0.11306E-02  0.28260E-02 -0.12875E-01
  0.17467E-02  0.24247E-02 -0.12875E-01
  0.40556E-03  0.21687E-02 -0.12875E-01
  0.39769E-03  0.29351E-02 -0.12875E-01
 -0.76515E-03 -0.10042E-02 -0.12875E-01
 -0.86670E-03  0.83825E-04 -0.12875E-01
  0.45850E-03 -0.69882E-03 -0.12875E-01
 -0.18318E-02 -0.71112E-03 -0.12875E-01
 -0.18434E-02  0.83490E-04 -0.12875E-01
 -0.27236E-02 -0.77763E-03 -0.12875E-01
 -0.28011E-02  0.42353E-04 -0.12875E-01
 -0.25374E-02 -0.15192E-02 -0.12875E-01
 -0.19313E-02 -0.13223E-02 -0.12875E-01
 -0.99277E-03  0.99661E-03 -0.12875E-01
 -0.14401E-02 -0.17322E-02 -0.12875E-01
 -0.31454E-03  0.20237E-02 -0.12875E-01
 -0.11047E-02  0.18607E-02 -0.12875E-01
 -0.18842E-02  0.17175E-02 -0.12875E-01
 -0.18705E-02  0.91084E-03 -0.12875E-01
 -0.16036E-03 -0.19801E-02 -0.12875E-01
 -0.94448E-03 -0.23491E-02 -0.12875E-01
  0.78460E-03 -0.17074E-02 -0.12875E-01
  0.17208E-02 -0.14909E-02 -0.12875E-01
  0.32070E-02  0.76640E-03 -0.12875E-01
  0.28045E-02  0.12503E-02 -0.12875E-01
  0.23052E-02  0.18667E-02 -0.12875E-01
 -0.40531E-03  0.28974E-02 -0.12875E-01
 -0.12092E-02  0.27179E-02 -0.12875E-01
 -0.19445E-02  0.24629E-02 -0.12875E-01
 -0.25027E-02  0.22359E-02 -0.12875E-01
 -0.26366E-02  0.16503E-02 -0.12875E-01
 -0.27652E-02  0.87650E-03 -0.12875E-01
 -0.21132E-02 -0.21374E-02 -0.12875E-01
 -0.16090E-02 -0.26933E-02 -0.12875E-01
 -0.11946E-02 -0.31291E-02 -0.12875E-01
 -0.58851E-03 -0.30382E-02 -0.12875E-01
  0.20668E-03 -0.28749E-02 -0.12875E-01
  0.10567E-02 -0.26439E-02 -0.12875E-01
  0.18416E-02 -0.23719E-02 -0.12875E-01
  0.24551E-02 -0.21478E-02 -0.12875E-01
  0.26026E-02 -0.15099E-02 -0.12875E-01
  0.37964E-02  0.93572E-03 -0.12875E-01
  0.39100E-02  0.00000E+00 -0.12875E-01
  0.34621E-02  0.18171E-02 -0.12875E-01
  0.29267E-02  0.25928E-02 -0.12875E-01
  0.22211E-02  0.32179E-02 -0.12875E-01
  0.13865E-02  0.36559E-02 -0.12875E-01
  0.47130E-03  0.38815E-02 -0.12875E-01
 -0.47130E-03  0.38815E-02 -0.12875E-01
 -0.13865E-02  0.36559E-02 -0.12875E-01
 -0.22211E-02  0.32179E-02 -0.12875E-01
 -0.29267E-02  0.25928E-02 -0.12875E-01
 -0.34621E-02  0.18171E-02 -0.12875E-01
 -0.37964E-02  0.93572E-03 -0.12875E-01
 -0.39100E-02 -0.47884E-18 -0.12875E-01
 -0.37964E-02 -0.93572E-03 -0.12875E-01
 -0.34621E-02 -0.18171E-02 -0.12875E-01
 -0.29267E-02 -0.25928E-02 -0.12875E-01
 -0.22211E-02 -0.32179E-02 -0.12875E-01
 -0.13865E-02 -0.36559E-02 -0.12875E-01
 -0.47130E-03 -0.38815E-02 -0.12875E-01
  0.47130E-03 -0.38815E-02 -0.12875E-01
  0.13865E-02 -0.36559E-02 -0.12875E-01
  0.22211E-02 -0.32179E-02 -0.12875E-01
  0.29267E-02 -0.25928E-02 -0.12875E-01
  0.34621E-02 -0.18171E-02 -0.12875E-01
  0.37964E-02 -0.93572E-03 -0.12875E-01
  0.10370E-02  0.67680E-03 -0.11896E-01
  0.17439E-02  0.12354E-02 -0.11896E-01
  0.23168E-02  0.59517E-03 -0.11896E-01
  0.16683E-02 -0.33247E-03 -0.11896E-01
  0.30375E-02  0.15136E-03 -0.11896E-01
  0.27815E-02 -0.67298E-03 -0.11896E-01
  0.12843E-02  0.18425E-02 -0.11896E-01
  0.64967E-03  0.14646E-02 -0.11896E-01
  0.12573E-03  0.30737E-03 -0.11896E-01
 -0.12952E-03  0.11795E-02 -0.11896E-01
  0.94268E-03  0.22757E-02 -0.11896E-01
  0.11303E-02  0.28255E-02 -0.11896E-01
  0.17463E-02  0.24248E-02 -0.11896E-01
  0.40550E-03  0.21687E-02 -0.11896E-01
  0.39767E-03  0.29348E-02 -0.11896E-01
 -0.76551E-03 -0.10043E-02 -0.11896E-01
 -0.86680E-03  0.84634E-04 -0.11896E-01
  0.45806E-03 -0.69810E-03 -0.11896E-01
 -0.18321E-02 -0.71098E-03 -0.11896E-01
 -0.18433E-02  0.83614E-04 -0.11896E-01
 -0.27236E-02 -0.77746E-03 -0.11896E-01
 -0.28009E-02  0.42626E-04 -0.11896E-01
 -0.25375E-02 -0.15191E-02 -0.11896E-01
 -0.19317E-02 -0.13223E-02 -0.11896E-01
 -0.99262E-03  0.99797E-03 -0.11896E-01
 -0.14405E-02 -0.17322E-02 -0.11896E-01
 -0.31434E-03  0.20240E-02 -0.11896E-01
 -0.11044E-02  0.18606E-02 -0.11896E-01
 -0.18842E-02  0.17175E-02 -0.11896E-01
 -0.18704E-02  0.91108E-03 -0.11896E-01
 -0.16064E-03 -0.19802E-02 -0.11896E-01
 -0.94508E-03 -0.23491E-02 -0.11896E-01
  0.78394E-03 -0.17074E-02 -0.11896E-01
  0.17208E-02 -0.14911E-02 -0.11896E-01
  0.32073E-02  0.76740E-03 -0.11896E-01
  0.28045E-02  0.12507E-02 -0.11896E-01
  0.23051E-02  0.18668E-02 -0.11896E-01
 -0.40517E-03  0.28963E-02 -0.11896E-01
 -0.12092E-02  0.27174E-02 -0.11896E-01
 -0.19445E-02  0.24627E-02 -0.11896E-01
 -0.25026E-02  0.22358E-02 -0.11896E-01
 -0.26365E-02  0.16503E-02 -0.11896E-01
 -0.27649E-02  0.87676E-03 -0.11896E-01
 -0.21133E-02 -0.21374E-02 -0.11896E-01
 -0.16090E-02 -0.26933E-02 -0.11896E-01
 -0.11947E-02 -0.31291E-02 -0.11896E-01
 -0.58886E-03 -0.30382E-02 -0.11896E-01
  0.20627E-03 -0.28749E-02 -0.11896E-01
  0.10564E-02 -0.26442E-02 -0.11896E-01
  0.18416E-02 -0.23721E-02 -0.11896E-01
  0.24553E-02 -0.21483E-02 -0.11896E-01
  0.26027E-02 -0.15097E-02 -0.11896E-01
  0.37964E-02  0.93572E-03 -0.11896E-01
  0.39100E-02  0.00000E+00 -0.11896E-01
  0.34621E-02  0.18171E-02 -0.11896E-01
  0.29267E-02  0.25928E-02 -0.11896E-01
  0.22211E-02  0.32179E-02 -0.11896E-01
  0.13865E-02  0.36559E-02 -0.11896E-01
  0.47130E-03  0.38815E-02 -0.11896E-01
 -0.47130E-03  0.38815E-02 -0.11896E-01
 -0.13865E-02  0.36559E-02 -0.11896E-01
 -0.22211E-02  0.32179E-02 -0.11896E-01
 -0.29267E-02  0.25928E-02 -0.11896E-01
 -0.34621E-02  0.18171E-02 -0.11896E-01
 -0.37964E-02  0.93572E-03 -0.11896E-01
 -0.39100E-02 -0.47884E-18 -0.11896E-01
 -0.37964E-02 -0.93572E-03 -0.11896E-01
 -0.34621E-02 -0.18171E-02 -0.11896E-01
 -0.29267E-02 -0.25928E-02 -0.11896E-01
 -0.22211E-02 -0.32179E-02 -0.11896E-01
 -0.13865E-02 -0.36559E-02 -0.11896E-01
 -0.47130E-03 -0.38815E-02 -0.11896E-01
  0.47130E-03 -0.38815E-02 -0.11896E-01
  0.13865E-02 -0.36559E-02 -0.11896E-01
  0.22211E-02 -0.32179E-02 -0.11896E-01
  0.29267E-02 -0.25928E-02 -0.11896E-01
  0.34621E-02 -0.18171E-02 -0.11896E-01
  0.37964E-02 -0.93572E-03 -0.11896E-01
  0.10368E-02  0.67736E-03 -0.10917E-01
  0.17438E-02  0.12361E-02 -0.10917E-01
  0.23167E-02  0.59570E-03 -0.10917E-01
  0.16681E-02 -0.33172E-03 -0.10917E-01
  0.30375E-02  0.15173E-03 -0.10917E-01
  0.27819E-02 -0.67248E-03 -0.10917E-01
  0.12842E-02  0.18427E-02 -0.10917E-01
  0.64943E-03  0.14656E-02 -0.10917E-01
  0.12547E-03  0.30852E-03 -0.10917E-01
 -0.12970E-03  0.11812E-02 -0.10917E-01
  0.94235E-03  0.22758E-02 -0.10917E-01
  0.11300E-02  0.28251E-02 -0.10917E-01
  0.17459E-02  0.24249E-02 -0.10917E-01
  0.40545E-03  0.21688E-02 -0.10917E-01
  0.39766E-03  0.29345E-02 -0.10917E-01
 -0.76586E-03 -0.10044E-02 -0.10917E-01
 -0.86691E-03  0.85443E-04 -0.10917E-01
  0.45761E-03 -0.69737E-03 -0.10917E-01
 -0.18324E-02 -0.71084E-03 -0.10917E-01
 -0.18432E-02  0.83737E-04 -0.10917E-01
 -0.27236E-02 -0.77729E-03 -0.10917E-01
 -0.28006E-02  0.42899E-04 -0.10917E-01
 -0.25377E-02 -0.15191E-02 -0.10917E-01
 -0.19322E-02 -0.13222E-02 -0.10917E-01
 -0.99248E-03  0.99932E-03 -0.10917E-01
 -0.14408E-02 -0.17322E-02 -0.10917E-01
 -0.31414E-03  0.20243E-02 -0.10917E-01
 -0.11040E-02  0.18605E-02 -0.10917E-01
 -0.18841E-02  0.17175E-02 -0.10917E-01
 -0.18703E-02  0.91132E-03 -0.10917E-01
 -0.16091E-03 -0.19802E-02 -0.10917E-01
 -0.94568E-03 -0.23491E-02 -0.10917E-01
  0.78328E-03 -0.17074E-02 -0.10917E-01
  0.17207E-02 -0.14914E-02 -0.10917E-01
  0.32076E-02  0.76841E-03 -0.10917E-01
  0.28044E-02  0.12511E-02 -0.10917E-01
  0.23050E-02  0.18668E-02 -0.10917E-01
 -0.40503E-03  0.28952E-02 -0.10917E-01
 -0.12092E-02  0.27170E-02 -0.10917E-01
 -0.19445E-02  0.24624E-02 -0.10917E-01
 -0.25026E-02  0.22358E-02 -0.10917E-01
 -0.26364E-02  0.16503E-02 -0.10917E-01
 -0.27646E-02  0.87702E-03 -0.10917E-01
 -0.21134E-02 -0.21374E-02 -0.10917E-01
 -0.16091E-02 -0.26933E-02 -0.10917E-01
 -0.11948E-02 -0.31291E-02 -0.10917E-01
 -0.58921E-03 -0.30382E-02 -0.10917E-01
  0.20587E-03 -0.28749E-02 -0.10917E-01
  0.10561E-02 -0.26444E-02 -0.10917E-01
  0.18416E-02 -0.23723E-02 -0.10917E-01
  0.24554E-02 -0.21489E-02 -0.10917E-01
  0.26027E-02 -0.15096E-02 -0.10917E-01
  0.37964E-02  0.93572E-03 -0.10917E-01
  0.39100E-02  0.00000E+00 -0.10917E-01
  0.34621E-02  0.18171E-02 -0.10917E-01
  0.29267E-02  0.25928E-02 -0.10917E-01
  0.22211E-02  0.32179E-02 -0.10917E-01
  0.13865E-02  0.36559E-02 -0.10917E-01
  0.47130E-03  0.38815E-02 -0.10917E-01
 -0.47130E-03  0.38815E-02 -0.10917E-01
 -0.13865E-02  0.36559E-02 -0.10917E-01
 -0.22211E-02  0.32179E-02 -0.10917E-01
 -0.29267E-02  0.25928E-02 -0.10917E-01
 -0.34621E-02  0.18171E-02 -0.10917E-01
 -0.37964E-02  0.93572E-03 -0.10917E-01
 -0.39100E-02 -0.47884E-18 -0.10917E-01
 -0.37964E-02 -0.93572E-03 -0.10917E-01
 -0.34621E-02 -0.18171E-02 -0.10917E-01
 -0.29267E-02 -0.25928E-02 -0.10917E-01
 -0.22211E-02 -0.32179E-02 -0.10917E-01
 -0.13865E-02 -0.36559E-02 -0.10917E-01
 -0.47130E-03 -0.38815E-02 -0.10917E-01
  0.47130E-03 -0.38815E-02 -0.10917E-01
  0.13865E-02 -0.36559E-02 -0.10917E-01
  0.22211E-02 -0.32179E-02 -0.10917E-01
  0.29267E-02 -0.25928E-02 -0.10917E-01
  0.34621E-02 -0.18171E-02 -0.10917E-01
  0.37964E-02 -0.93572E-03 -0.10917E-01
  0.10367E-02  0.67791E-03 -0.99380E-02
  0.17436E-02  0.12368E-02 -0.99380E-02
  0.23166E-02  0.59622E-03 -0.99380E-02
  0.16679E-02 -0.33096E-03 -0.99380E-02
  0.30375E-02  0.15209E-03 -0.99380E-02
  0.27822E-02 -0.67199E-03 -0.99380E-02
  0.12841E-02  0.18429E-02 -0.99380E-02
  0.64918E-03  0.14666E-02 -0.99380E-02
  0.12521E-03  0.30967E-03 -0.99380E-02
 -0.12989E-03  0.11830E-02 -0.99380E-02
  0.94202E-03  0.22759E-02 -0.99380E-02
  0.11296E-02  0.28247E-02 -0.99380E-02
  0.17455E-02  0.24251E-02 -0.99380E-02
  0.40539E-03  0.21688E-02 -0.99380E-02
  0.39764E-03  0.29343E-02 -0.99380E-02
 -0.76621E-03 -0.10046E-02 -0.99380E-02
 -0.86702E-03  0.86253E-04 -0.99380E-02
  0.45716E-03 -0.69665E-03 -0.99380E-02
 -0.18326E-02 -0.71070E-03 -0.99380E-02
 -0.18431E-02  0.83861E-04 -0.99380E-02
 -0.27235E-02 -0.77712E-03 -0.99380E-02
 -0.28003E-02  0.43173E-04 -0.99380E-02
 -0.25379E-02 -0.15190E-02 -0.99380E-02
 -0.19326E-02 -0.13220E-02 -0.99380E-02
 -0.99233E-03  0.10007E-02 -0.99380E-02
 -0.14412E-02 -0.17321E-02 -0.99380E-02
 -0.31394E-03  0.20245E-02 -0.99380E-02
 -0.11037E-02  0.18603E-02 -0.99380E-02
 -0.18841E-02  0.17175E-02 -0.99380E-02
 -0.18701E-02  0.91156E-03 -0.99380E-02
 -0.16119E-03 -0.19802E-02 -0.99380E-02
 -0.94628E-03 -0.23491E-02 -0.99380E-02
  0.78262E-03 -0.17074E-02 -0.99380E-02
  0.17207E-02 -0.14916E-02 -0.99380E-02
  0.32079E-02  0.76941E-03 -0.99380E-02
  0.28044E-02  0.12515E-02 -0.99380E-02
  0.23049E-02  0.18668E-02 -0.99380E-02
 -0.40490E-03  0.28942E-02 -0.99380E-02
 -0.12093E-02  0.27165E-02 -0.99380E-02
 -0.19444E-02  0.24622E-02 -0.99380E-02
 -0.25026E-02  0.22358E-02 -0.99380E-02
 -0.26363E-02  0.16503E-02 -0.99380E-02
 -0.27643E-02  0.87728E-03 -0.99380E-02
 -0.21136E-02 -0.21374E-02 -0.99380E-02
 -0.16091E-02 -0.26933E-02 -0.99380E-02
 -0.11949E-02 -0.31291E-02 -0.99380E-02
 -0.58956E-03 -0.30382E-02 -0.99380E-02
  0.20546E-03 -0.28749E-02 -0.99380E-02
  0.10558E-02 -0.26447E-02 -0.99380E-02
  0.18417E-02 -0.23725E-02 -0.99380E-02
  0.24555E-02 -0.21494E-02 -0.99380E-02
  0.26028E-02 -0.15095E-02 -0.99380E-02
  0.37964E-02  0.93572E-03 -0.99380E-02
  0.39100E-02  0.00000E+00 -0.99380E-02
  0.34621E-02  0.18171E-02 -0.99380E-02
  0.29267E-02  0.25928E-02 -0.99380E-02
  0.22211E-02  0.32179E-02 -0.99380E-02
  0.13865E-02  0.36559E-02 -0.99380E-02
  0.47130E-03  0.38815E-02 -0.99380E-02
 -0.47130E-03  0.38815E-02 -0.99380E-02
 -0.13865E-02  0.36559E-02 -0.99380E-02
 -0.22211E-02  0.32179E-02 -0.99380E-02
 -0.29267E-02  0.25928E-02 -0.99380E-02
 -0.34621E-02  0.18171E-02 -0.99380E-02
 -0.37964E-02  0.93572E-03 -0.99380E-02
 -0.39100E-02 -0.47884E-18 -0.99380E-02
 -0.37964E-02 -0.93572E-03 -0.99380E-02
 -0.34621E-02 -0.18171E-02 -0.99380E-02
 -0.29267E-02 -0.25928E-02 -0.99380E-02
 -0.22211E-02 -0.32179E-02 -0.99380E-02
 -0.13865E-02 -0.36559E-02 -0.99380E-02
 -0.47130E-03 -0.38815E-02 -0.99380E-02
  0.47130E-03 -0.38815E-02 -0.99380E-02
  0.13865E-02 -0.36559E-02 -0.99380E-02
  0.22211E-02 -0.32179E-02 -0.99380E-02
  0.29267E-02 -0.25928E-02 -0.99380E-02
  0.34621E-02 -0.18171E-02 -0.99380E-02
  0.37964E-02 -0.93572E-03 -0.99380E-02
  0.10366E-02  0.67847E-03 -0.89588E-02
  0.17434E-02  0.12374E-02 -0.89588E-02
  0.23164E-02  0.59674E-03 -0.89588E-02
  0.16677E-02 -0.33021E-03 -0.89588E-02
  0.30375E-02  0.15245E-03 -0.89588E-02
  0.27825E-02 -0.67150E-03 -0.89588E-02
  0.12840E-02  0.18430E-02 -0.89588E-02
  0.64894E-03  0.14676E-02 -0.89588E-02
  0.12495E-03  0.31081E-03 -0.89588E-02
 -0.13007E-03  0.11847E-02 -0.89588E-02
  0.94169E-03  0.22761E-02 -0.89588E-02
  0.11293E-02  0.28242E-02 -0.89588E-02
  0.17451E-02  0.24252E-02 -0.89588E-02
  0.40534E-03  0.21688E-02 -0.89588E-02
  0.39762E-03  0.29340E-02 -0.89588E-02
 -0.76657E-03 -0.10047E-02 -0.89588E-02
 -0.86713E-03  0.87062E-04 -0.89588E-02
  0.45671E-03 -0.69592E-03 -0.89588E-02
 -0.18329E-02 -0.71056E-03 -0.89588E-02
 -0.18430E-02  0.83985E-04 -0.89588E-02
 -0.27235E-02 -0.77695E-03 -0.89588E-02
 -0.28001E-02  0.43446E-04 -0.89588E-02
 -0.25380E-02 -0.15190E-02 -0.89588E-02
 -0.19330E-02 -0.13219E-02 -0.89588E-02
 -0.99219E-03  0.10020E-02 -0.89588E-02
 -0.14415E-02 -0.17321E-02 -0.89588E-02
 -0.31374E-03  0.20248E-02 -0.89588E-02
 -0.11033E-02  0.18602E-02 -0.89588E-02
 -0.18840E-02  0.17175E-02 -0.89588E-02
 -0.18700E-02  0.91180E-03 -0.89588E-02
 -0.16146E-03 -0.19803E-02 -0.89588E-02
 -0.94687E-03 -0.23491E-02 -0.89588E-02
  0.78195E-03 -0.17073E-02 -0.89588E-02
  0.17207E-02 -0.14919E-02 -0.89588E-02
  0.32083E-02  0.77042E-03 -0.89588E-02
  0.28044E-02  0.12520E-02 -0.89588E-02
  0.23048E-02  0.18669E-02 -0.89588E-02
 -0.40476E-03  0.28931E-02 -0.89588E-02
 -0.12093E-02  0.27160E-02 -0.89588E-02
 -0.19444E-02  0.24620E-02 -0.89588E-02
 -0.25026E-02  0.22358E-02 -0.89588E-02
 -0.26362E-02  0.16503E-02 -0.89588E-02
 -0.27640E-02  0.87754E-03 -0.89588E-02
 -0.21137E-02 -0.21374E-02 -0.89588E-02
 -0.16091E-02 -0.26933E-02 -0.89588E-02
 -0.11950E-02 -0.31291E-02 -0.89588E-02
 -0.58991E-03 -0.30382E-02 -0.89588E-02
  0.20505E-03 -0.28749E-02 -0.89588E-02
  0.10555E-02 -0.26450E-02 -0.89588E-02
  0.18417E-02 -0.23727E-02 -0.89588E-02
  0.24556E-02 -0.21500E-02 -0.89588E-02
  0.26029E-02 -0.15094E-02 -0.89588E-02
  0.37964E-02  0.93572E-03 -0.89588E-02
  0.39100E-02  0.00000E+00 -0.89588E-02
  0.34621E-02  0.18171E-02 -0.89588E-02
  0.29267E-02  0.25928E-02 -0.89588E-02
  0.22211E-02  0.32179E-02 -0.89588E-02
  0.13865E-02  0.36559E-02 -0.89588E-02
  0.47130E-03  0.38815E-02 -0.89588E-02
 -0.47130E-03  0.38815E-02 -0.89588E-02
 -0.13865E-02  0.36559E-02 -0.89588E-02
 -0.22211E-02  0.32179E-02 -0.89588E-02
 -0.29267E-02  0.25928E-02 -0.89588E-02
 -0.34621E-02  0.18171E-02 -0.89588E-02
 -0.37964E-02  0.93572E-03 -0.89588E-02
 -0.39100E-02  0.39516E-17 -0.89588E-02
 -0.37964E-02 -0.93572E-03 -0.89588E-02
 -0.34621E-02 -0.18171E-02 -0.89588E-02
 -0.29267E-02 -0.25928E-02 -0.89588E-02
 -0.22211E-02 -0.32179E-02 -0.89588E-02
 -0.13865E-02 -0.36559E-02 -0.89588E-02
 -0.47130E-03 -0.38815E-02 -0.89588E-02
  0.47130E-03 -0.38815E-02 -0.89588E-02
  0.13865E-02 -0.36559E-02 -0.89588E-02
  0.22211E-02 -0.32179E-02 -0.89588E-02
  0.29267E-02 -0.25928E-02 -0.89588E-02
  0.34621E-02 -0.18171E-02 -0.89588E-02
  0.37964E-02 -0.93572E-03 -0.89588E-02
  0.10365E-02  0.67902E-03 -0.79796E-02
  0.17432E-02  0.12381E-02 -0.79796E-02
  0.23163E-02  0.59727E-03 -0.79796E-02
  0.16675E-02 -0.32945E-03 -0.79796E-02
  0.30374E-02  0.15282E-03 -0.79796E-02
  0.27829E-02 -0.67100E-03 -0.79796E-02
  0.12839E-02  0.18432E-02 -0.79796E-02
  0.64869E-03  0.14686E-02 -0.79796E-02
  0.12468E-03  0.31196E-03 -0.79796E-02
 -0.13026E-03  0.11865E-02 -0.79796E-02
  0.94135E-03  0.22762E-02 -0.79796E-02
  0.11289E-02  0.28238E-02 -0.79796E-02
  0.17447E-02  0.24254E-02 -0.79796E-02
  0.40528E-03  0.21688E-02 -0.79796E-02
  0.39760E-03  0.29337E-02 -0.79796E-02
 -0.76692E-03 -0.10049E-02 -0.79796E-02
 -0.86724E-03  0.87871E-04 -0.79796E-02
  0.45626E-03 -0.69519E-03 -0.79796E-02
 -0.18332E-02 -0.71042E-03 -0.79796E-02
 -0.18430E-02  0.84108E-04 -0.79796E-02
 -0.27235E-02 -0.77678E-03 -0.79796E-02
 -0.27998E-02  0.43720E-04 -0.79796E-02
 -0.25382E-02 -0.15189E-02 -0.79796E-02
 -0.19334E-02 -0.13219E-02 -0.79796E-02
 -0.99205E-03  0.10034E-02 -0.79796E-02
 -0.14419E-02 -0.17320E-02 -0.79796E-02
 -0.31354E-03  0.20251E-02 -0.79796E-02
 -0.11030E-02  0.18601E-02 -0.79796E-02
 -0.18840E-02  0.17175E-02 -0.79796E-02
 -0.18699E-02  0.91204E-03 -0.79796E-02
 -0.16174E-03 -0.19803E-02 -0.79796E-02
 -0.94747E-03 -0.23492E-02 -0.79796E-02
  0.78129E-03 -0.17073E-02 -0.79796E-02
  0.17206E-02 -0.14921E-02 -0.79796E-02
  0.32086E-02  0.77142E-03 -0.79796E-02
  0.28044E-02  0.12524E-02 -0.79796E-02
  0.23047E-02  0.18669E-02 -0.79796E-02
 -0.40462E-03  0.28920E-02 -0.79796E-02
 -0.12093E-02  0.27155E-02 -0.79796E-02
 -0.19444E-02  0.24618E-02 -0.79796E-02
 -0.25025E-02  0.22358E-02 -0.79796E-02
 -0.26361E-02  0.16503E-02 -0.79796E-02
 -0.27637E-02  0.87781E-03 -0.79796E-02
 -0.21139E-02 -0.21374E-02 -0.79796E-02
 -0.16092E-02 -0.26934E-02 -0.79796E-02
 -0.11951E-02 -0.31291E-02 -0.79796E-02
 -0.59025E-03 -0.30382E-02 -0.79796E-02
  0.20465E-03 -0.28749E-02 -0.79796E-02
  0.10552E-02 -0.26452E-02 -0.79796E-02
  0.18418E-02 -0.23729E-02 -0.79796E-02
  0.24558E-02 -0.21505E-02 -0.79796E-02
  0.26030E-02 -0.15093E-02 -0.79796E-02
  0.37964E-02  0.93572E-03 -0.79796E-02
  0.39100E-02  0.00000E+00 -0.79796E-02
  0.34621E-02  0.18171E-02 -0.79796E-02
  0.29267E-02  0.25928E-02 -0.79796E-02
  0.22211E-02  0.32179E-02 -0.79796E-02
  0.13865E-02  0.36559E-02 -0.79796E-02
  0.47130E-03  0.38815E-02 -0.79796E-02
 -0.47130E-03  0.38815E-02 -0.79796E-02
 -0.13865E-02  0.36559E-02 -0.79796E-02
 -0.22211E-02  0.32179E-02 -0.79796E-02
 -0.29267E-02  0.25928E-02 -0.79796E-02
 -0.34621E-02  0.18171E-02 -0.79796E-02
 -0.37964E-02  0.93572E-03 -0.79796E-02
 -0.39100E-02 -0.47884E-18 -0.79796E-02
 -0.37964E-02 -0.93572E-03 -0.79796E-02
 -0.34621E-02 -0.18171E-02 -0.79796E-02
 -0.29267E-02 -0.25928E-02 -0.79796E-02
 -0.22211E-02 -0.32179E-02 -0.79796E-02
 -0.13865E-02 -0.36559E-02 -0.79796E-02
 -0.47130E-03 -0.38815E-02 -0.79796E-02
  0.47130E-03 -0.38815E-02 -0.79796E-02
  0.13865E-02 -0.36559E-02 -0.79796E-02
  0.22211E-02 -0.32179E-02 -0.79796E-02
  0.29267E-02 -0.25928E-02 -0.79796E-02
  0.34621E-02 -0.18171E-02 -0.79796E-02
  0.37964E-02 -0.93572E-03 -0.79796E-02
  0.10364E-02  0.67958E-03 -0.70005E-02
  0.17430E-02  0.12387E-02 -0.70005E-02
  0.23162E-02  0.59779E-03 -0.70005E-02
  0.16672E-02 -0.32870E-03 -0.70005E-02
  0.30374E-02  0.15318E-03 -0.70005E-02
  0.27832E-02 -0.67051E-03 -0.70005E-02
  0.12838E-02  0.18434E-02 -0.70005E-02
  0.64845E-03  0.14696E-02 -0.70005E-02
  0.12442E-03  0.31311E-03 -0.70005E-02
 -0.13044E-03  0.11882E-02 -0.70005E-02
  0.94102E-03  0.22763E-02 -0.70005E-02
  0.11286E-02  0.28233E-02 -0.70005E-02
  0.17443E-02  0.24255E-02 -0.70005E-02
  0.40523E-03  0.21689E-02 -0.70005E-02
  0.39759E-03  0.29335E-02 -0.70005E-02
 -0.76727E-03 -0.10050E-02 -0.70005E-02
 -0.86735E-03  0.88681E-04 -0.70005E-02
  0.45582E-03 -0.69447E-03 -0.70005E-02
 -0.18335E-02 -0.71028E-03 -0.70005E-02
 -0.18429E-02  0.84232E-04 -0.70005E-02
 -0.27235E-02 -0.77661E-03 -0.70005E-02
 -0.27995E-02  0.43993E-04 -0.70005E-02
 -0.25383E-02 -0.15189E-02 -0.70005E-02
 -0.19339E-02 -0.13218E-02 -0.70005E-02
 -0.99190E-03  0.10048E-02 -0.70005E-02
 -0.14422E-02 -0.17320E-02 -0.70005E-02
 -0.31334E-03  0.20254E-02 -0.70005E-02
 -0.11026E-02  0.18599E-02 -0.70005E-02
 -0.18839E-02  0.17175E-02 -0.70005E-02
 -0.18697E-02  0.91228E-03 -0.70005E-02
 -0.16201E-03 -0.19803E-02 -0.70005E-02
 -0.94807E-03 -0.23492E-02 -0.70005E-02
  0.78063E-03 -0.17073E-02 -0.70005E-02
  0.17206E-02 -0.14923E-02 -0.70005E-02
  0.32089E-02  0.77243E-03 -0.70005E-02
  0.28043E-02  0.12528E-02 -0.70005E-02
  0.23046E-02  0.18670E-02 -0.70005E-02
 -0.40448E-03  0.28910E-02 -0.70005E-02
 -0.12093E-02  0.27151E-02 -0.70005E-02
 -0.19443E-02  0.24615E-02 -0.70005E-02
 -0.25025E-02  0.22358E-02 -0.70005E-02
 -0.26360E-02  0.16503E-02 -0.70005E-02
 -0.27633E-02  0.87807E-03 -0.70005E-02
 -0.21140E-02 -0.21374E-02 -0.70005E-02
 -0.16092E-02 -0.26934E-02 -0.70005E-02
 -0.11953E-02 -0.31291E-02 -0.70005E-02
 -0.59060E-03 -0.30382E-02 -0.70005E-02
  0.20424E-03 -0.28749E-02 -0.70005E-02
  0.10549E-02 -0.26455E-02 -0.70005E-02
  0.18418E-02 -0.23732E-02 -0.70005E-02
  0.24559E-02 -0.21511E-02 -0.70005E-02
  0.26030E-02 -0.15092E-02 -0.70005E-02
  0.37964E-02  0.93572E-03 -0.70005E-02
  0.39100E-02  0.00000E+00 -0.70005E-02
  0.34621E-02  0.18171E-02 -0.70005E-02
  0.29267E-02  0.25928E-02 -0.70005E-02
  0.22211E-02  0.32179E-02 -0.70005E-02
  0.13865E-02  0.36559E-02 -0.70005E-02
  0.47130E-03  0.38815E-02 -0.70005E-02
 -0.47130E-03  0.38815E-02 -0.70005E-02
 -0.13865E-02  0.36559E-02 -0.70005E-02
 -0.22211E-02  0.32179E-02 -0.70005E-02
 -0.29267E-02  0.25928E-02 -0.70005E-02
 -0.34621E-02  0.18171E-02 -0.70005E-02
 -0.37964E-02  0.93572E-03 -0.70005E-02
 -0.39100E-02  0.22152E-17 -0.70005E-02
 -0.37964E-02 -0.93572E-03 -0.70005E-02
 -0.34621E-02 -0.18171E-02 -0.70005E-02
 -0.29267E-02 -0.25928E-02 -0.70005E-02
 -0.22211E-02 -0.32179E-02 -0.70005E-02
 -0.13865E-02 -0.36559E-02 -0.70005E-02
 -0.47130E-03 -0.38815E-02 -0.70005E-02
  0.47130E-03 -0.38815E-02 -0.70005E-02
  0.13865E-02 -0.36559E-02 -0.70005E-02
  0.22211E-02 -0.32179E-02 -0.70005E-02
  0.29267E-02 -0.25928E-02 -0.70005E-02
  0.34621E-02 -0.18171E-02 -0.70005E-02
  0.37964E-02 -0.93572E-03 -0.70005E-02
  0.10363E-02  0.68013E-03 -0.60213E-02
  0.17429E-02  0.12394E-02 -0.60213E-02
  0.23161E-02  0.59831E-03 -0.60213E-02
  0.16670E-02 -0.32794E-03 -0.60213E-02
  0.30374E-02  0.15354E-03 -0.60213E-02
  0.27836E-02 -0.67002E-03 -0.60213E-02
  0.12837E-02  0.18436E-02 -0.60213E-02
  0.64820E-03  0.14706E-02 -0.60213E-02
  0.12416E-03  0.31426E-03 -0.60213E-02
 -0.13063E-03  0.11900E-02 -0.60213E-02
  0.94069E-03  0.22765E-02 -0.60213E-02
  0.11282E-02  0.28229E-02 -0.60213E-02
  0.17439E-02  0.24257E-02 -0.60213E-02
  0.40518E-03  0.21689E-02 -0.60213E-02
  0.39757E-03  0.29332E-02 -0.60213E-02
 -0.76763E-03 -0.10051E-02 -0.60213E-02
 -0.86746E-03  0.89490E-04 -0.60213E-02
  0.45537E-03 -0.69374E-03 -0.60213E-02
 -0.18338E-02 -0.71013E-03 -0.60213E-02
 -0.18428E-02  0.84355E-04 -0.60213E-02
 -0.27234E-02 -0.77644E-03 -0.60213E-02
 -0.27992E-02  0.44266E-04 -0.60213E-02
 -0.25385E-02 -0.15188E-02 -0.60213E-02
 -0.19343E-02 -0.13216E-02 -0.60213E-02
 -0.99176E-03  0.10061E-02 -0.60213E-02
 -0.14425E-02 -0.17320E-02 -0.60213E-02
 -0.31314E-03  0.20257E-02 -0.60213E-02
 -0.11023E-02  0.18598E-02 -0.60213E-02
 -0.18839E-02  0.17175E-02 -0.60213E-02
 -0.18696E-02  0.91252E-03 -0.60213E-02
 -0.16229E-03 -0.19803E-02 -0.60213E-02
 -0.94867E-03 -0.23492E-02 -0.60213E-02
  0.77997E-03 -0.17073E-02 -0.60213E-02
  0.17205E-02 -0.14926E-02 -0.60213E-02
  0.32092E-02  0.77343E-03 -0.60213E-02
  0.28043E-02  0.12533E-02 -0.60213E-02
  0.23044E-02  0.18670E-02 -0.60213E-02
 -0.40434E-03  0.28899E-02 -0.60213E-02
 -0.12093E-02  0.27146E-02 -0.60213E-02
 -0.19443E-02  0.24613E-02 -0.60213E-02
 -0.25025E-02  0.22358E-02 -0.60213E-02
 -0.26359E-02  0.16503E-02 -0.60213E-02
 -0.27630E-02  0.87833E-03 -0.60213E-02
 -0.21141E-02 -0.21374E-02 -0.60213E-02
 -0.16093E-02 -0.26934E-02 -0.60213E-02
 -0.11954E-02 -0.31291E-02 -0.60213E-02
 -0.59095E-03 -0.30382E-02 -0.60213E-02
  0.20384E-03 -0.28750E-02 -0.60213E-02
  0.10546E-02 -0.26458E-02 -0.60213E-02
  0.18419E-02 -0.23734E-02 -0.60213E-02
  0.24560E-02 -0.21516E-02 -0.60213E-02
  0.26031E-02 -0.15091E-02 -0.60213E-02
  0.37964E-02  0.93572E-03 -0.60213E-02
  0.39100E-02  0.00000E+00 -0.60213E-02
  0.34621E-02  0.18171E-02 -0.60213E-02
  0.29267E-02  0.25928E-02 -0.60213E-02
  0.22211E-02  0.32179E-02 -0.60213E-02
  0.13865E-02  0.36559E-02 -0.60213E-02
  0.47130E-03  0.38815E-02 -0.60213E-02
 -0.47130E-03  0.38815E-02 -0.60213E-02
 -0.13865E-02  0.36559E-02 -0.60213E-02
 -0.22211E-02  0.32179E-02 -0.60213E-02
 -0.29267E-02  0.25928E-02 -0.60213E-02
 -0.34621E-02  0.18171E-02 -0.60213E-02
 -0.37964E-02  0.93572E-03 -0.60213E-02
 -0.39100E-02 -0.47884E-18 -0.60213E-02
 -0.37964E-02 -0.93572E-03 -0.60213E-02
 -0.34621E-02 -0.18171E-02 -0.60213E-02
 -0.29267E-02 -0.25928E-02 -0.60213E-02
 -0.22211E-02 -0.32179E-02 -0.60213E-02
 -0.13865E-02 -0.36559E-02 -0.60213E-02
 -0.47130E-03 -0.38815E-02 -0.60213E-02
  0.47130E-03 -0.38815E-02 -0.60213E-02
  0.13865E-02 -0.36559E-02 -0.60213E-02
  0.22211E-02 -0.32179E-02 -0.60213E-02
  0.29267E-02 -0.25928E-02 -0.60213E-02
  0.34621E-02 -0.18171E-02 -0.60213E-02
  0.37964E-02 -0.93572E-03 -0.60213E-02
  0.10362E-02  0.68068E-03 -0.50421E-02
  0.17427E-02  0.12401E-02 -0.50421E-02
  0.23160E-02  0.59884E-03 -0.50421E-02
  0.16668E-02 -0.32719E-03 -0.50421E-02
  0.30373E-02  0.15391E-03 -0.50421E-02
  0.27839E-02 -0.66953E-03 -0.50421E-02
  0.12836E-02  0.18438E-02 -0.50421E-02
  0.64796E-03  0.14716E-02 -0.50421E-02
  0.12390E-03  0.31541E-03 -0.50421E-02
 -0.13082E-03  0.11917E-02 -0.50421E-02
  0.94036E-03  0.22766E-02 -0.50421E-02
  0.11279E-02  0.28225E-02 -0.50421E-02
  0.17435E-02  0.24258E-02 -0.50421E-02
  0.40512E-03  0.21690E-02 -0.50421E-02
  0.39755E-03  0.29330E-02 -0.50421E-02
 -0.76798E-03 -0.10053E-02 -0.50421E-02
 -0.86756E-03  0.90299E-04 -0.50421E-02
  0.45492E-03 -0.69302E-03 -0.50421E-02
 -0.18341E-02 -0.70999E-03 -0.50421E-02
 -0.18427E-02  0.84479E-04 -0.50421E-02
 -0.27234E-02 -0.77627E-03 -0.50421E-02
 -0.27990E-02  0.44540E-04 -0.50421E-02
 -0.25386E-02 -0.15188E-02 -0.50421E-02
 -0.19347E-02 -0.13215E-02 -0.50421E-02
 -0.99161E-03  0.10075E-02 -0.50421E-02
 -0.14429E-02 -0.17319E-02 -0.50421E-02
 -0.31294E-03  0.20260E-02 -0.50421E-02
 -0.11019E-02  0.18597E-02 -0.50421E-02
 -0.18838E-02  0.17175E-02 -0.50421E-02
 -0.18695E-02  0.91276E-03 -0.50421E-02
 -0.16256E-03 -0.19804E-02 -0.50421E-02
 -0.94927E-03 -0.23493E-02 -0.50421E-02
  0.77931E-03 -0.17073E-02 -0.50421E-02
  0.17205E-02 -0.14928E-02 -0.50421E-02
  0.32096E-02  0.77444E-03 -0.50421E-02
  0.28043E-02  0.12537E-02 -0.50421E-02
  0.23043E-02  0.18670E-02 -0.50421E-02
 -0.40420E-03  0.28888E-02 -0.50421E-02
 -0.12093E-02  0.27141E-02 -0.50421E-02
 -0.19443E-02  0.24611E-02 -0.50421E-02
 -0.25024E-02  0.22358E-02 -0.50421E-02
 -0.26358E-02  0.16503E-02 -0.50421E-02
 -0.27627E-02  0.87859E-03 -0.50421E-02
 -0.21143E-02 -0.21374E-02 -0.50421E-02
 -0.16093E-02 -0.26934E-02 -0.50421E-02
 -0.11955E-02 -0.31291E-02 -0.50421E-02
 -0.59130E-03 -0.30382E-02 -0.50421E-02
  0.20343E-03 -0.28750E-02 -0.50421E-02
  0.10543E-02 -0.26460E-02 -0.50421E-02
  0.18419E-02 -0.23736E-02 -0.50421E-02
  0.24561E-02 -0.21521E-02 -0.50421E-02
  0.26032E-02 -0.15090E-02 -0.50421E-02
  0.37964E-02  0.93572E-03 -0.50421E-02
  0.39100E-02  0.00000E+00 -0.50421E-02
  0.34621E-02  0.18171E-02 -0.50421E-02
  0.29267E-02  0.25928E-02 -0.50421E-02
  0.22211E-02  0.32179E-02 -0.50421E-02
  0.13865E-02  0.36559E-02 -0.50421E-02
  0.47130E-03  0.38815E-02 -0.50421E-02
 -0.47130E-03  0.38815E-02 -0.50421E-02
 -0.13865E-02  0.36559E-02 -0.50421E-02
 -0.22211E-02  0.32179E-02 -0.50421E-02
 -0.29267E-02  0.25928E-02 -0.50421E-02
 -0.34621E-02  0.18171E-02 -0.50421E-02
 -0.37964E-02  0.93572E-03 -0.50421E-02
 -0.39100E-02  0.22152E-17 -0.50421E-02
 -0.37964E-02 -0.93572E-03 -0.50421E-02
 -0.34621E-02 -0.18171E-02 -0.50421E-02
 -0.29267E-02 -0.25928E-02 -0.50421E-02
 -0.22211E-02 -0.32179E-02 -0.50421E-02
 -0.13865E-02 -0.36559E-02 -0.50421E-02
 -0.47130E-03 -0.38815E-02 -0.50421E-02
  0.47130E-03 -0.38815E-02 -0.50421E-02
  0.13865E-02 -0.36559E-02 -0.50421E-02
  0.22211E-02 -0.32179E-02 -0.50421E-02
  0.29267E-02 -0.25928E-02 -0.50421E-02
  0.34621E-02 -0.18171E-02 -0.50421E-02
  0.37964E-02 -0.93572E-03 -0.50421E-02
  0.10360E-02  0.68124E-03 -0.40630E-02
  0.17425E-02  0.12407E-02 -0.40630E-02
  0.23158E-02  0.59936E-03 -0.40630E-02
  0.16666E-02 -0.32643E-03 -0.40630E-02
  0.30373E-02  0.15427E-03 -0.40630E-02
  0.27842E-02 -0.66903E-03 -0.40630E-02
  0.12835E-02  0.18440E-02 -0.40630E-02
  0.64771E-03  0.14727E-02 -0.40630E-02
  0.12363E-03  0.31656E-03 -0.40630E-02
 -0.13100E-03  0.11935E-02 -0.40630E-02
  0.94003E-03  0.22767E-02 -0.40630E-02
  0.11276E-02  0.28220E-02 -0.40630E-02
  0.17432E-02  0.24260E-02 -0.40630E-02
  0.40507E-03  0.21690E-02 -0.40630E-02
  0.39754E-03  0.29327E-02 -0.40630E-02
 -0.76834E-03 -0.10054E-02 -0.40630E-02
 -0.86767E-03  0.91108E-04 -0.40630E-02
  0.45447E-03 -0.69229E-03 -0.40630E-02
 -0.18344E-02 -0.70985E-03 -0.40630E-02
 -0.18426E-02  0.84602E-04 -0.40630E-02
 -0.27234E-02 -0.77610E-03 -0.40630E-02
 -0.27987E-02  0.44813E-04 -0.40630E-02
 -0.25388E-02 -0.15187E-02 -0.40630E-02
 -0.19352E-02 -0.13215E-02 -0.40630E-02
 -0.99147E-03  0.10088E-02 -0.40630E-02
 -0.14433E-02 -0.17319E-02 -0.40630E-02
 -0.31274E-03  0.20262E-02 -0.40630E-02
 -0.11016E-02  0.18595E-02 -0.40630E-02
 -0.18838E-02  0.17175E-02 -0.40630E-02
 -0.18694E-02  0.91300E-03 -0.40630E-02
 -0.16284E-03 -0.19804E-02 -0.40630E-02
 -0.94986E-03 -0.23493E-02 -0.40630E-02
  0.77865E-03 -0.17073E-02 -0.40630E-02
  0.17205E-02 -0.14931E-02 -0.40630E-02
  0.32099E-02  0.77544E-03 -0.40630E-02
  0.28042E-02  0.12541E-02 -0.40630E-02
  0.23042E-02  0.18671E-02 -0.40630E-02
 -0.40407E-03  0.28877E-02 -0.40630E-02
 -0.12093E-02  0.27137E-02 -0.40630E-02
 -0.19442E-02  0.24609E-02 -0.40630E-02
 -0.25024E-02  0.22358E-02 -0.40630E-02
 -0.26358E-02  0.16503E-02 -0.40630E-02
 -0.27624E-02  0.87885E-03 -0.40630E-02
 -0.21144E-02 -0.21374E-02 -0.40630E-02
 -0.16094E-02 -0.26934E-02 -0.40630E-02
 -0.11956E-02 -0.31291E-02 -0.40630E-02
 -0.59165E-03 -0.30382E-02 -0.40630E-02
  0.20302E-03 -0.28750E-02 -0.40630E-02
  0.10540E-02 -0.26463E-02 -0.40630E-02
  0.18419E-02 -0.23738E-02 -0.40630E-02
  0.24563E-02 -0.21527E-02 -0.40630E-02
  0.26033E-02 -0.15088E-02 -0.40630E-02
  0.37964E-02  0.93572E-03 -0.40630E-02
  0.39100E-02  0.00000E+00 -0.40630E-02
  0.34621E-02  0.18171E-02 -0.40630E-02
  0.29267E-02  0.25928E-02 -0.40630E-02
  0.22211E-02  0.32179E-02 -0.40630E-02
  0.13865E-02  0.36559E-02 -0.40630E-02
  0.47130E-03  0.38815E-02 -0.40630E-02
 -0.47130E-03  0.38815E-02 -0.40630E-02
 -0.13865E-02  0.36559E-02 -0.40630E-02
 -0.22211E-02  0.32179E-02 -0.40630E-02
 -0.29267E-02  0.25928E-02 -0.40630E-02
 -0.34621E-02  0.18171E-02 -0.40630E-02
 -0.37964E-02  0.93572E-03 -0.40630E-02
 -0.39100E-02 -0.47884E-18 -0.40630E-02
 -0.37964E-02 -0.93572E-03 -0.40630E-02
 -0.34621E-02 -0.18171E-02 -0.40630E-02
 -0.29267E-02 -0.25928E-02 -0.40630E-02
 -0.22211E-02 -0.32179E-02 -0.40630E-02
 -0.13865E-02 -0.36559E-02 -0.40630E-02
 -0.47130E-03 -0.38815E-02 -0.40630E-02
  0.47130E-03 -0.38815E-02 -0.40630E-02
  0.13865E-02 -0.36559E-02 -0.40630E-02
  0.22211E-02 -0.32179E-02 -0.40630E-02
  0.29267E-02 -0.25928E-02 -0.40630E-02
  0.34621E-02 -0.18171E-02 -0.40630E-02
  0.37964E-02 -0.93572E-03 -0.40630E-02
  0.10359E-02  0.68179E-03 -0.30838E-02
  0.17423E-02  0.12414E-02 -0.30838E-02
  0.23157E-02  0.59988E-03 -0.30838E-02
  0.16664E-02 -0.32568E-03 -0.30838E-02
  0.30373E-02  0.15463E-03 -0.30838E-02
  0.27846E-02 -0.66854E-03 -0.30838E-02
  0.12834E-02  0.18442E-02 -0.30838E-02
  0.64747E-03  0.14736E-02 -0.30838E-02
  0.12337E-03  0.31770E-03 -0.30838E-02
 -0.13118E-03  0.11952E-02 -0.30838E-02
  0.93970E-03  0.22768E-02 -0.30838E-02
  0.11272E-02  0.28216E-02 -0.30838E-02
  0.17428E-02  0.24261E-02 -0.30838E-02
  0.40501E-03  0.21690E-02 -0.30838E-02
  0.39752E-03  0.29324E-02 -0.30838E-02
 -0.76869E-03 -0.10056E-02 -0.30838E-02
 -0.86778E-03  0.91918E-04 -0.30838E-02
  0.45402E-03 -0.69156E-03 -0.30838E-02
 -0.18347E-02 -0.70971E-03 -0.30838E-02
 -0.18425E-02  0.84726E-04 -0.30838E-02
 -0.27234E-02 -0.77593E-03 -0.30838E-02
 -0.27984E-02  0.45086E-04 -0.30838E-02
 -0.25389E-02 -0.15187E-02 -0.30838E-02
 -0.19356E-02 -0.13213E-02 -0.30838E-02
 -0.99133E-03  0.10102E-02 -0.30838E-02
 -0.14436E-02 -0.17318E-02 -0.30838E-02
 -0.31254E-03  0.20265E-02 -0.30838E-02
 -0.11013E-02  0.18594E-02 -0.30838E-02
 -0.18837E-02  0.17175E-02 -0.30838E-02
 -0.18692E-02  0.91324E-03 -0.30838E-02
 -0.16311E-03 -0.19804E-02 -0.30838E-02
 -0.95046E-03 -0.23493E-02 -0.30838E-02
  0.77799E-03 -0.17073E-02 -0.30838E-02
  0.17204E-02 -0.14933E-02 -0.30838E-02
  0.32102E-02  0.77645E-03 -0.30838E-02
  0.28042E-02  0.12545E-02 -0.30838E-02
  0.23041E-02  0.18671E-02 -0.30838E-02
 -0.40393E-03  0.28867E-02 -0.30838E-02
 -0.12093E-02  0.27132E-02 -0.30838E-02
 -0.19442E-02  0.24606E-02 -0.30838E-02
 -0.25024E-02  0.22358E-02 -0.30838E-02
 -0.26357E-02  0.16503E-02 -0.30838E-02
 -0.27621E-02  0.87912E-03 -0.30838E-02
 -0.21146E-02 -0.21374E-02 -0.30838E-02
 -0.16094E-02 -0.26935E-02 -0.30838E-02
 -0.11957E-02 -0.31291E-02 -0.30838E-02
 -0.59200E-03 -0.30381E-02 -0.30838E-02
  0.20262E-03 -0.28750E-02 -0.30838E-02
  0.10536E-02 -0.26466E-02 -0.30838E-02
  0.18420E-02 -0.23740E-02 -0.30838E-02
  0.24564E-02 -0.21533E-02 -0.30838E-02
  0.26033E-02 -0.15087E-02 -0.30838E-02
  0.37964E-02  0.93572E-03 -0.30838E-02
  0.39100E-02  0.00000E+00 -0.30838E-02
  0.34621E-02  0.18171E-02 -0.30838E-02
  0.29267E-02  0.25928E-02 -0.30838E-02
  0.22211E-02  0.32179E-02 -0.30838E-02
  0.13865E-02  0.36559E-02 -0.30838E-02
  0.47130E-03  0.38815E-02 -0.30838E-02
 -0.47130E-03  0.38815E-02 -0.30838E-02
 -0.13865E-02  0.36559E-02 -0.30838E-02
 -0.22211E-02  0.32179E-02 -0.30838E-02
 -0.29267E-02  0.25928E-02 -0.30838E-02
 -0.34621E-02  0.18171E-02 -0.30838E-02
 -0.37964E-02  0.93572E-03 -0.30838E-02
 -0.39100E-02 -0.47884E-18 -0.30838E-02
 -0.37964E-02 -0.93572E-03 -0.30838E-02
 -0.34621E-02 -0.18171E-02 -0.30838E-02
 -0.29267E-02 -0.25928E-02 -0.30838E-02
 -0.22211E-02 -0.32179E-02 -0.30838E-02
 -0.13865E-02 -0.36559E-02 -0.30838E-02
 -0.47130E-03 -0.38815E-02 -0.30838E-02
  0.47130E-03 -0.38815E-02 -0.30838E-02
  0.13865E-02 -0.36559E-02 -0.30838E-02
  0.22211E-02 -0.32179E-02 -0.30838E-02
  0.29267E-02 -0.25928E-02 -0.30838E-02
  0.34621E-02 -0.18171E-02 -0.30838E-02
  0.37964E-02 -0.93572E-03 -0.30838E-02
  0.10358E-02  0.68235E-03 -0.21046E-02
  0.17422E-02  0.12421E-02 -0.21046E-02
  0.23156E-02  0.60041E-03 -0.21046E-02
  0.16662E-02 -0.32493E-03 -0.21046E-02
  0.30373E-02  0.15500E-03 -0.21046E-02
  0.27849E-02 -0.66805E-03 -0.21046E-02
  0.12833E-02  0.18444E-02 -0.21046E-02
  0.64722E-03  0.14747E-02 -0.21046E-02
  0.12311E-03  0.31885E-03 -0.21046E-02
 -0.13137E-03  0.11970E-02 -0.21046E-02
  0.93937E-03  0.22770E-02 -0.21046E-02
  0.11269E-02  0.28211E-02 -0.21046E-02
  0.17424E-02  0.24262E-02 -0.21046E-02
  0.40496E-03  0.21691E-02 -0.21046E-02
  0.39750E-03  0.29322E-02 -0.21046E-02
 -0.76904E-03 -0.10057E-02 -0.21046E-02
 -0.86789E-03  0.92727E-04 -0.21046E-02
  0.45358E-03 -0.69084E-03 -0.21046E-02
 -0.18350E-02 -0.70957E-03 -0.21046E-02
 -0.18424E-02  0.84849E-04 -0.21046E-02
 -0.27233E-02 -0.77576E-03 -0.21046E-02
 -0.27981E-02  0.45359E-04 -0.21046E-02
 -0.25391E-02 -0.15186E-02 -0.21046E-02
 -0.19360E-02 -0.13212E-02 -0.21046E-02
 -0.99118E-03  0.10115E-02 -0.21046E-02
 -0.14440E-02 -0.17318E-02 -0.21046E-02
 -0.31234E-03  0.20268E-02 -0.21046E-02
 -0.11009E-02  0.18593E-02 -0.21046E-02
 -0.18836E-02  0.17175E-02 -0.21046E-02
 -0.18691E-02  0.91347E-03 -0.21046E-02
 -0.16339E-03 -0.19804E-02 -0.21046E-02
 -0.95106E-03 -0.23493E-02 -0.21046E-02
  0.77733E-03 -0.17073E-02 -0.21046E-02
  0.17204E-02 -0.14936E-02 -0.21046E-02
  0.32105E-02  0.77745E-03 -0.21046E-02
  0.28042E-02  0.12550E-02 -0.21046E-02
  0.23040E-02  0.18671E-02 -0.21046E-02
 -0.40379E-03  0.28856E-02 -0.21046E-02
 -0.12093E-02  0.27127E-02 -0.21046E-02
 -0.19441E-02  0.24604E-02 -0.21046E-02
 -0.25023E-02  0.22358E-02 -0.21046E-02
 -0.26356E-02  0.16503E-02 -0.21046E-02
 -0.27618E-02  0.87938E-03 -0.21046E-02
 -0.21147E-02 -0.21374E-02 -0.21046E-02
 -0.16094E-02 -0.26935E-02 -0.21046E-02
 -0.11958E-02 -0.31291E-02 -0.21046E-02
 -0.59235E-03 -0.30381E-02 -0.21046E-02
  0.20221E-03 -0.28750E-02 -0.21046E-02
  0.10533E-02 -0.26468E-02 -0.21046E-02
  0.18420E-02 -0.23742E-02 -0.21046E-02
  0.24565E-02 -0.21538E-02 -0.21046E-02
  0.26034E-02 -0.15086E-02 -0.21046E-02
  0.37964E-02  0.93572E-03 -0.21046E-02
  0.39100E-02  0.00000E+00 -0.21046E-02
  0.34621E-02  0.18171E-02 -0.21046E-02
  0.29267E-02  0.25928E-02 -0.21046E-02
  0.22211E-02  0.32179E-02 -0.21046E-02
  0.13865E-02  0.36559E-02 -0.21046E-02
  0.47130E-03  0.38815E-02 -0.21046E-02
 -0.47130E-03  0.38815E-02 -0.21046E-02
 -0.13865E-02  0.36559E-02 -0.21046E-02
 -0.22211E-02  0.32179E-02 -0.21046E-02
 -0.29267E-02  0.25928E-02 -0.21046E-02
 -0.34621E-02  0.18171E-02 -0.21046E-02
 -0.37964E-02  0.93572E-03 -0.21046E-02
 -0.39100E-02 -0.47884E-18 -0.21046E-02
 -0.37964E-02 -0.93572E-03 -0.21046E-02
 -0.34621E-02 -0.18171E-02 -0.21046E-02
 -0.29267E-02 -0.25928E-02 -0.21046E-02
 -0.22211E-02 -0.32179E-02 -0.21046E-02
 -0.13865E-02 -0.36559E-02 -0.21046E-02
 -0.47130E-03 -0.38815E-02 -0.21046E-02
  0.47130E-03 -0.38815E-02 -0.21046E-02
  0.13865E-02 -0.36559E-02 -0.21046E-02
  0.22211E-02 -0.32179E-02 -0.21046E-02
  0.29267E-02 -0.25928E-02 -0.21046E-02
  0.34621E-02 -0.18171E-02 -0.21046E-02
  0.37964E-02 -0.93572E-03 -0.21046E-02
  0.10357E-02  0.68290E-03 -0.11255E-02
  0.17420E-02  0.12427E-02 -0.11255E-02
  0.23155E-02  0.60093E-03 -0.11255E-02
  0.16660E-02 -0.32417E-03 -0.11255E-02
  0.30372E-02  0.15536E-03 -0.11255E-02
  0.27853E-02 -0.66755E-03 -0.11255E-02
  0.12832E-02  0.18445E-02 -0.11255E-02
  0.64698E-03  0.14757E-02 -0.11255E-02
  0.12285E-03  0.32000E-03 -0.11255E-02
 -0.13155E-03  0.11987E-02 -0.11255E-02
  0.93903E-03  0.22771E-02 -0.11255E-02
  0.11266E-02  0.28207E-02 -0.11255E-02
  0.17420E-02  0.24264E-02 -0.11255E-02
  0.40490E-03  0.21691E-02 -0.11255E-02
  0.39749E-03  0.29319E-02 -0.11255E-02
 -0.76940E-03 -0.10058E-02 -0.11255E-02
 -0.86800E-03  0.93536E-04 -0.11255E-02
  0.45313E-03 -0.69011E-03 -0.11255E-02
 -0.18353E-02 -0.70943E-03 -0.11255E-02
 -0.18423E-02  0.84973E-04 -0.11255E-02
 -0.27233E-02 -0.77559E-03 -0.11255E-02
 -0.27979E-02  0.45633E-04 -0.11255E-02
 -0.25393E-02 -0.15186E-02 -0.11255E-02
 -0.19365E-02 -0.13212E-02 -0.11255E-02
 -0.99104E-03  0.10129E-02 -0.11255E-02
 -0.14443E-02 -0.17318E-02 -0.11255E-02
 -0.31214E-03  0.20271E-02 -0.11255E-02
 -0.11006E-02  0.18592E-02 -0.11255E-02
 -0.18836E-02  0.17175E-02 -0.11255E-02
 -0.18690E-02  0.91371E-03 -0.11255E-02
 -0.16366E-03 -0.19805E-02 -0.11255E-02
 -0.95166E-03 -0.23493E-02 -0.11255E-02
  0.77667E-03 -0.17073E-02 -0.11255E-02
  0.17203E-02 -0.14938E-02 -0.11255E-02
  0.32109E-02  0.77846E-03 -0.11255E-02
  0.28042E-02  0.12554E-02 -0.11255E-02
  0.23039E-02  0.18672E-02 -0.11255E-02
 -0.40365E-03  0.28845E-02 -0.11255E-02
 -0.12093E-02  0.27122E-02 -0.11255E-02
 -0.19441E-02  0.24602E-02 -0.11255E-02
 -0.25023E-02  0.22358E-02 -0.11255E-02
 -0.26355E-02  0.16502E-02 -0.11255E-02
 -0.27615E-02  0.87964E-03 -0.11255E-02
 -0.21148E-02 -0.21374E-02 -0.11255E-02
 -0.16095E-02 -0.26935E-02 -0.11255E-02
 -0.11960E-02 -0.31291E-02 -0.11255E-02
 -0.59270E-03 -0.30381E-02 -0.11255E-02
  0.20180E-03 -0.28750E-02 -0.11255E-02
  0.10530E-02 -0.26471E-02 -0.11255E-02
  0.18421E-02 -0.23744E-02 -0.11255E-02
  0.24566E-02 -0.21543E-02 -0.11255E-02
  0.26035E-02 -0.15085E-02 -0.11255E-02
  0.37964E-02  0.93572E-03 -0.11255E-02
  0.39100E-02  0.00000E+00 -0.11255E-02
  0.34621E-02  0.18171E-02 -0.11255E-02
  0.29267E-02  0.25928E-02 -0.11255E-02
  0.22211E-02  0.32179E-02 -0.11255E-02
  0.13865E-02  0.36559E-02 -0.11255E-02
  0.47130E-03  0.38815E-02 -0.11255E-02
 -0.47130E-03  0.38815E-02 -0.11255E-02
 -0.13865E-02  0.36559E-02 -0.11255E-02
 -0.22211E-02  0.32179E-02 -0.11255E-02
 -0.29267E-02  0.25928E-02 -0.11255E-02
 -0.34621E-02  0.18171E-02 -0.11255E-02
 -0.37964E-02  0.93572E-03 -0.11255E-02
 -0.39100E-02 -0.47884E-18 -0.11255E-02
 -0.37964E-02 -0.93572E-03 -0.11255E-02
 -0.34621E-02 -0.18171E-02 -0.11255E-02
 -0.29267E-02 -0.25928E-02 -0.11255E-02
 -0.22211E-02 -0.32179E-02 -0.11255E-02
 -0.13865E-02 -0.36559E-02 -0.11255E-02
 -0.47130E-03 -0.38815E-02 -0.11255E-02
  0.47130E-03 -0.38815E-02 -0.11255E-02
  0.13865E-02 -0.36559E-02 -0.11255E-02
  0.22211E-02 -0.32179E-02 -0.11255E-02
  0.29267E-02 -0.25928E-02 -0.11255E-02
  0.34621E-02 -0.18171E-02 -0.11255E-02
  0.37964E-02 -0.93572E-03 -0.11255E-02
  0.10356E-02  0.68346E-03 -0.14630E-03
  0.17418E-02  0.12434E-02 -0.14630E-03
  0.23153E-02  0.60145E-03 -0.14630E-03
  0.16657E-02 -0.32342E-03 -0.14630E-03
  0.30372E-02  0.15572E-03 -0.14630E-03
  0.27856E-02 -0.66706E-03 -0.14630E-03
  0.12830E-02  0.18447E-02 -0.14630E-03
  0.64673E-03  0.14767E-02 -0.14630E-03
  0.12259E-03  0.32115E-03 -0.14630E-03
 -0.13174E-03  0.12005E-02 -0.14630E-03
  0.93870E-03  0.22772E-02 -0.14630E-03
  0.11262E-02  0.28203E-02 -0.14630E-03
  0.17416E-02  0.24265E-02 -0.14630E-03
  0.40485E-03  0.21691E-02 -0.14630E-03
  0.39747E-03  0.29316E-02 -0.14630E-03
 -0.76975E-03 -0.10060E-02 -0.14630E-03
 -0.86811E-03  0.94345E-04 -0.14630E-03
  0.45268E-03 -0.68939E-03 -0.14630E-03
 -0.18356E-02 -0.70929E-03 -0.14630E-03
 -0.18422E-02  0.85096E-04 -0.14630E-03
 -0.27233E-02 -0.77542E-03 -0.14630E-03
 -0.27976E-02  0.45906E-04 -0.14630E-03
 -0.25394E-02 -0.15185E-02 -0.14630E-03
 -0.19369E-02 -0.13211E-02 -0.14630E-03
 -0.99090E-03  0.10142E-02 -0.14630E-03
 -0.14446E-02 -0.17317E-02 -0.14630E-03
 -0.31194E-03  0.20274E-02 -0.14630E-03
 -0.11002E-02  0.18590E-02 -0.14630E-03
 -0.18835E-02  0.17175E-02 -0.14630E-03
 -0.18689E-02  0.91395E-03 -0.14630E-03
 -0.16394E-03 -0.19805E-02 -0.14630E-03
 -0.95226E-03 -0.23494E-02 -0.14630E-03
  0.77601E-03 -0.17073E-02 -0.14630E-03
  0.17203E-02 -0.14941E-02 -0.14630E-03
  0.32112E-02  0.77946E-03 -0.14630E-03
  0.28042E-02  0.12558E-02 -0.14630E-03
  0.23038E-02  0.18672E-02 -0.14630E-03
 -0.40352E-03  0.28835E-02 -0.14630E-03
 -0.12093E-02  0.27118E-02 -0.14630E-03
 -0.19441E-02  0.24600E-02 -0.14630E-03
 -0.25023E-02  0.22358E-02 -0.14630E-03
 -0.26354E-02  0.16502E-02 -0.14630E-03
 -0.27612E-02  0.87990E-03 -0.14630E-03
 -0.21150E-02 -0.21374E-02 -0.14630E-03
 -0.16095E-02 -0.26935E-02 -0.14630E-03
 -0.11961E-02 -0.31291E-02 -0.14630E-03
 -0.59305E-03 -0.30381E-02 -0.14630E-03
  0.20140E-03 -0.28750E-02 -0.14630E-03
  0.10527E-02 -0.26474E-02 -0.14630E-03
  0.18421E-02 -0.23746E-02 -0.14630E-03
  0.24568E-02 -0.21549E-02 -0.14630E-03
  0.26036E-02 -0.15084E-02 -0.14630E-03
  0.37964E-02  0.93572E-03 -0.14630E-03
  0.39100E-02  0.00000E+00 -0.14630E-03
  0.34621E-02  0.18171E-02 -0.14630E-03
  0.29267E-02  0.25928E-02 -0.14630E-03
  0.22211E-02  0.32179E-02 -0.14630E-03
  0.13865E-02  0.36559E-02 -0.14630E-03
  0.47130E-03  0.38815E-02 -0.14630E-03
 -0.47130E-03  0.38815E-02 -0.14630E-03
 -0.13865E-02  0.36559E-02 -0.14630E-03
 -0.22211E-02  0.32179E-02 -0.14630E-03
 -0.29267E-02  0.25928E-02 -0.14630E-03
 -0.34621E-02  0.18171E-02 -0.14630E-03
 -0.37964E-02  0.93572E-03 -0.14630E-03
 -0.39100E-02  0.22152E-17 -0.14630E-03
 -0.37964E-02 -0.93572E-03 -0.14630E-03
 -0.34621E-02 -0.18171E-02 -0.14630E-03
 -0.29267E-02 -0.25928E-02 -0.14630E-03
 -0.22211E-02 -0.32179E-02 -0.14630E-03
 -0.13865E-02 -0.36559E-02 -0.14630E-03
 -0.47130E-03 -0.38815E-02 -0.14630E-03
  0.47130E-03 -0.38815E-02 -0.14630E-03
  0.13865E-02 -0.36559E-02 -0.14630E-03
  0.22211E-02 -0.32179E-02 -0.14630E-03
  0.29267E-02 -0.25928E-02 -0.14630E-03
  0.34621E-02 -0.18171E-02 -0.14630E-03
  0.37964E-02 -0.93572E-03 -0.14630E-03
  0.10355E-02  0.68401E-03  0.83287E-03
  0.17416E-02  0.12440E-02  0.83287E-03
  0.23152E-02  0.60198E-03  0.83287E-03
  0.16655E-02 -0.32266E-03  0.83287E-03
  0.30372E-02  0.15609E-03  0.83287E-03
  0.27860E-02 -0.66657E-03  0.83287E-03
  0.12829E-02  0.18449E-02  0.83287E-03
  0.64649E-03  0.14777E-02  0.83287E-03
  0.12232E-03  0.32230E-03  0.83287E-03
 -0.13193E-03  0.12022E-02  0.83287E-03
  0.93837E-03  0.22774E-02  0.83287E-03
  0.11259E-02  0.28198E-02  0.83287E-03
  0.17412E-02  0.24267E-02  0.83287E-03
  0.40480E-03  0.21692E-02  0.83287E-03
  0.39745E-03  0.29314E-02  0.83287E-03
 -0.77011E-03 -0.10061E-02  0.83287E-03
 -0.86822E-03  0.95155E-04  0.83287E-03
  0.45223E-03 -0.68866E-03  0.83287E-03
 -0.18359E-02 -0.70915E-03  0.83287E-03
 -0.18421E-02  0.85220E-04  0.83287E-03
 -0.27232E-02 -0.77525E-03  0.83287E-03
 -0.27973E-02  0.46180E-04  0.83287E-03
 -0.25396E-02 -0.15185E-02  0.83287E-03
 -0.19373E-02 -0.13210E-02  0.83287E-03
 -0.99075E-03  0.10156E-02  0.83287E-03
 -0.14450E-02 -0.17317E-02  0.83287E-03
 -0.31173E-03  0.20277E-02  0.83287E-03
 -0.10999E-02  0.18589E-02  0.83287E-03
 -0.18835E-02  0.17175E-02  0.83287E-03
 -0.18687E-02  0.91419E-03  0.83287E-03
 -0.16421E-03 -0.19805E-02  0.83287E-03
 -0.95285E-03 -0.23494E-02  0.83287E-03
  0.77535E-03 -0.17073E-02  0.83287E-03
  0.17202E-02 -0.14943E-02  0.83287E-03
  0.32115E-02  0.78047E-03  0.83287E-03
  0.28041E-02  0.12563E-02  0.83287E-03
  0.23037E-02  0.18672E-02  0.83287E-03
 -0.40338E-03  0.28824E-02  0.83287E-03
 -0.12093E-02  0.27113E-02  0.83287E-03
 -0.19440E-02  0.24597E-02  0.83287E-03
 -0.25023E-02  0.22358E-02  0.83287E-03
 -0.26353E-02  0.16502E-02  0.83287E-03
 -0.27609E-02  0.88016E-03  0.83287E-03
 -0.21151E-02 -0.21374E-02  0.83287E-03
 -0.16096E-02 -0.26935E-02  0.83287E-03
 -0.11962E-02 -0.31291E-02  0.83287E-03
 -0.59340E-03 -0.30381E-02  0.83287E-03
  0.20099E-03 -0.28751E-02  0.83287E-03
  0.10524E-02 -0.26476E-02  0.83287E-03
  0.18422E-02 -0.23748E-02  0.83287E-03
  0.24569E-02 -0.21554E-02  0.83287E-03
  0.26036E-02 -0.15083E-02  0.83287E-03
  0.37964E-02  0.93572E-03  0.83287E-03
  0.39100E-02  0.00000E+00  0.83287E-03
  0.34621E-02  0.18171E-02  0.83287E-03
  0.29267E-02  0.25928E-02  0.83287E-03
  0.22211E-02  0.32179E-02  0.83287E-03
  0.13865E-02  0.36559E-02  0.83287E-03
  0.47130E-03  0.38815E-02  0.83287E-03
 -0.47130E-03  0.38815E-02  0.83287E-03
 -0.13865E-02  0.36559E-02  0.83287E-03
 -0.22211E-02  0.32179E-02  0.83287E-03
 -0.29267E-02  0.25928E-02  0.83287E-03
 -0.34621E-02  0.18171E-02  0.83287E-03
 -0.37964E-02  0.93572E-03  0.83287E-03
 -0.39100E-02 -0.47884E-18  0.83287E-03
 -0.37964E-02 -0.93572E-03  0.83287E-03
 -0.34621E-02 -0.18171E-02  0.83287E-03
 -0.29267E-02 -0.25928E-02  0.83287E-03
 -0.22211E-02 -0.32179E-02  0.83287E-03
 -0.13865E-02 -0.36559E-02  0.83287E-03
 -0.47130E-03 -0.38815E-02  0.83287E-03
  0.47130E-03 -0.38815E-02  0.83287E-03
  0.13865E-02 -0.36559E-02  0.83287E-03
  0.22211E-02 -0.32179E-02  0.83287E-03
  0.29267E-02 -0.25928E-02  0.83287E-03
  0.34621E-02 -0.18171E-02  0.83287E-03
  0.37964E-02 -0.93572E-03  0.83287E-03
  0.10354E-02  0.68457E-03  0.18120E-02
  0.17414E-02  0.12447E-02  0.18120E-02
  0.23151E-02  0.60250E-03  0.18120E-02
  0.16653E-02 -0.32191E-03  0.18120E-02
  0.30372E-02  0.15645E-03  0.18120E-02
  0.27863E-02 -0.66607E-03  0.18120E-02
  0.12829E-02  0.18451E-02  0.18120E-02
  0.64624E-03  0.14787E-02  0.18120E-02
  0.12206E-03  0.32345E-03  0.18120E-02
 -0.13211E-03  0.12040E-02  0.18120E-02
  0.93804E-03  0.22775E-02  0.18120E-02
  0.11255E-02  0.28194E-02  0.18120E-02
  0.17408E-02  0.24268E-02  0.18120E-02
  0.40474E-03  0.21692E-02  0.18120E-02
  0.39744E-03  0.29311E-02  0.18120E-02
 -0.77046E-03 -0.10062E-02  0.18120E-02
 -0.86832E-03  0.95964E-04  0.18120E-02
  0.45179E-03 -0.68793E-03  0.18120E-02
 -0.18362E-02 -0.70901E-03  0.18120E-02
 -0.18420E-02  0.85343E-04  0.18120E-02
 -0.27232E-02 -0.77507E-03  0.18120E-02
 -0.27970E-02  0.46453E-04  0.18120E-02
 -0.25397E-02 -0.15184E-02  0.18120E-02
 -0.19377E-02 -0.13209E-02  0.18120E-02
 -0.99061E-03  0.10169E-02  0.18120E-02
 -0.14453E-02 -0.17316E-02  0.18120E-02
 -0.31153E-03  0.20280E-02  0.18120E-02
 -0.10995E-02  0.18588E-02  0.18120E-02
 -0.18834E-02  0.17175E-02  0.18120E-02
 -0.18686E-02  0.91443E-03  0.18120E-02
 -0.16449E-03 -0.19806E-02  0.18120E-02
 -0.95345E-03 -0.23494E-02  0.18120E-02
  0.77469E-03 -0.17073E-02  0.18120E-02
  0.17202E-02 -0.14945E-02  0.18120E-02
  0.32119E-02  0.78148E-03  0.18120E-02
  0.28041E-02  0.12567E-02  0.18120E-02
  0.23036E-02  0.18673E-02  0.18120E-02
 -0.40324E-03  0.28813E-02  0.18120E-02
 -0.12093E-02  0.27108E-02  0.18120E-02
 -0.19440E-02  0.24595E-02  0.18120E-02
 -0.25022E-02  0.22358E-02  0.18120E-02
 -0.26352E-02  0.16502E-02  0.18120E-02
 -0.27606E-02  0.88043E-03  0.18120E-02
 -0.21152E-02 -0.21374E-02  0.18120E-02
 -0.16096E-02 -0.26936E-02  0.18120E-02
 -0.11963E-02 -0.31291E-02  0.18120E-02
 -0.59375E-03 -0.30381E-02  0.18120E-02
  0.20059E-03 -0.28751E-02  0.18120E-02
  0.10521E-02 -0.26479E-02  0.18120E-02
  0.18422E-02 -0.23750E-02  0.18120E-02
  0.24570E-02 -0.21560E-02  0.18120E-02
  0.26037E-02 -0.15082E-02  0.18120E-02
  0.37964E-02  0.93572E-03  0.18120E-02
  0.39100E-02  0.00000E+00  0.18120E-02
  0.34621E-02  0.18171E-02  0.18120E-02
  0.29267E-02  0.25928E-02  0.18120E-02
  0.22211E-02  0.32179E-02  0.18120E-02
  0.13865E-02  0.36559E-02  0.18120E-02
  0.47130E-03  0.38815E-02  0.18120E-02
 -0.47130E-03  0.38815E-02  0.18120E-02
 -0.13865E-02  0.36559E-02  0.18120E-02
 -0.22211E-02  0.32179E-02  0.18120E-02
 -0.29267E-02  0.25928E-02  0.18120E-02
 -0.34621E-02  0.18171E-02  0.18120E-02
 -0.37964E-02  0.93572E-03  0.18120E-02
 -0.39100E-02 -0.47884E-18  0.18120E-02
 -0.37964E-02 -0.93572E-03  0.18120E-02
 -0.34621E-02 -0.18171E-02  0.18120E-02
 -0.29267E-02 -0.25928E-02  0.18120E-02
 -0.22211E-02 -0.32179E-02  0.18120E-02
 -0.13865E-02 -0.36559E-02  0.18120E-02
 -0.47130E-03 -0.38815E-02  0.18120E-02
  0.47130E-03 -0.38815E-02  0.18120E-02
  0.13865E-02 -0.36559E-02  0.18120E-02
  0.22211E-02 -0.32179E-02  0.18120E-02
  0.29267E-02 -0.25928E-02  0.18120E-02
  0.34621E-02 -0.18171E-02  0.18120E-02
  0.37964E-02 -0.93572E-03  0.18120E-02
  0.10352E-02  0.68512E-03  0.27912E-02
  0.17413E-02  0.12454E-02  0.27912E-02
  0.23150E-02  0.60302E-03  0.27912E-02
  0.16651E-02 -0.32115E-03  0.27912E-02
  0.30371E-02  0.15681E-03  0.27912E-02
  0.27866E-02 -0.66558E-03  0.27912E-02
  0.12827E-02  0.18453E-02  0.27912E-02
  0.64600E-03  0.14797E-02  0.27912E-02
  0.12180E-03  0.32459E-03  0.27912E-02
 -0.13230E-03  0.12058E-02  0.27912E-02
  0.93771E-03  0.22776E-02  0.27912E-02
  0.11252E-02  0.28189E-02  0.27912E-02
  0.17404E-02  0.24270E-02  0.27912E-02
  0.40469E-03  0.21693E-02  0.27912E-02
  0.39742E-03  0.29308E-02  0.27912E-02
 -0.77081E-03 -0.10064E-02  0.27912E-02
 -0.86843E-03  0.96773E-04  0.27912E-02
  0.45134E-03 -0.68721E-03  0.27912E-02
 -0.18365E-02 -0.70887E-03  0.27912E-02
 -0.18419E-02  0.85467E-04  0.27912E-02
 -0.27232E-02 -0.77490E-03  0.27912E-02
 -0.27968E-02  0.46726E-04  0.27912E-02
 -0.25399E-02 -0.15184E-02  0.27912E-02
 -0.19382E-02 -0.13208E-02  0.27912E-02
 -0.99046E-03  0.10183E-02  0.27912E-02
 -0.14457E-02 -0.17316E-02  0.27912E-02
 -0.31133E-03  0.20283E-02  0.27912E-02
 -0.10992E-02  0.18586E-02  0.27912E-02
 -0.18834E-02  0.17175E-02  0.27912E-02
 -0.18685E-02  0.91467E-03  0.27912E-02
 -0.16476E-03 -0.19806E-02  0.27912E-02
 -0.95405E-03 -0.23494E-02  0.27912E-02
  0.77402E-03 -0.17073E-02  0.27912E-02
  0.17202E-02 -0.14948E-02  0.27912E-02
  0.32122E-02  0.78248E-03  0.27912E-02
  0.28041E-02  0.12571E-02  0.27912E-02
  0.23034E-02  0.18673E-02  0.27912E-02
 -0.40310E-03  0.28802E-02  0.27912E-02
 -0.12093E-02  0.27103E-02  0.27912E-02
 -0.19440E-02  0.24593E-02  0.27912E-02
 -0.25022E-02  0.22358E-02  0.27912E-02
 -0.26351E-02  0.16502E-02  0.27912E-02
 -0.27602E-02  0.88069E-03  0.27912E-02
 -0.21154E-02 -0.21374E-02  0.27912E-02
 -0.16097E-02 -0.26936E-02  0.27912E-02
 -0.11964E-02 -0.31291E-02  0.27912E-02
 -0.59409E-03 -0.30381E-02  0.27912E-02
  0.20018E-03 -0.28751E-02  0.27912E-02
  0.10518E-02 -0.26482E-02  0.27912E-02
  0.18422E-02 -0.23752E-02  0.27912E-02
  0.24571E-02 -0.21565E-02  0.27912E-02
  0.26038E-02 -0.15081E-02  0.27912E-02
  0.37964E-02  0.93572E-03  0.27912E-02
  0.39100E-02  0.00000E+00  0.27912E-02
  0.34621E-02  0.18171E-02  0.27912E-02
  0.29267E-02  0.25928E-02  0.27912E-02
  0.22211E-02  0.32179E-02  0.27912E-02
  0.13865E-02  0.36559E-02  0.27912E-02
  0.47130E-03  0.38815E-02  0.27912E-02
 -0.47130E-03  0.38815E-02  0.27912E-02
 -0.13865E-02  0.36559E-02  0.27912E-02
 -0.22211E-02  0.32179E-02  0.27912E-02
 -0.29267E-02  0.25928E-02  0.27912E-02
 -0.34621E-02  0.18171E-02  0.27912E-02
 -0.37964E-02  0.93572E-03  0.27912E-02
 -0.39100E-02 -0.47884E-18  0.27912E-02
 -0.37964E-02 -0.93572E-03  0.27912E-02
 -0.34621E-02 -0.18171E-02  0.27912E-02
 -0.29267E-02 -0.25928E-02  0.27912E-02
 -0.22211E-02 -0.32179E-02  0.27912E-02
 -0.13865E-02 -0.36559E-02  0.27912E-02
 -0.47130E-03 -0.38815E-02  0.27912E-02
  0.47130E-03 -0.38815E-02  0.27912E-02
  0.13865E-02 -0.36559E-02  0.27912E-02
  0.22211E-02 -0.32179E-02  0.27912E-02
  0.29267E-02 -0.25928E-02  0.27912E-02
  0.34621E-02 -0.18171E-02  0.27912E-02
  0.37964E-02 -0.93572E-03  0.27912E-02
  0.10351E-02  0.68567E-03  0.37704E-02
  0.17411E-02  0.12460E-02  0.37704E-02
  0.23149E-02  0.60355E-03  0.37704E-02
  0.16649E-02 -0.32040E-03  0.37704E-02
  0.30371E-02  0.15718E-03  0.37704E-02
  0.27870E-02 -0.66509E-03  0.37704E-02
  0.12826E-02  0.18455E-02  0.37704E-02
  0.64575E-03  0.14807E-02  0.37704E-02
  0.12154E-03  0.32574E-03  0.37704E-02
 -0.13248E-03  0.12075E-02  0.37704E-02
  0.93738E-03  0.22777E-02  0.37704E-02
  0.11249E-02  0.28185E-02  0.37704E-02
  0.17400E-02  0.24271E-02  0.37704E-02
  0.40463E-03  0.21693E-02  0.37704E-02
  0.39740E-03  0.29306E-02  0.37704E-02
 -0.77117E-03 -0.10065E-02  0.37704E-02
 -0.86854E-03  0.97583E-04  0.37704E-02
  0.45089E-03 -0.68648E-03  0.37704E-02
 -0.18368E-02 -0.70873E-03  0.37704E-02
 -0.18418E-02  0.85591E-04  0.37704E-02
 -0.27232E-02 -0.77474E-03  0.37704E-02
 -0.27965E-02  0.47000E-04  0.37704E-02
 -0.25400E-02 -0.15183E-02  0.37704E-02
 -0.19386E-02 -0.13207E-02  0.37704E-02
 -0.99032E-03  0.10197E-02  0.37704E-02
 -0.14460E-02 -0.17316E-02  0.37704E-02
 -0.31113E-03  0.20285E-02  0.37704E-02
 -0.10988E-02  0.18585E-02  0.37704E-02
 -0.18833E-02  0.17175E-02  0.37704E-02
 -0.18683E-02  0.91491E-03  0.37704E-02
 -0.16504E-03 -0.19806E-02  0.37704E-02
 -0.95465E-03 -0.23495E-02  0.37704E-02
  0.77336E-03 -0.17073E-02  0.37704E-02
  0.17201E-02 -0.14950E-02  0.37704E-02
  0.32125E-02  0.78348E-03  0.37704E-02
  0.28041E-02  0.12576E-02  0.37704E-02
  0.23033E-02  0.18674E-02  0.37704E-02
 -0.40296E-03  0.28792E-02  0.37704E-02
 -0.12093E-02  0.27099E-02  0.37704E-02
 -0.19439E-02  0.24591E-02  0.37704E-02
 -0.25022E-02  0.22358E-02  0.37704E-02
 -0.26350E-02  0.16502E-02  0.37704E-02
 -0.27599E-02  0.88095E-03  0.37704E-02
 -0.21155E-02 -0.21374E-02  0.37704E-02
 -0.16097E-02 -0.26936E-02  0.37704E-02
 -0.11965E-02 -0.31290E-02  0.37704E-02
 -0.59444E-03 -0.30381E-02  0.37704E-02
  0.19977E-03 -0.28751E-02  0.37704E-02
  0.10515E-02 -0.26484E-02  0.37704E-02
  0.18423E-02 -0.23754E-02  0.37704E-02
  0.24573E-02 -0.21571E-02  0.37704E-02
  0.26039E-02 -0.15080E-02  0.37704E-02
  0.37964E-02  0.93572E-03  0.37704E-02
  0.39100E-02  0.00000E+00  0.37704E-02
  0.34621E-02  0.18171E-02  0.37704E-02
  0.29267E-02  0.25928E-02  0.37704E-02
  0.22211E-02  0.32179E-02  0.37704E-02
  0.13865E-02  0.36559E-02  0.37704E-02
  0.47130E-03  0.38815E-02  0.37704E-02
 -0.47130E-03  0.38815E-02  0.37704E-02
 -0.13865E-02  0.36559E-02  0.37704E-02
 -0.22211E-02  0.32179E-02  0.37704E-02
 -0.29267E-02  0.25928E-02  0.37704E-02
 -0.34621E-02  0.18171E-02  0.37704E-02
 -0.37964E-02  0.93572E-03  0.37704E-02
 -0.39100E-02  0.47884E-18  0.37704E-02
 -0.37964E-02 -0.93572E-03  0.37704E-02
 -0.34621E-02 -0.18171E-02  0.37704E-02
 -0.29267E-02 -0.25928E-02  0.37704E-02
 -0.22211E-02 -0.32179E-02  0.37704E-02
 -0.13865E-02 -0.36559E-02  0.37704E-02
 -0.47130E-03 -0.38815E-02  0.37704E-02
  0.47130E-03 -0.38815E-02  0.37704E-02
  0.13865E-02 -0.36559E-02  0.37704E-02
  0.22211E-02 -0.32179E-02  0.37704E-02
  0.29267E-02 -0.25928E-02  0.37704E-02
  0.34621E-02 -0.18171E-02  0.37704E-02
  0.37964E-02 -0.93572E-03  0.37704E-02
  
CELLS       3486               17724
       1       0
       1       1
       1       2
       1       3
       1       4
       1       5
       1       6
       1       7
       1       8
       1       9
       1      10
       1      11
       1      12
       1      13
       1      14
       1      15
       1      16
       1      17
       1      18
       1      19
       1      20
       1      21
       1      22
       1      23
       1      24
       1      25
       1      26
       1      27
       1      28
       1      29
       1      30
       1      31
       1      32
       1      33
       1      34
       1      35
       1      36
       1      37
       1      38
       1      39
       1      40
       1      41
       1      42
       1      43
       1      44
       1      45
       1      46
       1      47
       1      48
       1      49
       1      50
       1      51
       1      52
       1      53
       1      54
       1      55
       1      56
       1      57
       1      58
       1      59
       1      60
       1      61
       1      62
       1      63
       1      64
       1      65
       1      66
       1      67
       1      68
       1      69
       1      70
       1      71
       1      72
       1      73
       1      74
       1      75
       1      76
       1      77
       1      78
       1      79
       1      80
       1      81
       1      82
       1      83
       1      84
       1      85
       1      86
       1      87
       1      88
       1      89
       1      90
       1      91
       1      92
       1      93
       1      94
       1      95
       1      96
       1      97
       1      98
       1      99
       1     100
       1     101
       1     102
       1     103
       1     104
       1     105
       1     106
       1     107
       1     108
       1     109
       1     110
       1     111
       1     112
       1     113
       1     114
       1     115
       1     116
       1     117
       1     118
       1     119
       1     120
       1     121
       1     122
       1     123
       1     124
       1     125
       1     126
       1     127
       1     128
       1     129
       1     130
       1     131
       1     132
       1     133
       1     134
       1     135
       1     136
       1     137
       1     138
       1     139
       1     140
       1     141
       1     142
       1     143
       1     144
       1     145
       1     146
       1     147
       1     148
       1     149
       1     150
       1     151
       1     152
       1     153
       1     154
       1     155
       1     156
       1     157
       1     158
       1     159
       1     160
       1     161
       1     162
       1     163
       1     164
       1     165
       1     166
       1     167
       1     168
       1     169
       1     170
       1     171
       1     172
       1     173
       1     174
       1     175
       1     176
       1     177
       1     178
       1     179
       1     180
       1     181
       1     182
       1     183
       1     184
       1     185
       1     186
       1     187
       1     188
       1     189
       1     190
       1     191
       1     192
       1     193
       1     194
       1     195
       1     196
       1     197
       1     198
       1     199
       1     200
       1     201
       1     202
       1     203
       1     204
       1     205
       1     206
       1     207
       1     208
       1     209
       1     210
       1     211
       1     212
       1     213
       1     214
       1     215
       1     216
       1     217
       1     218
       1     219
       1     220
       1     221
       1     222
       1     223
       1     224
       1     225
       1     226
       1     227
       1     228
       1     229
       1     230
       1     231
       1     232
       1     233
       1     234
       1     235
       1     236
       1     237
       1     238
       1     239
       1     240
       1     241
       1     242
       1     243
       1     244
       1     245
       1     246
       1     247
       1     248
       1     249
       1     250
       1     251
       1     252
       1     253
       1     254
       1     255
       1     256
       1     257
       1     258
       1     259
       1     260
       1     261
       1     262
       1     263
       1     264
       1     265
       1     266
       1     267
       1     268
       1     269
       1     270
       1     271
       1     272
       1     273
       1     274
       1     275
       1     276
       1     277
       1     278
       1     279
       1     280
       1     281
       1     282
       1     283
       1     284
       1     285
       1     286
       1     287
       1     288
       1     289
       1     290
       1     291
       1     292
       1     293
       1     294
       1     295
       1     296
       1     297
       1     298
       1     299
       1     300
       1     301
       1     302
       1     303
       1     304
       1     305
       1     306
       1     307
       1     308
       1     309
       1     310
       1     311
       1     312
       1     313
       1     314
       1     315
       1     316
       1     317
       1     318
       1     319
       1     320
       1     321
       1     322
       1     323
       1     324
       1     325
       1     326
       1     327
       1     328
       1     329
       1     330
       1     331
       1     332
       1     333
       1     334
       1     335
       1     336
       1     337
       1     338
       1     339
       1     340
       1     341
       1     342
       1     343
       1     344
       1     345
       1     346
       1     347
       1     348
       1     349
       1     350
       1     351
       1     352
       1     353
       1     354
       1     355
       1     356
       1     357
       1     358
       1     359
       1     360
       1     361
       1     362
       1     363
       1     364
       1     365
       1     366
       1     367
       1     368
       1     369
       1     370
       1     371
       1     372
       1     373
       1     374
       1     375
       1     376
       1     377
       1     378
       1     379
       1     380
       1     381
       1     382
       1     383
       1     384
       1     385
       1     386
       1     387
       1     388
       1     389
       1     390
       1     391
       1     392
       1     393
       1     394
       1     395
       1     396
       1     397
       1     398
       1     399
       1     400
       1     401
       1     402
       1     403
       1     404
       1     405
       1     406
       1     407
       1     408
       1     409
       1     410
       1     411
       1     412
       1     413
       1     414
       1     415
       1     416
       1     417
       1     418
       1     419
       1     420
       1     421
       1     422
       1     423
       1     424
       1     425
       1     426
       1     427
       1     428
       1     429
       1     430
       1     431
       1     432
       1     433
       1     434
       1     435
       1     436
       1     437
       1     438
       1     439
       1     440
       1     441
       1     442
       1     443
       1     444
       1     445
       1     446
       1     447
       1     448
       1     449
       1     450
       1     451
       1     452
       1     453
       1     454
       1     455
       1     456
       1     457
       1     458
       1     459
       1     460
       1     461
       1     462
       1     463
       1     464
       1     465
       1     466
       1     467
       1     468
       1     469
       1     470
       1     471
       1     472
       1     473
       1     474
       1     475
       1     476
       1     477
       1     478
       1     479
       1     480
       1     481
       1     482
       1     483
       1     484
       1     485
       1     486
       1     487
       1     488
       1     489
       1     490
       1     491
       1     492
       1     493
       1     494
       1     495
       1     496
       1     497
       1     498
       1     499
       1     500
       1     501
       1     502
       1     503
       1     504
       1     505
       1     506
       1     507
       1     508
       1     509
       1     510
       1     511
       1     512
       1     513
       1     514
       1     515
       1     516
       1     517
       1     518
       1     519
       1     520
       1     521
       1     522
       1     523
       1     524
       1     525
       1     526
       1     527
       1     528
       1     529
       1     530
       1     531
       1     532
       1     533
       1     534
       1     535
       1     536
       1     537
       1     538
       1     539
       1     540
       1     541
       1     542
       1     543
       1     544
       1     545
       1     546
       1     547
       1     548
       1     549
       1     550
       1     551
       1     552
       1     553
       1     554
       1     555
       1     556
       1     557
       1     558
       1     559
       1     560
       1     561
       1     562
       1     563
       1     564
       1     565
       1     566
       1     567
       1     568
       1     569
       1     570
       1     571
       1     572
       1     573
       1     574
       1     575
       1     576
       1     577
       1     578
       1     579
       1     580
       1     581
       1     582
       1     583
       1     584
       1     585
       1     586
       1     587
       1     588
       1     589
       1     590
       1     591
       1     592
       1     593
       1     594
       1     595
       1     596
       1     597
       1     598
       1     599
       1     600
       1     601
       1     602
       1     603
       1     604
       1     605
       1     606
       1     607
       1     608
       1     609
       1     610
       1     611
       1     612
       1     613
       1     614
       1     615
       1     616
       1     617
       1     618
       1     619
       1     620
       1     621
       1     622
       1     623
       1     624
       1     625
       1     626
       1     627
       1     628
       1     629
       1     630
       1     631
       1     632
       1     633
       1     634
       1     635
       1     636
       1     637
       1     638
       1     639
       1     640
       1     641
       1     642
       1     643
       1     644
       1     645
       1     646
       1     647
       1     648
       1     649
       1     650
       1     651
       1     652
       1     653
       1     654
       1     655
       1     656
       1     657
       1     658
       1     659
       1     660
       1     661
       1     662
       1     663
       1     664
       1     665
       1     666
       1     667
       1     668
       1     669
       1     670
       1     671
       1     672
       1     673
       1     674
       1     675
       1     676
       1     677
       1     678
       1     679
       1     680
       1     681
       1     682
       1     683
       1     684
       1     685
       1     686
       1     687
       1     688
       1     689
       1     690
       1     691
       1     692
       1     693
       1     694
       1     695
       1     696
       1     697
       1     698
       1     699
       1     700
       1     701
       1     702
       1     703
       1     704
       1     705
       1     706
       1     707
       1     708
       1     709
       1     710
       1     711
       1     712
       1     713
       1     714
       1     715
       1     716
       1     717
       1     718
       1     719
       1     720
       1     721
       1     722
       1     723
       1     724
       1     725
       1     726
       1     727
       1     728
       1     729
       1     730
       1     731
       1     732
       1     733
       1     734
       1     735
       1     736
       1     737
       1     738
       1     739
       1     740
       1     741
       1     742
       1     743
       1     744
       1     745
       1     746
       1     747
       1     748
       1     749
       1     750
       1     751
       1     752
       1     753
       1     754
       1     755
       1     756
       1     757
       1     758
       1     759
       1     760
       1     761
       1     762
       1     763
       1     764
       1     765
       1     766
       1     767
       1     768
       1     769
       1     770
       1     771
       1     772
       1     773
       1     774
       1     775
       1     776
       1     777
       1     778
       1     779
       1     780
       1     781
       1     782
       1     783
       1     784
       1     785
       1     786
       1     787
       1     788
       1     789
       1     790
       1     791
       1     792
       1     793
       1     794
       1     795
       1     796
       1     797
       1     798
       1     799
       1     800
       1     801
       1     802
       1     803
       1     804
       1     805
       1     806
       1     807
       1     808
       1     809
       1     810
       1     811
       1     812
       1     813
       1     814
       1     815
       1     816
       1     817
       1     818
       1     819
       1     820
       1     821
       1     822
       1     823
       1     824
       1     825
       1     826
       1     827
       1     828
       1     829
       1     830
       1     831
       1     832
       1     833
       1     834
       1     835
       1     836
       1     837
       1     838
       1     839
       1     840
       1     841
       1     842
       1     843
       1     844
       1     845
       1     846
       1     847
       1     848
       1     849
       1     850
       1     851
       1     852
       1     853
       1     854
       1     855
       1     856
       1     857
       1     858
       1     859
       1     860
       1     861
       1     862
       1     863
       1     864
       1     865
       1     866
       1     867
       1     868
       1     869
       1     870
       1     871
       1     872
       1     873
       1     874
       1     875
       1     876
       1     877
       1     878
       1     879
       1     880
       1     881
       1     882
       1     883
       1     884
       1     885
       1     886
       1     887
       1     888
       1     889
       1     890
       1     891
       1     892
       1     893
       1     894
       1     895
       1     896
       1     897
       1     898
       1     899
       1     900
       1     901
       1     902
       1     903
       1     904
       1     905
       1     906
       1     907
       1     908
       1     909
       1     910
       1     911
       1     912
       1     913
       1     914
       1     915
       1     916
       1     917
       1     918
       1     919
       1     920
       1     921
       1     922
       1     923
       1     924
       1     925
       1     926
       1     927
       1     928
       1     929
       1     930
       1     931
       1     932
       1     933
       1     934
       1     935
       1     936
       1     937
       1     938
       1     939
       1     940
       1     941
       1     942
       1     943
       1     944
       1     945
       1     946
       1     947
       1     948
       1     949
       1     950
       1     951
       1     952
       1     953
       1     954
       1     955
       1     956
       1     957
       1     958
       1     959
       1     960
       1     961
       1     962
       1     963
       1     964
       1     965
       1     966
       1     967
       1     968
       1     969
       1     970
       1     971
       1     972
       1     973
       1     974
       1     975
       1     976
       1     977
       1     978
       1     979
       1     980
       1     981
       1     982
       1     983
       1     984
       1     985
       1     986
       1     987
       1     988
       1     989
       1     990
       1     991
       1     992
       1     993
       1     994
       1     995
       1     996
       1     997
       1     998
       1     999
       1    1000
       1    1001
       1    1002
       1    1003
       1    1004
       1    1005
       1    1006
       1    1007
       1    1008
       1    1009
       1    1010
       1    1011
       1    1012
       1    1013
       1    1014
       1    1015
       1    1016
       1    1017
       1    1018
       1    1019
       1    1020
       1    1021
       1    1022
       1    1023
       1    1024
       1    1025
       1    1026
       1    1027
       1    1028
       1    1029
       1    1030
       1    1031
       1    1032
       1    1033
       1    1034
       1    1035
       1    1036
       1    1037
       1    1038
       1    1039
       1    1040
       1    1041
       1    1042
       1    1043
       1    1044
       1    1045
       1    1046
       1    1047
       1    1048
       1    1049
       1    1050
       1    1051
       1    1052
       1    1053
       1    1054
       1    1055
       1    1056
       1    1057
       1    1058
       1    1059
       1    1060
       1    1061
       1    1062
       1    1063
       1    1064
       1    1065
       1    1066
       1    1067
       1    1068
       1    1069
       1    1070
       1    1071
       1    1072
       1    1073
       1    1074
       1    1075
       1    1076
       1    1077
       1    1078
       1    1079
       1    1080
       1    1081
       1    1082
       1    1083
       1    1084
       1    1085
       1    1086
       1    1087
       1    1088
       1    1089
       1    1090
       1    1091
       1    1092
       1    1093
       1    1094
       1    1095
       1    1096
       1    1097
       1    1098
       1    1099
       1    1100
       1    1101
       1    1102
       1    1103
       1    1104
       1    1105
       1    1106
       1    1107
       1    1108
       1    1109
       1    1110
       1    1111
       1    1112
       1    1113
       1    1114
       1    1115
       1    1116
       1    1117
       1    1118
       1    1119
       1    1120
       1    1121
       1    1122
       1    1123
       1    1124
       1    1125
       1    1126
       1    1127
       1    1128
       1    1129
       1    1130
       1    1131
       1    1132
       1    1133
       1    1134
       1    1135
       1    1136
       1    1137
       1    1138
       1    1139
       1    1140
       1    1141
       1    1142
       1    1143
       1    1144
       1    1145
       1    1146
       1    1147
       1    1148
       1    1149
       1    1150
       1    1151
       1    1152
       1    1153
       1    1154
       1    1155
       1    1156
       1    1157
       1    1158
       1    1159
       1    1160
       1    1161
       1    1162
       1    1163
       1    1164
       1    1165
       1    1166
       1    1167
       1    1168
       1    1169
       1    1170
       1    1171
       1    1172
       1    1173
       1    1174
       1    1175
       1    1176
       1    1177
       1    1178
       1    1179
       1    1180
       1    1181
       1    1182
       1    1183
       1    1184
       1    1185
       1    1186
       1    1187
       1    1188
       1    1189
       1    1190
       1    1191
       1    1192
       1    1193
       1    1194
       1    1195
       1    1196
       1    1197
       1    1198
       1    1199
       1    1200
       1    1201
       1    1202
       1    1203
       1    1204
       1    1205
       1    1206
       1    1207
       1    1208
       1    1209
       1    1210
       1    1211
       1    1212
       1    1213
       1    1214
       1    1215
       1    1216
       1    1217
       1    1218
       1    1219
       1    1220
       1    1221
       1    1222
       1    1223
       1    1224
       1    1225
       1    1226
       1    1227
       1    1228
       1    1229
       1    1230
       1    1231
       1    1232
       1    1233
       1    1234
       1    1235
       1    1236
       1    1237
       1    1238
       1    1239
       1    1240
       1    1241
       1    1242
       1    1243
       1    1244
       1    1245
       1    1246
       1    1247
       1    1248
       1    1249
       1    1250
       1    1251
       1    1252
       1    1253
       1    1254
       1    1255
       1    1256
       1    1257
       1    1258
       1    1259
       1    1260
       1    1261
       1    1262
       1    1263
       1    1264
       1    1265
       1    1266
       1    1267
       1    1268
       1    1269
       1    1270
       1    1271
       1    1272
       1    1273
       1    1274
       1    1275
       1    1276
       1    1277
       1    1278
       1    1279
       1    1280
       1    1281
       1    1282
       1    1283
       1    1284
       1    1285
       1    1286
       1    1287
       1    1288
       1    1289
       1    1290
       1    1291
       1    1292
       1    1293
       1    1294
       1    1295
       1    1296
       1    1297
       1    1298
       1    1299
       1    1300
       1    1301
       1    1302
       1    1303
       1    1304
       1    1305
       1    1306
       1    1307
       1    1308
       1    1309
       1    1310
       1    1311
       1    1312
       1    1313
       1    1314
       1    1315
       1    1316
       1    1317
       1    1318
       1    1319
       1    1320
       1    1321
       1    1322
       1    1323
       1    1324
       1    1325
       1    1326
       1    1327
       1    1328
       1    1329
       1    1330
       1    1331
       1    1332
       1    1333
       1    1334
       1    1335
       1    1336
       1    1337
       1    1338
       1    1339
       1    1340
       1    1341
       1    1342
       1    1343
       1    1344
       1    1345
       1    1346
       1    1347
       1    1348
       1    1349
       1    1350
       1    1351
       1    1352
       1    1353
       1    1354
       1    1355
       1    1356
       1    1357
       1    1358
       1    1359
       1    1360
       1    1361
       1    1362
       1    1363
       1    1364
       1    1365
       1    1366
       1    1367
       1    1368
       1    1369
       1    1370
       1    1371
       1    1372
       1    1373
       1    1374
       1    1375
       1    1376
       1    1377
       1    1378
       1    1379
       1    1380
       1    1381
       1    1382
       1    1383
       1    1384
       1    1385
       1    1386
       1    1387
       1    1388
       1    1389
       1    1390
       1    1391
       1    1392
       1    1393
       1    1394
       1    1395
       1    1396
       1    1397
       1    1398
       1    1399
       1    1400
       1    1401
       1    1402
       1    1403
       1    1404
       1    1405
       1    1406
       1    1407
       1    1408
       1    1409
       1    1410
       1    1411
       1    1412
       1    1413
       1    1414
       1    1415
       1    1416
       1    1417
       1    1418
       1    1419
       1    1420
       1    1421
       1    1422
       1    1423
       1    1424
       1    1425
       1    1426
       1    1427
       1    1428
       1    1429
       1    1430
       1    1431
       1    1432
       1    1433
       1    1434
       1    1435
       1    1436
       1    1437
       1    1438
       1    1439
       1    1440
       1    1441
       1    1442
       1    1443
       1    1444
       1    1445
       1    1446
       1    1447
       1    1448
       1    1449
       1    1450
       1    1451
       1    1452
       1    1453
       1    1454
       1    1455
       1    1456
       1    1457
       1    1458
       1    1459
       1    1460
       1    1461
       1    1462
       1    1463
       1    1464
       1    1465
       1    1466
       1    1467
       1    1468
       1    1469
       1    1470
       1    1471
       1    1472
       1    1473
       1    1474
       1    1475
       1    1476
       1    1477
       1    1478
       1    1479
       1    1480
       1    1481
       1    1482
       1    1483
       1    1484
       1    1485
       1    1486
       1    1487
       1    1488
       1    1489
       1    1490
       1    1491
       1    1492
       1    1493
       1    1494
       1    1495
       1    1496
       1    1497
       1    1498
       1    1499
       1    1500
       1    1501
       1    1502
       1    1503
       1    1504
       1    1505
       1    1506
       1    1507
       1    1508
       1    1509
       1    1510
       1    1511
       1    1512
       1    1513
       1    1514
       1    1515
       1    1516
       1    1517
       1    1518
       1    1519
       1    1520
       1    1521
       1    1522
       1    1523
       1    1524
       1    1525
       1    1526
       1    1527
       1    1528
       1    1529
       1    1530
       1    1531
       1    1532
       1    1533
       1    1534
       1    1535
       1    1536
       1    1537
       1    1538
       1    1539
       1    1540
       1    1541
       1    1542
       1    1543
       1    1544
       1    1545
       1    1546
       1    1547
       1    1548
       1    1549
       1    1550
       1    1551
       1    1552
       1    1553
       1    1554
       1    1555
       1    1556
       1    1557
       1    1558
       1    1559
       1    1560
       1    1561
       1    1562
       1    1563
       1    1564
       1    1565
       1    1566
       1    1567
       1    1568
       1    1569
       1    1570
       1    1571
       1    1572
       1    1573
       1    1574
       1    1575
       1    1576
       1    1577
       1    1578
       1    1579
       1    1580
       1    1581
       1    1582
       1    1583
       1    1584
       1    1585
       1    1586
       1    1587
       1    1588
       1    1589
       1    1590
       1    1591
       1    1592
       1    1593
       1    1594
       1    1595
       1    1596
       1    1597
       1    1598
       1    1599
       1    1600
       1    1601
       1    1602
       1    1603
       1    1604
       1    1605
       1    1606
       1    1607
       1    1608
       1    1609
       1    1610
       1    1611
       1    1612
       1    1613
       1    1614
       1    1615
       1    1616
       1    1617
       1    1618
       1    1619
       1    1620
       1    1621
       1    1622
       1    1623
       1    1624
       1    1625
       1    1626
       1    1627
       1    1628
       1    1629
       1    1630
       1    1631
       1    1632
       1    1633
       1    1634
       1    1635
       1    1636
       1    1637
       1    1638
       1    1639
       1    1640
       1    1641
       1    1642
       1    1643
       1    1644
       1    1645
       1    1646
       1    1647
       1    1648
       1    1649
       1    1650
       1    1651
       1    1652
       1    1653
       1    1654
       1    1655
       1    1656
       1    1657
       1    1658
       1    1659
       1    1660
       1    1661
       1    1662
       1    1663
       1    1664
       1    1665
       1    1666
       1    1667
       1    1668
       1    1669
       1    1670
       1    1671
       1    1672
       1    1673
       1    1674
       1    1675
       1    1676
       1    1677
       1    1678
       1    1679
       1    1680
       1    1681
       1    1682
       1    1683
       1    1684
       1    1685
       1    1686
       1    1687
       1    1688
       1    1689
       1    1690
       1    1691
       1    1692
       1    1693
       1    1694
       1    1695
       1    1696
       1    1697
       1    1698
       1    1699
       1    1700
       1    1701
       1    1702
       1    1703
       1    1704
       1    1705
       1    1706
       1    1707
       1    1708
       1    1709
       1    1710
       1    1711
       1    1712
       1    1713
       1    1714
       1    1715
       1    1716
       1    1717
       1    1718
       1    1719
       1    1720
       1    1721
       1    1722
       1    1723
       1    1724
       1    1725
       1    1726
       1    1727
       1    1728
       1    1729
       1    1730
       1    1731
       1    1732
       1    1733
       1    1734
       1    1735
       1    1736
       1    1737
       1    1738
       1    1739
       1    1740
       1    1741
       1    1742
       1    1743
       1    1744
       1    1745
       1    1746
       1    1747
       1    1748
       1    1749
       1    1750
       1    1751
       1    1752
       1    1753
       1    1754
       1    1755
       1    1756
       1    1757
       1    1758
       1    1759
       1    1760
       1    1761
       1    1762
       1    1763
       1    1764
       1    1765
       1    1766
       1    1767
       1    1768
       1    1769
       1    1770
       1    1771
       1    1772
       1    1773
       1    1774
       1    1775
       1    1776
       1    1777
       1    1778
       1    1779
       1    1780
       1    1781
       1    1782
       1    1783
       1    1784
       1    1785
       1    1786
       1    1787
       1    1788
       1    1789
       1    1790
       1    1791
       1    1792
       1    1793
       1    1794
       1    1795
       1    1796
       1    1797
       1    1798
       1    1799
       1    1800
       1    1801
       1    1802
       1    1803
       1    1804
       1    1805
       1    1806
       1    1807
       1    1808
       1    1809
       1    1810
       1    1811
       1    1812
       1    1813
       1    1814
       1    1815
       1    1816
       1    1817
       1    1818
       1    1819
       1    1820
       1    1821
       1    1822
       1    1823
       1    1824
       1    1825
       1    1826
       1    1827
       1    1828
       1    1829
       1    1830
       1    1831
       1    1832
       1    1833
       1    1834
       1    1835
       1    1836
       1    1837
       1    1838
       1    1839
       1    1840
       1    1841
       1    1842
       1    1843
       1    1844
       1    1845
       1    1846
       1    1847
       1    1848
       1    1849
       1    1850
       1    1851
       1    1852
       1    1853
       1    1854
       1    1855
       1    1856
       1    1857
       1    1858
       1    1859
       1    1860
       1    1861
       1    1862
       1    1863
       1    1864
       1    1865
       1    1866
       1    1867
       1    1868
       1    1869
       1    1870
       1    1871
       1    1872
       1    1873
       1    1874
       1    1875
       1    1876
       1    1877
       1    1878
       1    1879
       1    1880
       1    1881
       1    1882
       1    1883
       1    1884
       1    1885
       1    1886
       1    1887
       1    1888
       1    1889
       1    1890
       1    1891
       1    1892
       1    1893
       1    1894
       1    1895
       1    1896
       1    1897
       1    1898
       1    1899
       1    1900
       1    1901
       1    1902
       1    1903
       1    1904
       1    1905
       1    1906
       1    1907
       1    1908
       1    1909
       1    1910
       1    1911
       1    1912
       1    1913
       1    1914
       1    1915
       1    1916
       1    1917
       1    1918
       1    1919
       1    1920
       1    1921
       1    1922
       1    1923
       1    1924
       1    1925
       1    1926
       1    1927
       1    1928
       1    1929
       1    1930
       1    1931
       1    1932
       1    1933
       1    1934
       1    1935
       1    1936
       1    1937
       1    1938
       1    1939
       1    1940
       1    1941
       1    1942
       1    1943
       1    1944
       1    1945
       1    1946
       1    1947
       1    1948
       1    1949
       8       0       1       2       3       4       5       6       7
       8       2       8       9       3       6      10      11       7
       8      12       1       0      13      14       5       4      15
       8       0      16      17      13       4      18      19      15
       8      20      21      22      12      23      24      25      14
       8      26      27      21      20      28      29      24      23
       8      13      26      20      12      15      28      23      14
       8      30      31      16      32      33      34      18      35
       8      36      37      31      30      38      39      34      33
       8      40      41      37      36      42      43      39      38
       8      44      40      36      45      46      42      38      47
       8      48      17      16      31      49      19      18      34
       8      30      50      45      36      33      51      47      38
       8       0       3      32      16       4       7      35      18
       8      52      26      13      17      53      28      15      19
       8      54      52      17      48      55      53      19      49
       8      56      54      48      57      58      55      49      59
       8      37      57      48      31      39      59      49      34
       8      60      61      50      30      62      63      51      33
       8      64      60      30      32      65      62      33      35
       8      66      64      32       3      67      65      35       7
       8      68       8       2      69      70      10       6      71
       8      72      69       2       1      73      71       6       5
       8      22      72       1      12      25      73       5      14
       8      74      27      26      52      75      29      28      53
       8      76      74      52      54      77      75      53      55
       8      78      76      54      56      79      77      55      58
       8      80      78      56      81      82      79      58      83
       8      84      81      56      57      85      83      58      59
       8      41      84      57      37      43      85      59      39
       8      86      44      45      50      87      46      47      51
       8      88      86      50      61      89      87      51      63
       8      90      88      61      91      92      89      63      93
       8      94      91      61      60      95      93      63      62
       8      96      94      60      64      97      95      62      65
       8      98      96      64      66      99      97      65      67
       8     100      98      66     101     102      99      67     103
       8       9     101      66       3      11     103      67       7
       8     104     105       8      68     106     107      10      70
       8     108     104      68      69     109     106      70      71
       8     110     108      69      72     111     109      71      73
       8     112     110      72      22     113     111      73      25
       8     114     112      22      21     115     113      25      24
       8     116     114      21      27     117     115      24      29
       8     118     116      27      74     119     117      29      75
       8     120     118      74      76     121     119      75      77
       8     122     120      76      78     123     121      77      79
       8     124     122      78      80     125     123      79      82
       8     126     124      80      81     127     125      82      83
       8     128     126      81      84     129     127      83      85
       8     130     128      84      41     131     129      85      43
       8     132     130      41      40     133     131      43      42
       8     134     132      40      44     135     133      42      46
       8     136     134      44      86     137     135      46      87
       8     138     136      86      88     139     137      87      89
       8     140     138      88      90     141     139      89      92
       8     142     140      90      91     143     141      92      93
       8     144     142      91      94     145     143      93      95
       8     146     144      94      96     147     145      95      97
       8     148     146      96      98     149     147      97      99
       8     150     148      98     100     151     149      99     102
       8     152     150     100     101     153     151     102     103
       8     154     152     101       9     155     153     103      11
       8     105     154       9       8     107     155      11      10
       8     156     157     158     159       0       1       2       3
       8     158     160     161     159       2       8       9       3
       8     162     157     156     163      12       1       0      13
       8     156     164     165     163       0      16      17      13
       8     166     167     168     162      20      21      22      12
       8     169     170     167     166      26      27      21      20
       8     163     169     166     162      13      26      20      12
       8     171     172     164     173      30      31      16      32
       8     174     175     172     171      36      37      31      30
       8     176     177     175     174      40      41      37      36
       8     178     176     174     179      44      40      36      45
       8     180     165     164     172      48      17      16      31
       8     171     181     179     174      30      50      45      36
       8     156     159     173     164       0       3      32      16
       8     182     169     163     165      52      26      13      17
       8     183     182     165     180      54      52      17      48
       8     184     183     180     185      56      54      48      57
       8     175     185     180     172      37      57      48      31
       8     186     187     181     171      60      61      50      30
       8     188     186     171     173      64      60      30      32
       8     189     188     173     159      66      64      32       3
       8     190     160     158     191      68       8       2      69
       8     192     191     158     157      72      69       2       1
       8     168     192     157     162      22      72       1      12
       8     193     170     169     182      74      27      26      52
       8     194     193     182     183      76      74      52      54
       8     195     194     183     184      78      76      54      56
       8     196     195     184     197      80      78      56      81
       8     198     197     184     185      84      81      56      57
       8     177     198     185     175      41      84      57      37
       8     199     178     179     181      86      44      45      50
       8     200     199     181     187      88      86      50      61
       8     201     200     187     202      90      88      61      91
       8     203     202     187     186      94      91      61      60
       8     204     203     186     188      96      94      60      64
       8     205     204     188     189      98      96      64      66
       8     206     205     189     207     100      98      66     101
       8     161     207     189     159       9     101      66       3
       8     208     209     160     190     104     105       8      68
       8     210     208     190     191     108     104      68      69
       8     211     210     191     192     110     108      69      72
       8     212     211     192     168     112     110      72      22
       8     213     212     168     167     114     112      22      21
       8     214     213     167     170     116     114      21      27
       8     215     214     170     193     118     116      27      74
       8     216     215     193     194     120     118      74      76
       8     217     216     194     195     122     120      76      78
       8     218     217     195     196     124     122      78      80
       8     219     218     196     197     126     124      80      81
       8     220     219     197     198     128     126      81      84
       8     221     220     198     177     130     128      84      41
       8     222     221     177     176     132     130      41      40
       8     223     222     176     178     134     132      40      44
       8     224     223     178     199     136     134      44      86
       8     225     224     199     200     138     136      86      88
       8     226     225     200     201     140     138      88      90
       8     227     226     201     202     142     140      90      91
       8     228     227     202     203     144     142      91      94
       8     229     228     203     204     146     144      94      96
       8     230     229     204     205     148     146      96      98
       8     231     230     205     206     150     148      98     100
       8     232     231     206     207     152     150     100     101
       8     233     232     207     161     154     152     101       9
       8     209     233     161     160     105     154       9       8
       8     234     235     236     237     156     157     158     159
       8     236     238     239     237     158     160     161     159
       8     240     235     234     241     162     157     156     163
       8     234     242     243     241     156     164     165     163
       8     244     245     246     240     166     167     168     162
       8     247     248     245     244     169     170     167     166
       8     241     247     244     240     163     169     166     162
       8     249     250     242     251     171     172     164     173
       8     252     253     250     249     174     175     172     171
       8     254     255     253     252     176     177     175     174
       8     256     254     252     257     178     176     174     179
       8     258     243     242     250     180     165     164     172
       8     249     259     257     252     171     181     179     174
       8     234     237     251     242     156     159     173     164
       8     260     247     241     243     182     169     163     165
       8     261     260     243     258     183     182     165     180
       8     262     261     258     263     184     183     180     185
       8     253     263     258     250     175     185     180     172
       8     264     265     259     249     186     187     181     171
       8     266     264     249     251     188     186     171     173
       8     267     266     251     237     189     188     173     159
       8     268     238     236     269     190     160     158     191
       8     270     269     236     235     192     191     158     157
       8     246     270     235     240     168     192     157     162
       8     271     248     247     260     193     170     169     182
       8     272     271     260     261     194     193     182     183
       8     273     272     261     262     195     194     183     184
       8     274     273     262     275     196     195     184     197
       8     276     275     262     263     198     197     184     185
       8     255     276     263     253     177     198     185     175
       8     277     256     257     259     199     178     179     181
       8     278     277     259     265     200     199     181     187
       8     279     278     265     280     201     200     187     202
       8     281     280     265     264     203     202     187     186
       8     282     281     264     266     204     203     186     188
       8     283     282     266     267     205     204     188     189
       8     284     283     267     285     206     205     189     207
       8     239     285     267     237     161     207     189     159
       8     286     287     238     268     208     209     160     190
       8     288     286     268     269     210     208     190     191
       8     289     288     269     270     211     210     191     192
       8     290     289     270     246     212     211     192     168
       8     291     290     246     245     213     212     168     167
       8     292     291     245     248     214     213     167     170
       8     293     292     248     271     215     214     170     193
       8     294     293     271     272     216     215     193     194
       8     295     294     272     273     217     216     194     195
       8     296     295     273     274     218     217     195     196
       8     297     296     274     275     219     218     196     197
       8     298     297     275     276     220     219     197     198
       8     299     298     276     255     221     220     198     177
       8     300     299     255     254     222     221     177     176
       8     301     300     254     256     223     222     176     178
       8     302     301     256     277     224     223     178     199
       8     303     302     277     278     225     224     199     200
       8     304     303     278     279     226     225     200     201
       8     305     304     279     280     227     226     201     202
       8     306     305     280     281     228     227     202     203
       8     307     306     281     282     229     228     203     204
       8     308     307     282     283     230     229     204     205
       8     309     308     283     284     231     230     205     206
       8     310     309     284     285     232     231     206     207
       8     311     310     285     239     233     232     207     161
       8     287     311     239     238     209     233     161     160
       8     312     313     314     315     234     235     236     237
       8     314     316     317     315     236     238     239     237
       8     318     313     312     319     240     235     234     241
       8     312     320     321     319     234     242     243     241
       8     322     323     324     318     244     245     246     240
       8     325     326     323     322     247     248     245     244
       8     319     325     322     318     241     247     244     240
       8     327     328     320     329     249     250     242     251
       8     330     331     328     327     252     253     250     249
       8     332     333     331     330     254     255     253     252
       8     334     332     330     335     256     254     252     257
       8     336     321     320     328     258     243     242     250
       8     327     337     335     330     249     259     257     252
       8     312     315     329     320     234     237     251     242
       8     338     325     319     321     260     247     241     243
       8     339     338     321     336     261     260     243     258
       8     340     339     336     341     262     261     258     263
       8     331     341     336     328     253     263     258     250
       8     342     343     337     327     264     265     259     249
       8     344     342     327     329     266     264     249     251
       8     345     344     329     315     267     266     251     237
       8     346     316     314     347     268     238     236     269
       8     348     347     314     313     270     269     236     235
       8     324     348     313     318     246     270     235     240
       8     349     326     325     338     271     248     247     260
       8     350     349     338     339     272     271     260     261
       8     351     350     339     340     273     272     261     262
       8     352     351     340     353     274     273     262     275
       8     354     353     340     341     276     275     262     263
       8     333     354     341     331     255     276     263     253
       8     355     334     335     337     277     256     257     259
       8     356     355     337     343     278     277     259     265
       8     357     356     343     358     279     278     265     280
       8     359     358     343     342     281     280     265     264
       8     360     359     342     344     282     281     264     266
       8     361     360     344     345     283     282     266     267
       8     362     361     345     363     284     283     267     285
       8     317     363     345     315     239     285     267     237
       8     364     365     316     346     286     287     238     268
       8     366     364     346     347     288     286     268     269
       8     367     366     347     348     289     288     269     270
       8     368     367     348     324     290     289     270     246
       8     369     368     324     323     291     290     246     245
       8     370     369     323     326     292     291     245     248
       8     371     370     326     349     293     292     248     271
       8     372     371     349     350     294     293     271     272
       8     373     372     350     351     295     294     272     273
       8     374     373     351     352     296     295     273     274
       8     375     374     352     353     297     296     274     275
       8     376     375     353     354     298     297     275     276
       8     377     376     354     333     299     298     276     255
       8     378     377     333     332     300     299     255     254
       8     379     378     332     334     301     300     254     256
       8     380     379     334     355     302     301     256     277
       8     381     380     355     356     303     302     277     278
       8     382     381     356     357     304     303     278     279
       8     383     382     357     358     305     304     279     280
       8     384     383     358     359     306     305     280     281
       8     385     384     359     360     307     306     281     282
       8     386     385     360     361     308     307     282     283
       8     387     386     361     362     309     308     283     284
       8     388     387     362     363     310     309     284     285
       8     389     388     363     317     311     310     285     239
       8     365     389     317     316     287     311     239     238
       8     390     391     392     393     312     313     314     315
       8     392     394     395     393     314     316     317     315
       8     396     391     390     397     318     313     312     319
       8     390     398     399     397     312     320     321     319
       8     400     401     402     396     322     323     324     318
       8     403     404     401     400     325     326     323     322
       8     397     403     400     396     319     325     322     318
       8     405     406     398     407     327     328     320     329
       8     408     409     406     405     330     331     328     327
       8     410     411     409     408     332     333     331     330
       8     412     410     408     413     334     332     330     335
       8     414     399     398     406     336     321     320     328
       8     405     415     413     408     327     337     335     330
       8     390     393     407     398     312     315     329     320
       8     416     403     397     399     338     325     319     321
       8     417     416     399     414     339     338     321     336
       8     418     417     414     419     340     339     336     341
       8     409     419     414     406     331     341     336     328
       8     420     421     415     405     342     343     337     327
       8     422     420     405     407     344     342     327     329
       8     423     422     407     393     345     344     329     315
       8     424     394     392     425     346     316     314     347
       8     426     425     392     391     348     347     314     313
       8     402     426     391     396     324     348     313     318
       8     427     404     403     416     349     326     325     338
       8     428     427     416     417     350     349     338     339
       8     429     428     417     418     351     350     339     340
       8     430     429     418     431     352     351     340     353
       8     432     431     418     419     354     353     340     341
       8     411     432     419     409     333     354     341     331
       8     433     412     413     415     355     334     335     337
       8     434     433     415     421     356     355     337     343
       8     435     434     421     436     357     356     343     358
       8     437     436     421     420     359     358     343     342
       8     438     437     420     422     360     359     342     344
       8     439     438     422     423     361     360     344     345
       8     440     439     423     441     362     361     345     363
       8     395     441     423     393     317     363     345     315
       8     442     443     394     424     364     365     316     346
       8     444     442     424     425     366     364     346     347
       8     445     444     425     426     367     366     347     348
       8     446     445     426     402     368     367     348     324
       8     447     446     402     401     369     368     324     323
       8     448     447     401     404     370     369     323     326
       8     449     448     404     427     371     370     326     349
       8     450     449     427     428     372     371     349     350
       8     451     450     428     429     373     372     350     351
       8     452     451     429     430     374     373     351     352
       8     453     452     430     431     375     374     352     353
       8     454     453     431     432     376     375     353     354
       8     455     454     432     411     377     376     354     333
       8     456     455     411     410     378     377     333     332
       8     457     456     410     412     379     378     332     334
       8     458     457     412     433     380     379     334     355
       8     459     458     433     434     381     380     355     356
       8     460     459     434     435     382     381     356     357
       8     461     460     435     436     383     382     357     358
       8     462     461     436     437     384     383     358     359
       8     463     462     437     438     385     384     359     360
       8     464     463     438     439     386     385     360     361
       8     465     464     439     440     387     386     361     362
       8     466     465     440     441     388     387     362     363
       8     467     466     441     395     389     388     363     317
       8     443     467     395     394     365     389     317     316
       8     468     469     470     471     390     391     392     393
       8     470     472     473     471     392     394     395     393
       8     474     469     468     475     396     391     390     397
       8     468     476     477     475     390     398     399     397
       8     478     479     480     474     400     401     402     396
       8     481     482     479     478     403     404     401     400
       8     475     481     478     474     397     403     400     396
       8     483     484     476     485     405     406     398     407
       8     486     487     484     483     408     409     406     405
       8     488     489     487     486     410     411     409     408
       8     490     488     486     491     412     410     408     413
       8     492     477     476     484     414     399     398     406
       8     483     493     491     486     405     415     413     408
       8     468     471     485     476     390     393     407     398
       8     494     481     475     477     416     403     397     399
       8     495     494     477     492     417     416     399     414
       8     496     495     492     497     418     417     414     419
       8     487     497     492     484     409     419     414     406
       8     498     499     493     483     420     421     415     405
       8     500     498     483     485     422     420     405     407
       8     501     500     485     471     423     422     407     393
       8     502     472     470     503     424     394     392     425
       8     504     503     470     469     426     425     392     391
       8     480     504     469     474     402     426     391     396
       8     505     482     481     494     427     404     403     416
       8     506     505     494     495     428     427     416     417
       8     507     506     495     496     429     428     417     418
       8     508     507     496     509     430     429     418     431
       8     510     509     496     497     432     431     418     419
       8     489     510     497     487     411     432     419     409
       8     511     490     491     493     433     412     413     415
       8     512     511     493     499     434     433     415     421
       8     513     512     499     514     435     434     421     436
       8     515     514     499     498     437     436     421     420
       8     516     515     498     500     438     437     420     422
       8     517     516     500     501     439     438     422     423
       8     518     517     501     519     440     439     423     441
       8     473     519     501     471     395     441     423     393
       8     520     521     472     502     442     443     394     424
       8     522     520     502     503     444     442     424     425
       8     523     522     503     504     445     444     425     426
       8     524     523     504     480     446     445     426     402
       8     525     524     480     479     447     446     402     401
       8     526     525     479     482     448     447     401     404
       8     527     526     482     505     449     448     404     427
       8     528     527     505     506     450     449     427     428
       8     529     528     506     507     451     450     428     429
       8     530     529     507     508     452     451     429     430
       8     531     530     508     509     453     452     430     431
       8     532     531     509     510     454     453     431     432
       8     533     532     510     489     455     454     432     411
       8     534     533     489     488     456     455     411     410
       8     535     534     488     490     457     456     410     412
       8     536     535     490     511     458     457     412     433
       8     537     536     511     512     459     458     433     434
       8     538     537     512     513     460     459     434     435
       8     539     538     513     514     461     460     435     436
       8     540     539     514     515     462     461     436     437
       8     541     540     515     516     463     462     437     438
       8     542     541     516     517     464     463     438     439
       8     543     542     517     518     465     464     439     440
       8     544     543     518     519     466     465     440     441
       8     545     544     519     473     467     466     441     395
       8     521     545     473     472     443     467     395     394
       8     546     547     548     549     468     469     470     471
       8     548     550     551     549     470     472     473     471
       8     552     547     546     553     474     469     468     475
       8     546     554     555     553     468     476     477     475
       8     556     557     558     552     478     479     480     474
       8     559     560     557     556     481     482     479     478
       8     553     559     556     552     475     481     478     474
       8     561     562     554     563     483     484     476     485
       8     564     565     562     561     486     487     484     483
       8     566     567     565     564     488     489     487     486
       8     568     566     564     569     490     488     486     491
       8     570     555     554     562     492     477     476     484
       8     561     571     569     564     483     493     491     486
       8     546     549     563     554     468     471     485     476
       8     572     559     553     555     494     481     475     477
       8     573     572     555     570     495     494     477     492
       8     574     573     570     575     496     495     492     497
       8     565     575     570     562     487     497     492     484
       8     576     577     571     561     498     499     493     483
       8     578     576     561     563     500     498     483     485
       8     579     578     563     549     501     500     485     471
       8     580     550     548     581     502     472     470     503
       8     582     581     548     547     504     503     470     469
       8     558     582     547     552     480     504     469     474
       8     583     560     559     572     505     482     481     494
       8     584     583     572     573     506     505     494     495
       8     585     584     573     574     507     506     495     496
       8     586     585     574     587     508     507     496     509
       8     588     587     574     575     510     509     496     497
       8     567     588     575     565     489     510     497     487
       8     589     568     569     571     511     490     491     493
       8     590     589     571     577     512     511     493     499
       8     591     590     577     592     513     512     499     514
       8     593     592     577     576     515     514     499     498
       8     594     593     576     578     516     515     498     500
       8     595     594     578     579     517     516     500     501
       8     596     595     579     597     518     517     501     519
       8     551     597     579     549     473     519     501     471
       8     598     599     550     580     520     521     472     502
       8     600     598     580     581     522     520     502     503
       8     601     600     581     582     523     522     503     504
       8     602     601     582     558     524     523     504     480
       8     603     602     558     557     525     524     480     479
       8     604     603     557     560     526     525     479     482
       8     605     604     560     583     527     526     482     505
       8     606     605     583     584     528     527     505     506
       8     607     606     584     585     529     528     506     507
       8     608     607     585     586     530     529     507     508
       8     609     608     586     587     531     530     508     509
       8     610     609     587     588     532     531     509     510
       8     611     610     588     567     533     532     510     489
       8     612     611     567     566     534     533     489     488
       8     613     612     566     568     535     534     488     490
       8     614     613     568     589     536     535     490     511
       8     615     614     589     590     537     536     511     512
       8     616     615     590     591     538     537     512     513
       8     617     616     591     592     539     538     513     514
       8     618     617     592     593     540     539     514     515
       8     619     618     593     594     541     540     515     516
       8     620     619     594     595     542     541     516     517
       8     621     620     595     596     543     542     517     518
       8     622     621     596     597     544     543     518     519
       8     623     622     597     551     545     544     519     473
       8     599     623     551     550     521     545     473     472
       8     624     625     626     627     546     547     548     549
       8     626     628     629     627     548     550     551     549
       8     630     625     624     631     552     547     546     553
       8     624     632     633     631     546     554     555     553
       8     634     635     636     630     556     557     558     552
       8     637     638     635     634     559     560     557     556
       8     631     637     634     630     553     559     556     552
       8     639     640     632     641     561     562     554     563
       8     642     643     640     639     564     565     562     561
       8     644     645     643     642     566     567     565     564
       8     646     644     642     647     568     566     564     569
       8     648     633     632     640     570     555     554     562
       8     639     649     647     642     561     571     569     564
       8     624     627     641     632     546     549     563     554
       8     650     637     631     633     572     559     553     555
       8     651     650     633     648     573     572     555     570
       8     652     651     648     653     574     573     570     575
       8     643     653     648     640     565     575     570     562
       8     654     655     649     639     576     577     571     561
       8     656     654     639     641     578     576     561     563
       8     657     656     641     627     579     578     563     549
       8     658     628     626     659     580     550     548     581
       8     660     659     626     625     582     581     548     547
       8     636     660     625     630     558     582     547     552
       8     661     638     637     650     583     560     559     572
       8     662     661     650     651     584     583     572     573
       8     663     662     651     652     585     584     573     574
       8     664     663     652     665     586     585     574     587
       8     666     665     652     653     588     587     574     575
       8     645     666     653     643     567     588     575     565
       8     667     646     647     649     589     568     569     571
       8     668     667     649     655     590     589     571     577
       8     669     668     655     670     591     590     577     592
       8     671     670     655     654     593     592     577     576
       8     672     671     654     656     594     593     576     578
       8     673     672     656     657     595     594     578     579
       8     674     673     657     675     596     595     579     597
       8     629     675     657     627     551     597     579     549
       8     676     677     628     658     598     599     550     580
       8     678     676     658     659     600     598     580     581
       8     679     678     659     660     601     600     581     582
       8     680     679     660     636     602     601     582     558
       8     681     680     636     635     603     602     558     557
       8     682     681     635     638     604     603     557     560
       8     683     682     638     661     605     604     560     583
       8     684     683     661     662     606     605     583     584
       8     685     684     662     663     607     606     584     585
       8     686     685     663     664     608     607     585     586
       8     687     686     664     665     609     608     586     587
       8     688     687     665     666     610     609     587     588
       8     689     688     666     645     611     610     588     567
       8     690     689     645     644     612     611     567     566
       8     691     690     644     646     613     612     566     568
       8     692     691     646     667     614     613     568     589
       8     693     692     667     668     615     614     589     590
       8     694     693     668     669     616     615     590     591
       8     695     694     669     670     617     616     591     592
       8     696     695     670     671     618     617     592     593
       8     697     696     671     672     619     618     593     594
       8     698     697     672     673     620     619     594     595
       8     699     698     673     674     621     620     595     596
       8     700     699     674     675     622     621     596     597
       8     701     700     675     629     623     622     597     551
       8     677     701     629     628     599     623     551     550
       8     702     703     704     705     624     625     626     627
       8     704     706     707     705     626     628     629     627
       8     708     703     702     709     630     625     624     631
       8     702     710     711     709     624     632     633     631
       8     712     713     714     708     634     635     636     630
       8     715     716     713     712     637     638     635     634
       8     709     715     712     708     631     637     634     630
       8     717     718     710     719     639     640     632     641
       8     720     721     718     717     642     643     640     639
       8     722     723     721     720     644     645     643     642
       8     724     722     720     725     646     644     642     647
       8     726     711     710     718     648     633     632     640
       8     717     727     725     720     639     649     647     642
       8     702     705     719     710     624     627     641     632
       8     728     715     709     711     650     637     631     633
       8     729     728     711     726     651     650     633     648
       8     730     729     726     731     652     651     648     653
       8     721     731     726     718     643     653     648     640
       8     732     733     727     717     654     655     649     639
       8     734     732     717     719     656     654     639     641
       8     735     734     719     705     657     656     641     627
       8     736     706     704     737     658     628     626     659
       8     738     737     704     703     660     659     626     625
       8     714     738     703     708     636     660     625     630
       8     739     716     715     728     661     638     637     650
       8     740     739     728     729     662     661     650     651
       8     741     740     729     730     663     662     651     652
       8     742     741     730     743     664     663     652     665
       8     744     743     730     731     666     665     652     653
       8     723     744     731     721     645     666     653     643
       8     745     724     725     727     667     646     647     649
       8     746     745     727     733     668     667     649     655
       8     747     746     733     748     669     668     655     670
       8     749     748     733     732     671     670     655     654
       8     750     749     732     734     672     671     654     656
       8     751     750     734     735     673     672     656     657
       8     752     751     735     753     674     673     657     675
       8     707     753     735     705     629     675     657     627
       8     754     755     706     736     676     677     628     658
       8     756     754     736     737     678     676     658     659
       8     757     756     737     738     679     678     659     660
       8     758     757     738     714     680     679     660     636
       8     759     758     714     713     681     680     636     635
       8     760     759     713     716     682     681     635     638
       8     761     760     716     739     683     682     638     661
       8     762     761     739     740     684     683     661     662
       8     763     762     740     741     685     684     662     663
       8     764     763     741     742     686     685     663     664
       8     765     764     742     743     687     686     664     665
       8     766     765     743     744     688     687     665     666
       8     767     766     744     723     689     688     666     645
       8     768     767     723     722     690     689     645     644
       8     769     768     722     724     691     690     644     646
       8     770     769     724     745     692     691     646     667
       8     771     770     745     746     693     692     667     668
       8     772     771     746     747     694     693     668     669
       8     773     772     747     748     695     694     669     670
       8     774     773     748     749     696     695     670     671
       8     775     774     749     750     697     696     671     672
       8     776     775     750     751     698     697     672     673
       8     777     776     751     752     699     698     673     674
       8     778     777     752     753     700     699     674     675
       8     779     778     753     707     701     700     675     629
       8     755     779     707     706     677     701     629     628
       8     780     781     782     783     702     703     704     705
       8     782     784     785     783     704     706     707     705
       8     786     781     780     787     708     703     702     709
       8     780     788     789     787     702     710     711     709
       8     790     791     792     786     712     713     714     708
       8     793     794     791     790     715     716     713     712
       8     787     793     790     786     709     715     712     708
       8     795     796     788     797     717     718     710     719
       8     798     799     796     795     720     721     718     717
       8     800     801     799     798     722     723     721     720
       8     802     800     798     803     724     722     720     725
       8     804     789     788     796     726     711     710     718
       8     795     805     803     798     717     727     725     720
       8     780     783     797     788     702     705     719     710
       8     806     793     787     789     728     715     709     711
       8     807     806     789     804     729     728     711     726
       8     808     807     804     809     730     729     726     731
       8     799     809     804     796     721     731     726     718
       8     810     811     805     795     732     733     727     717
       8     812     810     795     797     734     732     717     719
       8     813     812     797     783     735     734     719     705
       8     814     784     782     815     736     706     704     737
       8     816     815     782     781     738     737     704     703
       8     792     816     781     786     714     738     703     708
       8     817     794     793     806     739     716     715     728
       8     818     817     806     807     740     739     728     729
       8     819     818     807     808     741     740     729     730
       8     820     819     808     821     742     741     730     743
       8     822     821     808     809     744     743     730     731
       8     801     822     809     799     723     744     731     721
       8     823     802     803     805     745     724     725     727
       8     824     823     805     811     746     745     727     733
       8     825     824     811     826     747     746     733     748
       8     827     826     811     810     749     748     733     732
       8     828     827     810     812     750     749     732     734
       8     829     828     812     813     751     750     734     735
       8     830     829     813     831     752     751     735     753
       8     785     831     813     783     707     753     735     705
       8     832     833     784     814     754     755     706     736
       8     834     832     814     815     756     754     736     737
       8     835     834     815     816     757     756     737     738
       8     836     835     816     792     758     757     738     714
       8     837     836     792     791     759     758     714     713
       8     838     837     791     794     760     759     713     716
       8     839     838     794     817     761     760     716     739
       8     840     839     817     818     762     761     739     740
       8     841     840     818     819     763     762     740     741
       8     842     841     819     820     764     763     741     742
       8     843     842     820     821     765     764     742     743
       8     844     843     821     822     766     765     743     744
       8     845     844     822     801     767     766     744     723
       8     846     845     801     800     768     767     723     722
       8     847     846     800     802     769     768     722     724
       8     848     847     802     823     770     769     724     745
       8     849     848     823     824     771     770     745     746
       8     850     849     824     825     772     771     746     747
       8     851     850     825     826     773     772     747     748
       8     852     851     826     827     774     773     748     749
       8     853     852     827     828     775     774     749     750
       8     854     853     828     829     776     775     750     751
       8     855     854     829     830     777     776     751     752
       8     856     855     830     831     778     777     752     753
       8     857     856     831     785     779     778     753     707
       8     833     857     785     784     755     779     707     706
       8     858     859     860     861     780     781     782     783
       8     860     862     863     861     782     784     785     783
       8     864     859     858     865     786     781     780     787
       8     858     866     867     865     780     788     789     787
       8     868     869     870     864     790     791     792     786
       8     871     872     869     868     793     794     791     790
       8     865     871     868     864     787     793     790     786
       8     873     874     866     875     795     796     788     797
       8     876     877     874     873     798     799     796     795
       8     878     879     877     876     800     801     799     798
       8     880     878     876     881     802     800     798     803
       8     882     867     866     874     804     789     788     796
       8     873     883     881     876     795     805     803     798
       8     858     861     875     866     780     783     797     788
       8     884     871     865     867     806     793     787     789
       8     885     884     867     882     807     806     789     804
       8     886     885     882     887     808     807     804     809
       8     877     887     882     874     799     809     804     796
       8     888     889     883     873     810     811     805     795
       8     890     888     873     875     812     810     795     797
       8     891     890     875     861     813     812     797     783
       8     892     862     860     893     814     784     782     815
       8     894     893     860     859     816     815     782     781
       8     870     894     859     864     792     816     781     786
       8     895     872     871     884     817     794     793     806
       8     896     895     884     885     818     817     806     807
       8     897     896     885     886     819     818     807     808
       8     898     897     886     899     820     819     808     821
       8     900     899     886     887     822     821     808     809
       8     879     900     887     877     801     822     809     799
       8     901     880     881     883     823     802     803     805
       8     902     901     883     889     824     823     805     811
       8     903     902     889     904     825     824     811     826
       8     905     904     889     888     827     826     811     810
       8     906     905     888     890     828     827     810     812
       8     907     906     890     891     829     828     812     813
       8     908     907     891     909     830     829     813     831
       8     863     909     891     861     785     831     813     783
       8     910     911     862     892     832     833     784     814
       8     912     910     892     893     834     832     814     815
       8     913     912     893     894     835     834     815     816
       8     914     913     894     870     836     835     816     792
       8     915     914     870     869     837     836     792     791
       8     916     915     869     872     838     837     791     794
       8     917     916     872     895     839     838     794     817
       8     918     917     895     896     840     839     817     818
       8     919     918     896     897     841     840     818     819
       8     920     919     897     898     842     841     819     820
       8     921     920     898     899     843     842     820     821
       8     922     921     899     900     844     843     821     822
       8     923     922     900     879     845     844     822     801
       8     924     923     879     878     846     845     801     800
       8     925     924     878     880     847     846     800     802
       8     926     925     880     901     848     847     802     823
       8     927     926     901     902     849     848     823     824
       8     928     927     902     903     850     849     824     825
       8     929     928     903     904     851     850     825     826
       8     930     929     904     905     852     851     826     827
       8     931     930     905     906     853     852     827     828
       8     932     931     906     907     854     853     828     829
       8     933     932     907     908     855     854     829     830
       8     934     933     908     909     856     855     830     831
       8     935     934     909     863     857     856     831     785
       8     911     935     863     862     833     857     785     784
       8     936     937     938     939     858     859     860     861
       8     938     940     941     939     860     862     863     861
       8     942     937     936     943     864     859     858     865
       8     936     944     945     943     858     866     867     865
       8     946     947     948     942     868     869     870     864
       8     949     950     947     946     871     872     869     868
       8     943     949     946     942     865     871     868     864
       8     951     952     944     953     873     874     866     875
       8     954     955     952     951     876     877     874     873
       8     956     957     955     954     878     879     877     876
       8     958     956     954     959     880     878     876     881
       8     960     945     944     952     882     867     866     874
       8     951     961     959     954     873     883     881     876
       8     936     939     953     944     858     861     875     866
       8     962     949     943     945     884     871     865     867
       8     963     962     945     960     885     884     867     882
       8     964     963     960     965     886     885     882     887
       8     955     965     960     952     877     887     882     874
       8     966     967     961     951     888     889     883     873
       8     968     966     951     953     890     888     873     875
       8     969     968     953     939     891     890     875     861
       8     970     940     938     971     892     862     860     893
       8     972     971     938     937     894     893     860     859
       8     948     972     937     942     870     894     859     864
       8     973     950     949     962     895     872     871     884
       8     974     973     962     963     896     895     884     885
       8     975     974     963     964     897     896     885     886
       8     976     975     964     977     898     897     886     899
       8     978     977     964     965     900     899     886     887
       8     957     978     965     955     879     900     887     877
       8     979     958     959     961     901     880     881     883
       8     980     979     961     967     902     901     883     889
       8     981     980     967     982     903     902     889     904
       8     983     982     967     966     905     904     889     888
       8     984     983     966     968     906     905     888     890
       8     985     984     968     969     907     906     890     891
       8     986     985     969     987     908     907     891     909
       8     941     987     969     939     863     909     891     861
       8     988     989     940     970     910     911     862     892
       8     990     988     970     971     912     910     892     893
       8     991     990     971     972     913     912     893     894
       8     992     991     972     948     914     913     894     870
       8     993     992     948     947     915     914     870     869
       8     994     993     947     950     916     915     869     872
       8     995     994     950     973     917     916     872     895
       8     996     995     973     974     918     917     895     896
       8     997     996     974     975     919     918     896     897
       8     998     997     975     976     920     919     897     898
       8     999     998     976     977     921     920     898     899
       8    1000     999     977     978     922     921     899     900
       8    1001    1000     978     957     923     922     900     879
       8    1002    1001     957     956     924     923     879     878
       8    1003    1002     956     958     925     924     878     880
       8    1004    1003     958     979     926     925     880     901
       8    1005    1004     979     980     927     926     901     902
       8    1006    1005     980     981     928     927     902     903
       8    1007    1006     981     982     929     928     903     904
       8    1008    1007     982     983     930     929     904     905
       8    1009    1008     983     984     931     930     905     906
       8    1010    1009     984     985     932     931     906     907
       8    1011    1010     985     986     933     932     907     908
       8    1012    1011     986     987     934     933     908     909
       8    1013    1012     987     941     935     934     909     863
       8     989    1013     941     940     911     935     863     862
       8    1014    1015    1016    1017     936     937     938     939
       8    1016    1018    1019    1017     938     940     941     939
       8    1020    1015    1014    1021     942     937     936     943
       8    1014    1022    1023    1021     936     944     945     943
       8    1024    1025    1026    1020     946     947     948     942
       8    1027    1028    1025    1024     949     950     947     946
       8    1021    1027    1024    1020     943     949     946     942
       8    1029    1030    1022    1031     951     952     944     953
       8    1032    1033    1030    1029     954     955     952     951
       8    1034    1035    1033    1032     956     957     955     954
       8    1036    1034    1032    1037     958     956     954     959
       8    1038    1023    1022    1030     960     945     944     952
       8    1029    1039    1037    1032     951     961     959     954
       8    1014    1017    1031    1022     936     939     953     944
       8    1040    1027    1021    1023     962     949     943     945
       8    1041    1040    1023    1038     963     962     945     960
       8    1042    1041    1038    1043     964     963     960     965
       8    1033    1043    1038    1030     955     965     960     952
       8    1044    1045    1039    1029     966     967     961     951
       8    1046    1044    1029    1031     968     966     951     953
       8    1047    1046    1031    1017     969     968     953     939
       8    1048    1018    1016    1049     970     940     938     971
       8    1050    1049    1016    1015     972     971     938     937
       8    1026    1050    1015    1020     948     972     937     942
       8    1051    1028    1027    1040     973     950     949     962
       8    1052    1051    1040    1041     974     973     962     963
       8    1053    1052    1041    1042     975     974     963     964
       8    1054    1053    1042    1055     976     975     964     977
       8    1056    1055    1042    1043     978     977     964     965
       8    1035    1056    1043    1033     957     978     965     955
       8    1057    1036    1037    1039     979     958     959     961
       8    1058    1057    1039    1045     980     979     961     967
       8    1059    1058    1045    1060     981     980     967     982
       8    1061    1060    1045    1044     983     982     967     966
       8    1062    1061    1044    1046     984     983     966     968
       8    1063    1062    1046    1047     985     984     968     969
       8    1064    1063    1047    1065     986     985     969     987
       8    1019    1065    1047    1017     941     987     969     939
       8    1066    1067    1018    1048     988     989     940     970
       8    1068    1066    1048    1049     990     988     970     971
       8    1069    1068    1049    1050     991     990     971     972
       8    1070    1069    1050    1026     992     991     972     948
       8    1071    1070    1026    1025     993     992     948     947
       8    1072    1071    1025    1028     994     993     947     950
       8    1073    1072    1028    1051     995     994     950     973
       8    1074    1073    1051    1052     996     995     973     974
       8    1075    1074    1052    1053     997     996     974     975
       8    1076    1075    1053    1054     998     997     975     976
       8    1077    1076    1054    1055     999     998     976     977
       8    1078    1077    1055    1056    1000     999     977     978
       8    1079    1078    1056    1035    1001    1000     978     957
       8    1080    1079    1035    1034    1002    1001     957     956
       8    1081    1080    1034    1036    1003    1002     956     958
       8    1082    1081    1036    1057    1004    1003     958     979
       8    1083    1082    1057    1058    1005    1004     979     980
       8    1084    1083    1058    1059    1006    1005     980     981
       8    1085    1084    1059    1060    1007    1006     981     982
       8    1086    1085    1060    1061    1008    1007     982     983
       8    1087    1086    1061    1062    1009    1008     983     984
       8    1088    1087    1062    1063    1010    1009     984     985
       8    1089    1088    1063    1064    1011    1010     985     986
       8    1090    1089    1064    1065    1012    1011     986     987
       8    1091    1090    1065    1019    1013    1012     987     941
       8    1067    1091    1019    1018     989    1013     941     940
       8    1092    1093    1094    1095    1014    1015    1016    1017
       8    1094    1096    1097    1095    1016    1018    1019    1017
       8    1098    1093    1092    1099    1020    1015    1014    1021
       8    1092    1100    1101    1099    1014    1022    1023    1021
       8    1102    1103    1104    1098    1024    1025    1026    1020
       8    1105    1106    1103    1102    1027    1028    1025    1024
       8    1099    1105    1102    1098    1021    1027    1024    1020
       8    1107    1108    1100    1109    1029    1030    1022    1031
       8    1110    1111    1108    1107    1032    1033    1030    1029
       8    1112    1113    1111    1110    1034    1035    1033    1032
       8    1114    1112    1110    1115    1036    1034    1032    1037
       8    1116    1101    1100    1108    1038    1023    1022    1030
       8    1107    1117    1115    1110    1029    1039    1037    1032
       8    1092    1095    1109    1100    1014    1017    1031    1022
       8    1118    1105    1099    1101    1040    1027    1021    1023
       8    1119    1118    1101    1116    1041    1040    1023    1038
       8    1120    1119    1116    1121    1042    1041    1038    1043
       8    1111    1121    1116    1108    1033    1043    1038    1030
       8    1122    1123    1117    1107    1044    1045    1039    1029
       8    1124    1122    1107    1109    1046    1044    1029    1031
       8    1125    1124    1109    1095    1047    1046    1031    1017
       8    1126    1096    1094    1127    1048    1018    1016    1049
       8    1128    1127    1094    1093    1050    1049    1016    1015
       8    1104    1128    1093    1098    1026    1050    1015    1020
       8    1129    1106    1105    1118    1051    1028    1027    1040
       8    1130    1129    1118    1119    1052    1051    1040    1041
       8    1131    1130    1119    1120    1053    1052    1041    1042
       8    1132    1131    1120    1133    1054    1053    1042    1055
       8    1134    1133    1120    1121    1056    1055    1042    1043
       8    1113    1134    1121    1111    1035    1056    1043    1033
       8    1135    1114    1115    1117    1057    1036    1037    1039
       8    1136    1135    1117    1123    1058    1057    1039    1045
       8    1137    1136    1123    1138    1059    1058    1045    1060
       8    1139    1138    1123    1122    1061    1060    1045    1044
       8    1140    1139    1122    1124    1062    1061    1044    1046
       8    1141    1140    1124    1125    1063    1062    1046    1047
       8    1142    1141    1125    1143    1064    1063    1047    1065
       8    1097    1143    1125    1095    1019    1065    1047    1017
       8    1144    1145    1096    1126    1066    1067    1018    1048
       8    1146    1144    1126    1127    1068    1066    1048    1049
       8    1147    1146    1127    1128    1069    1068    1049    1050
       8    1148    1147    1128    1104    1070    1069    1050    1026
       8    1149    1148    1104    1103    1071    1070    1026    1025
       8    1150    1149    1103    1106    1072    1071    1025    1028
       8    1151    1150    1106    1129    1073    1072    1028    1051
       8    1152    1151    1129    1130    1074    1073    1051    1052
       8    1153    1152    1130    1131    1075    1074    1052    1053
       8    1154    1153    1131    1132    1076    1075    1053    1054
       8    1155    1154    1132    1133    1077    1076    1054    1055
       8    1156    1155    1133    1134    1078    1077    1055    1056
       8    1157    1156    1134    1113    1079    1078    1056    1035
       8    1158    1157    1113    1112    1080    1079    1035    1034
       8    1159    1158    1112    1114    1081    1080    1034    1036
       8    1160    1159    1114    1135    1082    1081    1036    1057
       8    1161    1160    1135    1136    1083    1082    1057    1058
       8    1162    1161    1136    1137    1084    1083    1058    1059
       8    1163    1162    1137    1138    1085    1084    1059    1060
       8    1164    1163    1138    1139    1086    1085    1060    1061
       8    1165    1164    1139    1140    1087    1086    1061    1062
       8    1166    1165    1140    1141    1088    1087    1062    1063
       8    1167    1166    1141    1142    1089    1088    1063    1064
       8    1168    1167    1142    1143    1090    1089    1064    1065
       8    1169    1168    1143    1097    1091    1090    1065    1019
       8    1145    1169    1097    1096    1067    1091    1019    1018
       8    1170    1171    1172    1173    1092    1093    1094    1095
       8    1172    1174    1175    1173    1094    1096    1097    1095
       8    1176    1171    1170    1177    1098    1093    1092    1099
       8    1170    1178    1179    1177    1092    1100    1101    1099
       8    1180    1181    1182    1176    1102    1103    1104    1098
       8    1183    1184    1181    1180    1105    1106    1103    1102
       8    1177    1183    1180    1176    1099    1105    1102    1098
       8    1185    1186    1178    1187    1107    1108    1100    1109
       8    1188    1189    1186    1185    1110    1111    1108    1107
       8    1190    1191    1189    1188    1112    1113    1111    1110
       8    1192    1190    1188    1193    1114    1112    1110    1115
       8    1194    1179    1178    1186    1116    1101    1100    1108
       8    1185    1195    1193    1188    1107    1117    1115    1110
       8    1170    1173    1187    1178    1092    1095    1109    1100
       8    1196    1183    1177    1179    1118    1105    1099    1101
       8    1197    1196    1179    1194    1119    1118    1101    1116
       8    1198    1197    1194    1199    1120    1119    1116    1121
       8    1189    1199    1194    1186    1111    1121    1116    1108
       8    1200    1201    1195    1185    1122    1123    1117    1107
       8    1202    1200    1185    1187    1124    1122    1107    1109
       8    1203    1202    1187    1173    1125    1124    1109    1095
       8    1204    1174    1172    1205    1126    1096    1094    1127
       8    1206    1205    1172    1171    1128    1127    1094    1093
       8    1182    1206    1171    1176    1104    1128    1093    1098
       8    1207    1184    1183    1196    1129    1106    1105    1118
       8    1208    1207    1196    1197    1130    1129    1118    1119
       8    1209    1208    1197    1198    1131    1130    1119    1120
       8    1210    1209    1198    1211    1132    1131    1120    1133
       8    1212    1211    1198    1199    1134    1133    1120    1121
       8    1191    1212    1199    1189    1113    1134    1121    1111
       8    1213    1192    1193    1195    1135    1114    1115    1117
       8    1214    1213    1195    1201    1136    1135    1117    1123
       8    1215    1214    1201    1216    1137    1136    1123    1138
       8    1217    1216    1201    1200    1139    1138    1123    1122
       8    1218    1217    1200    1202    1140    1139    1122    1124
       8    1219    1218    1202    1203    1141    1140    1124    1125
       8    1220    1219    1203    1221    1142    1141    1125    1143
       8    1175    1221    1203    1173    1097    1143    1125    1095
       8    1222    1223    1174    1204    1144    1145    1096    1126
       8    1224    1222    1204    1205    1146    1144    1126    1127
       8    1225    1224    1205    1206    1147    1146    1127    1128
       8    1226    1225    1206    1182    1148    1147    1128    1104
       8    1227    1226    1182    1181    1149    1148    1104    1103
       8    1228    1227    1181    1184    1150    1149    1103    1106
       8    1229    1228    1184    1207    1151    1150    1106    1129
       8    1230    1229    1207    1208    1152    1151    1129    1130
       8    1231    1230    1208    1209    1153    1152    1130    1131
       8    1232    1231    1209    1210    1154    1153    1131    1132
       8    1233    1232    1210    1211    1155    1154    1132    1133
       8    1234    1233    1211    1212    1156    1155    1133    1134
       8    1235    1234    1212    1191    1157    1156    1134    1113
       8    1236    1235    1191    1190    1158    1157    1113    1112
       8    1237    1236    1190    1192    1159    1158    1112    1114
       8    1238    1237    1192    1213    1160    1159    1114    1135
       8    1239    1238    1213    1214    1161    1160    1135    1136
       8    1240    1239    1214    1215    1162    1161    1136    1137
       8    1241    1240    1215    1216    1163    1162    1137    1138
       8    1242    1241    1216    1217    1164    1163    1138    1139
       8    1243    1242    1217    1218    1165    1164    1139    1140
       8    1244    1243    1218    1219    1166    1165    1140    1141
       8    1245    1244    1219    1220    1167    1166    1141    1142
       8    1246    1245    1220    1221    1168    1167    1142    1143
       8    1247    1246    1221    1175    1169    1168    1143    1097
       8    1223    1247    1175    1174    1145    1169    1097    1096
       8    1248    1249    1250    1251    1170    1171    1172    1173
       8    1250    1252    1253    1251    1172    1174    1175    1173
       8    1254    1249    1248    1255    1176    1171    1170    1177
       8    1248    1256    1257    1255    1170    1178    1179    1177
       8    1258    1259    1260    1254    1180    1181    1182    1176
       8    1261    1262    1259    1258    1183    1184    1181    1180
       8    1255    1261    1258    1254    1177    1183    1180    1176
       8    1263    1264    1256    1265    1185    1186    1178    1187
       8    1266    1267    1264    1263    1188    1189    1186    1185
       8    1268    1269    1267    1266    1190    1191    1189    1188
       8    1270    1268    1266    1271    1192    1190    1188    1193
       8    1272    1257    1256    1264    1194    1179    1178    1186
       8    1263    1273    1271    1266    1185    1195    1193    1188
       8    1248    1251    1265    1256    1170    1173    1187    1178
       8    1274    1261    1255    1257    1196    1183    1177    1179
       8    1275    1274    1257    1272    1197    1196    1179    1194
       8    1276    1275    1272    1277    1198    1197    1194    1199
       8    1267    1277    1272    1264    1189    1199    1194    1186
       8    1278    1279    1273    1263    1200    1201    1195    1185
       8    1280    1278    1263    1265    1202    1200    1185    1187
       8    1281    1280    1265    1251    1203    1202    1187    1173
       8    1282    1252    1250    1283    1204    1174    1172    1205
       8    1284    1283    1250    1249    1206    1205    1172    1171
       8    1260    1284    1249    1254    1182    1206    1171    1176
       8    1285    1262    1261    1274    1207    1184    1183    1196
       8    1286    1285    1274    1275    1208    1207    1196    1197
       8    1287    1286    1275    1276    1209    1208    1197    1198
       8    1288    1287    1276    1289    1210    1209    1198    1211
       8    1290    1289    1276    1277    1212    1211    1198    1199
       8    1269    1290    1277    1267    1191    1212    1199    1189
       8    1291    1270    1271    1273    1213    1192    1193    1195
       8    1292    1291    1273    1279    1214    1213    1195    1201
       8    1293    1292    1279    1294    1215    1214    1201    1216
       8    1295    1294    1279    1278    1217    1216    1201    1200
       8    1296    1295    1278    1280    1218    1217    1200    1202
       8    1297    1296    1280    1281    1219    1218    1202    1203
       8    1298    1297    1281    1299    1220    1219    1203    1221
       8    1253    1299    1281    1251    1175    1221    1203    1173
       8    1300    1301    1252    1282    1222    1223    1174    1204
       8    1302    1300    1282    1283    1224    1222    1204    1205
       8    1303    1302    1283    1284    1225    1224    1205    1206
       8    1304    1303    1284    1260    1226    1225    1206    1182
       8    1305    1304    1260    1259    1227    1226    1182    1181
       8    1306    1305    1259    1262    1228    1227    1181    1184
       8    1307    1306    1262    1285    1229    1228    1184    1207
       8    1308    1307    1285    1286    1230    1229    1207    1208
       8    1309    1308    1286    1287    1231    1230    1208    1209
       8    1310    1309    1287    1288    1232    1231    1209    1210
       8    1311    1310    1288    1289    1233    1232    1210    1211
       8    1312    1311    1289    1290    1234    1233    1211    1212
       8    1313    1312    1290    1269    1235    1234    1212    1191
       8    1314    1313    1269    1268    1236    1235    1191    1190
       8    1315    1314    1268    1270    1237    1236    1190    1192
       8    1316    1315    1270    1291    1238    1237    1192    1213
       8    1317    1316    1291    1292    1239    1238    1213    1214
       8    1318    1317    1292    1293    1240    1239    1214    1215
       8    1319    1318    1293    1294    1241    1240    1215    1216
       8    1320    1319    1294    1295    1242    1241    1216    1217
       8    1321    1320    1295    1296    1243    1242    1217    1218
       8    1322    1321    1296    1297    1244    1243    1218    1219
       8    1323    1322    1297    1298    1245    1244    1219    1220
       8    1324    1323    1298    1299    1246    1245    1220    1221
       8    1325    1324    1299    1253    1247    1246    1221    1175
       8    1301    1325    1253    1252    1223    1247    1175    1174
       8    1326    1327    1328    1329    1248    1249    1250    1251
       8    1328    1330    1331    1329    1250    1252    1253    1251
       8    1332    1327    1326    1333    1254    1249    1248    1255
       8    1326    1334    1335    1333    1248    1256    1257    1255
       8    1336    1337    1338    1332    1258    1259    1260    1254
       8    1339    1340    1337    1336    1261    1262    1259    1258
       8    1333    1339    1336    1332    1255    1261    1258    1254
       8    1341    1342    1334    1343    1263    1264    1256    1265
       8    1344    1345    1342    1341    1266    1267    1264    1263
       8    1346    1347    1345    1344    1268    1269    1267    1266
       8    1348    1346    1344    1349    1270    1268    1266    1271
       8    1350    1335    1334    1342    1272    1257    1256    1264
       8    1341    1351    1349    1344    1263    1273    1271    1266
       8    1326    1329    1343    1334    1248    1251    1265    1256
       8    1352    1339    1333    1335    1274    1261    1255    1257
       8    1353    1352    1335    1350    1275    1274    1257    1272
       8    1354    1353    1350    1355    1276    1275    1272    1277
       8    1345    1355    1350    1342    1267    1277    1272    1264
       8    1356    1357    1351    1341    1278    1279    1273    1263
       8    1358    1356    1341    1343    1280    1278    1263    1265
       8    1359    1358    1343    1329    1281    1280    1265    1251
       8    1360    1330    1328    1361    1282    1252    1250    1283
       8    1362    1361    1328    1327    1284    1283    1250    1249
       8    1338    1362    1327    1332    1260    1284    1249    1254
       8    1363    1340    1339    1352    1285    1262    1261    1274
       8    1364    1363    1352    1353    1286    1285    1274    1275
       8    1365    1364    1353    1354    1287    1286    1275    1276
       8    1366    1365    1354    1367    1288    1287    1276    1289
       8    1368    1367    1354    1355    1290    1289    1276    1277
       8    1347    1368    1355    1345    1269    1290    1277    1267
       8    1369    1348    1349    1351    1291    1270    1271    1273
       8    1370    1369    1351    1357    1292    1291    1273    1279
       8    1371    1370    1357    1372    1293    1292    1279    1294
       8    1373    1372    1357    1356    1295    1294    1279    1278
       8    1374    1373    1356    1358    1296    1295    1278    1280
       8    1375    1374    1358    1359    1297    1296    1280    1281
       8    1376    1375    1359    1377    1298    1297    1281    1299
       8    1331    1377    1359    1329    1253    1299    1281    1251
       8    1378    1379    1330    1360    1300    1301    1252    1282
       8    1380    1378    1360    1361    1302    1300    1282    1283
       8    1381    1380    1361    1362    1303    1302    1283    1284
       8    1382    1381    1362    1338    1304    1303    1284    1260
       8    1383    1382    1338    1337    1305    1304    1260    1259
       8    1384    1383    1337    1340    1306    1305    1259    1262
       8    1385    1384    1340    1363    1307    1306    1262    1285
       8    1386    1385    1363    1364    1308    1307    1285    1286
       8    1387    1386    1364    1365    1309    1308    1286    1287
       8    1388    1387    1365    1366    1310    1309    1287    1288
       8    1389    1388    1366    1367    1311    1310    1288    1289
       8    1390    1389    1367    1368    1312    1311    1289    1290
       8    1391    1390    1368    1347    1313    1312    1290    1269
       8    1392    1391    1347    1346    1314    1313    1269    1268
       8    1393    1392    1346    1348    1315    1314    1268    1270
       8    1394    1393    1348    1369    1316    1315    1270    1291
       8    1395    1394    1369    1370    1317    1316    1291    1292
       8    1396    1395    1370    1371    1318    1317    1292    1293
       8    1397    1396    1371    1372    1319    1318    1293    1294
       8    1398    1397    1372    1373    1320    1319    1294    1295
       8    1399    1398    1373    1374    1321    1320    1295    1296
       8    1400    1399    1374    1375    1322    1321    1296    1297
       8    1401    1400    1375    1376    1323    1322    1297    1298
       8    1402    1401    1376    1377    1324    1323    1298    1299
       8    1403    1402    1377    1331    1325    1324    1299    1253
       8    1379    1403    1331    1330    1301    1325    1253    1252
       8    1404    1405    1406    1407    1326    1327    1328    1329
       8    1406    1408    1409    1407    1328    1330    1331    1329
       8    1410    1405    1404    1411    1332    1327    1326    1333
       8    1404    1412    1413    1411    1326    1334    1335    1333
       8    1414    1415    1416    1410    1336    1337    1338    1332
       8    1417    1418    1415    1414    1339    1340    1337    1336
       8    1411    1417    1414    1410    1333    1339    1336    1332
       8    1419    1420    1412    1421    1341    1342    1334    1343
       8    1422    1423    1420    1419    1344    1345    1342    1341
       8    1424    1425    1423    1422    1346    1347    1345    1344
       8    1426    1424    1422    1427    1348    1346    1344    1349
       8    1428    1413    1412    1420    1350    1335    1334    1342
       8    1419    1429    1427    1422    1341    1351    1349    1344
       8    1404    1407    1421    1412    1326    1329    1343    1334
       8    1430    1417    1411    1413    1352    1339    1333    1335
       8    1431    1430    1413    1428    1353    1352    1335    1350
       8    1432    1431    1428    1433    1354    1353    1350    1355
       8    1423    1433    1428    1420    1345    1355    1350    1342
       8    1434    1435    1429    1419    1356    1357    1351    1341
       8    1436    1434    1419    1421    1358    1356    1341    1343
       8    1437    1436    1421    1407    1359    1358    1343    1329
       8    1438    1408    1406    1439    1360    1330    1328    1361
       8    1440    1439    1406    1405    1362    1361    1328    1327
       8    1416    1440    1405    1410    1338    1362    1327    1332
       8    1441    1418    1417    1430    1363    1340    1339    1352
       8    1442    1441    1430    1431    1364    1363    1352    1353
       8    1443    1442    1431    1432    1365    1364    1353    1354
       8    1444    1443    1432    1445    1366    1365    1354    1367
       8    1446    1445    1432    1433    1368    1367    1354    1355
       8    1425    1446    1433    1423    1347    1368    1355    1345
       8    1447    1426    1427    1429    1369    1348    1349    1351
       8    1448    1447    1429    1435    1370    1369    1351    1357
       8    1449    1448    1435    1450    1371    1370    1357    1372
       8    1451    1450    1435    1434    1373    1372    1357    1356
       8    1452    1451    1434    1436    1374    1373    1356    1358
       8    1453    1452    1436    1437    1375    1374    1358    1359
       8    1454    1453    1437    1455    1376    1375    1359    1377
       8    1409    1455    1437    1407    1331    1377    1359    1329
       8    1456    1457    1408    1438    1378    1379    1330    1360
       8    1458    1456    1438    1439    1380    1378    1360    1361
       8    1459    1458    1439    1440    1381    1380    1361    1362
       8    1460    1459    1440    1416    1382    1381    1362    1338
       8    1461    1460    1416    1415    1383    1382    1338    1337
       8    1462    1461    1415    1418    1384    1383    1337    1340
       8    1463    1462    1418    1441    1385    1384    1340    1363
       8    1464    1463    1441    1442    1386    1385    1363    1364
       8    1465    1464    1442    1443    1387    1386    1364    1365
       8    1466    1465    1443    1444    1388    1387    1365    1366
       8    1467    1466    1444    1445    1389    1388    1366    1367
       8    1468    1467    1445    1446    1390    1389    1367    1368
       8    1469    1468    1446    1425    1391    1390    1368    1347
       8    1470    1469    1425    1424    1392    1391    1347    1346
       8    1471    1470    1424    1426    1393    1392    1346    1348
       8    1472    1471    1426    1447    1394    1393    1348    1369
       8    1473    1472    1447    1448    1395    1394    1369    1370
       8    1474    1473    1448    1449    1396    1395    1370    1371
       8    1475    1474    1449    1450    1397    1396    1371    1372
       8    1476    1475    1450    1451    1398    1397    1372    1373
       8    1477    1476    1451    1452    1399    1398    1373    1374
       8    1478    1477    1452    1453    1400    1399    1374    1375
       8    1479    1478    1453    1454    1401    1400    1375    1376
       8    1480    1479    1454    1455    1402    1401    1376    1377
       8    1481    1480    1455    1409    1403    1402    1377    1331
       8    1457    1481    1409    1408    1379    1403    1331    1330
       8    1482    1483    1484    1485    1404    1405    1406    1407
       8    1484    1486    1487    1485    1406    1408    1409    1407
       8    1488    1483    1482    1489    1410    1405    1404    1411
       8    1482    1490    1491    1489    1404    1412    1413    1411
       8    1492    1493    1494    1488    1414    1415    1416    1410
       8    1495    1496    1493    1492    1417    1418    1415    1414
       8    1489    1495    1492    1488    1411    1417    1414    1410
       8    1497    1498    1490    1499    1419    1420    1412    1421
       8    1500    1501    1498    1497    1422    1423    1420    1419
       8    1502    1503    1501    1500    1424    1425    1423    1422
       8    1504    1502    1500    1505    1426    1424    1422    1427
       8    1506    1491    1490    1498    1428    1413    1412    1420
       8    1497    1507    1505    1500    1419    1429    1427    1422
       8    1482    1485    1499    1490    1404    1407    1421    1412
       8    1508    1495    1489    1491    1430    1417    1411    1413
       8    1509    1508    1491    1506    1431    1430    1413    1428
       8    1510    1509    1506    1511    1432    1431    1428    1433
       8    1501    1511    1506    1498    1423    1433    1428    1420
       8    1512    1513    1507    1497    1434    1435    1429    1419
       8    1514    1512    1497    1499    1436    1434    1419    1421
       8    1515    1514    1499    1485    1437    1436    1421    1407
       8    1516    1486    1484    1517    1438    1408    1406    1439
       8    1518    1517    1484    1483    1440    1439    1406    1405
       8    1494    1518    1483    1488    1416    1440    1405    1410
       8    1519    1496    1495    1508    1441    1418    1417    1430
       8    1520    1519    1508    1509    1442    1441    1430    1431
       8    1521    1520    1509    1510    1443    1442    1431    1432
       8    1522    1521    1510    1523    1444    1443    1432    1445
       8    1524    1523    1510    1511    1446    1445    1432    1433
       8    1503    1524    1511    1501    1425    1446    1433    1423
       8    1525    1504    1505    1507    1447    1426    1427    1429
       8    1526    1525    1507    1513    1448    1447    1429    1435
       8    1527    1526    1513    1528    1449    1448    1435    1450
       8    1529    1528    1513    1512    1451    1450    1435    1434
       8    1530    1529    1512    1514    1452    1451    1434    1436
       8    1531    1530    1514    1515    1453    1452    1436    1437
       8    1532    1531    1515    1533    1454    1453    1437    1455
       8    1487    1533    1515    1485    1409    1455    1437    1407
       8    1534    1535    1486    1516    1456    1457    1408    1438
       8    1536    1534    1516    1517    1458    1456    1438    1439
       8    1537    1536    1517    1518    1459    1458    1439    1440
       8    1538    1537    1518    1494    1460    1459    1440    1416
       8    1539    1538    1494    1493    1461    1460    1416    1415
       8    1540    1539    1493    1496    1462    1461    1415    1418
       8    1541    1540    1496    1519    1463    1462    1418    1441
       8    1542    1541    1519    1520    1464    1463    1441    1442
       8    1543    1542    1520    1521    1465    1464    1442    1443
       8    1544    1543    1521    1522    1466    1465    1443    1444
       8    1545    1544    1522    1523    1467    1466    1444    1445
       8    1546    1545    1523    1524    1468    1467    1445    1446
       8    1547    1546    1524    1503    1469    1468    1446    1425
       8    1548    1547    1503    1502    1470    1469    1425    1424
       8    1549    1548    1502    1504    1471    1470    1424    1426
       8    1550    1549    1504    1525    1472    1471    1426    1447
       8    1551    1550    1525    1526    1473    1472    1447    1448
       8    1552    1551    1526    1527    1474    1473    1448    1449
       8    1553    1552    1527    1528    1475    1474    1449    1450
       8    1554    1553    1528    1529    1476    1475    1450    1451
       8    1555    1554    1529    1530    1477    1476    1451    1452
       8    1556    1555    1530    1531    1478    1477    1452    1453
       8    1557    1556    1531    1532    1479    1478    1453    1454
       8    1558    1557    1532    1533    1480    1479    1454    1455
       8    1559    1558    1533    1487    1481    1480    1455    1409
       8    1535    1559    1487    1486    1457    1481    1409    1408
       8    1560    1561    1562    1563    1482    1483    1484    1485
       8    1562    1564    1565    1563    1484    1486    1487    1485
       8    1566    1561    1560    1567    1488    1483    1482    1489
       8    1560    1568    1569    1567    1482    1490    1491    1489
       8    1570    1571    1572    1566    1492    1493    1494    1488
       8    1573    1574    1571    1570    1495    1496    1493    1492
       8    1567    1573    1570    1566    1489    1495    1492    1488
       8    1575    1576    1568    1577    1497    1498    1490    1499
       8    1578    1579    1576    1575    1500    1501    1498    1497
       8    1580    1581    1579    1578    1502    1503    1501    1500
       8    1582    1580    1578    1583    1504    1502    1500    1505
       8    1584    1569    1568    1576    1506    1491    1490    1498
       8    1575    1585    1583    1578    1497    1507    1505    1500
       8    1560    1563    1577    1568    1482    1485    1499    1490
       8    1586    1573    1567    1569    1508    1495    1489    1491
       8    1587    1586    1569    1584    1509    1508    1491    1506
       8    1588    1587    1584    1589    1510    1509    1506    1511
       8    1579    1589    1584    1576    1501    1511    1506    1498
       8    1590    1591    1585    1575    1512    1513    1507    1497
       8    1592    1590    1575    1577    1514    1512    1497    1499
       8    1593    1592    1577    1563    1515    1514    1499    1485
       8    1594    1564    1562    1595    1516    1486    1484    1517
       8    1596    1595    1562    1561    1518    1517    1484    1483
       8    1572    1596    1561    1566    1494    1518    1483    1488
       8    1597    1574    1573    1586    1519    1496    1495    1508
       8    1598    1597    1586    1587    1520    1519    1508    1509
       8    1599    1598    1587    1588    1521    1520    1509    1510
       8    1600    1599    1588    1601    1522    1521    1510    1523
       8    1602    1601    1588    1589    1524    1523    1510    1511
       8    1581    1602    1589    1579    1503    1524    1511    1501
       8    1603    1582    1583    1585    1525    1504    1505    1507
       8    1604    1603    1585    1591    1526    1525    1507    1513
       8    1605    1604    1591    1606    1527    1526    1513    1528
       8    1607    1606    1591    1590    1529    1528    1513    1512
       8    1608    1607    1590    1592    1530    1529    1512    1514
       8    1609    1608    1592    1593    1531    1530    1514    1515
       8    1610    1609    1593    1611    1532    1531    1515    1533
       8    1565    1611    1593    1563    1487    1533    1515    1485
       8    1612    1613    1564    1594    1534    1535    1486    1516
       8    1614    1612    1594    1595    1536    1534    1516    1517
       8    1615    1614    1595    1596    1537    1536    1517    1518
       8    1616    1615    1596    1572    1538    1537    1518    1494
       8    1617    1616    1572    1571    1539    1538    1494    1493
       8    1618    1617    1571    1574    1540    1539    1493    1496
       8    1619    1618    1574    1597    1541    1540    1496    1519
       8    1620    1619    1597    1598    1542    1541    1519    1520
       8    1621    1620    1598    1599    1543    1542    1520    1521
       8    1622    1621    1599    1600    1544    1543    1521    1522
       8    1623    1622    1600    1601    1545    1544    1522    1523
       8    1624    1623    1601    1602    1546    1545    1523    1524
       8    1625    1624    1602    1581    1547    1546    1524    1503
       8    1626    1625    1581    1580    1548    1547    1503    1502
       8    1627    1626    1580    1582    1549    1548    1502    1504
       8    1628    1627    1582    1603    1550    1549    1504    1525
       8    1629    1628    1603    1604    1551    1550    1525    1526
       8    1630    1629    1604    1605    1552    1551    1526    1527
       8    1631    1630    1605    1606    1553    1552    1527    1528
       8    1632    1631    1606    1607    1554    1553    1528    1529
       8    1633    1632    1607    1608    1555    1554    1529    1530
       8    1634    1633    1608    1609    1556    1555    1530    1531
       8    1635    1634    1609    1610    1557    1556    1531    1532
       8    1636    1635    1610    1611    1558    1557    1532    1533
       8    1637    1636    1611    1565    1559    1558    1533    1487
       8    1613    1637    1565    1564    1535    1559    1487    1486
       8    1638    1639    1640    1641    1560    1561    1562    1563
       8    1640    1642    1643    1641    1562    1564    1565    1563
       8    1644    1639    1638    1645    1566    1561    1560    1567
       8    1638    1646    1647    1645    1560    1568    1569    1567
       8    1648    1649    1650    1644    1570    1571    1572    1566
       8    1651    1652    1649    1648    1573    1574    1571    1570
       8    1645    1651    1648    1644    1567    1573    1570    1566
       8    1653    1654    1646    1655    1575    1576    1568    1577
       8    1656    1657    1654    1653    1578    1579    1576    1575
       8    1658    1659    1657    1656    1580    1581    1579    1578
       8    1660    1658    1656    1661    1582    1580    1578    1583
       8    1662    1647    1646    1654    1584    1569    1568    1576
       8    1653    1663    1661    1656    1575    1585    1583    1578
       8    1638    1641    1655    1646    1560    1563    1577    1568
       8    1664    1651    1645    1647    1586    1573    1567    1569
       8    1665    1664    1647    1662    1587    1586    1569    1584
       8    1666    1665    1662    1667    1588    1587    1584    1589
       8    1657    1667    1662    1654    1579    1589    1584    1576
       8    1668    1669    1663    1653    1590    1591    1585    1575
       8    1670    1668    1653    1655    1592    1590    1575    1577
       8    1671    1670    1655    1641    1593    1592    1577    1563
       8    1672    1642    1640    1673    1594    1564    1562    1595
       8    1674    1673    1640    1639    1596    1595    1562    1561
       8    1650    1674    1639    1644    1572    1596    1561    1566
       8    1675    1652    1651    1664    1597    1574    1573    1586
       8    1676    1675    1664    1665    1598    1597    1586    1587
       8    1677    1676    1665    1666    1599    1598    1587    1588
       8    1678    1677    1666    1679    1600    1599    1588    1601
       8    1680    1679    1666    1667    1602    1601    1588    1589
       8    1659    1680    1667    1657    1581    1602    1589    1579
       8    1681    1660    1661    1663    1603    1582    1583    1585
       8    1682    1681    1663    1669    1604    1603    1585    1591
       8    1683    1682    1669    1684    1605    1604    1591    1606
       8    1685    1684    1669    1668    1607    1606    1591    1590
       8    1686    1685    1668    1670    1608    1607    1590    1592
       8    1687    1686    1670    1671    1609    1608    1592    1593
       8    1688    1687    1671    1689    1610    1609    1593    1611
       8    1643    1689    1671    1641    1565    1611    1593    1563
       8    1690    1691    1642    1672    1612    1613    1564    1594
       8    1692    1690    1672    1673    1614    1612    1594    1595
       8    1693    1692    1673    1674    1615    1614    1595    1596
       8    1694    1693    1674    1650    1616    1615    1596    1572
       8    1695    1694    1650    1649    1617    1616    1572    1571
       8    1696    1695    1649    1652    1618    1617    1571    1574
       8    1697    1696    1652    1675    1619    1618    1574    1597
       8    1698    1697    1675    1676    1620    1619    1597    1598
       8    1699    1698    1676    1677    1621    1620    1598    1599
       8    1700    1699    1677    1678    1622    1621    1599    1600
       8    1701    1700    1678    1679    1623    1622    1600    1601
       8    1702    1701    1679    1680    1624    1623    1601    1602
       8    1703    1702    1680    1659    1625    1624    1602    1581
       8    1704    1703    1659    1658    1626    1625    1581    1580
       8    1705    1704    1658    1660    1627    1626    1580    1582
       8    1706    1705    1660    1681    1628    1627    1582    1603
       8    1707    1706    1681    1682    1629    1628    1603    1604
       8    1708    1707    1682    1683    1630    1629    1604    1605
       8    1709    1708    1683    1684    1631    1630    1605    1606
       8    1710    1709    1684    1685    1632    1631    1606    1607
       8    1711    1710    1685    1686    1633    1632    1607    1608
       8    1712    1711    1686    1687    1634    1633    1608    1609
       8    1713    1712    1687    1688    1635    1634    1609    1610
       8    1714    1713    1688    1689    1636    1635    1610    1611
       8    1715    1714    1689    1643    1637    1636    1611    1565
       8    1691    1715    1643    1642    1613    1637    1565    1564
       8    1716    1717    1718    1719    1638    1639    1640    1641
       8    1718    1720    1721    1719    1640    1642    1643    1641
       8    1722    1717    1716    1723    1644    1639    1638    1645
       8    1716    1724    1725    1723    1638    1646    1647    1645
       8    1726    1727    1728    1722    1648    1649    1650    1644
       8    1729    1730    1727    1726    1651    1652    1649    1648
       8    1723    1729    1726    1722    1645    1651    1648    1644
       8    1731    1732    1724    1733    1653    1654    1646    1655
       8    1734    1735    1732    1731    1656    1657    1654    1653
       8    1736    1737    1735    1734    1658    1659    1657    1656
       8    1738    1736    1734    1739    1660    1658    1656    1661
       8    1740    1725    1724    1732    1662    1647    1646    1654
       8    1731    1741    1739    1734    1653    1663    1661    1656
       8    1716    1719    1733    1724    1638    1641    1655    1646
       8    1742    1729    1723    1725    1664    1651    1645    1647
       8    1743    1742    1725    1740    1665    1664    1647    1662
       8    1744    1743    1740    1745    1666    1665    1662    1667
       8    1735    1745    1740    1732    1657    1667    1662    1654
       8    1746    1747    1741    1731    1668    1669    1663    1653
       8    1748    1746    1731    1733    1670    1668    1653    1655
       8    1749    1748    1733    1719    1671    1670    1655    1641
       8    1750    1720    1718    1751    1672    1642    1640    1673
       8    1752    1751    1718    1717    1674    1673    1640    1639
       8    1728    1752    1717    1722    1650    1674    1639    1644
       8    1753    1730    1729    1742    1675    1652    1651    1664
       8    1754    1753    1742    1743    1676    1675    1664    1665
       8    1755    1754    1743    1744    1677    1676    1665    1666
       8    1756    1755    1744    1757    1678    1677    1666    1679
       8    1758    1757    1744    1745    1680    1679    1666    1667
       8    1737    1758    1745    1735    1659    1680    1667    1657
       8    1759    1738    1739    1741    1681    1660    1661    1663
       8    1760    1759    1741    1747    1682    1681    1663    1669
       8    1761    1760    1747    1762    1683    1682    1669    1684
       8    1763    1762    1747    1746    1685    1684    1669    1668
       8    1764    1763    1746    1748    1686    1685    1668    1670
       8    1765    1764    1748    1749    1687    1686    1670    1671
       8    1766    1765    1749    1767    1688    1687    1671    1689
       8    1721    1767    1749    1719    1643    1689    1671    1641
       8    1768    1769    1720    1750    1690    1691    1642    1672
       8    1770    1768    1750    1751    1692    1690    1672    1673
       8    1771    1770    1751    1752    1693    1692    1673    1674
       8    1772    1771    1752    1728    1694    1693    1674    1650
       8    1773    1772    1728    1727    1695    1694    1650    1649
       8    1774    1773    1727    1730    1696    1695    1649    1652
       8    1775    1774    1730    1753    1697    1696    1652    1675
       8    1776    1775    1753    1754    1698    1697    1675    1676
       8    1777    1776    1754    1755    1699    1698    1676    1677
       8    1778    1777    1755    1756    1700    1699    1677    1678
       8    1779    1778    1756    1757    1701    1700    1678    1679
       8    1780    1779    1757    1758    1702    1701    1679    1680
       8    1781    1780    1758    1737    1703    1702    1680    1659
       8    1782    1781    1737    1736    1704    1703    1659    1658
       8    1783    1782    1736    1738    1705    1704    1658    1660
       8    1784    1783    1738    1759    1706    1705    1660    1681
       8    1785    1784    1759    1760    1707    1706    1681    1682
       8    1786    1785    1760    1761    1708    1707    1682    1683
       8    1787    1786    1761    1762    1709    1708    1683    1684
       8    1788    1787    1762    1763    1710    1709    1684    1685
       8    1789    1788    1763    1764    1711    1710    1685    1686
       8    1790    1789    1764    1765    1712    1711    1686    1687
       8    1791    1790    1765    1766    1713    1712    1687    1688
       8    1792    1791    1766    1767    1714    1713    1688    1689
       8    1793    1792    1767    1721    1715    1714    1689    1643
       8    1769    1793    1721    1720    1691    1715    1643    1642
       8    1794    1795    1796    1797    1716    1717    1718    1719
       8    1796    1798    1799    1797    1718    1720    1721    1719
       8    1800    1795    1794    1801    1722    1717    1716    1723
       8    1794    1802    1803    1801    1716    1724    1725    1723
       8    1804    1805    1806    1800    1726    1727    1728    1722
       8    1807    1808    1805    1804    1729    1730    1727    1726
       8    1801    1807    1804    1800    1723    1729    1726    1722
       8    1809    1810    1802    1811    1731    1732    1724    1733
       8    1812    1813    1810    1809    1734    1735    1732    1731
       8    1814    1815    1813    1812    1736    1737    1735    1734
       8    1816    1814    1812    1817    1738    1736    1734    1739
       8    1818    1803    1802    1810    1740    1725    1724    1732
       8    1809    1819    1817    1812    1731    1741    1739    1734
       8    1794    1797    1811    1802    1716    1719    1733    1724
       8    1820    1807    1801    1803    1742    1729    1723    1725
       8    1821    1820    1803    1818    1743    1742    1725    1740
       8    1822    1821    1818    1823    1744    1743    1740    1745
       8    1813    1823    1818    1810    1735    1745    1740    1732
       8    1824    1825    1819    1809    1746    1747    1741    1731
       8    1826    1824    1809    1811    1748    1746    1731    1733
       8    1827    1826    1811    1797    1749    1748    1733    1719
       8    1828    1798    1796    1829    1750    1720    1718    1751
       8    1830    1829    1796    1795    1752    1751    1718    1717
       8    1806    1830    1795    1800    1728    1752    1717    1722
       8    1831    1808    1807    1820    1753    1730    1729    1742
       8    1832    1831    1820    1821    1754    1753    1742    1743
       8    1833    1832    1821    1822    1755    1754    1743    1744
       8    1834    1833    1822    1835    1756    1755    1744    1757
       8    1836    1835    1822    1823    1758    1757    1744    1745
       8    1815    1836    1823    1813    1737    1758    1745    1735
       8    1837    1816    1817    1819    1759    1738    1739    1741
       8    1838    1837    1819    1825    1760    1759    1741    1747
       8    1839    1838    1825    1840    1761    1760    1747    1762
       8    1841    1840    1825    1824    1763    1762    1747    1746
       8    1842    1841    1824    1826    1764    1763    1746    1748
       8    1843    1842    1826    1827    1765    1764    1748    1749
       8    1844    1843    1827    1845    1766    1765    1749    1767
       8    1799    1845    1827    1797    1721    1767    1749    1719
       8    1846    1847    1798    1828    1768    1769    1720    1750
       8    1848    1846    1828    1829    1770    1768    1750    1751
       8    1849    1848    1829    1830    1771    1770    1751    1752
       8    1850    1849    1830    1806    1772    1771    1752    1728
       8    1851    1850    1806    1805    1773    1772    1728    1727
       8    1852    1851    1805    1808    1774    1773    1727    1730
       8    1853    1852    1808    1831    1775    1774    1730    1753
       8    1854    1853    1831    1832    1776    1775    1753    1754
       8    1855    1854    1832    1833    1777    1776    1754    1755
       8    1856    1855    1833    1834    1778    1777    1755    1756
       8    1857    1856    1834    1835    1779    1778    1756    1757
       8    1858    1857    1835    1836    1780    1779    1757    1758
       8    1859    1858    1836    1815    1781    1780    1758    1737
       8    1860    1859    1815    1814    1782    1781    1737    1736
       8    1861    1860    1814    1816    1783    1782    1736    1738
       8    1862    1861    1816    1837    1784    1783    1738    1759
       8    1863    1862    1837    1838    1785    1784    1759    1760
       8    1864    1863    1838    1839    1786    1785    1760    1761
       8    1865    1864    1839    1840    1787    1786    1761    1762
       8    1866    1865    1840    1841    1788    1787    1762    1763
       8    1867    1866    1841    1842    1789    1788    1763    1764
       8    1868    1867    1842    1843    1790    1789    1764    1765
       8    1869    1868    1843    1844    1791    1790    1765    1766
       8    1870    1869    1844    1845    1792    1791    1766    1767
       8    1871    1870    1845    1799    1793    1792    1767    1721
       8    1847    1871    1799    1798    1769    1793    1721    1720
       8    1872    1873    1874    1875    1794    1795    1796    1797
       8    1874    1876    1877    1875    1796    1798    1799    1797
       8    1878    1873    1872    1879    1800    1795    1794    1801
       8    1872    1880    1881    1879    1794    1802    1803    1801
       8    1882    1883    1884    1878    1804    1805    1806    1800
       8    1885    1886    1883    1882    1807    1808    1805    1804
       8    1879    1885    1882    1878    1801    1807    1804    1800
       8    1887    1888    1880    1889    1809    1810    1802    1811
       8    1890    1891    1888    1887    1812    1813    1810    1809
       8    1892    1893    1891    1890    1814    1815    1813    1812
       8    1894    1892    1890    1895    1816    1814    1812    1817
       8    1896    1881    1880    1888    1818    1803    1802    1810
       8    1887    1897    1895    1890    1809    1819    1817    1812
       8    1872    1875    1889    1880    1794    1797    1811    1802
       8    1898    1885    1879    1881    1820    1807    1801    1803
       8    1899    1898    1881    1896    1821    1820    1803    1818
       8    1900    1899    1896    1901    1822    1821    1818    1823
       8    1891    1901    1896    1888    1813    1823    1818    1810
       8    1902    1903    1897    1887    1824    1825    1819    1809
       8    1904    1902    1887    1889    1826    1824    1809    1811
       8    1905    1904    1889    1875    1827    1826    1811    1797
       8    1906    1876    1874    1907    1828    1798    1796    1829
       8    1908    1907    1874    1873    1830    1829    1796    1795
       8    1884    1908    1873    1878    1806    1830    1795    1800
       8    1909    1886    1885    1898    1831    1808    1807    1820
       8    1910    1909    1898    1899    1832    1831    1820    1821
       8    1911    1910    1899    1900    1833    1832    1821    1822
       8    1912    1911    1900    1913    1834    1833    1822    1835
       8    1914    1913    1900    1901    1836    1835    1822    1823
       8    1893    1914    1901    1891    1815    1836    1823    1813
       8    1915    1894    1895    1897    1837    1816    1817    1819
       8    1916    1915    1897    1903    1838    1837    1819    1825
       8    1917    1916    1903    1918    1839    1838    1825    1840
       8    1919    1918    1903    1902    1841    1840    1825    1824
       8    1920    1919    1902    1904    1842    1841    1824    1826
       8    1921    1920    1904    1905    1843    1842    1826    1827
       8    1922    1921    1905    1923    1844    1843    1827    1845
       8    1877    1923    1905    1875    1799    1845    1827    1797
       8    1924    1925    1876    1906    1846    1847    1798    1828
       8    1926    1924    1906    1907    1848    1846    1828    1829
       8    1927    1926    1907    1908    1849    1848    1829    1830
       8    1928    1927    1908    1884    1850    1849    1830    1806
       8    1929    1928    1884    1883    1851    1850    1806    1805
       8    1930    1929    1883    1886    1852    1851    1805    1808
       8    1931    1930    1886    1909    1853    1852    1808    1831
       8    1932    1931    1909    1910    1854    1853    1831    1832
       8    1933    1932    1910    1911    1855    1854    1832    1833
       8    1934    1933    1911    1912    1856    1855    1833    1834
       8    1935    1934    1912    1913    1857    1856    1834    1835
       8    1936    1935    1913    1914    1858    1857    1835    1836
       8    1937    1936    1914    1893    1859    1858    1836    1815
       8    1938    1937    1893    1892    1860    1859    1815    1814
       8    1939    1938    1892    1894    1861    1860    1814    1816
       8    1940    1939    1894    1915    1862    1861    1816    1837
       8    1941    1940    1915    1916    1863    1862    1837    1838
       8    1942    1941    1916    1917    1864    1863    1838    1839
       8    1943    1942    1917    1918    1865    1864    1839    1840
       8    1944    1943    1918    1919    1866    1865    1840    1841
       8    1945    1944    1919    1920    1867    1866    1841    1842
       8    1946    1945    1920    1921    1868    1867    1842    1843
       8    1947    1946    1921    1922    1869    1868    1843    1844
       8    1948    1947    1922    1923    1870    1869    1844    1845
       8    1949    1948    1923    1877    1871    1870    1845    1799
       8    1925    1949    1877    1876    1847    1871    1799    1798
  
CELL_TYPES    3486
       1
       1
       1
       1
       1
       1
       1
       1
       1
       1
       1
       1
       1
       1
       1
       1
       1
       1
       1
       1
       1
       1
       1
       1
       1
       1
       1
       1
       1
       1
       1
       1
       1
       1
       1
       1
       1
       1
       1
       1
       1
       1
       1
       1
       1
       1
       1
       1
       1
       1
       1
       1
       1
       1
       1
       1
       1
       1
       1
       1
       1
       1
       1
       1
       1
       1
       1
       1
       1
       1
       1
       1
       1
       1
       1
       1
       1
       1
       1
       1
       1
       1
       1
       1
       1
       1
       1
       1
       1
       1
       1
       1
       1
       1
       1
       1
       1
       1
       1
       1
       1
       1
       1
       1
       1
       1
       1
       1
       1
       1
       1
       1
       1
       1
       1
       1
       1
       1
       1
       1
       1
       1
       1
       1
       1
       1
       1
       1
       1
       1
       1
       1
       1
       1
       1
       1
       1
       1
       1
       1
       1
       1
       1
       1
       1
       1
       1
       1
       1
       1
       1
       1
       1
       1
       1
       1
       1
       1
       1
       1
       1
       1
       1
       1
       1
       1
       1
       1
       1
       1
       1
       1
       1
       1
       1
       1
       1
       1
       1
       1
       1
       1
       1
       1
       1
       1
       1
       1
       1
       1
       1
       1
       1
       1
       1
       1
       1
       1
       1
       1
       1
       1
       1
       1
       1
       1
       1
       1
       1
       1
       1
       1
       1
       1
       1
       1
       1
       1
       1
       1
       1
       1
       1
       1
       1
       1
       1
       1
       1
       1
       1
       1
       1
       1
       1
       1
       1
       1
       1
       1
       1
       1
       1
       1
       1
       1
       1
       1
       1
       1
       1
       1
       1
       1
       1
       1
       1
       1
       1
       1
       1
       1
       1
       1
       1
       1
       1
       1
       1
       1
       1
       1
       1
       1
       1
       1
       1
       1
       1
       1
       1
       1
       1
       1
       1
       1
       1
       1
       1
       1
       1
       1
       1
       1
       1
       1
       1
       1
       1
       1
       1
       1
       1
       1
       1
       1
       1
       1
       1
       1
       1
       1
       1
       1
       1
       1
       1
       1
       1
       1
       1
       1
       1
       1
       1
       1
       1
       1
       1
       1
       1
       1
       1
       1
       1
       1
       1
       1
       1
       1
       1
       1
       1
       1
       1
       1
       1
       1
       1
       1
       1
       1
       1
       1
       1
       1
       1
       1
       1
       1
       1
       1
       1
       1
       1
       1
       1
       1
       1
       1
       1
       1
       1
       1
       1
       1
       1
       1
       1
       1
       1
       1
       1
       1
       1
       1
       1
       1
       1
       1
       1
       1
       1
       1
       1
       1
       1
       1
       1
       1
       1
       1
       1
       1
       1
       1
       1
       1
       1
       1
       1
       1
       1
       1
       1
       1
       1
       1
       1
       1
       1
       1
       1
       1
       1
       1
       1
       1
       1
       1
       1
       1
       1
       1
       1
       1
       1
       1
       1
       1
       1
       1
       1
       1
       1
       1
       1
       1
       1
       1
       1
       1
       1
       1
       1
       1
       1
       1
       1
       1
       1
       1
       1
       1
       1
       1
       1
       1
       1
       1
       1
       1
       1
       1
       1
       1
       1
       1
       1
       1
       1
       1
       1
       1
       1
       1
       1
       1
       1
       1
       1
       1
       1
       1
       1
       1
       1
       1
       1
       1
       1
       1
       1
       1
       1
       1
       1
       1
       1
       1
       1
       1
       1
       1
       1
       1
       1
       1
       1
       1
       1
       1
       1
       1
       1
       1
       1
       1
       1
       1
       1
       1
       1
       1
       1
       1
       1
       1
       1
       1
       1
       1
       1
       1
       1
       1
       1
       1
       1
       1
       1
       1
       1
       1
       1
       1
       1
       1
       1
       1
       1
       1
       1
       1
       1
       1
       1
       1
       1
       1
       1
       1
       1
       1
       1
       1
       1
       1
       1
       1
       1
       1
       1
       1
       1
       1
       1
       1
       1
       1
       1
       1
       1
       1
       1
       1
       1
       1
       1
       1
       1
       1
       1
       1
       1
       1
       1
       1
       1
       1
       1
       1
       1
       1
       1
       1
       1
       1
       1
       1
       1
       1
       1
       1
       1
       1
       1
       1
       1
       1
       1
       1
       1
       1
       1
       1
       1
       1
       1
       1
       1
       1
       1
       1
       1
       1
       1
       1
       1
       1
       1
       1
       1
       1
       1
       1
       1
       1
       1
       1
       1
       1
       1
       1
       1
       1
       1
       1
       1
       1
       1
       1
       1
       1
       1
       1
       1
       1
       1
       1
       1
       1
       1
       1
       1
       1
       1
       1
       1
       1
       1
       1
       1
       1
       1
       1
       1
       1
       1
       1
       1
       1
       1
       1
       1
       1
       1
       1
       1
       1
       1
       1
       1
       1
       1
       1
       1
       1
       1
       1
       1
       1
       1
       1
       1
       1
       1
       1
       1
       1
       1
       1
       1
       1
       1
       1
       1
       1
       1
       1
       1
       1
       1
       1
       1
       1
       1
       1
       1
       1
       1
       1
       1
       1
       1
       1
       1
       1
       1
       1
       1
       1
       1
       1
       1
       1
       1
       1
       1
       1
       1
       1
       1
       1
       1
       1
       1
       1
       1
       1
       1
       1
       1
       1
       1
       1
       1
       1
       1
       1
       1
       1
       1
       1
       1
       1
       1
       1
       1
       1
       1
       1
       1
       1
       1
       1
       1
       1
       1
       1
       1
       1
       1
       1
       1
       1
       1
       1
       1
       1
       1
       1
       1
       1
       1
       1
       1
       1
       1
       1
       1
       1
       1
       1
       1
       1
       1
       1
       1
       1
       1
       1
       1
       1
       1
       1
       1
       1
       1
       1
       1
       1
       1
       1
       1
       1
       1
       1
       1
       1
       1
       1
       1
       1
       1
       1
       1
       1
       1
       1
       1
       1
       1
       1
       1
       1
       1
       1
       1
       1
       1
       1
       1
       1
       1
       1
       1
       1
       1
       1
       1
       1
       1
       1
       1
       1
       1
       1
       1
       1
       1
       1
       1
       1
       1
       1
       1
       1
       1
       1
       1
       1
       1
       1
       1
       1
       1
       1
       1
       1
       1
       1
       1
       1
       1
       1
       1
       1
       1
       1
       1
       1
       1
       1
       1
       1
       1
       1
       1
       1
       1
       1
       1
       1
       1
       1
       1
       1
       1
       1
       1
       1
       1
       1
       1
       1
       1
       1
       1
       1
       1
       1
       1
       1
       1
       1
       1
       1
       1
       1
       1
       1
       1
       1
       1
       1
       1
       1
       1
       1
       1
       1
       1
       1
       1
       1
       1
       1
       1
       1
       1
       1
       1
       1
       1
       1
       1
       1
       1
       1
       1
       1
       1
       1
       1
       1
       1
       1
       1
       1
       1
       1
       1
       1
       1
       1
       1
       1
       1
       1
       1
       1
       1
       1
       1
       1
       1
       1
       1
       1
       1
       1
       1
       1
       1
       1
       1
       1
       1
       1
       1
       1
       1
       1
       1
       1
       1
       1
       1
       1
       1
       1
       1
       1
       1
       1
       1
       1
       1
       1
       1
       1
       1
       1
       1
       1
       1
       1
       1
       1
       1
       1
       1
       1
       1
       1
       1
       1
       1
       1
       1
       1
       1
       1
       1
       1
       1
       1
       1
       1
       1
       1
       1
       1
       1
       1
       1
       1
       1
       1
       1
       1
       1
       1
       1
       1
       1
       1
       1
       1
       1
       1
       1
       1
       1
       1
       1
       1
       1
       1
       1
       1
       1
       1
       1
       1
       1
       1
       1
       1
       1
       1
       1
       1
       1
       1
       1
       1
       1
       1
       1
       1
       1
       1
       1
       1
       1
       1
       1
       1
       1
       1
       1
       1
       1
       1
       1
       1
       1
       1
       1
       1
       1
       1
       1
       1
       1
       1
       1
       1
       1
       1
       1
       1
       1
       1
       1
       1
       1
       1
       1
       1
       1
       1
       1
       1
       1
       1
       1
       1
       1
       1
       1
       1
       1
       1
       1
       1
       1
       1
       1
       1
       1
       1
       1
       1
       1
       1
       1
       1
       1
       1
       1
       1
       1
       1
       1
       1
       1
       1
       1
       1
       1
       1
       1
       1
       1
       1
       1
       1
       1
       1
       1
       1
       1
       1
       1
       1
       1
       1
       1
       1
       1
       1
       1
       1
       1
       1
       1
       1
       1
       1
       1
       1
       1
       1
       1
       1
       1
       1
       1
       1
       1
       1
       1
       1
       1
       1
       1
       1
       1
       1
       1
       1
       1
       1
       1
       1
       1
       1
       1
       1
       1
       1
       1
       1
       1
       1
       1
       1
       1
       1
       1
       1
       1
       1
       1
       1
       1
       1
       1
       1
       1
       1
       1
       1
       1
       1
       1
       1
       1
       1
       1
       1
       1
       1
       1
       1
       1
       1
       1
       1
       1
       1
       1
       1
       1
       1
       1
       1
       1
       1
       1
       1
       1
       1
       1
       1
       1
       1
       1
       1
       1
       1
       1
       1
       1
       1
       1
       1
       1
       1
       1
       1
       1
       1
       1
       1
       1
       1
       1
       1
       1
       1
       1
       1
       1
       1
       1
       1
       1
       1
       1
       1
       1
       1
       1
       1
       1
       1
       1
       1
       1
       1
       1
       1
       1
       1
       1
       1
       1
       1
       1
       1
       1
       1
       1
       1
       1
       1
       1
       1
       1
       1
       1
       1
       1
       1
       1
       1
       1
       1
       1
       1
       1
       1
       1
       1
       1
       1
       1
       1
       1
       1
       1
       1
       1
       1
       1
       1
       1
       1
       1
       1
       1
       1
       1
       1
       1
       1
       1
       1
       1
       1
       1
       1
       1
       1
       1
       1
       1
       1
       1
       1
       1
       1
       1
       1
       1
       1
       1
       1
       1
       1
       1
       1
       1
       1
       1
       1
       1
       1
       1
       1
       1
       1
       1
       1
       1
       1
       1
       1
       1
       1
       1
       1
       1
       1
       1
       1
       1
       1
       1
       1
       1
       1
       1
       1
       1
       1
       1
       1
       1
       1
       1
       1
       1
       1
       1
       1
       1
       1
       1
       1
       1
       1
       1
       1
       1
       1
       1
       1
       1
       1
       1
       1
       1
       1
       1
       1
       1
       1
       1
       1
       1
       1
       1
       1
       1
       1
       1
       1
       1
       1
       1
       1
       1
       1
       1
       1
       1
       1
       1
       1
       1
       1
       1
       1
       1
       1
       1
       1
       1
       1
       1
       1
       1
       1
       1
       1
       1
       1
       1
       1
       1
       1
       1
       1
       1
       1
       1
       1
       1
       1
       1
       1
       1
       1
       1
       1
       1
       1
       1
       1
       1
       1
       1
       1
       1
       1
       1
       1
       1
       1
       1
       1
       1
       1
       1
       1
       1
       1
       1
       1
       1
       1
       1
       1
       1
       1
       1
       1
       1
       1
       1
       1
       1
       1
       1
       1
       1
       1
       1
       1
       1
       1
       1
       1
       1
       1
       1
       1
       1
       1
       1
       1
       1
       1
       1
       1
       1
       1
       1
       1
       1
       1
       1
       1
       1
       1
       1
       1
       1
       1
       1
       1
       1
       1
       1
       1
       1
       1
       1
       1
       1
       1
       1
       1
       1
       1
       1
       1
       1
       1
       1
       1
       1
       1
       1
       1
       1
       1
       1
       1
       1
       1
       1
       1
       1
       1
       1
       1
       1
       1
       1
       1
       1
       1
       1
       1
       1
       1
       1
       1
       1
       1
       1
       1
       1
       1
       1
       1
       1
       1
       1
       1
       1
       1
       1
       1
       1
       1
       1
       1
       1
       1
       1
       1
       1
       1
       1
       1
       1
       1
       1
       1
       1
       1
       1
       1
       1
       1
       1
       1
       1
       1
       1
       1
       1
       1
       1
       1
       1
       1
       1
       1
       1
       1
       1
       1
       1
       1
       1
       1
       1
       1
       1
       1
       1
       1
       1
       1
       1
       1
       1
       1
       1
       1
       1
       1
       1
       1
       1
       1
       1
       1
       1
       1
       1
       1
       1
       1
       1
       1
       1
       1
       1
       1
       1
       1
       1
       1
       1
       1
       1
       1
       1
       1
       1
       1
       1
       1
       1
       1
       1
       1
       1
       1
       1
       1
       1
       1
       1
       1
       1
       1
       1
       1
       1
       1
       1
       1
       1
       1
       1
       1
       1
       1
       1
       1
       1
       1
       1
       1
       1
       1
       1
       1
       1
       1
       1
       1
       1
       1
       1
       1
       1
       1
       1
       1
       1
       1
       1
       1
       1
       1
       1
       1
       1
       1
       1
       1
       1
       1
       1
       1
       1
       1
       1
       1
       1
       1
       1
       1
       1
       1
       1
       1
       1
       1
       1
       1
       1
       1
       1
       1
       1
       1
       1
       1
       1
       1
       1
       1
       1
       1
       1
       1
       1
       1
       1
       1
       1
       1
       1
       1
       1
       1
       1
       1
       1
       1
       1
       1
       1
       1
       1
       1
       1
       1
       1
       1
       1
       1
       1
       1
       1
       1
       1
       1
      12
      12
      12
      12
      12
      12
      12
      12
      12
      12
      12
      12
      12
      12
      12
      12
      12
      12
      12
      12
      12
      12
      12
      12
      12
      12
      12
      12
      12
      12
      12
      12
      12
      12
      12
      12
      12
      12
      12
      12
      12
      12
      12
      12
      12
      12
      12
      12
      12
      12
      12
      12
      12
      12
      12
      12
      12
      12
      12
      12
      12
      12
      12
      12
      12
      12
      12
      12
      12
      12
      12
      12
      12
      12
      12
      12
      12
      12
      12
      12
      12
      12
      12
      12
      12
      12
      12
      12
      12
      12
      12
      12
      12
      12
      12
      12
      12
      12
      12
      12
      12
      12
      12
      12
      12
      12
      12
      12
      12
      12
      12
      12
      12
      12
      12
      12
      12
      12
      12
      12
      12
      12
      12
      12
      12
      12
      12
      12
      12
      12
      12
      12
      12
      12
      12
      12
      12
      12
      12
      12
      12
      12
      12
      12
      12
      12
      12
      12
      12
      12
      12
      12
      12
      12
      12
      12
      12
      12
      12
      12
      12
      12
      12
      12
      12
      12
      12
      12
      12
      12
      12
      12
      12
      12
      12
      12
      12
      12
      12
      12
      12
      12
      12
      12
      12
      12
      12
      12
      12
      12
      12
      12
      12
      12
      12
      12
      12
      12
      12
      12
      12
      12
      12
      12
      12
      12
      12
      12
      12
      12
      12
      12
      12
      12
      12
      12
      12
      12
      12
      12
      12
      12
      12
      12
      12
      12
      12
      12
      12
      12
      12
      12
      12
      12
      12
      12
      12
      12
      12
      12
      12
      12
      12
      12
      12
      12
      12
      12
      12
      12
      12
      12
      12
      12
      12
      12
      12
      12
      12
      12
      12
      12
      12
      12
      12
      12
      12
      12
      12
      12
      12
      12
      12
      12
      12
      12
      12
      12
      12
      12
      12
      12
      12
      12
      12
      12
      12
      12
      12
      12
      12
      12
      12
      12
      12
      12
      12
      12
      12
      12
      12
      12
      12
      12
      12
      12
      12
      12
      12
      12
      12
      12
      12
      12
      12
      12
      12
      12
      12
      12
      12
      12
      12
      12
      12
      12
      12
      12
      12
      12
      12
      12
      12
      12
      12
      12
      12
      12
      12
      12
      12
      12
      12
      12
      12
      12
      12
      12
      12
      12
      12
      12
      12
      12
      12
      12
      12
      12
      12
      12
      12
      12
      12
      12
      12
      12
      12
      12
      12
      12
      12
      12
      12
      12
      12
      12
      12
      12
      12
      12
      12
      12
      12
      12
      12
      12
      12
      12
      12
      12
      12
      12
      12
      12
      12
      12
      12
      12
      12
      12
      12
      12
      12
      12
      12
      12
      12
      12
      12
      12
      12
      12
      12
      12
      12
      12
      12
      12
      12
      12
      12
      12
      12
      12
      12
      12
      12
      12
      12
      12
      12
      12
      12
      12
      12
      12
      12
      12
      12
      12
      12
      12
      12
      12
      12
      12
      12
      12
      12
      12
      12
      12
      12
      12
      12
      12
      12
      12
      12
      12
      12
      12
      12
      12
      12
      12
      12
      12
      12
      12
      12
      12
      12
      12
      12
      12
      12
      12
      12
      12
      12
      12
      12
      12
      12
      12
      12
      12
      12
      12
      12
      12
      12
      12
      12
      12
      12
      12
      12
      12
      12
      12
      12
      12
      12
      12
      12
      12
      12
      12
      12
      12
      12
      12
      12
      12
      12
      12
      12
      12
      12
      12
      12
      12
      12
      12
      12
      12
      12
      12
      12
      12
      12
      12
      12
      12
      12
      12
      12
      12
      12
      12
      12
      12
      12
      12
      12
      12
      12
      12
      12
      12
      12
      12
      12
      12
      12
      12
      12
      12
      12
      12
      12
      12
      12
      12
      12
      12
      12
      12
      12
      12
      12
      12
      12
      12
      12
      12
      12
      12
      12
      12
      12
      12
      12
      12
      12
      12
      12
      12
      12
      12
      12
      12
      12
      12
      12
      12
      12
      12
      12
      12
      12
      12
      12
      12
      12
      12
      12
      12
      12
      12
      12
      12
      12
      12
      12
      12
      12
      12
      12
      12
      12
      12
      12
      12
      12
      12
      12
      12
      12
      12
      12
      12
      12
      12
      12
      12
      12
      12
      12
      12
      12
      12
      12
      12
      12
      12
      12
      12
      12
      12
      12
      12
      12
      12
      12
      12
      12
      12
      12
      12
      12
      12
      12
      12
      12
      12
      12
      12
      12
      12
      12
      12
      12
      12
      12
      12
      12
      12
      12
      12
      12
      12
      12
      12
      12
      12
      12
      12
      12
      12
      12
      12
      12
      12
      12
      12
      12
      12
      12
      12
      12
      12
      12
      12
      12
      12
      12
      12
      12
      12
      12
      12
      12
      12
      12
      12
      12
      12
      12
      12
      12
      12
      12
      12
      12
      12
      12
      12
      12
      12
      12
      12
      12
      12
      12
      12
      12
      12
      12
      12
      12
      12
      12
      12
      12
      12
      12
      12
      12
      12
      12
      12
      12
      12
      12
      12
      12
      12
      12
      12
      12
      12
      12
      12
      12
      12
      12
      12
      12
      12
      12
      12
      12
      12
      12
      12
      12
      12
      12
      12
      12
      12
      12
      12
      12
      12
      12
      12
      12
      12
      12
      12
      12
      12
      12
      12
      12
      12
      12
      12
      12
      12
      12
      12
      12
      12
      12
      12
      12
      12
      12
      12
      12
      12
      12
      12
      12
      12
      12
      12
      12
      12
      12
      12
      12
      12
      12
      12
      12
      12
      12
      12
      12
      12
      12
      12
      12
      12
      12
      12
      12
      12
      12
      12
      12
      12
      12
      12
      12
      12
      12
      12
      12
      12
      12
      12
      12
      12
      12
      12
      12
      12
      12
      12
      12
      12
      12
      12
      12
      12
      12
      12
      12
      12
      12
      12
      12
      12
      12
      12
      12
      12
      12
      12
      12
      12
      12
      12
      12
      12
      12
      12
      12
      12
      12
      12
      12
      12
      12
      12
      12
      12
      12
      12
      12
      12
      12
      12
      12
      12
      12
      12
      12
      12
      12
      12
      12
      12
      12
      12
      12
      12
      12
      12
      12
      12
      12
      12
      12
      12
      12
      12
      12
      12
      12
      12
      12
      12
      12
      12
      12
      12
      12
      12
      12
      12
      12
      12
      12
      12
      12
      12
      12
      12
      12
      12
      12
      12
      12
      12
      12
      12
      12
      12
      12
      12
      12
      12
      12
      12
      12
      12
      12
      12
      12
      12
      12
      12
      12
      12
      12
      12
      12
      12
      12
      12
      12
      12
      12
      12
      12
      12
      12
      12
      12
      12
      12
      12
      12
      12
      12
      12
      12
      12
      12
      12
      12
      12
      12
      12
      12
      12
      12
      12
      12
      12
      12
      12
      12
      12
      12
      12
      12
      12
      12
      12
      12
      12
      12
      12
      12
      12
      12
      12
      12
      12
      12
      12
      12
      12
      12
      12
      12
      12
      12
      12
      12
      12
      12
      12
      12
      12
      12
      12
      12
      12
      12
      12
      12
      12
      12
      12
      12
      12
      12
      12
      12
      12
      12
      12
      12
      12
      12
      12
      12
      12
      12
      12
      12
      12
      12
      12
      12
      12
      12
      12
      12
      12
      12
      12
      12
      12
      12
      12
      12
      12
      12
      12
      12
      12
      12
      12
      12
      12
      12
      12
      12
      12
      12
      12
      12
      12
      12
      12
      12
      12
      12
      12
      12
      12
      12
      12
      12
      12
      12
      12
      12
      12
      12
      12
      12
      12
      12
      12
      12
      12
      12
      12
      12
      12
      12
      12
      12
      12
      12
      12
      12
      12
      12
      12
      12
      12
      12
      12
      12
      12
      12
      12
      12
      12
      12
      12
      12
      12
      12
      12
      12
      12
      12
      12
      12
      12
      12
      12
      12
      12
      12
      12
      12
      12
      12
      12
      12
      12
      12
      12
      12
      12
      12
      12
      12
      12
      12
      12
      12
      12
      12
      12
      12
      12
      12
      12
      12
      12
      12
      12
      12
      12
      12
      12
      12
      12
      12
      12
      12
      12
      12
      12
      12
      12
      12
      12
      12
      12
      12
      12
      12
      12
      12
      12
      12
      12
      12
      12
      12
      12
      12
      12
      12
      12
      12
      12
      12
      12
      12
      12
      12
      12
      12
      12
      12
      12
      12
      12
      12
      12
      12
      12
      12
      12
      12
      12
      12
      12
      12
      12
      12
      12
      12
      12
      12
      12
      12
      12
      12
      12
      12
      12
      12
      12
      12
      12
      12
      12
      12
      12
      12
      12
      12
      12
      12
      12
      12
      12
      12
      12
      12
      12
      12
      12
      12
      12
      12
      12
      12
      12
      12
      12
      12
      12
      12
      12
      12
      12
      12
      12
      12
      12
      12
      12
      12
      12
      12
      12
      12
      12
      12
      12
      12
      12
      12
      12
      12
      12
      12
      12
      12
      12
      12
      12
      12
      12
      12
      12
      12
      12
      12
      12
      12
      12
      12
      12
      12
      12
      12
      12
      12
      12
      12
      12
      12
      12
      12
      12
      12
      12
      12
      12
      12
      12
      12
      12
      12
      12
      12
      12
      12
      12
      12
      12
      12
      12
      12
      12
      12
      12
      12
      12
      12
      12
      12
      12
      12
      12
      12
      12
      12
      12
      12
      12
      12
      12
      12
      12
      12
      12
      12
      12
      12
      12
      12
      12
      12
      12
      12
      12
      12
      12
      12
      12
      12
      12
      12
      12
      12
      12
      12
      12
      12
      12
      12
      12
      12
      12
      12
      12
      12
      12
      12
      12
      12
      12
      12
      12
      12
      12
      12
      12
      12
      12
      12
      12
      12
      12
      12
      12
      12
      12
      12
      12
      12
      12
      12
      12
      12
      12
      12
      12
      12
      12
      12
      12
      12
      12
      12
      12
      12
      12
      12
      12
      12
      12
      12
      12
      12
      12
      12
      12
      12
      12
      12
      12
      12
      12
      12
      12
      12
      12
      12
      12
      12
      12
      12
      12
      12
      12
      12
      12
      12
      12
      12
      12
      12
      12
      12
      12
      12
      12
      12
      12
      12
      12
      12
      12
      12
      12
      12
      12
      12
      12
      12
      12
      12
      12
  
  
POINT_DATA       1950
  
SCALARS                  material_type  double 1
LOOKUP_TABLE default
                   2
                   2
                   2
                   2
                   2
                   2
                   2
                   2
                   2
                   2
                   2
                   2
                   2
                   2
                   2
                   2
                   2
                   2
                   2
                   2
                   2
                   2
                   2
                   2
                   2
                   2
                   2
                   2
                   2
                   2
                   2
                   2
                   2
                   2
                   2
                   2
                   2
                   2
                   2
                   2
                   2
                   2
                   2
                   2
                   2
                   2
                   2
                   2
                   2
                   2
                   2
                   2
                   2
                   2
                   2
                   2
                   2
                   2
                   2
                   2
                   2
                   2
                   2
                   2
                   2
                   2
                   2
                   2
                   2
                   2
                   2
                   2
                   2
                   2
                   2
                   2
                   2
                   2
                   2
                   2
                   2
                   2
                   2
                   2
                   2
                   2
                   2
                   2
                   2
                   2
                   2
                   2
                   2
                   2
                   2
                   2
                   2
                   2
                   2
                   2
                   2
                   2
                   2
                   2
                   2
                   2
                   2
                   2
                   2
                   2
                   2
                   2
                   2
                   2
                   2
                   2
                   2
                   2
                   2
                   2
                   2
                   2
                   2
                   2
                   2
                   2
                   2
                   2
                   2
                   2
                   2
                   2
                   2
                   2
                   2
                   2
                   2
                   2
                   2
                   2
                   2
                   2
                   2
                   2
                   2
                   2
                   2
                   2
                   2
                   2
                   2
                   2
                   2
                   2
                   2
                   2
                   2
                   2
                   2
                   2
                   2
                   2
                   2
                   2
                   2
                   2
                   2
                   2
                   2
                   2
                   2
                   2
                   2
                   2
                   2
                   2
                   2
                   2
                   2
                   2
                   2
                   2
                   2
                   2
                   2
                   2
                   2
                   2
                   2
                   2
                   2
                   2
                   2
                   2
                   2
                   2
                   2
                   2
                   2
                   2
                   2
                   2
                   2
                   2
                   2
                   2
                   2
                   2
                   2
                   2
                   2
                   2
                   2
                   2
                   2
                   2
                   2
                   2
                   2
                   2
                   2
                   2
                   2
                   2
                   2
                   2
                   2
                   2
                   2
                   2
                   2
                   2
                   2
                   2
                   2
                   2
                   2
                   2
                   2
                   2
                   2
                   2
                   2
                   2
                   2
                   2
                   2
                   2
                   2
                   2
                   2
                   2
                   2
                   2
                   2
                   2
                   2
                   2
                   2
                   2
                   2
                   2
                   2
                   2
                   2
                   2
                   2
                   2
                   2
                   2
                   2
                   2
                   2
                   2
                   2
                   2
                   2
                   2
                   2
                   2
                   2
                   2
                   2
                   2
                   2
                   2
                   2
                   2
                   2
                   2
                   2
                   2
                   2
                   2
                   2
                   2
                   2
                   2
                   2
                   2
                   2
                   2
                   2
                   2
                   2
                   2
                   2
                   2
                   2
                   2
                   2
                   2
                   2
                   2
                   2
                   2
                   2
                   2
                   2
                   2
                   2
                   2
                   2
                   2
                   2
                   2
                   2
                   2
                   2
                   2
                   2
                   2
                   2
                   2
                   2
                   2
                   2
                   2
                   2
                   2
                   2
                   2
                   2
                   2
                   2
                   2
                   2
                   2
                   2
                   2
                   2
                   2
                   2
                   2
                   2
                   2
                   2
                   2
                   2
                   2
                   2
                   2
                   2
                   2
                   2
                   2
                   2
                   2
                   2
                   2
                   2
                   2
                   2
                   2
                   2
                   2
                   2
                   2
                   2
                   2
                   2
                   2
                   2
                   2
                   2
                   2
                   2
                   2
                   2
                   2
                   2
                   2
                   2
                   2
                   2
                   2
                   2
                   2
                   2
                   2
                   2
                   2
                   2
                   2
                   2
                   2
                   2
                   2
                   2
                   2
                   2
                   2
                   2
                   2
                   2
                   2
                   2
                   2
                   2
                   2
                   2
                   2
                   2
                   2
                   2
                   2
                   2
                   2
                   2
                   2
                   2
                   2
                   2
                   2
                   2
                   2
                   2
                   2
                   2
                   2
                   2
                   2
                   2
                   2
                   2
                   2
                   2
                   2
                   2
                   2
                   2
                   2
                   2
                   2
                   2
                   2
                   2
                   2
                   2
                   2
                   2
                   2
                   2
                   2
                   2
                   2
                   2
                   2
                   2
                   2
                   2
                   2
                   2
                   2
                   2
                   2
                   2
                   2
                   2
                   2
                   2
                   2
                   2
                   2
                   2
                   2
                   2
                   2
                   2
                   2
                   2
                   2
                   2
                   2
                   2
                   2
                   2
                   2
                   2
                   2
                   2
                   2
                   2
                   2
                   2
                   2
                   2
                   2
                   2
                   2
                   2
                   2
                   2
                   2
                   2
                   2
                   2
                   2
                   2
                   2
                   2
                   2
                   2
                   2
                   2
                   2
                   2
                   2
                   2
                   2
                   2
                   2
                   2
                   2
                   2
                   2
                   2
                   2
                   2
                   2
                   2
                   2
                   2
                   2
                   2
                   2
                   2
                   2
                   2
                   2
                   2
                   2
                   2
                   2
                   2
                   2
                   2
                   2
                   2
                   2
                   2
                   2
                   2
                   2
                   2
                   2
                   2
                   2
                   2
                   2
                   2
                   2
                   2
                   2
                   2
                   2
                   2
                   2
                   2
                   2
                   2
                   2
                   2
                   2
                   2
                   2
                   2
                   2
                   2
                   2
                   2
                   2
                   2
                   2
                   2
                   2
                   2
                   2
                   2
                   2
                   2
                   2
                   2
                   2
                   2
                   2
                   2
                   2
                   2
                   2
                   2
                   2
                   2
                   2
                   2
                   2
                   2
                   2
                   2
                   2
                   2
                   2
                   2
                   2
                   2
                   2
                   2
                   2
                   2
                   2
                   2
                   2
                   2
                   2
                   2
                   2
                   2
                   2
                   2
                   2
                   2
                   2
                   2
                   2
                   2
                   2
                   2
                   2
                   2
                   2
                   2
                   2
                   2
                   2
                   2
                   2
                   2
                   2
                   2
                   2
                   2
                   2
                   2
                   2
                   2
                   2
                   2
                   2
                   2
                   2
                   2
                   2
                   2
                   2
                   2
                   2
                   2
                   2
                   2
                   2
                   2
                   2
                   2
                   2
                   2
                   2
                   2
                   2
                   2
                   2
                   2
                   2
                   2
                   2
                   2
                   2
                   2
                   2
                   2
                   2
                   2
                   2
                   2
                   2
                   2
                   2
                   2
                   2
                   2
                   2
                   2
                   2
                   2
                   2
                   2
                   2
                   2
                   2
                   2
                   2
                   2
                   2
                   2
                   2
                   2
                   2
                   2
                   2
                   2
                   2
                   2
                   2
                   2
                   2
                   2
                   2
                   2
                   2
                   2
                   2
                   2
                   2
                   2
                   2
                   2
                   2
                   2
                   2
                   2
                   2
                   2
                   2
                   2
                   2
                   2
                   2
                   2
                   2
                   2
                   2
                   2
                   2
                   2
                   2
                   2
                   2
                   2
                   2
                   2
                   2
                   2
                   2
                   2
                   2
                   2
                   2
                   2
                   2
                   2
                   2
                   2
                   2
                   2
                   2
                   2
                   2
                   2
                   2
                   2
                   2
                   2
                   2
                   2
                   2
                   2
                   2
                   2
                   2
                   2
                   2
                   2
                   2
                   2
                   2
                   2
                   2
                   2
                   2
                   2
                   2
                   2
                   2
                   2
                   2
                   2
                   2
                   2
                   2
                   2
                   2
                   2
                   2
                   2
                   2
                   2
                   2
                   2
                   2
                   2
                   2
                   2
                   2
                   2
                   2
                   2
                   2
                   2
                   2
                   2
                   2
                   2
                   2
                   2
                   2
                   2
                   2
                   2
                   2
                   2
                   2
                   2
                   2
                   2
                   2
                   2
                   2
                   2
                   2
                   2
                   2
                   2
                   2
                   2
                   2
                   2
                   2
                   2
                   2
                   2
                   2
                   2
                   2
                   2
                   2
                   2
                   2
                   2
                   2
                   2
                   2
                   2
                   2
                   2
                   2
                   2
                   2
                   2
                   2
                   2
                   2
                   2
                   2
                   2
                   2
                   2
                   2
                   2
                   2
                   2
                   2
                   2
                   2
                   2
                   2
                   2
                   2
                   2
                   2
                   2
                   2
                   2
                   2
                   2
                   2
                   2
                   2
                   2
                   2
                   2
                   2
                   2
                   2
                   2
                   2
                   2
                   2
                   2
                   2
                   2
                   2
                   2
                   2
                   2
                   2
                   2
                   2
                   2
                   2
                   2
                   2
                   2
                   2
                   2
                   2
                   2
                   2
                   2
                   2
                   2
                   2
                   2
                   2
                   2
                   2
                   2
                   2
                   2
                   2
                   2
                   2
                   2
                   2
                   2
                   2
                   2
                   2
                   2
                   2
                   2
                   2
                   2
                   2
                   2
                   2
                   2
                   2
                   2
                   2
                   2
                   2
                   2
                   2
                   2
                   2
                   2
                   2
                   2
                   2
                   2
                   2
                   2
                   2
                   2
                   2
                   2
                   2
                   2
                   2
                   2
                   2
                   2
                   2
                   2
                   2
                   2
                   2
                   2
                   2
                   2
                   2
                   2
                   2
                   2
                   2
                   2
                   2
                   2
                   2
                   2
                   2
                   2
                   2
                   2
                   2
                   2
                   2
                   2
                   2
                   2
                   2
                   2
                   2
                   2
                   2
                   2
                   2
                   2
                   2
                   2
                   2
                   2
                   2
                   2
                   2
                   2
                   2
                   2
                   2
                   2
                   2
                   2
                   2
                   2
                   2
                   2
                   2
                   2
                   2
                   2
                   2
                   2
                   2
                   2
                   2
                   2
                   2
                   2
                   2
                   2
                   2
                   2
                   2
                   2
                   2
                   2
                   2
                   2
                   2
                   2
                   2
                   2
                   2
                   2
                   2
                   2
                   2
                   2
                   2
                   2
                   2
                   2
                   2
                   2
                   2
                   2
                   2
                   2
                   2
                   2
                   2
                   2
                   2
                   2
                   2
                   2
                   2
                   2
                   2
                   2
                   2
                   2
                   2
                   2
                   2
                   2
                   2
                   2
                   2
                   2
                   2
                   2
                   2
                   2
                   2
                   2
                   2
                   2
                   2
                   2
                   2
                   2
                   2
                   2
                   2
                   2
                   2
                   2
                   2
                   2
                   2
                   2
                   2
                   2
                   2
                   2
                   2
                   2
                   2
                   2
                   2
                   2
                   2
                   2
                   2
                   2
                   2
                   2
                   2
                   2
                   2
                   2
                   2
                   2
                   2
                   2
                   2
                   2
                   2
                   2
                   2
                   2
                   2
                   2
                   2
                   2
                   2
                   2
                   2
                   2
                   2
                   2
                   2
                   2
                   2
                   2
                   2
                   2
                   2
                   2
                   2
                   2
                   2
                   2
                   2
                   2
                   2
                   2
                   2
                   2
                   2
                   2
                   2
                   2
                   2
                   2
                   2
                   2
                   2
                   2
                   2
                   2
                   2
                   2
                   2
                   2
                   2
                   2
                   2
                   2
                   2
                   2
                   2
                   2
                   2
                   2
                   2
                   2
                   2
                   2
                   2
                   2
                   2
                   2
                   2
                   2
                   2
                   2
                   2
                   2
                   2
                   2
                   2
                   2
                   2
                   2
                   2
                   2
                   2
                   2
                   2
                   2
                   2
                   2
                   2
                   2
                   2
                   2
                   2
                   2
                   2
                   2
                   2
                   2
                   2
                   2
                   2
                   2
                   2
                   2
                   2
                   2
                   2
                   2
                   2
                   2
                   2
                   2
                   2
                   2
                   2
                   2
                   2
                   2
                   2
                   2
                   2
                   2
                   2
                   2
                   2
                   2
                   2
                   2
                   2
                   2
                   2
                   2
                   2
                   2
                   2
                   2
                   2
                   2
                   2
                   2
                   2
                   2
                   2
                   2
                   2
                   2
                   2
                   2
                   2
                   2
                   2
                   2
                   2
                   2
                   2
                   2
                   2
                   2
                   2
                   2
                   2
                   2
                   2
                   2
                   2
                   2
                   2
                   2
                   2
                   2
                   2
                   2
                   2
                   2
                   2
                   2
                   2
                   2
                   2
                   2
                   2
                   2
                   2
                   2
                   2
                   2
                   2
                   2
                   2
                   2
                   2
                   2
                   2
                   2
                   2
                   2
                   2
                   2
                   2
                   2
                   2
                   2
                   2
                   2
                   2
                   2
                   2
                   2
                   2
                   2
                   2
                   2
                   2
                   2
                   2
                   2
                   2
                   2
                   2
                   2
                   2
                   2
                   2
                   2
                   2
                   2
                   2
                   2
                   2
                   2
                   2
                   2
                   2
                   2
                   2
                   2
                   2
                   2
                   2
                   2
                   2
                   2
                   2
                   2
                   2
                   2
                   2
                   2
                   2
                   2
                   2
                   2
                   2
                   2
                   2
                   2
                   2
                   2
                   2
                   2
                   2
                   2
                   2
                   2
                   2
                   2
                   2
                   2
                   2
                   2
                   2
                   2
                   2
                   2
                   2
                   2
                   2
                   2
                   2
                   2
                   2
                   2
                   2
                   2
                   2
                   2
                   2
                   2
                   2
                   2
                   2
                   2
                   2
                   2
                   2
                   2
                   2
                   2
                   2
                   2
                   2
                   2
                   2
                   2
                   2
                   2
                   2
                   2
                   2
                   2
                   2
                   2
                   2
                   2
                   2
                   2
                   2
                   2
                   2
                   2
                   2
                   2
                   2
                   2
                   2
                   2
                   2
                   2
                   2
                   2
                   2
                   2
                   2
                   2
                   2
                   2
                   2
                   2
                   2
                   2
                   2
                   2
                   2
                   2
                   2
                   2
                   2
                   2
                   2
                   2
                   2
                   2
                   2
                   2
                   2
                   2
                   2
                   2
                   2
                   2
                   2
                   2
                   2
                   2
                   2
                   2
                   2
                   2
                   2
                   2
                   2
                   2
                   2
                   2
                   2
                   2
                   2
                   2
                   2
                   2
                   2
                   2
                   2
                   2
                   2
                   2
                   2
                   2
                   2
                   2
                   2
                   2
                   2
                   2
                   2
                   2
                   2
                   2
                   2
                   2
                   2
                   2
                   2
                   2
                   2
                   2
                   2
                   2
                   2
                   2
                   2
                   2
                   2
                   2
                   2
                   2
                   2
                   2
                   2
                   2
                   2
                   2
                   2
                   2
                   2
                   2
                   2
                   2
                   2
                   2
                   2
                   2
                   2
                   2
                   2
                   2
                   2
                   2
                   2
                   2
                   2
                   2
                   2
                   2
                   2
                   2
                   2
                   2
                   2
                   2
                   2
                   2
                   2
                   2
                   2
                   2
                   2
                   2
                   2
                   2
                   2
                   2
                   2
                   2
                   2
                   2
                   2
                   2
                   2
                   2
                   2
                   2
                   2
                   2
                   2
                   2
                   2
                   2
                   2
                   2
                   2
                   2
                   2
                   2
                   2
                   2
                   2
                   2
                   2
                   2
                   2
                   2
                   2
                   2
                   2
                   2
                   2
                   2
                   2
                   2
                   2
                   2
                   2
                   2
                   2
                   2
                   2
                   2
                   2
                   2
                   2
                   2
                   2
                   2
                   2
                   2
                   2
                   2
                   2
                   2
                   2
                   2
                   2
                   2
                   2
                   2
                   2
                   2
                   2
                   2
                   2
                   2
                   2
                   2
                   2
                   2
                   2
                   2
                   2
                   2
                   2
                   2
                   2
                   2
                   2
                   2
                   2
                   2
                   2
                   2
                   2
                   2
                   2
                   2
                   2
                   2
                   2
                   2
                   2
                   2
                   2
                   2
                   2
                   2
                   2
                   2
                   2
                   2
                   2
                   2
                   2
                   2
                   2
                   2
                   2
                   2
                   2
                   2
                   2
                   2
                   2
                   2
                   2
                   2
                   2
                   2
                   2
                   2
                   2
                   2
                   2
                   2
                   2
                   2
                   2
                   2
                   2
                   2
                   2
                   2
                   2
                   2
                   2
                   2
                   2
                   2
                   2
                   2
                   2
                   2
                   2
                   2
                   2
                   2
                   2
                   2
                   2
                   2
                   2
                   2
                   2
                   2
                   2
                   2
                   2
                   2
                   2
                   2
                   2
                   2
                   2
                   2
                   2
                   2
                   2
                   2
                   2
                   2
                   2
                   2
                   2
                   2
                   2
                   2
                   2
                   2
                   2
                   2
                   2
                   2
                   2
                   2
                   2
                   2
                   2
                   2
                   2
                   2
                   2
                   2
                   2
                   2
                   2
                   2
                   2
                   2
                   2
                   2
                   2
                   2
                   2
                   2
                   2
                   2
                   2
                   2
                   2
                   2
                   2
                   2
                   2
                   2
                   2
                   2
                   2
                   2
                   2
                   2
                   2
                   2
                   2
                   2
                   2
                   2
                   2
                   2
                   2
                   2
                   2
                   2
                   2
                   2
                   2
                   2
                   2
                   2
                   2
                   2
                   2
                   2
                   2
                   2
                   2
                   2
                   2
                   2
                   2
                   2
                   2
                   2
                   2
                   2
                   2
                   2
                   2
                   2
                   2
                   2
                   2
                   2
                   2
                   2
                   2
                   2
                   2
                   2
                   2
                   2
                   2
                   2
                   2
                   2
                   2
                   2
                   2
                   2
                   2
                   2
                   2
                   2
                   2
                   2
                   2
                   2
                   2
                   2
                   2
                   2
                   2
                   2
                   2
                   2
                   2
                   2
                   2
                   2
                   2
                   2
                   2
                   2
                   2
                   2
                   2
                   2
                   2
                   2
                   2
                   2
                   2
                   2
                   2
                   2
                   2
                   2
                   2
  
SCALARS                        node_id  double 1
LOOKUP_TABLE default
                   1
                   2
                   3
                   4
                   5
                   6
                   7
                   8
                   9
                  10
                  11
                  12
                  13
                  14
                  15
                  16
                  17
                  18
                  19
                  20
                  21
                  22
                  23
                  24
                  25
                  26
                  27
                  28
                  29
                  30
                  31
                  32
                  33
                  34
                  35
                  36
                  37
                  38
                  39
                  40
                  41
                  42
                  43
                  44
                  45
                  46
                  47
                  48
                  49
                  50
                  51
                  52
                  53
                  54
                  55
                  56
                  57
                  58
                  59
                  60
                  61
                  62
                  63
                  64
                  65
                  66
                  67
                  68
                  69
                  70
                  71
                  72
                  73
                  74
                  75
                  76
                  77
                  78
                  79
                  80
                  81
                  82
                  83
                  84
                  85
                  86
                  87
                  88
                  89
                  90
                  91
                  92
                  93
                  94
                  95
                  96
                  97
                  98
                  99
                 100
                 101
                 102
                 103
                 104
                 105
                 106
                 107
                 108
                 109
                 110
                 111
                 112
                 113
                 114
                 115
                 116
                 117
                 118
                 119
                 120
                 121
                 122
                 123
                 124
                 125
                 126
                 127
                 128
                 129
                 130
                 131
                 132
                 133
                 134
                 135
                 136
                 137
                 138
                 139
                 140
                 141
                 142
                 143
                 144
                 145
                 146
                 147
                 148
                 149
                 150
                 151
                 152
                 153
                 154
                 155
                 156
                 157
                 158
                 159
                 160
                 161
                 162
                 163
                 164
                 165
                 166
                 167
                 168
                 169
                 170
                 171
                 172
                 173
                 174
                 175
                 176
                 177
                 178
                 179
                 180
                 181
                 182
                 183
                 184
                 185
                 186
                 187
                 188
                 189
                 190
                 191
                 192
                 193
                 194
                 195
                 196
                 197
                 198
                 199
                 200
                 201
                 202
                 203
                 204
                 205
                 206
                 207
                 208
                 209
                 210
                 211
                 212
                 213
                 214
                 215
                 216
                 217
                 218
                 219
                 220
                 221
                 222
                 223
                 224
                 225
                 226
                 227
                 228
                 229
                 230
                 231
                 232
                 233
                 234
                 235
                 236
                 237
                 238
                 239
                 240
                 241
                 242
                 243
                 244
                 245
                 246
                 247
                 248
                 249
                 250
                 251
                 252
                 253
                 254
                 255
                 256
                 257
                 258
                 259
                 260
                 261
                 262
                 263
                 264
                 265
                 266
                 267
                 268
                 269
                 270
                 271
                 272
                 273
                 274
                 275
                 276
                 277
                 278
                 279
                 280
                 281
                 282
                 283
                 284
                 285
                 286
                 287
                 288
                 289
                 290
                 291
                 292
                 293
                 294
                 295
                 296
                 297
                 298
                 299
                 300
                 301
                 302
                 303
                 304
                 305
                 306
                 307
                 308
                 309
                 310
                 311
                 312
                 313
                 314
                 315
                 316
                 317
                 318
                 319
                 320
                 321
                 322
                 323
                 324
                 325
                 326
                 327
                 328
                 329
                 330
                 331
                 332
                 333
                 334
                 335
                 336
                 337
                 338
                 339
                 340
                 341
                 342
                 343
                 344
                 345
                 346
                 347
                 348
                 349
                 350
                 351
                 352
                 353
                 354
                 355
                 356
                 357
                 358
                 359
                 360
                 361
                 362
                 363
                 364
                 365
                 366
                 367
                 368
                 369
                 370
                 371
                 372
                 373
                 374
                 375
                 376
                 377
                 378
                 379
                 380
                 381
                 382
                 383
                 384
                 385
                 386
                 387
                 388
                 389
                 390
                 391
                 392
                 393
                 394
                 395
                 396
                 397
                 398
                 399
                 400
                 401
                 402
                 403
                 404
                 405
                 406
                 407
                 408
                 409
                 410
                 411
                 412
                 413
                 414
                 415
                 416
                 417
                 418
                 419
                 420
                 421
                 422
                 423
                 424
                 425
                 426
                 427
                 428
                 429
                 430
                 431
                 432
                 433
                 434
                 435
                 436
                 437
                 438
                 439
                 440
                 441
                 442
                 443
                 444
                 445
                 446
                 447
                 448
                 449
                 450
                 451
                 452
                 453
                 454
                 455
                 456
                 457
                 458
                 459
                 460
                 461
                 462
                 463
                 464
                 465
                 466
                 467
                 468
                 469
                 470
                 471
                 472
                 473
                 474
                 475
                 476
                 477
                 478
                 479
                 480
                 481
                 482
                 483
                 484
                 485
                 486
                 487
                 488
                 489
                 490
                 491
                 492
                 493
                 494
                 495
                 496
                 497
                 498
                 499
                 500
                 501
                 502
                 503
                 504
                 505
                 506
                 507
                 508
                 509
                 510
                 511
                 512
                 513
                 514
                 515
                 516
                 517
                 518
                 519
                 520
                 521
                 522
                 523
                 524
                 525
                 526
                 527
                 528
                 529
                 530
                 531
                 532
                 533
                 534
                 535
                 536
                 537
                 538
                 539
                 540
                 541
                 542
                 543
                 544
                 545
                 546
                 547
                 548
                 549
                 550
                 551
                 552
                 553
                 554
                 555
                 556
                 557
                 558
                 559
                 560
                 561
                 562
                 563
                 564
                 565
                 566
                 567
                 568
                 569
                 570
                 571
                 572
                 573
                 574
                 575
                 576
                 577
                 578
                 579
                 580
                 581
                 582
                 583
                 584
                 585
                 586
                 587
                 588
                 589
                 590
                 591
                 592
                 593
                 594
                 595
                 596
                 597
                 598
                 599
                 600
                 601
                 602
                 603
                 604
                 605
                 606
                 607
                 608
                 609
                 610
                 611
                 612
                 613
                 614
                 615
                 616
                 617
                 618
                 619
                 620
                 621
                 622
                 623
                 624
                 625
                 626
                 627
                 628
                 629
                 630
                 631
                 632
                 633
                 634
                 635
                 636
                 637
                 638
                 639
                 640
                 641
                 642
                 643
                 644
                 645
                 646
                 647
                 648
                 649
                 650
                 651
                 652
                 653
                 654
                 655
                 656
                 657
                 658
                 659
                 660
                 661
                 662
                 663
                 664
                 665
                 666
                 667
                 668
                 669
                 670
                 671
                 672
                 673
                 674
                 675
                 676
                 677
                 678
                 679
                 680
                 681
                 682
                 683
                 684
                 685
                 686
                 687
                 688
                 689
                 690
                 691
                 692
                 693
                 694
                 695
                 696
                 697
                 698
                 699
                 700
                 701
                 702
                 703
                 704
                 705
                 706
                 707
                 708
                 709
                 710
                 711
                 712
                 713
                 714
                 715
                 716
                 717
                 718
                 719
                 720
                 721
                 722
                 723
                 724
                 725
                 726
                 727
                 728
                 729
                 730
                 731
                 732
                 733
                 734
                 735
                 736
                 737
                 738
                 739
                 740
                 741
                 742
                 743
                 744
                 745
                 746
                 747
                 748
                 749
                 750
                 751
                 752
                 753
                 754
                 755
                 756
                 757
                 758
                 759
                 760
                 761
                 762
                 763
                 764
                 765
                 766
                 767
                 768
                 769
                 770
                 771
                 772
                 773
                 774
                 775
                 776
                 777
                 778
                 779
                 780
                 781
                 782
                 783
                 784
                 785
                 786
                 787
                 788
                 789
                 790
                 791
                 792
                 793
                 794
                 795
                 796
                 797
                 798
                 799
                 800
                 801
                 802
                 803
                 804
                 805
                 806
                 807
                 808
                 809
                 810
                 811
                 812
                 813
                 814
                 815
                 816
                 817
                 818
                 819
                 820
                 821
                 822
                 823
                 824
                 825
                 826
                 827
                 828
                 829
                 830
                 831
                 832
                 833
                 834
                 835
                 836
                 837
                 838
                 839
                 840
                 841
                 842
                 843
                 844
                 845
                 846
                 847
                 848
                 849
                 850
                 851
                 852
                 853
                 854
                 855
                 856
                 857
                 858
                 859
                 860
                 861
                 862
                 863
                 864
                 865
                 866
                 867
                 868
                 869
                 870
                 871
                 872
                 873
                 874
                 875
                 876
                 877
                 878
                 879
                 880
                 881
                 882
                 883
                 884
                 885
                 886
                 887
                 888
                 889
                 890
                 891
                 892
                 893
                 894
                 895
                 896
                 897
                 898
                 899
                 900
                 901
                 902
                 903
                 904
                 905
                 906
                 907
                 908
                 909
                 910
                 911
                 912
                 913
                 914
                 915
                 916
                 917
                 918
                 919
                 920
                 921
                 922
                 923
                 924
                 925
                 926
                 927
                 928
                 929
                 930
                 931
                 932
                 933
                 934
                 935
                 936
                 937
                 938
                 939
                 940
                 941
                 942
                 943
                 944
                 945
                 946
                 947
                 948
                 949
                 950
                 951
                 952
                 953
                 954
                 955
                 956
                 957
                 958
                 959
                 960
                 961
                 962
                 963
                 964
                 965
                 966
                 967
                 968
                 969
                 970
                 971
                 972
                 973
                 974
                 975
                 976
                 977
                 978
                 979
                 980
                 981
                 982
                 983
                 984
                 985
                 986
                 987
                 988
                 989
                 990
                 991
                 992
                 993
                 994
                 995
                 996
                 997
                 998
                 999
                1000
                1001
                1002
                1003
                1004
                1005
                1006
                1007
                1008
                1009
                1010
                1011
                1012
                1013
                1014
                1015
                1016
                1017
                1018
                1019
                1020
                1021
                1022
                1023
                1024
                1025
                1026
                1027
                1028
                1029
                1030
                1031
                1032
                1033
                1034
                1035
                1036
                1037
                1038
                1039
                1040
                1041
                1042
                1043
                1044
                1045
                1046
                1047
                1048
                1049
                1050
                1051
                1052
                1053
                1054
                1055
                1056
                1057
                1058
                1059
                1060
                1061
                1062
                1063
                1064
                1065
                1066
                1067
                1068
                1069
                1070
                1071
                1072
                1073
                1074
                1075
                1076
                1077
                1078
                1079
                1080
                1081
                1082
                1083
                1084
                1085
                1086
                1087
                1088
                1089
                1090
                1091
                1092
                1093
                1094
                1095
                1096
                1097
                1098
                1099
                1100
                1101
                1102
                1103
                1104
                1105
                1106
                1107
                1108
                1109
                1110
                1111
                1112
                1113
                1114
                1115
                1116
                1117
                1118
                1119
                1120
                1121
                1122
                1123
                1124
                1125
                1126
                1127
                1128
                1129
                1130
                1131
                1132
                1133
                1134
                1135
                1136
                1137
                1138
                1139
                1140
                1141
                1142
                1143
                1144
                1145
                1146
                1147
                1148
                1149
                1150
                1151
                1152
                1153
                1154
                1155
                1156
                1157
                1158
                1159
                1160
                1161
                1162
                1163
                1164
                1165
                1166
                1167
                1168
                1169
                1170
                1171
                1172
                1173
                1174
                1175
                1176
                1177
                1178
                1179
                1180
                1181
                1182
                1183
                1184
                1185
                1186
                1187
                1188
                1189
                1190
                1191
                1192
                1193
                1194
                1195
                1196
                1197
                1198
                1199
                1200
                1201
                1202
                1203
                1204
                1205
                1206
                1207
                1208
                1209
                1210
                1211
                1212
                1213
                1214
                1215
                1216
                1217
                1218
                1219
                1220
                1221
                1222
                1223
                1224
                1225
                1226
                1227
                1228
                1229
                1230
                1231
                1232
                1233
                1234
                1235
                1236
                1237
                1238
                1239
                1240
                1241
                1242
                1243
                1244
                1245
                1246
                1247
                1248
                1249
                1250
                1251
                1252
                1253
                1254
                1255
                1256
                1257
                1258
                1259
                1260
                1261
                1262
                1263
                1264
                1265
                1266
                1267
                1268
                1269
                1270
                1271
                1272
                1273
                1274
                1275
                1276
                1277
                1278
                1279
                1280
                1281
                1282
                1283
                1284
                1285
                1286
                1287
                1288
                1289
                1290
                1291
                1292
                1293
                1294
                1295
                1296
                1297
                1298
                1299
                1300
                1301
                1302
                1303
                1304
                1305
                1306
                1307
                1308
                1309
                1310
                1311
                1312
                1313
                1314
                1315
                1316
                1317
                1318
                1319
                1320
                1321
                1322
                1323
                1324
                1325
                1326
                1327
                1328
                1329
                1330
                1331
                1332
                1333
                1334
                1335
                1336
                1337
                1338
                1339
                1340
                1341
                1342
                1343
                1344
                1345
                1346
                1347
                1348
                1349
                1350
                1351
                1352
                1353
                1354
                1355
                1356
                1357
                1358
                1359
                1360
                1361
                1362
                1363
                1364
                1365
                1366
                1367
                1368
                1369
                1370
                1371
                1372
                1373
                1374
                1375
                1376
                1377
                1378
                1379
                1380
                1381
                1382
                1383
                1384
                1385
                1386
                1387
                1388
                1389
                1390
                1391
                1392
                1393
                1394
                1395
                1396
                1397
                1398
                1399
                1400
                1401
                1402
                1403
                1404
                1405
                1406
                1407
                1408
                1409
                1410
                1411
                1412
                1413
                1414
                1415
                1416
                1417
                1418
                1419
                1420
                1421
                1422
                1423
                1424
                1425
                1426
                1427
                1428
                1429
                1430
                1431
                1432
                1433
                1434
                1435
                1436
                1437
                1438
                1439
                1440
                1441
                1442
                1443
                1444
                1445
                1446
                1447
                1448
                1449
                1450
                1451
                1452
                1453
                1454
                1455
                1456
                1457
                1458
                1459
                1460
                1461
                1462
                1463
                1464
                1465
                1466
                1467
                1468
                1469
                1470
                1471
                1472
                1473
                1474
                1475
                1476
                1477
                1478
                1479
                1480
                1481
                1482
                1483
                1484
                1485
                1486
                1487
                1488
                1489
                1490
                1491
                1492
                1493
                1494
                1495
                1496
                1497
                1498
                1499
                1500
                1501
                1502
                1503
                1504
                1505
                1506
                1507
                1508
                1509
                1510
                1511
                1512
                1513
                1514
                1515
                1516
                1517
                1518
                1519
                1520
                1521
                1522
                1523
                1524
                1525
                1526
                1527
                1528
                1529
                1530
                1531
                1532
                1533
                1534
                1535
                1536
                1537
                1538
                1539
                1540
                1541
                1542
                1543
                1544
                1545
                1546
                1547
                1548
                1549
                1550
                1551
                1552
                1553
                1554
                1555
                1556
                1557
                1558
                1559
                1560
                1561
                1562
                1563
                1564
                1565
                1566
                1567
                1568
                1569
                1570
                1571
                1572
                1573
                1574
                1575
                1576
                1577
                1578
                1579
                1580
                1581
                1582
                1583
                1584
                1585
                1586
                1587
                1588
                1589
                1590
                1591
                1592
                1593
                1594
                1595
                1596
                1597
                1598
                1599
                1600
                1601
                1602
                1603
                1604
                1605
                1606
                1607
                1608
                1609
                1610
                1611
                1612
                1613
                1614
                1615
                1616
                1617
                1618
                1619
                1620
                1621
                1622
                1623
                1624
                1625
                1626
                1627
                1628
                1629
                1630
                1631
                1632
                1633
                1634
                1635
                1636
                1637
                1638
                1639
                1640
                1641
                1642
                1643
                1644
                1645
                1646
                1647
                1648
                1649
                1650
                1651
                1652
                1653
                1654
                1655
                1656
                1657
                1658
                1659
                1660
                1661
                1662
                1663
                1664
                1665
                1666
                1667
                1668
                1669
                1670
                1671
                1672
                1673
                1674
                1675
                1676
                1677
                1678
                1679
                1680
                1681
                1682
                1683
                1684
                1685
                1686
                1687
                1688
                1689
                1690
                1691
                1692
                1693
                1694
                1695
                1696
                1697
                1698
                1699
                1700
                1701
                1702
                1703
                1704
                1705
                1706
                1707
                1708
                1709
                1710
                1711
                1712
                1713
                1714
                1715
                1716
                1717
                1718
                1719
                1720
                1721
                1722
                1723
                1724
                1725
                1726
                1727
                1728
                1729
                1730
                1731
                1732
                1733
                1734
                1735
                1736
                1737
                1738
                1739
                1740
                1741
                1742
                1743
                1744
                1745
                1746
                1747
                1748
                1749
                1750
                1751
                1752
                1753
                1754
                1755
                1756
                1757
                1758
                1759
                1760
                1761
                1762
                1763
                1764
                1765
                1766
                1767
                1768
                1769
                1770
                1771
                1772
                1773
                1774
                1775
                1776
                1777
                1778
                1779
                1780
                1781
                1782
                1783
                1784
                1785
                1786
                1787
                1788
                1789
                1790
                1791
                1792
                1793
                1794
                1795
                1796
                1797
                1798
                1799
                1800
                1801
                1802
                1803
                1804
                1805
                1806
                1807
                1808
                1809
                1810
                1811
                1812
                1813
                1814
                1815
                1816
                1817
                1818
                1819
                1820
                1821
                1822
                1823
                1824
                1825
                1826
                1827
                1828
                1829
                1830
                1831
                1832
                1833
                1834
                1835
                1836
                1837
                1838
                1839
                1840
                1841
                1842
                1843
                1844
                1845
                1846
                1847
                1848
                1849
                1850
                1851
                1852
                1853
                1854
                1855
                1856
                1857
                1858
                1859
                1860
                1861
                1862
                1863
                1864
                1865
                1866
                1867
                1868
                1869
                1870
                1871
                1872
                1873
                1874
                1875
                1876
                1877
                1878
                1879
                1880
                1881
                1882
                1883
                1884
                1885
                1886
                1887
                1888
                1889
                1890
                1891
                1892
                1893
                1894
                1895
                1896
                1897
                1898
                1899
                1900
                1901
                1902
                1903
                1904
                1905
                1906
                1907
                1908
                1909
                1910
                1911
                1912
                1913
                1914
                1915
                1916
                1917
                1918
                1919
                1920
                1921
                1922
                1923
                1924
                1925
                1926
                1927
                1928
                1929
                1930
                1931
                1932
                1933
                1934
                1935
                1936
                1937
                1938
                1939
                1940
                1941
                1942
                1943
                1944
                1945
                1946
                1947
                1948
                1949
                1950
  
SCALARS                         bodyid  double 1
LOOKUP_TABLE default
                   1
                   1
                   1
                   1
                   1
                   1
                   1
                   1
                   1
                   1
                   1
                   1
                   1
                   1
                   1
                   1
                   1
                   1
                   1
                   1
                   1
                   1
                   1
                   1
                   1
                   1
                   1
                   1
                   1
                   1
                   1
                   1
                   1
                   1
                   1
                   1
                   1
                   1
                   1
                   1
                   1
                   1
                   1
                   1
                   1
                   1
                   1
                   1
                   1
                   1
                   1
                   1
                   1
                   1
                   1
                   1
                   1
                   1
                   1
                   1
                   1
                   1
                   1
                   1
                   1
                   1
                   1
                   1
                   1
                   1
                   1
                   1
                   1
                   1
                   1
                   1
                   1
                   1
                   1
                   1
                   1
                   1
                   1
                   1
                   1
                   1
                   1
                   1
                   1
                   1
                   1
                   1
                   1
                   1
                   1
                   1
                   1
                   1
                   1
                   1
                   1
                   1
                   1
                   1
                   1
                   1
                   1
                   1
                   1
                   1
                   1
                   1
                   1
                   1
                   1
                   1
                   1
                   1
                   1
                   1
                   1
                   1
                   1
                   1
                   1
                   1
                   1
                   1
                   1
                   1
                   1
                   1
                   1
                   1
                   1
                   1
                   1
                   1
                   1
                   1
                   1
                   1
                   1
                   1
                   1
                   1
                   1
                   1
                   1
                   1
                   1
                   1
                   1
                   1
                   1
                   1
                   1
                   1
                   1
                   1
                   1
                   1
                   1
                   1
                   1
                   1
                   1
                   1
                   1
                   1
                   1
                   1
                   1
                   1
                   1
                   1
                   1
                   1
                   1
                   1
                   1
                   1
                   1
                   1
                   1
                   1
                   1
                   1
                   1
                   1
                   1
                   1
                   1
                   1
                   1
                   1
                   1
                   1
                   1
                   1
                   1
                   1
                   1
                   1
                   1
                   1
                   1
                   1
                   1
                   1
                   1
                   1
                   1
                   1
                   1
                   1
                   1
                   1
                   1
                   1
                   1
                   1
                   1
                   1
                   1
                   1
                   1
                   1
                   1
                   1
                   1
                   1
                   1
                   1
                   1
                   1
                   1
                   1
                   1
                   1
                   1
                   1
                   1
                   1
                   1
                   1
                   1
                   1
                   1
                   1
                   1
                   1
                   1
                   1
                   1
                   1
                   1
                   1
                   1
                   1
                   1
                   1
                   1
                   1
                   1
                   1
                   1
                   1
                   1
                   1
                   1
                   1
                   1
                   1
                   1
                   1
                   1
                   1
                   1
                   1
                   1
                   1
                   1
                   1
                   1
                   1
                   1
                   1
                   1
                   1
                   1
                   1
                   1
                   1
                   1
                   1
                   1
                   1
                   1
                   1
                   1
                   1
                   1
                   1
                   1
                   1
                   1
                   1
                   1
                   1
                   1
                   1
                   1
                   1
                   1
                   1
                   1
                   1
                   1
                   1
                   1
                   1
                   1
                   1
                   1
                   1
                   1
                   1
                   1
                   1
                   1
                   1
                   1
                   1
                   1
                   1
                   1
                   1
                   1
                   1
                   1
                   1
                   1
                   1
                   1
                   1
                   1
                   1
                   1
                   1
                   1
                   1
                   1
                   1
                   1
                   1
                   1
                   1
                   1
                   1
                   1
                   1
                   1
                   1
                   1
                   1
                   1
                   1
                   1
                   1
                   1
                   1
                   1
                   1
                   1
                   1
                   1
                   1
                   1
                   1
                   1
                   1
                   1
                   1
                   1
                   1
                   1
                   1
                   1
                   1
                   1
                   1
                   1
                   1
                   1
                   1
                   1
                   1
                   1
                   1
                   1
                   1
                   1
                   1
                   1
                   1
                   1
                   1
                   1
                   1
                   1
                   1
                   1
                   1
                   1
                   1
                   1
                   1
                   1
                   1
                   1
                   1
                   1
                   1
                   1
                   1
                   1
                   1
                   1
                   1
                   1
                   1
                   1
                   1
                   1
                   1
                   1
                   1
                   1
                   1
                   1
                   1
                   1
                   1
                   1
                   1
                   1
                   1
                   1
                   1
                   1
                   1
                   1
                   1
                   1
                   1
                   1
                   1
                   1
                   1
                   1
                   1
                   1
                   1
                   1
                   1
                   1
                   1
                   1
                   1
                   1
                   1
                   1
                   1
                   1
                   1
                   1
                   1
                   1
                   1
                   1
                   1
                   1
                   1
                   1
                   1
                   1
                   1
                   1
                   1
                   1
                   1
                   1
                   1
                   1
                   1
                   1
                   1
                   1
                   1
                   1
                   1
                   1
                   1
                   1
                   1
                   1
                   1
                   1
                   1
                   1
                   1
                   1
                   1
                   1
                   1
                   1
                   1
                   1
                   1
                   1
                   1
                   1
                   1
                   1
                   1
                   1
                   1
                   1
                   1
                   1
                   1
                   1
                   1
                   1
                   1
                   1
                   1
                   1
                   1
                   1
                   1
                   1
                   1
                   1
                   1
                   1
                   1
                   1
                   1
                   1
                   1
                   1
                   1
                   1
                   1
                   1
                   1
                   1
                   1
                   1
                   1
                   1
                   1
                   1
                   1
                   1
                   1
                   1
                   1
                   1
                   1
                   1
                   1
                   1
                   1
                   1
                   1
                   1
                   1
                   1
                   1
                   1
                   1
                   1
                   1
                   1
                   1
                   1
                   1
                   1
                   1
                   1
                   1
                   1
                   1
                   1
                   1
                   1
                   1
                   1
                   1
                   1
                   1
                   1
                   1
                   1
                   1
                   1
                   1
                   1
                   1
                   1
                   1
                   1
                   1
                   1
                   1
                   1
                   1
                   1
                   1
                   1
                   1
                   1
                   1
                   1
                   1
                   1
                   1
                   1
                   1
                   1
                   1
                   1
                   1
                   1
                   1
                   1
                   1
                   1
                   1
                   1
                   1
                   1
                   1
                   1
                   1
                   1
                   1
                   1
                   1
                   1
                   1
                   1
                   1
                   1
                   1
                   1
                   1
                   1
                   1
                   1
                   1
                   1
                   1
                   1
                   1
                   1
                   1
                   1
                   1
                   1
                   1
                   1
                   1
                   1
                   1
                   1
                   1
                   1
                   1
                   1
                   1
                   1
                   1
                   1
                   1
                   1
                   1
                   1
                   1
                   1
                   1
                   1
                   1
                   1
                   1
                   1
                   1
                   1
                   1
                   1
                   1
                   1
                   1
                   1
                   1
                   1
                   1
                   1
                   1
                   1
                   1
                   1
                   1
                   1
                   1
                   1
                   1
                   1
                   1
                   1
                   1
                   1
                   1
                   1
                   1
                   1
                   1
                   1
                   1
                   1
                   1
                   1
                   1
                   1
                   1
                   1
                   1
                   1
                   1
                   1
                   1
                   1
                   1
                   1
                   1
                   1
                   1
                   1
                   1
                   1
                   1
                   1
                   1
                   1
                   1
                   1
                   1
                   1
                   1
                   1
                   1
                   1
                   1
                   1
                   1
                   1
                   1
                   1
                   1
                   1
                   1
                   1
                   1
                   1
                   1
                   1
                   1
                   1
                   1
                   1
                   1
                   1
                   1
                   1
                   1
                   1
                   1
                   1
                   1
                   1
                   1
                   1
                   1
                   1
                   1
                   1
                   1
                   1
                   1
                   1
                   1
                   1
                   1
                   1
                   1
                   1
                   1
                   1
                   1
                   1
                   1
                   1
                   1
                   1
                   1
                   1
                   1
                   1
                   1
                   1
                   1
                   1
                   1
                   1
                   1
                   1
                   1
                   1
                   1
                   1
                   1
                   1
                   1
                   1
                   1
                   1
                   1
                   1
                   1
                   1
                   1
                   1
                   1
                   1
                   1
                   1
                   1
                   1
                   1
                   1
                   1
                   1
                   1
                   1
                   1
                   1
                   1
                   1
                   1
                   1
                   1
                   1
                   1
                   1
                   1
                   1
                   1
                   1
                   1
                   1
                   1
                   1
                   1
                   1
                   1
                   1
                   1
                   1
                   1
                   1
                   1
                   1
                   1
                   1
                   1
                   1
                   1
                   1
                   1
                   1
                   1
                   1
                   1
                   1
                   1
                   1
                   1
                   1
                   1
                   1
                   1
                   1
                   1
                   1
                   1
                   1
                   1
                   1
                   1
                   1
                   1
                   1
                   1
                   1
                   1
                   1
                   1
                   1
                   1
                   1
                   1
                   1
                   1
                   1
                   1
                   1
                   1
                   1
                   1
                   1
                   1
                   1
                   1
                   1
                   1
                   1
                   1
                   1
                   1
                   1
                   1
                   1
                   1
                   1
                   1
                   1
                   1
                   1
                   1
                   1
                   1
                   1
                   1
                   1
                   1
                   1
                   1
                   1
                   1
                   1
                   1
                   1
                   1
                   1
                   1
                   1
                   1
                   1
                   1
                   1
                   1
                   1
                   1
                   1
                   1
                   1
                   1
                   1
                   1
                   1
                   1
                   1
                   1
                   1
                   1
                   1
                   1
                   1
                   1
                   1
                   1
                   1
                   1
                   1
                   1
                   1
                   1
                   1
                   1
                   1
                   1
                   1
                   1
                   1
                   1
                   1
                   1
                   1
                   1
                   1
                   1
                   1
                   1
                   1
                   1
                   1
                   1
                   1
                   1
                   1
                   1
                   1
                   1
                   1
                   1
                   1
                   1
                   1
                   1
                   1
                   1
                   1
                   1
                   1
                   1
                   1
                   1
                   1
                   1
                   1
                   1
                   1
                   1
                   1
                   1
                   1
                   1
                   1
                   1
                   1
                   1
                   1
                   1
                   1
                   1
                   1
                   1
                   1
                   1
                   1
                   1
                   1
                   1
                   1
                   1
                   1
                   1
                   1
                   1
                   1
                   1
                   1
                   1
                   1
                   1
                   1
                   1
                   1
                   1
                   1
                   1
                   1
                   1
                   1
                   1
                   1
                   1
                   1
                   1
                   1
                   1
                   1
                   1
                   1
                   1
                   1
                   1
                   1
                   1
                   1
                   1
                   1
                   1
                   1
                   1
                   1
                   1
                   1
                   1
                   1
                   1
                   1
                   1
                   1
                   1
                   1
                   1
                   1
                   1
                   1
                   1
                   1
                   1
                   1
                   1
                   1
                   1
                   1
                   1
                   1
                   1
                   1
                   1
                   1
                   1
                   1
                   1
                   1
                   1
                   1
                   1
                   1
                   1
                   1
                   1
                   1
                   1
                   1
                   1
                   1
                   1
                   1
                   1
                   1
                   1
                   1
                   1
                   1
                   1
                   1
                   1
                   1
                   1
                   1
                   1
                   1
                   1
                   1
                   1
                   1
                   1
                   1
                   1
                   1
                   1
                   1
                   1
                   1
                   1
                   1
                   1
                   1
                   1
                   1
                   1
                   1
                   1
                   1
                   1
                   1
                   1
                   1
                   1
                   1
                   1
                   1
                   1
                   1
                   1
                   1
                   1
                   1
                   1
                   1
                   1
                   1
                   1
                   1
                   1
                   1
                   1
                   1
                   1
                   1
                   1
                   1
                   1
                   1
                   1
                   1
                   1
                   1
                   1
                   1
                   1
                   1
                   1
                   1
                   1
                   1
                   1
                   1
                   1
                   1
                   1
                   1
                   1
                   1
                   1
                   1
                   1
                   1
                   1
                   1
                   1
                   1
                   1
                   1
                   1
                   1
                   1
                   1
                   1
                   1
                   1
                   1
                   1
                   1
                   1
                   1
                   1
                   1
                   1
                   1
                   1
                   1
                   1
                   1
                   1
                   1
                   1
                   1
                   1
                   1
                   1
                   1
                   1
                   1
                   1
                   1
                   1
                   1
                   1
                   1
                   1
                   1
                   1
                   1
                   1
                   1
                   1
                   1
                   1
                   1
                   1
                   1
                   1
                   1
                   1
                   1
                   1
                   1
                   1
                   1
                   1
                   1
                   1
                   1
                   1
                   1
                   1
                   1
                   1
                   1
                   1
                   1
                   1
                   1
                   1
                   1
                   1
                   1
                   1
                   1
                   1
                   1
                   1
                   1
                   1
                   1
                   1
                   1
                   1
                   1
                   1
                   1
                   1
                   1
                   1
                   1
                   1
                   1
                   1
                   1
                   1
                   1
                   1
                   1
                   1
                   1
                   1
                   1
                   1
                   1
                   1
                   1
                   1
                   1
                   1
                   1
                   1
                   1
                   1
                   1
                   1
                   1
                   1
                   1
                   1
                   1
                   1
                   1
                   1
                   1
                   1
                   1
                   1
                   1
                   1
                   1
                   1
                   1
                   1
                   1
                   1
                   1
                   1
                   1
                   1
                   1
                   1
                   1
                   1
                   1
                   1
                   1
                   1
                   1
                   1
                   1
                   1
                   1
                   1
                   1
                   1
                   1
                   1
                   1
                   1
                   1
                   1
                   1
                   1
                   1
                   1
                   1
                   1
                   1
                   1
                   1
                   1
                   1
                   1
                   1
                   1
                   1
                   1
                   1
                   1
                   1
                   1
                   1
                   1
                   1
                   1
                   1
                   1
                   1
                   1
                   1
                   1
                   1
                   1
                   1
                   1
                   1
                   1
                   1
                   1
                   1
                   1
                   1
                   1
                   1
                   1
                   1
                   1
                   1
                   1
                   1
                   1
                   1
                   1
                   1
                   1
                   1
                   1
                   1
                   1
                   1
                   1
                   1
                   1
                   1
                   1
                   1
                   1
                   1
                   1
                   1
                   1
                   1
                   1
                   1
                   1
                   1
                   1
                   1
                   1
                   1
                   1
                   1
                   1
                   1
                   1
                   1
                   1
                   1
                   1
                   1
                   1
                   1
                   1
                   1
                   1
                   1
                   1
                   1
                   1
                   1
                   1
                   1
                   1
                   1
                   1
                   1
                   1
                   1
                   1
                   1
                   1
                   1
                   1
                   1
                   1
                   1
                   1
                   1
                   1
                   1
                   1
                   1
                   1
                   1
                   1
                   1
                   1
                   1
                   1
                   1
                   1
                   1
                   1
                   1
                   1
                   1
                   1
                   1
                   1
                   1
                   1
                   1
                   1
                   1
                   1
                   1
                   1
                   1
                   1
                   1
                   1
                   1
                   1
                   1
                   1
                   1
                   1
                   1
                   1
                   1
                   1
                   1
                   1
                   1
                   1
                   1
                   1
                   1
                   1
                   1
                   1
                   1
                   1
                   1
                   1
                   1
                   1
                   1
                   1
                   1
                   1
                   1
                   1
                   1
                   1
                   1
                   1
                   1
                   1
                   1
                   1
                   1
                   1
                   1
                   1
                   1
                   1
                   1
                   1
                   1
                   1
                   1
                   1
                   1
                   1
                   1
                   1
                   1
                   1
                   1
                   1
                   1
                   1
                   1
                   1
                   1
                   1
                   1
                   1
                   1
                   1
                   1
                   1
                   1
                   1
                   1
                   1
                   1
                   1
                   1
                   1
                   1
                   1
                   1
                   1
                   1
                   1
                   1
                   1
                   1
                   1
                   1
                   1
                   1
                   1
                   1
                   1
                   1
                   1
                   1
                   1
                   1
                   1
                   1
                   1
                   1
                   1
                   1
                   1
                   1
                   1
                   1
                   1
                   1
                   1
                   1
                   1
                   1
                   1
                   1
                   1
                   1
                   1
                   1
                   1
                   1
                   1
                   1
                   1
                   1
                   1
                   1
                   1
                   1
                   1
                   1
                   1
                   1
                   1
                   1
                   1
                   1
                   1
                   1
                   1
                   1
                   1
                   1
                   1
                   1
                   1
                   1
                   1
                   1
                   1
                   1
                   1
                   1
                   1
                   1
                   1
                   1
                   1
                   1
                   1
                   1
                   1
                   1
                   1
                   1
                   1
                   1
                   1
                   1
                   1
                   1
                   1
                   1
                   1
                   1
                   1
                   1
                   1
                   1
                   1
                   1
                   1
                   1
                   1
                   1
                   1
                   1
                   1
                   1
                   1
                   1
                   1
                   1
                   1
                   1
                   1
                   1
                   1
                   1
                   1
                   1
                   1
                   1
                   1
                   1
                   1
                   1
                   1
                   1
                   1
                   1
                   1
                   1
                   1
                   1
                   1
                   1
                   1
                   1
                   1
                   1
                   1
                   1
                   1
                   1
                   1
                   1
                   1
                   1
                   1
                   1
                   1
                   1
                   1
                   1
                   1
                   1
                   1
                   1
                   1
                   1
                   1
                   1
                   1
                   1
                   1
                   1
                   1
                   1
                   1
                   1
                   1
                   1
                   1
                   1
                   1
                   1
                   1
                   1
                   1
                   1
                   1
                   1
                   1
                   1
                   1
                   1
                   1
                   1
                   1
                   1
                   1
                   1
                   1
                   1
                   1
                   1
                   1
                   1
                   1
                   1
                   1
                   1
                   1
                   1
                   1
                   1
                   1
                   1
                   1
                   1
                   1
                   1
                   1
                   1
                   1
                   1
                   1
                   1
                   1
                   1
                   1
                   1
                   1
                   1
                   1
                   1
                   1
                   1
                   1
                   1
                   1
                   1
                   1
                   1
                   1
                   1
                   1
                   1
                   1
                   1
                   1
                   1
                   1
                   1
                   1
                   1
                   1
                   1
                   1
                   1
                   1
                   1
                   1
                   1
                   1
                   1
                   1
                   1
                   1
                   1
                   1
                   1
                   1
                   1
                   1
                   1
                   1
                   1
                   1
                   1
                   1
                   1
                   1
                   1
                   1
                   1
                   1
                   1
                   1
                   1
                   1
                   1
                   1
                   1
                   1
                   1
                   1
                   1
                   1
                   1
                   1
                   1
                   1
                   1
                   1
                   1
                   1
                   1
                   1
                   1
                   1
  
SCALARS                  material_type  double 1
LOOKUP_TABLE default
                   2
                   2
                   2
                   2
                   2
                   2
                   2
                   2
                   2
                   2
                   2
                   2
                   2
                   2
                   2
                   2
                   2
                   2
                   2
                   2
                   2
                   2
                   2
                   2
                   2
                   2
                   2
                   2
                   2
                   2
                   2
                   2
                   2
                   2
                   2
                   2
                   2
                   2
                   2
                   2
                   2
                   2
                   2
                   2
                   2
                   2
                   2
                   2
                   2
                   2
                   2
                   2
                   2
                   2
                   2
                   2
                   2
                   2
                   2
                   2
                   2
                   2
                   2
                   2
                   2
                   2
                   2
                   2
                   2
                   2
                   2
                   2
                   2
                   2
                   2
                   2
                   2
                   2
                   2
                   2
                   2
                   2
                   2
                   2
                   2
                   2
                   2
                   2
                   2
                   2
                   2
                   2
                   2
                   2
                   2
                   2
                   2
                   2
                   2
                   2
                   2
                   2
                   2
                   2
                   2
                   2
                   2
                   2
                   2
                   2
                   2
                   2
                   2
                   2
                   2
                   2
                   2
                   2
                   2
                   2
                   2
                   2
                   2
                   2
                   2
                   2
                   2
                   2
                   2
                   2
                   2
                   2
                   2
                   2
                   2
                   2
                   2
                   2
                   2
                   2
                   2
                   2
                   2
                   2
                   2
                   2
                   2
                   2
                   2
                   2
                   2
                   2
                   2
                   2
                   2
                   2
                   2
                   2
                   2
                   2
                   2
                   2
                   2
                   2
                   2
                   2
                   2
                   2
                   2
                   2
                   2
                   2
                   2
                   2
                   2
                   2
                   2
                   2
                   2
                   2
                   2
                   2
                   2
                   2
                   2
                   2
                   2
                   2
                   2
                   2
                   2
                   2
                   2
                   2
                   2
                   2
                   2
                   2
                   2
                   2
                   2
                   2
                   2
                   2
                   2
                   2
                   2
                   2
                   2
                   2
                   2
                   2
                   2
                   2
                   2
                   2
                   2
                   2
                   2
                   2
                   2
                   2
                   2
                   2
                   2
                   2
                   2
                   2
                   2
                   2
                   2
                   2
                   2
                   2
                   2
                   2
                   2
                   2
                   2
                   2
                   2
                   2
                   2
                   2
                   2
                   2
                   2
                   2
                   2
                   2
                   2
                   2
                   2
                   2
                   2
                   2
                   2
                   2
                   2
                   2
                   2
                   2
                   2
                   2
                   2
                   2
                   2
                   2
                   2
                   2
                   2
                   2
                   2
                   2
                   2
                   2
                   2
                   2
                   2
                   2
                   2
                   2
                   2
                   2
                   2
                   2
                   2
                   2
                   2
                   2
                   2
                   2
                   2
                   2
                   2
                   2
                   2
                   2
                   2
                   2
                   2
                   2
                   2
                   2
                   2
                   2
                   2
                   2
                   2
                   2
                   2
                   2
                   2
                   2
                   2
                   2
                   2
                   2
                   2
                   2
                   2
                   2
                   2
                   2
                   2
                   2
                   2
                   2
                   2
                   2
                   2
                   2
                   2
                   2
                   2
                   2
                   2
                   2
                   2
                   2
                   2
                   2
                   2
                   2
                   2
                   2
                   2
                   2
                   2
                   2
                   2
                   2
                   2
                   2
                   2
                   2
                   2
                   2
                   2
                   2
                   2
                   2
                   2
                   2
                   2
                   2
                   2
                   2
                   2
                   2
                   2
                   2
                   2
                   2
                   2
                   2
                   2
                   2
                   2
                   2
                   2
                   2
                   2
                   2
                   2
                   2
                   2
                   2
                   2
                   2
                   2
                   2
                   2
                   2
                   2
                   2
                   2
                   2
                   2
                   2
                   2
                   2
                   2
                   2
                   2
                   2
                   2
                   2
                   2
                   2
                   2
                   2
                   2
                   2
                   2
                   2
                   2
                   2
                   2
                   2
                   2
                   2
                   2
                   2
                   2
                   2
                   2
                   2
                   2
                   2
                   2
                   2
                   2
                   2
                   2
                   2
                   2
                   2
                   2
                   2
                   2
                   2
                   2
                   2
                   2
                   2
                   2
                   2
                   2
                   2
                   2
                   2
                   2
                   2
                   2
                   2
                   2
                   2
                   2
                   2
                   2
                   2
                   2
                   2
                   2
                   2
                   2
                   2
                   2
                   2
                   2
                   2
                   2
                   2
                   2
                   2
                   2
                   2
                   2
                   2
                   2
                   2
                   2
                   2
                   2
                   2
                   2
                   2
                   2
                   2
                   2
                   2
                   2
                   2
                   2
                   2
                   2
                   2
                   2
                   2
                   2
                   2
                   2
                   2
                   2
                   2
                   2
                   2
                   2
                   2
                   2
                   2
                   2
                   2
                   2
                   2
                   2
                   2
                   2
                   2
                   2
                   2
                   2
                   2
                   2
                   2
                   2
                   2
                   2
                   2
                   2
                   2
                   2
                   2
                   2
                   2
                   2
                   2
                   2
                   2
                   2
                   2
                   2
                   2
                   2
                   2
                   2
                   2
                   2
                   2
                   2
                   2
                   2
                   2
                   2
                   2
                   2
                   2
                   2
                   2
                   2
                   2
                   2
                   2
                   2
                   2
                   2
                   2
                   2
                   2
                   2
                   2
                   2
                   2
                   2
                   2
                   2
                   2
                   2
                   2
                   2
                   2
                   2
                   2
                   2
                   2
                   2
                   2
                   2
                   2
                   2
                   2
                   2
                   2
                   2
                   2
                   2
                   2
                   2
                   2
                   2
                   2
                   2
                   2
                   2
                   2
                   2
                   2
                   2
                   2
                   2
                   2
                   2
                   2
                   2
                   2
                   2
                   2
                   2
                   2
                   2
                   2
                   2
                   2
                   2
                   2
                   2
                   2
                   2
                   2
                   2
                   2
                   2
                   2
                   2
                   2
                   2
                   2
                   2
                   2
                   2
                   2
                   2
                   2
                   2
                   2
                   2
                   2
                   2
                   2
                   2
                   2
                   2
                   2
                   2
                   2
                   2
                   2
                   2
                   2
                   2
                   2
                   2
                   2
                   2
                   2
                   2
                   2
                   2
                   2
                   2
                   2
                   2
                   2
                   2
                   2
                   2
                   2
                   2
                   2
                   2
                   2
                   2
                   2
                   2
                   2
                   2
                   2
                   2
                   2
                   2
                   2
                   2
                   2
                   2
                   2
                   2
                   2
                   2
                   2
                   2
                   2
                   2
                   2
                   2
                   2
                   2
                   2
                   2
                   2
                   2
                   2
                   2
                   2
                   2
                   2
                   2
                   2
                   2
                   2
                   2
                   2
                   2
                   2
                   2
                   2
                   2
                   2
                   2
                   2
                   2
                   2
                   2
                   2
                   2
                   2
                   2
                   2
                   2
                   2
                   2
                   2
                   2
                   2
                   2
                   2
                   2
                   2
                   2
                   2
                   2
                   2
                   2
                   2
                   2
                   2
                   2
                   2
                   2
                   2
                   2
                   2
                   2
                   2
                   2
                   2
                   2
                   2
                   2
                   2
                   2
                   2
                   2
                   2
                   2
                   2
                   2
                   2
                   2
                   2
                   2
                   2
                   2
                   2
                   2
                   2
                   2
                   2
                   2
                   2
                   2
                   2
                   2
                   2
                   2
                   2
                   2
                   2
                   2
                   2
                   2
                   2
                   2
                   2
                   2
                   2
                   2
                   2
                   2
                   2
                   2
                   2
                   2
                   2
                   2
                   2
                   2
                   2
                   2
                   2
                   2
                   2
                   2
                   2
                   2
                   2
                   2
                   2
                   2
                   2
                   2
                   2
                   2
                   2
                   2
                   2
                   2
                   2
                   2
                   2
                   2
                   2
                   2
                   2
                   2
                   2
                   2
                   2
                   2
                   2
                   2
                   2
                   2
                   2
                   2
                   2
                   2
                   2
                   2
                   2
                   2
                   2
                   2
                   2
                   2
                   2
                   2
                   2
                   2
                   2
                   2
                   2
                   2
                   2
                   2
                   2
                   2
                   2
                   2
                   2
                   2
                   2
                   2
                   2
                   2
                   2
                   2
                   2
                   2
                   2
                   2
                   2
                   2
                   2
                   2
                   2
                   2
                   2
                   2
                   2
                   2
                   2
                   2
                   2
                   2
                   2
                   2
                   2
                   2
                   2
                   2
                   2
                   2
                   2
                   2
                   2
                   2
                   2
                   2
                   2
                   2
                   2
                   2
                   2
                   2
                   2
                   2
                   2
                   2
                   2
                   2
                   2
                   2
                   2
                   2
                   2
                   2
                   2
                   2
                   2
                   2
                   2
                   2
                   2
                   2
                   2
                   2
                   2
                   2
                   2
                   2
                   2
                   2
                   2
                   2
                   2
                   2
                   2
                   2
                   2
                   2
                   2
                   2
                   2
                   2
                   2
                   2
                   2
                   2
                   2
                   2
                   2
                   2
                   2
                   2
                   2
                   2
                   2
                   2
                   2
                   2
                   2
                   2
                   2
                   2
                   2
                   2
                   2
                   2
                   2
                   2
                   2
                   2
                   2
                   2
                   2
                   2
                   2
                   2
                   2
                   2
                   2
                   2
                   2
                   2
                   2
                   2
                   2
                   2
                   2
                   2
                   2
                   2
                   2
                   2
                   2
                   2
                   2
                   2
                   2
                   2
                   2
                   2
                   2
                   2
                   2
                   2
                   2
                   2
                   2
                   2
                   2
                   2
                   2
                   2
                   2
                   2
                   2
                   2
                   2
                   2
                   2
                   2
                   2
                   2
                   2
                   2
                   2
                   2
                   2
                   2
                   2
                   2
                   2
                   2
                   2
                   2
                   2
                   2
                   2
                   2
                   2
                   2
                   2
                   2
                   2
                   2
                   2
                   2
                   2
                   2
                   2
                   2
                   2
                   2
                   2
                   2
                   2
                   2
                   2
                   2
                   2
                   2
                   2
                   2
                   2
                   2
                   2
                   2
                   2
                   2
                   2
                   2
                   2
                   2
                   2
                   2
                   2
                   2
                   2
                   2
                   2
                   2
                   2
                   2
                   2
                   2
                   2
                   2
                   2
                   2
                   2
                   2
                   2
                   2
                   2
                   2
                   2
                   2
                   2
                   2
                   2
                   2
                   2
                   2
                   2
                   2
                   2
                   2
                   2
                   2
                   2
                   2
                   2
                   2
                   2
                   2
                   2
                   2
                   2
                   2
                   2
                   2
                   2
                   2
                   2
                   2
                   2
                   2
                   2
                   2
                   2
                   2
                   2
                   2
                   2
                   2
                   2
                   2
                   2
                   2
                   2
                   2
                   2
                   2
                   2
                   2
                   2
                   2
                   2
                   2
                   2
                   2
                   2
                   2
                   2
                   2
                   2
                   2
                   2
                   2
                   2
                   2
                   2
                   2
                   2
                   2
                   2
                   2
                   2
                   2
                   2
                   2
                   2
                   2
                   2
                   2
                   2
                   2
                   2
                   2
                   2
                   2
                   2
                   2
                   2
                   2
                   2
                   2
                   2
                   2
                   2
                   2
                   2
                   2
                   2
                   2
                   2
                   2
                   2
                   2
                   2
                   2
                   2
                   2
                   2
                   2
                   2
                   2
                   2
                   2
                   2
                   2
                   2
                   2
                   2
                   2
                   2
                   2
                   2
                   2
                   2
                   2
                   2
                   2
                   2
                   2
                   2
                   2
                   2
                   2
                   2
                   2
                   2
                   2
                   2
                   2
                   2
                   2
                   2
                   2
                   2
                   2
                   2
                   2
                   2
                   2
                   2
                   2
                   2
                   2
                   2
                   2
                   2
                   2
                   2
                   2
                   2
                   2
                   2
                   2
                   2
                   2
                   2
                   2
                   2
                   2
                   2
                   2
                   2
                   2
                   2
                   2
                   2
                   2
                   2
                   2
                   2
                   2
                   2
                   2
                   2
                   2
                   2
                   2
                   2
                   2
                   2
                   2
                   2
                   2
                   2
                   2
                   2
                   2
                   2
                   2
                   2
                   2
                   2
                   2
                   2
                   2
                   2
                   2
                   2
                   2
                   2
                   2
                   2
                   2
                   2
                   2
                   2
                   2
                   2
                   2
                   2
                   2
                   2
                   2
                   2
                   2
                   2
                   2
                   2
                   2
                   2
                   2
                   2
                   2
                   2
                   2
                   2
                   2
                   2
                   2
                   2
                   2
                   2
                   2
                   2
                   2
                   2
                   2
                   2
                   2
                   2
                   2
                   2
                   2
                   2
                   2
                   2
                   2
                   2
                   2
                   2
                   2
                   2
                   2
                   2
                   2
                   2
                   2
                   2
                   2
                   2
                   2
                   2
                   2
                   2
                   2
                   2
                   2
                   2
                   2
                   2
                   2
                   2
                   2
                   2
                   2
                   2
                   2
                   2
                   2
                   2
                   2
                   2
                   2
                   2
                   2
                   2
                   2
                   2
                   2
                   2
                   2
                   2
                   2
                   2
                   2
                   2
                   2
                   2
                   2
                   2
                   2
                   2
                   2
                   2
                   2
                   2
                   2
                   2
                   2
                   2
                   2
                   2
                   2
                   2
                   2
                   2
                   2
                   2
                   2
                   2
                   2
                   2
                   2
                   2
                   2
                   2
                   2
                   2
                   2
                   2
                   2
                   2
                   2
                   2
                   2
                   2
                   2
                   2
                   2
                   2
                   2
                   2
                   2
                   2
                   2
                   2
                   2
                   2
                   2
                   2
                   2
                   2
                   2
                   2
                   2
                   2
                   2
                   2
                   2
                   2
                   2
                   2
                   2
                   2
                   2
                   2
                   2
                   2
                   2
                   2
                   2
                   2
                   2
                   2
                   2
                   2
                   2
                   2
                   2
                   2
                   2
                   2
                   2
                   2
                   2
                   2
                   2
                   2
                   2
                   2
                   2
                   2
                   2
                   2
                   2
                   2
                   2
                   2
                   2
                   2
                   2
                   2
                   2
                   2
                   2
                   2
                   2
                   2
                   2
                   2
                   2
                   2
                   2
                   2
                   2
                   2
                   2
                   2
                   2
                   2
                   2
                   2
                   2
                   2
                   2
                   2
                   2
                   2
                   2
                   2
                   2
                   2
                   2
                   2
                   2
                   2
                   2
                   2
                   2
                   2
                   2
                   2
                   2
                   2
                   2
                   2
                   2
                   2
                   2
                   2
                   2
                   2
                   2
                   2
                   2
                   2
                   2
                   2
                   2
                   2
                   2
                   2
                   2
                   2
                   2
                   2
                   2
                   2
                   2
                   2
                   2
                   2
                   2
                   2
                   2
                   2
                   2
                   2
                   2
                   2
                   2
                   2
                   2
                   2
                   2
                   2
                   2
                   2
                   2
                   2
                   2
                   2
                   2
                   2
                   2
                   2
                   2
                   2
                   2
                   2
                   2
                   2
                   2
                   2
                   2
                   2
                   2
                   2
                   2
                   2
                   2
                   2
                   2
                   2
                   2
                   2
                   2
                   2
                   2
                   2
                   2
                   2
                   2
                   2
                   2
                   2
                   2
                   2
                   2
                   2
                   2
                   2
                   2
                   2
                   2
                   2
                   2
                   2
                   2
                   2
                   2
                   2
                   2
                   2
                   2
                   2
                   2
                   2
                   2
                   2
                   2
                   2
                   2
                   2
                   2
                   2
                   2
                   2
                   2
                   2
                   2
                   2
                   2
                   2
                   2
                   2
                   2
                   2
                   2
                   2
                   2
                   2
                   2
                   2
                   2
                   2
                   2
                   2
                   2
                   2
                   2
                   2
                   2
                   2
                   2
                   2
                   2
                   2
                   2
                   2
                   2
                   2
                   2
                   2
                   2
                   2
                   2
                   2
                   2
                   2
                   2
                   2
                   2
                   2
                   2
                   2
                   2
                   2
                   2
                   2
                   2
                   2
                   2
                   2
                   2
                   2
                   2
                   2
                   2
                   2
                   2
                   2
                   2
                   2
                   2
                   2
                   2
                   2
                   2
                   2
                   2
                   2
                   2
                   2
                   2
                   2
                   2
                   2
                   2
                   2
                   2
                   2
                   2
                   2
                   2
                   2
                   2
                   2
                   2
                   2
                   2
                   2
                   2
                   2
                   2
                   2
                   2
                   2
                   2
                   2
                   2
                   2
                   2
                   2
                   2
                   2
                   2
                   2
                   2
                   2
                   2
                   2
                   2
                   2
                   2
                   2
                   2
                   2
                   2
                   2
                   2
                   2
                   2
                   2
                   2
                   2
                   2
                   2
                   2
                   2
                   2
                   2
                   2
                   2
                   2
                   2
                   2
                   2
                   2
                   2
                   2
                   2
                   2
                   2
                   2
                   2
                   2
                   2
                   2
                   2
                   2
                   2
                   2
                   2
                   2
                   2
                   2
                   2
                   2
                   2
                   2
                   2
                   2
                   2
                   2
                   2
                   2
                   2
                   2
                   2
                   2
                   2
                   2
                   2
                   2
                   2
                   2
                   2
                   2
                   2
                   2
                   2
                   2
                   2
                   2
                   2
                   2
                   2
                   2
                   2
                   2
                   2
                   2
                   2
                   2
                   2
                   2
                   2
                   2
                   2
                   2
                   2
                   2
                   2
                   2
                   2
                   2
                   2
                   2
                   2
                   2
                   2
                   2
                   2
                   2
                   2
                   2
                   2
                   2
                   2
                   2
                   2
                   2
                   2
                   2
                   2
                   2
                   2
                   2
                   2
                   2
                   2
                   2
                   2
                   2
                   2
                   2
                   2
                   2
                   2
                   2
                   2
                   2
                   2
                   2
                   2
                   2
                   2
                   2
                   2
                   2
                   2
                   2
                   2
                   2
                   2
                   2
                   2
                   2
                   2
                   2
                   2
  
SCALARS                       fixity_x  double 1
LOOKUP_TABLE default
                   0
                   0
                   0
                   0
                   0
                   0
                   0
                   0
                   0
                   0
                   0
                   0
                   0
                   0
                   0
                   0
                   0
                   0
                   0
                   0
                   0
                   0
                   0
                   0
                   0
                   0
                   0
                   0
                   0
                   0
                   0
                   0
                   0
                   0
                   0
                   0
                   0
                   0
                   0
                   0
                   0
                   0
                   0
                   0
                   0
                   0
                   0
                   0
                   0
                   0
                   0
                   0
                   0
                   0
                   0
                   0
                   0
                   0
                   0
                   0
                   0
                   0
                   0
                   0
                   0
                   0
                   0
                   0
                   0
                   0
                   0
                   0
                   0
                   0
                   0
                   0
                   0
                   0
                   0
                   0
                   0
                   0
                   0
                   0
                   0
                   0
                   0
                   0
                   0
                   0
                   0
                   0
                   0
                   0
                   0
                   0
                   0
                   0
                   0
                   0
                   0
                   0
                   0
                   0
                   0
                   0
                   0
                   0
                   0
                   0
                   0
                   0
                   0
                   0
                   0
                   0
                   0
                   0
                   0
                   0
                   0
                   0
                   0
                   0
                   0
                   0
                   0
                   0
                   0
                   0
                   0
                   0
                   0
                   0
                   0
                   0
                   0
                   0
                   0
                   0
                   0
                   0
                   0
                   0
                   0
                   0
                   0
                   0
                   0
                   0
                   0
                   0
                   0
                   0
                   0
                   0
                   0
                   0
                   0
                   0
                   0
                   0
                   0
                   0
                   0
                   0
                   0
                   0
                   0
                   0
                   0
                   0
                   0
                   0
                   0
                   0
                   0
                   0
                   0
                   0
                   0
                   0
                   0
                   0
                   0
                   0
                   0
                   0
                   0
                   0
                   0
                   0
                   0
                   0
                   0
                   0
                   0
                   0
                   0
                   0
                   0
                   0
                   0
                   0
                   0
                   0
                   0
                   0
                   0
                   0
                   0
                   0
                   0
                   0
                   0
                   0
                   0
                   0
                   0
                   0
                   0
                   0
                   0
                   0
                   0
                   0
                   0
                   0
                   0
                   0
                   0
                   0
                   0
                   0
                   0
                   0
                   0
                   0
                   0
                   0
                   0
                   0
                   0
                   0
                   0
                   0
                   0
                   0
                   0
                   0
                   0
                   0
                   0
                   0
                   0
                   0
                   0
                   0
                   0
                   0
                   0
                   0
                   0
                   0
                   0
                   0
                   0
                   0
                   0
                   0
                   0
                   0
                   0
                   0
                   0
                   0
                   0
                   0
                   0
                   0
                   0
                   0
                   0
                   0
                   0
                   0
                   0
                   0
                   0
                   0
                   0
                   0
                   0
                   0
                   0
                   0
                   0
                   0
                   0
                   0
                   0
                   0
                   0
                   0
                   0
                   0
                   0
                   0
                   0
                   0
                   0
                   0
                   0
                   0
                   0
                   0
                   0
                   0
                   0
                   0
                   0
                   0
                   0
                   0
                   0
                   0
                   0
                   0
                   0
                   0
                   0
                   0
                   0
                   0
                   0
                   0
                   0
                   0
                   0
                   0
                   0
                   0
                   0
                   0
                   0
                   0
                   0
                   0
                   0
                   0
                   0
                   0
                   0
                   0
                   0
                   0
                   0
                   0
                   0
                   0
                   0
                   0
                   0
                   0
                   0
                   0
                   0
                   0
                   0
                   0
                   0
                   0
                   0
                   0
                   0
                   0
                   0
                   0
                   0
                   0
                   0
                   0
                   0
                   0
                   0
                   0
                   0
                   0
                   0
                   0
                   0
                   0
                   0
                   0
                   0
                   0
                   0
                   0
                   0
                   0
                   0
                   0
                   0
                   0
                   0
                   0
                   0
                   0
                   0
                   0
                   0
                   0
                   0
                   0
                   0
                   0
                   0
                   0
                   0
                   0
                   0
                   0
                   0
                   0
                   0
                   0
                   0
                   0
                   0
                   0
                   0
                   0
                   0
                   0
                   0
                   0
                   0
                   0
                   0
                   0
                   0
                   0
                   0
                   0
                   0
                   0
                   0
                   0
                   0
                   0
                   0
                   0
                   0
                   0
                   0
                   0
                   0
                   0
                   0
                   0
                   0
                   0
                   0
                   0
                   0
                   0
                   0
                   0
                   0
                   0
                   0
                   0
                   0
                   0
                   0
                   0
                   0
                   0
                   0
                   0
                   0
                   0
                   0
                   0
                   0
                   0
                   0
                   0
                   0
                   0
                   0
                   0
                   0
                   0
                   0
                   0
                   0
                   0
                   0
                   0
                   0
                   0
                   0
                   0
                   0
                   0
                   0
                   0
                   0
                   0
                   0
                   0
                   0
                   0
                   0
                   0
                   0
                   0
                   0
                   0
                   0
                   0
                   0
                   0
                   0
                   0
                   0
                   0
                   0
                   0
                   0
                   0
                   0
                   0
                   0
                   0
                   0
                   0
                   0
                   0
                   0
                   0
                   0
                   0
                   0
                   0
                   0
                   0
                   0
                   0
                   0
                   0
                   0
                   0
                   0
                   0
                   0
                   0
                   0
                   0
                   0
                   0
                   0
                   0
                   0
                   0
                   0
                   0
                   0
                   0
                   0
                   0
                   0
                   0
                   0
                   0
                   0
                   0
                   0
                   0
                   0
                   0
                   0
                   0
                   0
                   0
                   0
                   0
                   0
                   0
                   0
                   0
                   0
                   0
                   0
                   0
                   0
                   0
                   0
                   0
                   0
                   0
                   0
                   0
                   0
                   0
                   0
                   0
                   0
                   0
                   0
                   0
                   0
                   0
                   0
                   0
                   0
                   0
                   0
                   0
                   0
                   0
                   0
                   0
                   0
                   0
                   0
                   0
                   0
                   0
                   0
                   0
                   0
                   0
                   0
                   0
                   0
                   0
                   0
                   0
                   0
                   0
                   0
                   0
                   0
                   0
                   0
                   0
                   0
                   0
                   0
                   0
                   0
                   0
                   0
                   0
                   0
                   0
                   0
                   0
                   0
                   0
                   0
                   0
                   0
                   0
                   0
                   0
                   0
                   0
                   0
                   0
                   0
                   0
                   0
                   0
                   0
                   0
                   0
                   0
                   0
                   0
                   0
                   0
                   0
                   0
                   0
                   0
                   0
                   0
                   0
                   0
                   0
                   0
                   0
                   0
                   0
                   0
                   0
                   0
                   0
                   0
                   0
                   0
                   0
                   0
                   0
                   0
                   0
                   0
                   0
                   0
                   0
                   0
                   0
                   0
                   0
                   0
                   0
                   0
                   0
                   0
                   0
                   0
                   0
                   0
                   0
                   0
                   0
                   0
                   0
                   0
                   0
                   0
                   0
                   0
                   0
                   0
                   0
                   0
                   0
                   0
                   0
                   0
                   0
                   0
                   0
                   0
                   0
                   0
                   0
                   0
                   0
                   0
                   0
                   0
                   0
                   0
                   0
                   0
                   0
                   0
                   0
                   0
                   0
                   0
                   0
                   0
                   0
                   0
                   0
                   0
                   0
                   0
                   0
                   0
                   0
                   0
                   0
                   0
                   0
                   0
                   0
                   0
                   0
                   0
                   0
                   0
                   0
                   0
                   0
                   0
                   0
                   0
                   0
                   0
                   0
                   0
                   0
                   0
                   0
                   0
                   0
                   0
                   0
                   0
                   0
                   0
                   0
                   0
                   0
                   0
                   0
                   0
                   0
                   0
                   0
                   0
                   0
                   0
                   0
                   0
                   0
                   0
                   0
                   0
                   0
                   0
                   0
                   0
                   0
                   0
                   0
                   0
                   0
                   0
                   0
                   0
                   0
                   0
                   0
                   0
                   0
                   0
                   0
                   0
                   0
                   0
                   0
                   0
                   0
                   0
                   0
                   0
                   0
                   0
                   0
                   0
                   0
                   0
                   0
                   0
                   0
                   0
                   0
                   0
                   0
                   0
                   0
                   0
                   0
                   0
                   0
                   0
                   0
                   0
                   0
                   0
                   0
                   0
                   0
                   0
                   0
                   0
                   0
                   0
                   0
                   0
                   0
                   0
                   0
                   0
                   0
                   0
                   0
                   0
                   0
                   0
                   0
                   0
                   0
                   0
                   0
                   0
                   0
                   0
                   0
                   0
                   0
                   0
                   0
                   0
                   0
                   0
                   0
                   0
                   0
                   0
                   0
                   0
                   0
                   0
                   0
                   0
                   0
                   0
                   0
                   0
                   0
                   0
                   0
                   0
                   0
                   0
                   0
                   0
                   0
                   0
                   0
                   0
                   0
                   0
                   0
                   0
                   0
                   0
                   0
                   0
                   0
                   0
                   0
                   0
                   0
                   0
                   0
                   0
                   0
                   0
                   0
                   0
                   0
                   0
                   0
                   0
                   0
                   0
                   0
                   0
                   0
                   0
                   0
                   0
                   0
                   0
                   0
                   0
                   0
                   0
                   0
                   0
                   0
                   0
                   0
                   0
                   0
                   0
                   0
                   0
                   0
                   0
                   0
                   0
                   0
                   0
                   0
                   0
                   0
                   0
                   0
                   0
                   0
                   0
                   0
                   0
                   0
                   0
                   0
                   0
                   0
                   0
                   0
                   0
                   0
                   0
                   0
                   0
                   0
                   0
                   0
                   0
                   0
                   0
                   0
                   0
                   0
                   0
                   0
                   0
                   0
                   0
                   0
                   0
                   0
                   0
                   0
                   0
                   0
                   0
                   0
                   0
                   0
                   0
                   0
                   0
                   0
                   0
                   0
                   0
                   0
                   0
                   0
                   0
                   0
                   0
                   0
                   0
                   0
                   0
                   0
                   0
                   0
                   0
                   0
                   0
                   0
                   0
                   0
                   0
                   0
                   0
                   0
                   0
                   0
                   0
                   0
                   0
                   0
                   0
                   0
                   0
                   0
                   0
                   0
                   0
                   0
                   0
                   0
                   0
                   0
                   0
                   0
                   0
                   0
                   0
                   0
                   0
                   0
                   0
                   0
                   0
                   0
                   0
                   0
                   0
                   0
                   0
                   0
                   0
                   0
                   0
                   0
                   0
                   0
                   0
                   0
                   0
                   0
                   0
                   0
                   0
                   0
                   0
                   0
                   0
                   0
                   0
                   0
                   0
                   0
                   0
                   0
                   0
                   0
                   0
                   0
                   0
                   0
                   0
                   0
                   0
                   0
                   0
                   0
                   0
                   0
                   0
                   0
                   0
                   0
                   0
                   0
                   0
                   0
                   0
                   0
                   0
                   0
                   0
                   0
                   0
                   0
                   0
                   0
                   0
                   0
                   0
                   0
                   0
                   0
                   0
                   0
                   0
                   0
                   0
                   0
                   0
                   0
                   0
                   0
                   0
                   0
                   0
                   0
                   0
                   0
                   0
                   0
                   0
                   0
                   0
                   0
                   0
                   0
                   0
                   0
                   0
                   0
                   0
                   0
                   0
                   0
                   0
                   0
                   0
                   0
                   0
                   0
                   0
                   0
                   0
                   0
                   0
                   0
                   0
                   0
                   0
                   0
                   0
                   0
                   0
                   0
                   0
                   0
                   0
                   0
                   0
                   0
                   0
                   0
                   0
                   0
                   0
                   0
                   0
                   0
                   0
                   0
                   0
                   0
                   0
                   0
                   0
                   0
                   0
                   0
                   0
                   0
                   0
                   0
                   0
                   0
                   0
                   0
                   0
                   0
                   0
                   0
                   0
                   0
                   0
                   0
                   0
                   0
                   0
                   0
                   0
                   0
                   0
                   0
                   0
                   0
                   0
                   0
                   0
                   0
                   0
                   0
                   0
                   0
                   0
                   0
                   0
                   0
                   0
                   0
                   0
                   0
                   0
                   0
                   0
                   0
                   0
                   0
                   0
                   0
                   0
                   0
                   0
                   0
                   0
                   0
                   0
                   0
                   0
                   0
                   0
                   0
                   0
                   0
                   0
                   0
                   0
                   0
                   0
                   0
                   0
                   0
                   0
                   0
                   0
                   0
                   0
                   0
                   0
                   0
                   0
                   0
                   0
                   0
                   0
                   0
                   0
                   0
                   0
                   0
                   0
                   0
                   0
                   0
                   0
                   0
                   0
                   0
                   0
                   0
                   0
                   0
                   0
                   0
                   0
                   0
                   0
                   0
                   0
                   0
                   0
                   0
                   0
                   0
                   0
                   0
                   0
                   0
                   0
                   0
                   0
                   0
                   0
                   0
                   0
                   0
                   0
                   0
                   0
                   0
                   0
                   0
                   0
                   0
                   0
                   0
                   0
                   0
                   0
                   0
                   0
                   0
                   0
                   0
                   0
                   0
                   0
                   0
                   0
                   0
                   0
                   0
                   0
                   0
                   0
                   0
                   0
                   0
                   0
                   0
                   0
                   0
                   0
                   0
                   0
                   0
                   0
                   0
                   0
                   0
                   0
                   0
                   0
                   0
                   0
                   0
                   0
                   0
                   0
                   0
                   0
                   0
                   0
                   0
                   0
                   0
                   0
                   0
                   0
                   0
                   0
                   0
                   0
                   0
                   0
                   0
                   0
                   0
                   0
                   0
                   0
                   0
                   0
                   0
                   0
                   0
                   0
                   0
                   0
                   0
                   0
                   0
                   0
                   0
                   0
                   0
                   0
                   0
                   0
                   0
                   0
                   0
                   0
                   0
                   0
                   0
                   0
                   0
                   0
                   0
                   0
                   0
                   0
                   0
                   0
                   0
                   0
                   0
                   0
                   0
                   0
                   0
                   0
                   0
                   0
                   0
                   0
                   0
                   0
                   0
                   0
                   0
                   0
                   0
                   0
                   0
                   0
                   0
                   0
                   0
                   0
                   0
                   0
                   0
                   0
                   0
                   0
                   0
                   0
                   0
                   0
                   0
                   0
                   0
                   0
                   0
                   0
                   0
                   0
                   0
                   0
                   0
                   0
                   0
                   0
                   0
                   0
                   0
                   0
                   0
                   0
                   0
                   0
                   0
                   0
                   0
                   0
                   0
                   0
                   0
                   0
                   0
                   0
                   0
                   0
                   0
                   0
                   0
                   0
                   0
                   0
                   0
                   0
                   0
                   0
                   0
                   0
                   0
                   0
                   0
                   0
                   0
                   0
                   0
                   0
                   0
                   0
                   0
                   0
                   0
                   0
                   0
                   0
                   0
                   0
                   0
                   0
                   0
                   0
                   0
                   0
                   0
                   0
                   0
                   0
                   0
                   0
                   0
                   0
                   0
                   0
                   0
                   0
                   0
                   0
                   0
                   0
                   0
                   0
                   0
                   0
                   0
                   0
                   0
                   0
                   0
                   0
                   0
                   0
                   0
                   0
                   0
                   0
                   0
                   0
                   0
                   0
                   0
                   0
                   0
                   0
                   0
                   0
                   0
                   0
                   0
                   0
                   0
                   0
                   0
                   0
                   0
                   0
                   0
                   0
                   0
                   0
                   0
                   0
                   0
                   0
                   0
                   0
                   0
                   0
                   0
                   0
                   0
                   0
                   0
                   0
                   0
                   0
                   0
                   0
                   0
                   0
                   0
                   0
                   0
                   0
                   0
                   0
                   0
                   0
                   0
                   0
                   0
                   0
                   0
                   0
                   0
                   0
                   0
                   0
                   0
                   0
                   0
                   0
                   0
                   0
                   0
                   0
                   0
                   0
                   0
                   0
                   0
                   0
                   0
                   0
                   0
                   0
                   0
                   0
                   0
                   0
                   0
                   0
                   0
                   0
                   0
                   0
                   0
                   0
                   0
                   0
                   0
                   0
                   0
                   0
                   0
                   0
                   0
                   0
                   0
                   0
                   0
                   0
                   0
                   0
                   0
                   0
                   0
                   0
                   0
                   0
                   0
                   0
                   0
                   0
                   0
                   0
                   0
                   0
                   0
                   0
                   0
                   0
                   0
                   0
                   0
                   0
                   0
                   0
                   0
                   0
                   0
                   0
                   0
                   0
                   0
                   0
                   0
                   0
                   0
                   0
                   0
                   0
                   0
                   0
                   0
                   0
                   0
                   0
                   0
                   0
                   0
                   0
                   0
                   0
                   0
                   0
                   0
                   0
                   0
                   0
                   0
                   0
                   0
                   0
                   0
                   0
                   0
                   0
                   0
                   0
                   0
                   0
                   0
                   0
                   0
                   0
                   0
                   0
                   0
                   0
                   0
                   0
                   0
                   0
                   0
                   0
                   0
                   0
                   0
                   0
                   0
                   0
                   0
                   0
                   0
                   0
                   0
                   0
                   0
                   0
                   0
                   0
                   0
                   0
                   0
                   0
                   0
                   0
                   0
                   0
                   0
                   0
                   0
                   0
                   0
                   0
                   0
                   0
                   0
                   0
                   0
                   0
                   0
                   0
                   0
                   0
                   0
                   0
                   0
                   0
                   0
                   0
                   0
                   0
                   0
                   0
                   0
                   0
                   0
                   0
                   0
                   0
                   0
                   0
                   0
                   0
                   0
                   0
                   0
                   0
                   0
                   0
                   0
                   0
                   0
                   0
                   0
                   0
                   0
                   0
                   0
                   0
                   0
                   0
                   0
                   0
                   0
                   0
                   0
                   0
                   0
                   0
                   0
                   0
                   0
                   0
                   0
                   0
                   0
                   0
                   0
                   0
                   0
                   0
                   0
                   0
                   0
                   0
                   0
                   0
                   0
                   0
                   0
                   0
                   0
                   0
                   0
                   0
                   0
                   0
                   0
                   0
                   0
                   0
                   0
                   0
                   0
                   0
                   0
                   0
                   0
                   0
                   0
                   0
                   0
                   0
                   0
                   0
                   0
                   0
                   0
                   0
                   0
                   0
                   0
                   0
                   0
                   0
  
SCALARS                       fixity_y  double 1
LOOKUP_TABLE default
                   0
                   0
                   0
                   0
                   0
                   0
                   0
                   0
                   0
                   0
                   0
                   0
                   0
                   0
                   0
                   0
                   0
                   0
                   0
                   0
                   0
                   0
                   0
                   0
                   0
                   0
                   0
                   0
                   0
                   0
                   0
                   0
                   0
                   0
                   0
                   0
                   0
                   0
                   0
                   0
                   0
                   0
                   0
                   0
                   0
                   0
                   0
                   0
                   0
                   0
                   0
                   0
                   0
                   0
                   0
                   0
                   0
                   0
                   0
                   0
                   0
                   0
                   0
                   0
                   0
                   0
                   0
                   0
                   0
                   0
                   0
                   0
                   0
                   0
                   0
                   0
                   0
                   0
                   0
                   0
                   0
                   0
                   0
                   0
                   0
                   0
                   0
                   0
                   0
                   0
                   0
                   0
                   0
                   0
                   0
                   0
                   0
                   0
                   0
                   0
                   0
                   0
                   0
                   0
                   0
                   0
                   0
                   0
                   0
                   0
                   0
                   0
                   0
                   0
                   0
                   0
                   0
                   0
                   0
                   0
                   0
                   0
                   0
                   0
                   0
                   0
                   0
                   0
                   0
                   0
                   0
                   0
                   0
                   0
                   0
                   0
                   0
                   0
                   0
                   0
                   0
                   0
                   0
                   0
                   0
                   0
                   0
                   0
                   0
                   0
                   0
                   0
                   0
                   0
                   0
                   0
                   0
                   0
                   0
                   0
                   0
                   0
                   0
                   0
                   0
                   0
                   0
                   0
                   0
                   0
                   0
                   0
                   0
                   0
                   0
                   0
                   0
                   0
                   0
                   0
                   0
                   0
                   0
                   0
                   0
                   0
                   0
                   0
                   0
                   0
                   0
                   0
                   0
                   0
                   0
                   0
                   0
                   0
                   0
                   0
                   0
                   0
                   0
                   0
                   0
                   0
                   0
                   0
                   0
                   0
                   0
                   0
                   0
                   0
                   0
                   0
                   0
                   0
                   0
                   0
                   0
                   0
                   0
                   0
                   0
                   0
                   0
                   0
                   0
                   0
                   0
                   0
                   0
                   0
                   0
                   0
                   0
                   0
                   0
                   0
                   0
                   0
                   0
                   0
                   0
                   0
                   0
                   0
                   0
                   0
                   0
                   0
                   0
                   0
                   0
                   0
                   0
                   0
                   0
                   0
                   0
                   0
                   0
                   0
                   0
                   0
                   0
                   0
                   0
                   0
                   0
                   0
                   0
                   0
                   0
                   0
                   0
                   0
                   0
                   0
                   0
                   0
                   0
                   0
                   0
                   0
                   0
                   0
                   0
                   0
                   0
                   0
                   0
                   0
                   0
                   0
                   0
                   0
                   0
                   0
                   0
                   0
                   0
                   0
                   0
                   0
                   0
                   0
                   0
                   0
                   0
                   0
                   0
                   0
                   0
                   0
                   0
                   0
                   0
                   0
                   0
                   0
                   0
                   0
                   0
                   0
                   0
                   0
                   0
                   0
                   0
                   0
                   0
                   0
                   0
                   0
                   0
                   0
                   0
                   0
                   0
                   0
                   0
                   0
                   0
                   0
                   0
                   0
                   0
                   0
                   0
                   0
                   0
                   0
                   0
                   0
                   0
                   0
                   0
                   0
                   0
                   0
                   0
                   0
                   0
                   0
                   0
                   0
                   0
                   0
                   0
                   0
                   0
                   0
                   0
                   0
                   0
                   0
                   0
                   0
                   0
                   0
                   0
                   0
                   0
                   0
                   0
                   0
                   0
                   0
                   0
                   0
                   0
                   0
                   0
                   0
                   0
                   0
                   0
                   0
                   0
                   0
                   0
                   0
                   0
                   0
                   0
                   0
                   0
                   0
                   0
                   0
                   0
                   0
                   0
                   0
                   0
                   0
                   0
                   0
                   0
                   0
                   0
                   0
                   0
                   0
                   0
                   0
                   0
                   0
                   0
                   0
                   0
                   0
                   0
                   0
                   0
                   0
                   0
                   0
                   0
                   0
                   0
                   0
                   0
                   0
                   0
                   0
                   0
                   0
                   0
                   0
                   0
                   0
                   0
                   0
                   0
                   0
                   0
                   0
                   0
                   0
                   0
                   0
                   0
                   0
                   0
                   0
                   0
                   0
                   0
                   0
                   0
                   0
                   0
                   0
                   0
                   0
                   0
                   0
                   0
                   0
                   0
                   0
                   0
                   0
                   0
                   0
                   0
                   0
                   0
                   0
                   0
                   0
                   0
                   0
                   0
                   0
                   0
                   0
                   0
                   0
                   0
                   0
                   0
                   0
                   0
                   0
                   0
                   0
                   0
                   0
                   0
                   0
                   0
                   0
                   0
                   0
                   0
                   0
                   0
                   0
                   0
                   0
                   0
                   0
                   0
                   0
                   0
                   0
                   0
                   0
                   0
                   0
                   0
                   0
                   0
                   0
                   0
                   0
                   0
                   0
                   0
                   0
                   0
                   0
                   0
                   0
                   0
                   0
                   0
                   0
                   0
                   0
                   0
                   0
                   0
                   0
                   0
                   0
                   0
                   0
                   0
                   0
                   0
                   0
                   0
                   0
                   0
                   0
                   0
                   0
                   0
                   0
                   0
                   0
                   0
                   0
                   0
                   0
                   0
                   0
                   0
                   0
                   0
                   0
                   0
                   0
                   0
                   0
                   0
                   0
                   0
                   0
                   0
                   0
                   0
                   0
                   0
                   0
                   0
                   0
                   0
                   0
                   0
                   0
                   0
                   0
                   0
                   0
                   0
                   0
                   0
                   0
                   0
                   0
                   0
                   0
                   0
                   0
                   0
                   0
                   0
                   0
                   0
                   0
                   0
                   0
                   0
                   0
                   0
                   0
                   0
                   0
                   0
                   0
                   0
                   0
                   0
                   0
                   0
                   0
                   0
                   0
                   0
                   0
                   0
                   0
                   0
                   0
                   0
                   0
                   0
                   0
                   0
                   0
                   0
                   0
                   0
                   0
                   0
                   0
                   0
                   0
                   0
                   0
                   0
                   0
                   0
                   0
                   0
                   0
                   0
                   0
                   0
                   0
                   0
                   0
                   0
                   0
                   0
                   0
                   0
                   0
                   0
                   0
                   0
                   0
                   0
                   0
                   0
                   0
                   0
                   0
                   0
                   0
                   0
                   0
                   0
                   0
                   0
                   0
                   0
                   0
                   0
                   0
                   0
                   0
                   0
                   0
                   0
                   0
                   0
                   0
                   0
                   0
                   0
                   0
                   0
                   0
                   0
                   0
                   0
                   0
                   0
                   0
                   0
                   0
                   0
                   0
                   0
                   0
                   0
                   0
                   0
                   0
                   0
                   0
                   0
                   0
                   0
                   0
                   0
                   0
                   0
                   0
                   0
                   0
                   0
                   0
                   0
                   0
                   0
                   0
                   0
                   0
                   0
                   0
                   0
                   0
                   0
                   0
                   0
                   0
                   0
                   0
                   0
                   0
                   0
                   0
                   0
                   0
                   0
                   0
                   0
                   0
                   0
                   0
                   0
                   0
                   0
                   0
                   0
                   0
                   0
                   0
                   0
                   0
                   0
                   0
                   0
                   0
                   0
                   0
                   0
                   0
                   0
                   0
                   0
                   0
                   0
                   0
                   0
                   0
                   0
                   0
                   0
                   0
                   0
                   0
                   0
                   0
                   0
                   0
                   0
                   0
                   0
                   0
                   0
                   0
                   0
                   0
                   0
                   0
                   0
                   0
                   0
                   0
                   0
                   0
                   0
                   0
                   0
                   0
                   0
                   0
                   0
                   0
                   0
                   0
                   0
                   0
                   0
                   0
                   0
                   0
                   0
                   0
                   0
                   0
                   0
                   0
                   0
                   0
                   0
                   0
                   0
                   0
                   0
                   0
                   0
                   0
                   0
                   0
                   0
                   0
                   0
                   0
                   0
                   0
                   0
                   0
                   0
                   0
                   0
                   0
                   0
                   0
                   0
                   0
                   0
                   0
                   0
                   0
                   0
                   0
                   0
                   0
                   0
                   0
                   0
                   0
                   0
                   0
                   0
                   0
                   0
                   0
                   0
                   0
                   0
                   0
                   0
                   0
                   0
                   0
                   0
                   0
                   0
                   0
                   0
                   0
                   0
                   0
                   0
                   0
                   0
                   0
                   0
                   0
                   0
                   0
                   0
                   0
                   0
                   0
                   0
                   0
                   0
                   0
                   0
                   0
                   0
                   0
                   0
                   0
                   0
                   0
                   0
                   0
                   0
                   0
                   0
                   0
                   0
                   0
                   0
                   0
                   0
                   0
                   0
                   0
                   0
                   0
                   0
                   0
                   0
                   0
                   0
                   0
                   0
                   0
                   0
                   0
                   0
                   0
                   0
                   0
                   0
                   0
                   0
                   0
                   0
                   0
                   0
                   0
                   0
                   0
                   0
                   0
                   0
                   0
                   0
                   0
                   0
                   0
                   0
                   0
                   0
                   0
                   0
                   0
                   0
                   0
                   0
                   0
                   0
                   0
                   0
                   0
                   0
                   0
                   0
                   0
                   0
                   0
                   0
                   0
                   0
                   0
                   0
                   0
                   0
                   0
                   0
                   0
                   0
                   0
                   0
                   0
                   0
                   0
                   0
                   0
                   0
                   0
                   0
                   0
                   0
                   0
                   0
                   0
                   0
                   0
                   0
                   0
                   0
                   0
                   0
                   0
                   0
                   0
                   0
                   0
                   0
                   0
                   0
                   0
                   0
                   0
                   0
                   0
                   0
                   0
                   0
                   0
                   0
                   0
                   0
                   0
                   0
                   0
                   0
                   0
                   0
                   0
                   0
                   0
                   0
                   0
                   0
                   0
                   0
                   0
                   0
                   0
                   0
                   0
                   0
                   0
                   0
                   0
                   0
                   0
                   0
                   0
                   0
                   0
                   0
                   0
                   0
                   0
                   0
                   0
                   0
                   0
                   0
                   0
                   0
                   0
                   0
                   0
                   0
                   0
                   0
                   0
                   0
                   0
                   0
                   0
                   0
                   0
                   0
                   0
                   0
                   0
                   0
                   0
                   0
                   0
                   0
                   0
                   0
                   0
                   0
                   0
                   0
                   0
                   0
                   0
                   0
                   0
                   0
                   0
                   0
                   0
                   0
                   0
                   0
                   0
                   0
                   0
                   0
                   0
                   0
                   0
                   0
                   0
                   0
                   0
                   0
                   0
                   0
                   0
                   0
                   0
                   0
                   0
                   0
                   0
                   0
                   0
                   0
                   0
                   0
                   0
                   0
                   0
                   0
                   0
                   0
                   0
                   0
                   0
                   0
                   0
                   0
                   0
                   0
                   0
                   0
                   0
                   0
                   0
                   0
                   0
                   0
                   0
                   0
                   0
                   0
                   0
                   0
                   0
                   0
                   0
                   0
                   0
                   0
                   0
                   0
                   0
                   0
                   0
                   0
                   0
                   0
                   0
                   0
                   0
                   0
                   0
                   0
                   0
                   0
                   0
                   0
                   0
                   0
                   0
                   0
                   0
                   0
                   0
                   0
                   0
                   0
                   0
                   0
                   0
                   0
                   0
                   0
                   0
                   0
                   0
                   0
                   0
                   0
                   0
                   0
                   0
                   0
                   0
                   0
                   0
                   0
                   0
                   0
                   0
                   0
                   0
                   0
                   0
                   0
                   0
                   0
                   0
                   0
                   0
                   0
                   0
                   0
                   0
                   0
                   0
                   0
                   0
                   0
                   0
                   0
                   0
                   0
                   0
                   0
                   0
                   0
                   0
                   0
                   0
                   0
                   0
                   0
                   0
                   0
                   0
                   0
                   0
                   0
                   0
                   0
                   0
                   0
                   0
                   0
                   0
                   0
                   0
                   0
                   0
                   0
                   0
                   0
                   0
                   0
                   0
                   0
                   0
                   0
                   0
                   0
                   0
                   0
                   0
                   0
                   0
                   0
                   0
                   0
                   0
                   0
                   0
                   0
                   0
                   0
                   0
                   0
                   0
                   0
                   0
                   0
                   0
                   0
                   0
                   0
                   0
                   0
                   0
                   0
                   0
                   0
                   0
                   0
                   0
                   0
                   0
                   0
                   0
                   0
                   0
                   0
                   0
                   0
                   0
                   0
                   0
                   0
                   0
                   0
                   0
                   0
                   0
                   0
                   0
                   0
                   0
                   0
                   0
                   0
                   0
                   0
                   0
                   0
                   0
                   0
                   0
                   0
                   0
                   0
                   0
                   0
                   0
                   0
                   0
                   0
                   0
                   0
                   0
                   0
                   0
                   0
                   0
                   0
                   0
                   0
                   0
                   0
                   0
                   0
                   0
                   0
                   0
                   0
                   0
                   0
                   0
                   0
                   0
                   0
                   0
                   0
                   0
                   0
                   0
                   0
                   0
                   0
                   0
                   0
                   0
                   0
                   0
                   0
                   0
                   0
                   0
                   0
                   0
                   0
                   0
                   0
                   0
                   0
                   0
                   0
                   0
                   0
                   0
                   0
                   0
                   0
                   0
                   0
                   0
                   0
                   0
                   0
                   0
                   0
                   0
                   0
                   0
                   0
                   0
                   0
                   0
                   0
                   0
                   0
                   0
                   0
                   0
                   0
                   0
                   0
                   0
                   0
                   0
                   0
                   0
                   0
                   0
                   0
                   0
                   0
                   0
                   0
                   0
                   0
                   0
                   0
                   0
                   0
                   0
                   0
                   0
                   0
                   0
                   0
                   0
                   0
                   0
                   0
                   0
                   0
                   0
                   0
                   0
                   0
                   0
                   0
                   0
                   0
                   0
                   0
                   0
                   0
                   0
                   0
                   0
                   0
                   0
                   0
                   0
                   0
                   0
                   0
                   0
                   0
                   0
                   0
                   0
                   0
                   0
                   0
                   0
                   0
                   0
                   0
                   0
                   0
                   0
                   0
                   0
                   0
                   0
                   0
                   0
                   0
                   0
                   0
                   0
                   0
                   0
                   0
                   0
                   0
                   0
                   0
                   0
                   0
                   0
                   0
                   0
                   0
                   0
                   0
                   0
                   0
                   0
                   0
                   0
                   0
                   0
                   0
                   0
                   0
                   0
                   0
                   0
                   0
                   0
                   0
                   0
                   0
                   0
                   0
                   0
                   0
                   0
                   0
                   0
                   0
                   0
                   0
                   0
                   0
                   0
                   0
                   0
                   0
                   0
                   0
                   0
                   0
                   0
                   0
                   0
                   0
                   0
                   0
                   0
                   0
                   0
                   0
                   0
                   0
                   0
                   0
                   0
                   0
                   0
                   0
                   0
                   0
                   0
                   0
                   0
                   0
                   0
                   0
                   0
                   0
                   0
                   0
                   0
                   0
                   0
                   0
                   0
                   0
                   0
                   0
                   0
                   0
                   0
                   0
                   0
                   0
                   0
                   0
                   0
                   0
                   0
                   0
                   0
                   0
                   0
                   0
                   0
                   0
                   0
                   0
                   0
                   0
                   0
                   0
                   0
                   0
                   0
                   0
                   0
                   0
                   0
                   0
                   0
                   0
                   0
                   0
                   0
                   0
                   0
                   0
                   0
                   0
                   0
                   0
                   0
                   0
                   0
                   0
                   0
                   0
                   0
                   0
                   0
                   0
                   0
                   0
                   0
                   0
                   0
                   0
                   0
                   0
                   0
                   0
                   0
                   0
                   0
                   0
                   0
                   0
                   0
                   0
                   0
                   0
                   0
                   0
                   0
                   0
                   0
                   0
                   0
                   0
                   0
                   0
                   0
                   0
                   0
                   0
                   0
                   0
                   0
                   0
                   0
                   0
                   0
                   0
                   0
                   0
                   0
                   0
                   0
                   0
                   0
                   0
                   0
                   0
                   0
                   0
                   0
                   0
                   0
                   0
                   0
                   0
                   0
                   0
                   0
                   0
                   0
                   0
                   0
                   0
                   0
                   0
                   0
                   0
                   0
                   0
                   0
                   0
                   0
                   0
                   0
                   0
                   0
                   0
                   0
                   0
                   0
                   0
                   0
                   0
                   0
                   0
                   0
                   0
                   0
                   0
                   0
                   0
                   0
                   0
                   0
                   0
                   0
                   0
                   0
                   0
                   0
                   0
                   0
                   0
                   0
                   0
                   0
                   0
                   0
                   0
                   0
                   0
                   0
                   0
                   0
                   0
                   0
                   0
                   0
                   0
                   0
                   0
                   0
                   0
                   0
                   0
                   0
                   0
                   0
                   0
                   0
                   0
                   0
                   0
                   0
                   0
                   0
                   0
                   0
                   0
                   0
                   0
                   0
                   0
                   0
                   0
                   0
                   0
                   0
                   0
                   0
                   0
                   0
                   0
                   0
                   0
                   0
                   0
                   0
                   0
                   0
                   0
                   0
                   0
                   0
                   0
                   0
                   0
                   0
                   0
                   0
                   0
                   0
                   0
                   0
                   0
                   0
                   0
                   0
                   0
                   0
                   0
                   0
                   0
                   0
                   0
                   0
                   0
                   0
                   0
                   0
                   0
                   0
                   0
                   0
                   0
                   0
                   0
                   0
                   0
                   0
                   0
                   0
                   0
                   0
                   0
                   0
                   0
                   0
                   0
                   0
                   0
                   0
                   0
                   0
                   0
                   0
                   0
                   0
                   0
                   0
                   0
                   0
                   0
                   0
                   0
                   0
                   0
                   0
                   0
                   0
                   0
                   0
                   0
                   0
                   0
                   0
                   0
                   0
                   0
                   0
                   0
                   0
                   0
                   0
                   0
                   0
                   0
                   0
                   0
                   0
                   0
                   0
                   0
                   0
                   0
                   0
                   0
                   0
  
SCALARS                       fixity_z  double 1
LOOKUP_TABLE default
                   0
                   0
                   0
                   0
                   1
                   1
                   1
                   1
                   0
                   0
                   1
                   1
                   0
                   0
                   1
                   1
                   0
                   0
                   1
                   1
                   0
                   0
                   0
                   1
                   1
                   1
                   0
                   0
                   1
                   1
                   0
                   0
                   0
                   1
                   1
                   1
                   0
                   0
                   1
                   1
                   0
                   0
                   1
                   1
                   0
                   0
                   1
                   1
                   0
                   1
                   0
                   1
                   0
                   1
                   0
                   1
                   0
                   0
                   1
                   1
                   0
                   0
                   1
                   1
                   0
                   1
                   0
                   1
                   0
                   0
                   1
                   1
                   0
                   1
                   0
                   1
                   0
                   1
                   0
                   1
                   0
                   0
                   1
                   1
                   0
                   1
                   0
                   1
                   0
                   1
                   0
                   0
                   1
                   1
                   0
                   1
                   0
                   1
                   0
                   1
                   0
                   0
                   1
                   1
                   0
                   0
                   1
                   1
                   0
                   1
                   0
                   1
                   0
                   1
                   0
                   1
                   0
                   1
                   0
                   1
                   0
                   1
                   0
                   1
                   0
                   1
                   0
                   1
                   0
                   1
                   0
                   1
                   0
                   1
                   0
                   1
                   0
                   1
                   0
                   1
                   0
                   1
                   0
                   1
                   0
                   1
                   0
                   1
                   0
                   1
                   0
                   1
                   0
                   1
                   0
                   1
                   0
                   0
                   0
                   0
                   0
                   0
                   0
                   0
                   0
                   0
                   0
                   0
                   0
                   0
                   0
                   0
                   0
                   0
                   0
                   0
                   0
                   0
                   0
                   0
                   0
                   0
                   0
                   0
                   0
                   0
                   0
                   0
                   0
                   0
                   0
                   0
                   0
                   0
                   0
                   0
                   0
                   0
                   0
                   0
                   0
                   0
                   0
                   0
                   0
                   0
                   0
                   0
                   0
                   0
                   0
                   0
                   0
                   0
                   0
                   0
                   0
                   0
                   0
                   0
                   0
                   0
                   0
                   0
                   0
                   0
                   0
                   0
                   0
                   0
                   0
                   0
                   0
                   0
                   0
                   0
                   0
                   0
                   0
                   0
                   0
                   0
                   0
                   0
                   0
                   0
                   0
                   0
                   0
                   0
                   0
                   0
                   0
                   0
                   0
                   0
                   0
                   0
                   0
                   0
                   0
                   0
                   0
                   0
                   0
                   0
                   0
                   0
                   0
                   0
                   0
                   0
                   0
                   0
                   0
                   0
                   0
                   0
                   0
                   0
                   0
                   0
                   0
                   0
                   0
                   0
                   0
                   0
                   0
                   0
                   0
                   0
                   0
                   0
                   0
                   0
                   0
                   0
                   0
                   0
                   0
                   0
                   0
                   0
                   0
                   0
                   0
                   0
                   0
                   0
                   0
                   0
                   0
                   0
                   0
                   0
                   0
                   0
                   0
                   0
                   0
                   0
                   0
                   0
                   0
                   0
                   0
                   0
                   0
                   0
                   0
                   0
                   0
                   0
                   0
                   0
                   0
                   0
                   0
                   0
                   0
                   0
                   0
                   0
                   0
                   0
                   0
                   0
                   0
                   0
                   0
                   0
                   0
                   0
                   0
                   0
                   0
                   0
                   0
                   0
                   0
                   0
                   0
                   0
                   0
                   0
                   0
                   0
                   0
                   0
                   0
                   0
                   0
                   0
                   0
                   0
                   0
                   0
                   0
                   0
                   0
                   0
                   0
                   0
                   0
                   0
                   0
                   0
                   0
                   0
                   0
                   0
                   0
                   0
                   0
                   0
                   0
                   0
                   0
                   0
                   0
                   0
                   0
                   0
                   0
                   0
                   0
                   0
                   0
                   0
                   0
                   0
                   0
                   0
                   0
                   0
                   0
                   0
                   0
                   0
                   0
                   0
                   0
                   0
                   0
                   0
                   0
                   0
                   0
                   0
                   0
                   0
                   0
                   0
                   0
                   0
                   0
                   0
                   0
                   0
                   0
                   0
                   0
                   0
                   0
                   0
                   0
                   0
                   0
                   0
                   0
                   0
                   0
                   0
                   0
                   0
                   0
                   0
                   0
                   0
                   0
                   0
                   0
                   0
                   0
                   0
                   0
                   0
                   0
                   0
                   0
                   0
                   0
                   0
                   0
                   0
                   0
                   0
                   0
                   0
                   0
                   0
                   0
                   0
                   0
                   0
                   0
                   0
                   0
                   0
                   0
                   0
                   0
                   0
                   0
                   0
                   0
                   0
                   0
                   0
                   0
                   0
                   0
                   0
                   0
                   0
                   0
                   0
                   0
                   0
                   0
                   0
                   0
                   0
                   0
                   0
                   0
                   0
                   0
                   0
                   0
                   0
                   0
                   0
                   0
                   0
                   0
                   0
                   0
                   0
                   0
                   0
                   0
                   0
                   0
                   0
                   0
                   0
                   0
                   0
                   0
                   0
                   0
                   0
                   0
                   0
                   0
                   0
                   0
                   0
                   0
                   0
                   0
                   0
                   0
                   0
                   0
                   0
                   0
                   0
                   0
                   0
                   0
                   0
                   0
                   0
                   0
                   0
                   0
                   0
                   0
                   0
                   0
                   0
                   0
                   0
                   0
                   0
                   0
                   0
                   0
                   0
                   0
                   0
                   0
                   0
                   0
                   0
                   0
                   0
                   0
                   0
                   0
                   0
                   0
                   0
                   0
                   0
                   0
                   0
                   0
                   0
                   0
                   0
                   0
                   0
                   0
                   0
                   0
                   0
                   0
                   0
                   0
                   0
                   0
                   0
                   0
                   0
                   0
                   0
                   0
                   0
                   0
                   0
                   0
                   0
                   0
                   0
                   0
                   0
                   0
                   0
                   0
                   0
                   0
                   0
                   0
                   0
                   0
                   0
                   0
                   0
                   0
                   0
                   0
                   0
                   0
                   0
                   0
                   0
                   0
                   0
                   0
                   0
                   0
                   0
                   0
                   0
                   0
                   0
                   0
                   0
                   0
                   0
                   0
                   0
                   0
                   0
                   0
                   0
                   0
                   0
                   0
                   0
                   0
                   0
                   0
                   0
                   0
                   0
                   0
                   0
                   0
                   0
                   0
                   0
                   0
                   0
                   0
                   0
                   0
                   0
                   0
                   0
                   0
                   0
                   0
                   0
                   0
                   0
                   0
                   0
                   0
                   0
                   0
                   0
                   0
                   0
                   0
                   0
                   0
                   0
                   0
                   0
                   0
                   0
                   0
                   0
                   0
                   0
                   0
                   0
                   0
                   0
                   0
                   0
                   0
                   0
                   0
                   0
                   0
                   0
                   0
                   0
                   0
                   0
                   0
                   0
                   0
                   0
                   0
                   0
                   0
                   0
                   0
                   0
                   0
                   0
                   0
                   0
                   0
                   0
                   0
                   0
                   0
                   0
                   0
                   0
                   0
                   0
                   0
                   0
                   0
                   0
                   0
                   0
                   0
                   0
                   0
                   0
                   0
                   0
                   0
                   0
                   0
                   0
                   0
                   0
                   0
                   0
                   0
                   0
                   0
                   0
                   0
                   0
                   0
                   0
                   0
                   0
                   0
                   0
                   0
                   0
                   0
                   0
                   0
                   0
                   0
                   0
                   0
                   0
                   0
                   0
                   0
                   0
                   0
                   0
                   0
                   0
                   0
                   0
                   0
                   0
                   0
                   0
                   0
                   0
                   0
                   0
                   0
                   0
                   0
                   0
                   0
                   0
                   0
                   0
                   0
                   0
                   0
                   0
                   0
                   0
                   0
                   0
                   0
                   0
                   0
                   0
                   0
                   0
                   0
                   0
                   0
                   0
                   0
                   0
                   0
                   0
                   0
                   0
                   0
                   0
                   0
                   0
                   0
                   0
                   0
                   0
                   0
                   0
                   0
                   0
                   0
                   0
                   0
                   0
                   0
                   0
                   0
                   0
                   0
                   0
                   0
                   0
                   0
                   0
                   0
                   0
                   0
                   0
                   0
                   0
                   0
                   0
                   0
                   0
                   0
                   0
                   0
                   0
                   0
                   0
                   0
                   0
                   0
                   0
                   0
                   0
                   0
                   0
                   0
                   0
                   0
                   0
                   0
                   0
                   0
                   0
                   0
                   0
                   0
                   0
                   0
                   0
                   0
                   0
                   0
                   0
                   0
                   0
                   0
                   0
                   0
                   0
                   0
                   0
                   0
                   0
                   0
                   0
                   0
                   0
                   0
                   0
                   0
                   0
                   0
                   0
                   0
                   0
                   0
                   0
                   0
                   0
                   0
                   0
                   0
                   0
                   0
                   0
                   0
                   0
                   0
                   0
                   0
                   0
                   0
                   0
                   0
                   0
                   0
                   0
                   0
                   0
                   0
                   0
                   0
                   0
                   0
                   0
                   0
                   0
                   0
                   0
                   0
                   0
                   0
                   0
                   0
                   0
                   0
                   0
                   0
                   0
                   0
                   0
                   0
                   0
                   0
                   0
                   0
                   0
                   0
                   0
                   0
                   0
                   0
                   0
                   0
                   0
                   0
                   0
                   0
                   0
                   0
                   0
                   0
                   0
                   0
                   0
                   0
                   0
                   0
                   0
                   0
                   0
                   0
                   0
                   0
                   0
                   0
                   0
                   0
                   0
                   0
                   0
                   0
                   0
                   0
                   0
                   0
                   0
                   0
                   0
                   0
                   0
                   0
                   0
                   0
                   0
                   0
                   0
                   0
                   0
                   0
                   0
                   0
                   0
                   0
                   0
                   0
                   0
                   0
                   0
                   0
                   0
                   0
                   0
                   0
                   0
                   0
                   0
                   0
                   0
                   0
                   0
                   0
                   0
                   0
                   0
                   0
                   0
                   0
                   0
                   0
                   0
                   0
                   0
                   0
                   0
                   0
                   0
                   0
                   0
                   0
                   0
                   0
                   0
                   0
                   0
                   0
                   0
                   0
                   0
                   0
                   0
                   0
                   0
                   0
                   0
                   0
                   0
                   0
                   0
                   0
                   0
                   0
                   0
                   0
                   0
                   0
                   0
                   0
                   0
                   0
                   0
                   0
                   0
                   0
                   0
                   0
                   0
                   0
                   0
                   0
                   0
                   0
                   0
                   0
                   0
                   0
                   0
                   0
                   0
                   0
                   0
                   0
                   0
                   0
                   0
                   0
                   0
                   0
                   0
                   0
                   0
                   0
                   0
                   0
                   0
                   0
                   0
                   0
                   0
                   0
                   0
                   0
                   0
                   0
                   0
                   0
                   0
                   0
                   0
                   0
                   0
                   0
                   0
                   0
                   0
                   0
                   0
                   0
                   0
                   0
                   0
                   0
                   0
                   0
                   0
                   0
                   0
                   0
                   0
                   0
                   0
                   0
                   0
                   0
                   0
                   0
                   0
                   0
                   0
                   0
                   0
                   0
                   0
                   0
                   0
                   0
                   0
                   0
                   0
                   0
                   0
                   0
                   0
                   0
                   0
                   0
                   0
                   0
                   0
                   0
                   0
                   0
                   0
                   0
                   0
                   0
                   0
                   0
                   0
                   0
                   0
                   0
                   0
                   0
                   0
                   0
                   0
                   0
                   0
                   0
                   0
                   0
                   0
                   0
                   0
                   0
                   0
                   0
                   0
                   0
                   0
                   0
                   0
                   0
                   0
                   0
                   0
                   0
                   0
                   0
                   0
                   0
                   0
                   0
                   0
                   0
                   0
                   0
                   0
                   0
                   0
                   0
                   0
                   0
                   0
                   0
                   0
                   0
                   0
                   0
                   0
                   0
                   0
                   0
                   0
                   0
                   0
                   0
                   0
                   0
                   0
                   0
                   0
                   0
                   0
                   0
                   0
                   0
                   0
                   0
                   0
                   0
                   0
                   0
                   0
                   0
                   0
                   0
                   0
                   0
                   0
                   0
                   0
                   0
                   0
                   0
                   0
                   0
                   0
                   0
                   0
                   0
                   0
                   0
                   0
                   0
                   0
                   0
                   0
                   0
                   0
                   0
                   0
                   0
                   0
                   0
                   0
                   0
                   0
                   0
                   0
                   0
                   0
                   0
                   0
                   0
                   0
                   0
                   0
                   0
                   0
                   0
                   0
                   0
                   0
                   0
                   0
                   0
                   0
                   0
                   0
                   0
                   0
                   0
                   0
                   0
                   0
                   0
                   0
                   0
                   0
                   0
                   0
                   0
                   0
                   0
                   0
                   0
                   0
                   0
                   0
                   0
                   0
                   0
                   0
                   0
                   0
                   0
                   0
                   0
                   0
                   0
                   0
                   0
                   0
                   0
                   0
                   0
                   0
                   0
                   0
                   0
                   0
                   0
                   0
                   0
                   0
                   0
                   0
                   0
                   0
                   0
                   0
                   0
                   0
                   0
                   0
                   0
                   0
                   0
                   0
                   0
                   0
                   0
                   0
                   0
                   0
                   0
                   0
                   0
                   0
                   0
                   0
                   0
                   0
                   0
                   0
                   0
                   0
                   0
                   0
                   0
                   0
                   0
                   0
                   0
                   0
                   0
                   0
                   0
                   0
                   0
                   0
                   0
                   0
                   0
                   0
                   0
                   0
                   0
                   0
                   0
                   0
                   0
                   0
                   0
                   0
                   0
                   0
                   0
                   0
                   0
                   0
                   0
                   0
                   0
                   0
                   0
                   0
                   0
                   0
                   0
                   0
                   0
                   0
                   0
                   0
                   0
                   0
                   0
                   0
                   0
                   0
                   0
                   0
                   0
                   0
                   0
                   0
                   0
                   0
                   0
                   0
                   0
                   0
                   0
                   0
                   0
                   0
                   0
                   0
                   0
                   0
                   0
                   0
                   0
                   0
                   0
                   0
                   0
                   0
                   0
                   0
                   0
                   0
                   0
                   0
                   0
                   0
                   0
                   0
                   0
                   0
                   0
                   0
                   0
                   0
                   0
                   0
                   0
                   0
                   0
                   0
                   0
                   0
                   0
                   0
                   0
                   0
                   0
                   0
                   0
                   0
                   0
                   0
                   0
                   0
                   0
                   0
                   0
                   0
                   0
                   0
                   0
                   0
                   0
                   0
                   0
                   0
                   0
                   0
                   0
                   0
                   0
                   0
                   0
                   0
                   0
                   0
                   0
                   0
                   0
                   0
                   0
                   0
                   0
                   0
                   0
                   0
                   0
                   0
                   0
                   0
                   0
                   0
                   0
                   0
                   0
                   0
                   0
                   0
                   0
                   0
                   0
                   0
                   0
                   0
                   0
                   0
                   0
                   0
                   0
                   0
                   0
                   0
                   0
                   0
                   0
                   0
                   0
                   0
                   0
                   0
                   0
                   0
                   0
                   0
                   0
                   0
                   0
                   0
                   0
                   0
                   0
                   0
                   0
                   0
                   0
                   0
                   0
                   0
                   0
                   0
                   0
                   0
                   0
                   0
                   0
                   0
                   0
                   0
                   0
                   0
                   0
                   0
                   0
                   0
                   0
                   0
                   0
                   0
                   0
                   0
                   0
                   0
                   0
                   0
                   0
                   0
                   0
                   0
                   0
                   0
                   0
                   0
                   0
                   0
                   0
                   0
                   0
                   0
                   0
                   0
                   0
                   0
                   0
                   0
                   0
                   0
                   0
                   0
                   0
                   0
                   0
                   0
                   0
                   0
                   0
                   0
                   0
                   0
                   0
                   0
                   0
                   0
                   0
                   0
                   0
                   0
                   0
                   0
                   0
                   0
                   0
                   0
                   0
                   0
                   0
                   0
                   0
                   0
                   0
                   0
                   0
                   0
                   0
                   0
                   0
                   0
                   0
                   0
                   0
                   0
                   0
                   0
                   0
                   0
                   0
                   0
                   0
                   0
                   0
                   0
                   0
                   0
                   0
                   0
                   0
                   0
                   0
                   0
                   0
                   0
                   0
                   0
                   0
                   0
                   0
                   0
                   0
                   0
                   0
                   0
                   0
                   0
                   0
                   0
                   0
                   0
                   0
                   0
                   0
                   0
                   0
                   0
                   0
                   0
                   0
                   0
                   0
                   0
                   0
                   0
                   0
                   0
                   0
                   0
                   0
                   0
                   0
                   0
                   0
                   0
                   0
                   0
                   0
                   0
                   0
                   0
                   0
                   0
                   0
                   0
                   0
                   0
                   0
                   0
                   0
                   0
                   0
                   0
                   0
                   0
                   0
                   0
                   0
                   0
                   0
                   0
                   0
                   0
                   0
                   0
                   0
                   0
                   0
                   0
                   0
                   0
                   0
                   0
                   0
                   0
                   0
                   0
                   0
                   0
                   0
                   0
                   0
                   0
                   0
                   0
                   0
                   0
                   0
                   0
                   0
                   0
                   0
                   0
                   0
                   0
                   0
                   0
                   0
                   0
                   0
                   0
                   0
                   0
                   0
                   0
                   0
                   0
                   0
                   0
                   0
                   0
                   0
                   0
                   0
                   0
                   0
                   0
                   0
                   0
                   0
                   0
                   0
                   0
                   0
                   0
                   0
                   0
                   0
                   0
                   0
                   0
                   0
                   0
                   0
                   0
                   0
                   0
                   0
                   0
                   0
                   0
                   0
                   0
                   0
                   0
                   0
                   0
                   0
                   0
                   0
                   0
                   0
                   0
                   0
                   0
                   0
                   0
                   0
                   0
                   0
                   0
                   0
                   0
                   0
                   0
                   0
                   0
                   0
                   0
                   0
                   0
                   0
                   0
                   0
                   0
                   0
                   0
                   0
                   0
                   0
                   0
                   0
                   0
                   0
                   0
                   0
                   0
                   0
                   0
                   0
                   0
                   0
                   0
                   0
                   0
  
SCALARS                         Ispace  double 1
LOOKUP_TABLE default
                  12
                  12
                  12
                  12
                  12
                  12
                  12
                  12
                  12
                  12
                  12
                  12
                  12
                  11
                  12
                  11
                  11
                  11
                  11
                  11
                  11
                  12
                  12
                  11
                  12
                  12
                  11
                  11
                  11
                  11
                  11
                  11
                  11
                  11
                  11
                  11
                  11
                  11
                  11
                  11
                  11
                  11
                  11
                  11
                  11
                  11
                  11
                  11
                  11
                  11
                  11
                  11
                  11
                  11
                  11
                  11
                  11
                  11
                  11
                  11
                  11
                  11
                  11
                  11
                  11
                  11
                  12
                  12
                  12
                  12
                  12
                  12
                  12
                  12
                  11
                  11
                  11
                  11
                  11
                  11
                  11
                  11
                  11
                  11
                  11
                  11
                  11
                  11
                  11
                  11
                  11
                  11
                  11
                  11
                  11
                  11
                  12
                  12
                  12
                  12
                  12
                  12
                  12
                  12
                  12
                  12
                  12
                  12
                  12
                  12
                  12
                  12
                  12
                  12
                  12
                  12
                  11
                  11
                  11
                  11
                  11
                  11
                  11
                  11
                  11
                  11
                  11
                  11
                  11
                  11
                  11
                  11
                  11
                  11
                  11
                  11
                  11
                  11
                  11
                  11
                  11
                  11
                  11
                  11
                  11
                  11
                  12
                  12
                  12
                  12
                  12
                  12
                  12
                  12
                  12
                  12
                  12
                  12
                  12
                  12
                  12
                  12
                  12
                  11
                  11
                  11
                  11
                  12
                  12
                  11
                  11
                  11
                  11
                  11
                  11
                  11
                  11
                  11
                  11
                  11
                  11
                  11
                  11
                  11
                  11
                  11
                  11
                  11
                  11
                  12
                  12
                  12
                  12
                  11
                  11
                  11
                  11
                  11
                  11
                  11
                  11
                  11
                  11
                  11
                  12
                  12
                  12
                  12
                  12
                  12
                  12
                  12
                  12
                  12
                  11
                  11
                  11
                  11
                  11
                  11
                  11
                  11
                  11
                  11
                  11
                  11
                  11
                  11
                  11
                  12
                  12
                  12
                  12
                  12
                  12
                  12
                  12
                  12
                  12
                  12
                  12
                  11
                  11
                  11
                  11
                  12
                  12
                  11
                  11
                  11
                  11
                  11
                  11
                  11
                  11
                  11
                  11
                  11
                  11
                  11
                  11
                  11
                  11
                  11
                  11
                  11
                  11
                  12
                  12
                  12
                  12
                  11
                  11
                  11
                  11
                  11
                  11
                  11
                  11
                  11
                  11
                  11
                  12
                  12
                  12
                  12
                  12
                  12
                  12
                  12
                  12
                  12
                  11
                  11
                  11
                  11
                  11
                  11
                  11
                  11
                  11
                  11
                  11
                  11
                  11
                  11
                  11
                  12
                  12
                  12
                  12
                  12
                  12
                  12
                  12
                  12
                  12
                  12
                  12
                  11
                  11
                  11
                  11
                  12
                  12
                  11
                  11
                  11
                  11
                  11
                  11
                  11
                  11
                  11
                  11
                  11
                  11
                  11
                  11
                  11
                  11
                  11
                  11
                  11
                  11
                  12
                  12
                  12
                  12
                  11
                  11
                  11
                  11
                  11
                  11
                  11
                  11
                  11
                  11
                  11
                  12
                  12
                  12
                  12
                  12
                  12
                  12
                  12
                  12
                  12
                  11
                  11
                  11
                  11
                  11
                  11
                  11
                  11
                  11
                  11
                  11
                  11
                  11
                  11
                  11
                  12
                  12
                  12
                  12
                  12
                  12
                  12
                  12
                  12
                  12
                  12
                  12
                  11
                  11
                  11
                  11
                  12
                  12
                  11
                  11
                  11
                  11
                  11
                  11
                  11
                  11
                  11
                  11
                  11
                  11
                  11
                  11
                  11
                  11
                  11
                  11
                  11
                  11
                  12
                  12
                  12
                  12
                  11
                  11
                  11
                  11
                  11
                  11
                  11
                  11
                  11
                  11
                  11
                  12
                  12
                  12
                  12
                  12
                  12
                  12
                  12
                  12
                  12
                  11
                  11
                  11
                  11
                  11
                  11
                  11
                  11
                  11
                  11
                  11
                  11
                  11
                  11
                  11
                  12
                  12
                  12
                  12
                  12
                  12
                  12
                  12
                  12
                  12
                  12
                  12
                  11
                  11
                  11
                  11
                  12
                  12
                  11
                  11
                  11
                  11
                  11
                  11
                  11
                  11
                  11
                  11
                  11
                  11
                  11
                  11
                  11
                  11
                  11
                  11
                  11
                  11
                  12
                  12
                  12
                  12
                  11
                  11
                  11
                  11
                  11
                  11
                  11
                  11
                  11
                  11
                  11
                  12
                  12
                  12
                  12
                  12
                  12
                  12
                  12
                  12
                  12
                  11
                  11
                  11
                  11
                  11
                  11
                  11
                  11
                  11
                  11
                  11
                  11
                  11
                  11
                  11
                  12
                  12
                  12
                  12
                  12
                  12
                  12
                  12
                  12
                  12
                  12
                  12
                  11
                  11
                  11
                  11
                  12
                  12
                  11
                  11
                  11
                  11
                  11
                  11
                  11
                  11
                  11
                  11
                  11
                  11
                  11
                  11
                  11
                  11
                  11
                  11
                  11
                  11
                  12
                  12
                  12
                  12
                  11
                  11
                  11
                  11
                  11
                  11
                  11
                  11
                  11
                  11
                  11
                  12
                  12
                  12
                  12
                  12
                  12
                  12
                  12
                  12
                  12
                  11
                  11
                  11
                  11
                  11
                  11
                  11
                  11
                  11
                  11
                  11
                  11
                  11
                  11
                  11
                  12
                  12
                  12
                  12
                  12
                  12
                  12
                  12
                  12
                  12
                  12
                  12
                  11
                  11
                  11
                  11
                  12
                  12
                  11
                  11
                  11
                  11
                  11
                  11
                  11
                  11
                  11
                  11
                  11
                  11
                  11
                  11
                  11
                  11
                  11
                  11
                  11
                  11
                  12
                  12
                  12
                  12
                  11
                  11
                  11
                  11
                  11
                  11
                  11
                  11
                  11
                  11
                  11
                  12
                  12
                  12
                  12
                  12
                  12
                  12
                  12
                  12
                  12
                  11
                  11
                  11
                  11
                  11
                  11
                  11
                  11
                  11
                  11
                  11
                  11
                  11
                  11
                  11
                  12
                  12
                  12
                  12
                  12
                  12
                  12
                  12
                  12
                  12
                  12
                  12
                  11
                  11
                  11
                  11
                  12
                  12
                  11
                  11
                  11
                  11
                  11
                  11
                  11
                  11
                  11
                  11
                  11
                  11
                  11
                  11
                  11
                  11
                  11
                  11
                  11
                  11
                  12
                  12
                  12
                  12
                  11
                  11
                  11
                  11
                  11
                  11
                  11
                  11
                  11
                  11
                  11
                  12
                  12
                  12
                  12
                  12
                  12
                  12
                  12
                  12
                  12
                  11
                  11
                  11
                  11
                  11
                  11
                  11
                  11
                  11
                  11
                  11
                  11
                  11
                  11
                  11
                  12
                  12
                  12
                  12
                  12
                  12
                  12
                  12
                  12
                  12
                  12
                  12
                  11
                  11
                  11
                  11
                  12
                  12
                  11
                  11
                  11
                  11
                  11
                  11
                  11
                  11
                  11
                  11
                  11
                  11
                  11
                  11
                  11
                  11
                  11
                  11
                  11
                  11
                  12
                  12
                  12
                  12
                  11
                  11
                  11
                  11
                  11
                  11
                  11
                  11
                  11
                  11
                  11
                  12
                  12
                  12
                  12
                  12
                  12
                  12
                  12
                  12
                  12
                  11
                  11
                  11
                  11
                  11
                  11
                  11
                  11
                  11
                  11
                  11
                  11
                  11
                  11
                  11
                  12
                  12
                  12
                  12
                  12
                  12
                  12
                  12
                  12
                  12
                  12
                  12
                  11
                  11
                  11
                  11
                  12
                  12
                  11
                  11
                  11
                  11
                  11
                  11
                  11
                  11
                  11
                  11
                  11
                  11
                  11
                  11
                  11
                  11
                  11
                  11
                  11
                  11
                  12
                  12
                  12
                  12
                  11
                  11
                  11
                  11
                  11
                  11
                  11
                  11
                  11
                  11
                  11
                  12
                  12
                  12
                  12
                  12
                  12
                  12
                  12
                  12
                  12
                  11
                  11
                  11
                  11
                  11
                  11
                  11
                  11
                  11
                  11
                  11
                  11
                  11
                  11
                  11
                  12
                  12
                  12
                  12
                  12
                  12
                  12
                  12
                  12
                  12
                  12
                  12
                  11
                  11
                  11
                  11
                  12
                  12
                  11
                  11
                  11
                  11
                  11
                  11
                  11
                  11
                  11
                  11
                  11
                  11
                  11
                  11
                  11
                  11
                  11
                  11
                  11
                  11
                  12
                  12
                  12
                  12
                  11
                  11
                  11
                  11
                  11
                  11
                  11
                  11
                  11
                  11
                  11
                  12
                  12
                  12
                  12
                  12
                  12
                  12
                  12
                  12
                  12
                  11
                  11
                  11
                  11
                  11
                  11
                  11
                  11
                  11
                  11
                  11
                  11
                  11
                  11
                  11
                  12
                  12
                  12
                  12
                  12
                  12
                  12
                  12
                  12
                  12
                  12
                  12
                  11
                  11
                  11
                  11
                  12
                  12
                  11
                  11
                  11
                  11
                  11
                  11
                  11
                  11
                  11
                  11
                  11
                  11
                  11
                  11
                  11
                  11
                  11
                  11
                  11
                  11
                  12
                  12
                  12
                  12
                  11
                  11
                  11
                  11
                  11
                  11
                  11
                  11
                  11
                  11
                  11
                  12
                  12
                  12
                  12
                  12
                  12
                  12
                  12
                  12
                  12
                  11
                  11
                  11
                  11
                  11
                  11
                  11
                  11
                  11
                  11
                  11
                  11
                  11
                  11
                  11
                  12
                  12
                  12
                  12
                  12
                  12
                  12
                  12
                  12
                  12
                  12
                  12
                  11
                  11
                  11
                  11
                  12
                  12
                  11
                  11
                  11
                  11
                  11
                  11
                  11
                  11
                  11
                  11
                  11
                  11
                  11
                  11
                  11
                  11
                  11
                  11
                  11
                  11
                  12
                  12
                  12
                  12
                  11
                  11
                  11
                  11
                  11
                  11
                  11
                  11
                  11
                  11
                  11
                  12
                  12
                  12
                  12
                  12
                  12
                  12
                  12
                  12
                  12
                  11
                  11
                  11
                  11
                  11
                  11
                  11
                  11
                  11
                  11
                  11
                  11
                  11
                  11
                  11
                  12
                  12
                  12
                  12
                  12
                  12
                  12
                  12
                  12
                  12
                  12
                  12
                  11
                  11
                  11
                  11
                  12
                  12
                  11
                  11
                  11
                  11
                  11
                  11
                  11
                  11
                  11
                  11
                  11
                  11
                  11
                  11
                  11
                  11
                  11
                  11
                  11
                  11
                  12
                  12
                  12
                  12
                  11
                  11
                  11
                  11
                  11
                  11
                  11
                  11
                  11
                  11
                  11
                  12
                  12
                  12
                  12
                  12
                  12
                  12
                  12
                  12
                  12
                  11
                  11
                  11
                  11
                  11
                  11
                  11
                  11
                  11
                  11
                  11
                  11
                  11
                  11
                  11
                  12
                  12
                  12
                  12
                  12
                  12
                  12
                  12
                  12
                  12
                  12
                  12
                  11
                  11
                  11
                  11
                  12
                  12
                  11
                  11
                  11
                  11
                  11
                  11
                  11
                  11
                  11
                  11
                  11
                  11
                  11
                  11
                  11
                  11
                  11
                  11
                  11
                  11
                  12
                  12
                  12
                  12
                  11
                  11
                  11
                  11
                  11
                  11
                  11
                  11
                  11
                  11
                  11
                  12
                  12
                  12
                  12
                  12
                  12
                  12
                  12
                  12
                  12
                  11
                  11
                  11
                  11
                  11
                  11
                  11
                  11
                  11
                  11
                  11
                  11
                  11
                  11
                  11
                  12
                  12
                  12
                  12
                  12
                  12
                  12
                  12
                  12
                  12
                  12
                  12
                  11
                  11
                  11
                  11
                  12
                  12
                  11
                  11
                  11
                  11
                  11
                  11
                  11
                  11
                  11
                  11
                  11
                  11
                  11
                  11
                  11
                  11
                  11
                  11
                  11
                  11
                  12
                  12
                  12
                  12
                  11
                  11
                  11
                  11
                  11
                  11
                  11
                  11
                  11
                  11
                  11
                  12
                  12
                  12
                  12
                  12
                  12
                  12
                  12
                  12
                  12
                  11
                  11
                  11
                  11
                  11
                  11
                  11
                  11
                  11
                  11
                  11
                  11
                  11
                  11
                  11
                  12
                  12
                  12
                  12
                  12
                  12
                  12
                  12
                  12
                  12
                  12
                  12
                  11
                  11
                  11
                  11
                  12
                  12
                  11
                  11
                  11
                  11
                  11
                  11
                  11
                  11
                  11
                  11
                  11
                  11
                  11
                  11
                  11
                  11
                  11
                  11
                  11
                  11
                  12
                  12
                  12
                  12
                  11
                  11
                  11
                  11
                  11
                  11
                  11
                  11
                  11
                  11
                  11
                  12
                  12
                  12
                  12
                  12
                  12
                  12
                  12
                  12
                  12
                  11
                  11
                  11
                  11
                  11
                  11
                  11
                  11
                  11
                  11
                  11
                  11
                  11
                  11
                  11
                  12
                  12
                  12
                  12
                  12
                  12
                  12
                  12
                  12
                  12
                  12
                  12
                  11
                  11
                  11
                  11
                  12
                  12
                  11
                  11
                  11
                  11
                  11
                  11
                  11
                  11
                  11
                  11
                  11
                  11
                  11
                  11
                  11
                  11
                  11
                  11
                  11
                  11
                  12
                  12
                  12
                  12
                  11
                  11
                  11
                  11
                  11
                  11
                  11
                  11
                  11
                  11
                  11
                  12
                  12
                  12
                  12
                  12
                  12
                  12
                  12
                  12
                  12
                  11
                  11
                  11
                  11
                  11
                  11
                  11
                  11
                  11
                  11
                  11
                  11
                  11
                  11
                  11
                  12
                  12
                  12
                  12
                  12
                  12
                  12
                  12
                  12
                  12
                  12
                  12
                  11
                  11
                  11
                  11
                  12
                  12
                  11
                  11
                  11
                  11
                  11
                  11
                  11
                  11
                  11
                  11
                  11
                  11
                  11
                  11
                  11
                  11
                  11
                  11
                  11
                  11
                  12
                  12
                  12
                  12
                  11
                  11
                  11
                  11
                  11
                  11
                  11
                  11
                  11
                  11
                  11
                  12
                  12
                  12
                  12
                  12
                  12
                  12
                  12
                  12
                  12
                  11
                  11
                  11
                  11
                  11
                  11
                  11
                  11
                  11
                  11
                  11
                  11
                  11
                  11
                  11
                  12
                  12
                  12
                  12
                  12
                  12
                  12
                  12
                  12
                  12
                  12
                  12
                  11
                  11
                  11
                  11
                  12
                  12
                  11
                  11
                  11
                  11
                  11
                  11
                  11
                  11
                  11
                  11
                  11
                  11
                  11
                  11
                  11
                  11
                  11
                  11
                  11
                  11
                  12
                  12
                  12
                  12
                  11
                  11
                  11
                  11
                  11
                  11
                  11
                  11
                  11
                  11
                  11
                  12
                  12
                  12
                  12
                  12
                  12
                  12
                  12
                  12
                  12
                  11
                  11
                  11
                  11
                  11
                  11
                  11
                  11
                  11
                  11
                  11
                  11
                  11
                  11
                  11
                  12
                  12
                  12
                  12
                  12
                  12
                  12
                  12
                  12
                  12
                  12
                  12
                  11
                  11
                  11
                  11
                  12
                  12
                  11
                  11
                  11
                  11
                  11
                  11
                  11
                  11
                  11
                  11
                  11
                  11
                  11
                  11
                  11
                  11
                  11
                  11
                  11
                  11
                  12
                  12
                  12
                  12
                  11
                  11
                  11
                  11
                  11
                  11
                  11
                  11
                  11
                  11
                  11
                  12
                  12
                  12
                  12
                  12
                  12
                  12
                  12
                  12
                  12
                  11
                  11
                  11
                  11
                  11
                  11
                  11
                  11
                  11
                  11
                  11
                  11
                  11
                  11
                  11
                  12
                  12
                  12
                  12
                  12
                  12
                  12
                  12
                  12
                  12
                  12
                  12
                  11
                  11
                  11
                  11
                  12
                  12
                  11
                  11
                  11
                  11
                  11
                  11
                  11
                  11
                  11
                  11
                  11
                  11
                  11
                  11
                  11
                  11
                  11
                  11
                  11
                  11
                  12
                  12
                  12
                  12
                  11
                  11
                  11
                  11
                  11
                  11
                  11
                  11
                  11
                  11
                  11
                  12
                  12
                  12
                  12
                  12
                  12
                  12
                  12
                  12
                  12
                  11
                  11
                  11
                  11
                  11
                  11
                  11
                  11
                  11
                  11
                  11
                  11
                  11
                  11
                  11
                  12
                  12
                  12
                  12
                  12
                  12
                  12
                  12
                  12
                  12
                  12
                  12
                  11
                  11
                  11
                  11
                  12
                  12
                  11
                  11
                  11
                  11
                  11
                  11
                  11
                  11
                  11
                  11
                  11
                  11
                  11
                  11
                  11
                  11
                  11
                  11
                  11
                  11
                  12
                  12
                  12
                  12
                  11
                  11
                  11
                  11
                  11
                  11
                  11
                  11
                  11
                  11
                  11
                  12
                  12
                  12
                  12
                  12
                  12
                  12
                  12
                  12
                  12
                  11
                  11
                  11
                  11
                  11
                  11
                  11
                  11
                  11
                  11
                  11
                  11
                  11
                  11
                  11
                  12
                  12
                  12
                  12
                  12
  
SCALARS                         Jspace  double 1
LOOKUP_TABLE default
                  11
                  12
                  11
                  11
                  11
                  12
                  11
                  11
                  11
                  11
                  11
                  11
                  12
                  12
                  12
                  12
                  11
                  12
                  11
                  12
                  12
                  12
                  12
                  12
                  12
                  12
                  12
                  12
                  12
                  12
                  11
                  11
                  11
                  11
                  11
                  11
                  11
                  11
                  11
                  11
                  11
                  11
                  11
                  11
                  11
                  11
                  11
                  11
                  11
                  11
                  11
                  11
                  12
                  12
                  12
                  12
                  12
                  11
                  12
                  11
                  11
                  11
                  11
                  11
                  11
                  11
                  11
                  11
                  11
                  12
                  11
                  12
                  12
                  12
                  12
                  12
                  12
                  12
                  12
                  12
                  12
                  12
                  12
                  12
                  11
                  11
                  11
                  11
                  11
                  11
                  11
                  11
                  11
                  11
                  11
                  11
                  11
                  11
                  11
                  11
                  11
                  11
                  11
                  11
                  11
                  11
                  11
                  11
                  12
                  12
                  12
                  12
                  12
                  12
                  12
                  12
                  12
                  12
                  12
                  12
                  12
                  12
                  12
                  12
                  12
                  12
                  12
                  12
                  11
                  11
                  11
                  11
                  11
                  11
                  11
                  11
                  11
                  11
                  11
                  11
                  11
                  11
                  11
                  11
                  11
                  11
                  11
                  11
                  11
                  11
                  11
                  11
                  11
                  11
                  11
                  11
                  11
                  12
                  11
                  11
                  11
                  11
                  12
                  12
                  11
                  12
                  12
                  12
                  12
                  12
                  12
                  11
                  11
                  11
                  11
                  11
                  11
                  11
                  11
                  11
                  11
                  11
                  12
                  12
                  12
                  11
                  11
                  11
                  11
                  11
                  11
                  12
                  12
                  12
                  12
                  12
                  12
                  12
                  11
                  11
                  11
                  11
                  11
                  11
                  11
                  11
                  11
                  11
                  11
                  11
                  12
                  12
                  12
                  12
                  12
                  12
                  12
                  12
                  12
                  12
                  11
                  11
                  11
                  11
                  11
                  11
                  11
                  11
                  11
                  11
                  11
                  11
                  11
                  11
                  11
                  12
                  11
                  11
                  11
                  11
                  12
                  12
                  11
                  12
                  12
                  12
                  12
                  12
                  12
                  11
                  11
                  11
                  11
                  11
                  11
                  11
                  11
                  11
                  11
                  11
                  12
                  12
                  12
                  11
                  11
                  11
                  11
                  11
                  11
                  12
                  12
                  12
                  12
                  12
                  12
                  12
                  11
                  11
                  11
                  11
                  11
                  11
                  11
                  11
                  11
                  11
                  11
                  11
                  12
                  12
                  12
                  12
                  12
                  12
                  12
                  12
                  12
                  12
                  11
                  11
                  11
                  11
                  11
                  11
                  11
                  11
                  11
                  11
                  11
                  11
                  11
                  11
                  11
                  12
                  11
                  11
                  11
                  11
                  12
                  12
                  11
                  12
                  12
                  12
                  12
                  12
                  12
                  11
                  11
                  11
                  11
                  11
                  11
                  11
                  11
                  11
                  11
                  11
                  12
                  12
                  12
                  11
                  11
                  11
                  11
                  11
                  11
                  12
                  12
                  12
                  12
                  12
                  12
                  12
                  11
                  11
                  11
                  11
                  11
                  11
                  11
                  11
                  11
                  11
                  11
                  11
                  12
                  12
                  12
                  12
                  12
                  12
                  12
                  12
                  12
                  12
                  11
                  11
                  11
                  11
                  11
                  11
                  11
                  11
                  11
                  11
                  11
                  11
                  11
                  11
                  11
                  12
                  11
                  11
                  11
                  11
                  12
                  12
                  11
                  12
                  12
                  12
                  12
                  12
                  12
                  11
                  11
                  11
                  11
                  11
                  11
                  11
                  11
                  11
                  11
                  11
                  12
                  12
                  12
                  11
                  11
                  11
                  11
                  11
                  11
                  12
                  12
                  12
                  12
                  12
                  12
                  12
                  11
                  11
                  11
                  11
                  11
                  11
                  11
                  11
                  11
                  11
                  11
                  11
                  12
                  12
                  12
                  12
                  12
                  12
                  12
                  12
                  12
                  12
                  11
                  11
                  11
                  11
                  11
                  11
                  11
                  11
                  11
                  11
                  11
                  11
                  11
                  11
                  11
                  12
                  11
                  11
                  11
                  11
                  12
                  12
                  11
                  12
                  12
                  12
                  12
                  12
                  12
                  11
                  11
                  11
                  11
                  11
                  11
                  11
                  11
                  11
                  11
                  11
                  12
                  12
                  12
                  11
                  11
                  11
                  11
                  11
                  11
                  12
                  12
                  12
                  12
                  12
                  12
                  12
                  11
                  11
                  11
                  11
                  11
                  11
                  11
                  11
                  11
                  11
                  11
                  11
                  12
                  12
                  12
                  12
                  12
                  12
                  12
                  12
                  12
                  12
                  11
                  11
                  11
                  11
                  11
                  11
                  11
                  11
                  11
                  11
                  11
                  11
                  11
                  11
                  11
                  12
                  11
                  11
                  11
                  11
                  12
                  12
                  11
                  12
                  12
                  12
                  12
                  12
                  12
                  11
                  11
                  11
                  11
                  11
                  11
                  11
                  11
                  11
                  11
                  11
                  12
                  12
                  12
                  11
                  11
                  11
                  11
                  11
                  11
                  12
                  12
                  12
                  12
                  12
                  12
                  12
                  11
                  11
                  11
                  11
                  11
                  11
                  11
                  11
                  11
                  11
                  11
                  11
                  12
                  12
                  12
                  12
                  12
                  12
                  12
                  12
                  12
                  12
                  11
                  11
                  11
                  11
                  11
                  11
                  11
                  11
                  11
                  11
                  11
                  11
                  11
                  11
                  11
                  12
                  11
                  11
                  11
                  11
                  12
                  12
                  11
                  12
                  12
                  12
                  12
                  12
                  12
                  11
                  11
                  11
                  11
                  11
                  11
                  11
                  11
                  11
                  11
                  11
                  12
                  12
                  12
                  11
                  11
                  11
                  11
                  11
                  11
                  12
                  12
                  12
                  12
                  12
                  12
                  12
                  11
                  11
                  11
                  11
                  11
                  11
                  11
                  11
                  11
                  11
                  11
                  11
                  12
                  12
                  12
                  12
                  12
                  12
                  12
                  12
                  12
                  12
                  11
                  11
                  11
                  11
                  11
                  11
                  11
                  11
                  11
                  11
                  11
                  11
                  11
                  11
                  11
                  12
                  11
                  11
                  11
                  11
                  12
                  12
                  11
                  12
                  12
                  12
                  12
                  12
                  12
                  11
                  11
                  11
                  11
                  11
                  11
                  11
                  11
                  11
                  11
                  11
                  12
                  12
                  12
                  11
                  11
                  11
                  11
                  11
                  11
                  12
                  12
                  12
                  12
                  12
                  12
                  12
                  11
                  11
                  11
                  11
                  11
                  11
                  11
                  11
                  11
                  11
                  11
                  11
                  12
                  12
                  12
                  12
                  12
                  12
                  12
                  12
                  12
                  12
                  11
                  11
                  11
                  11
                  11
                  11
                  11
                  11
                  11
                  11
                  11
                  11
                  11
                  11
                  11
                  12
                  11
                  11
                  11
                  11
                  12
                  12
                  11
                  12
                  12
                  12
                  12
                  12
                  12
                  11
                  11
                  11
                  11
                  11
                  11
                  11
                  11
                  11
                  11
                  11
                  12
                  12
                  12
                  11
                  11
                  11
                  11
                  11
                  11
                  12
                  12
                  12
                  12
                  12
                  12
                  12
                  11
                  11
                  11
                  11
                  11
                  11
                  11
                  11
                  11
                  11
                  11
                  11
                  12
                  12
                  12
                  12
                  12
                  12
                  12
                  12
                  12
                  12
                  11
                  11
                  11
                  11
                  11
                  11
                  11
                  11
                  11
                  11
                  11
                  11
                  11
                  11
                  11
                  12
                  11
                  11
                  11
                  11
                  12
                  12
                  11
                  12
                  12
                  12
                  12
                  12
                  12
                  11
                  11
                  11
                  11
                  11
                  11
                  11
                  11
                  11
                  11
                  11
                  12
                  12
                  12
                  11
                  11
                  11
                  11
                  11
                  11
                  12
                  12
                  12
                  12
                  12
                  12
                  12
                  11
                  11
                  11
                  11
                  11
                  11
                  11
                  11
                  11
                  11
                  11
                  11
                  12
                  12
                  12
                  12
                  12
                  12
                  12
                  12
                  12
                  12
                  11
                  11
                  11
                  11
                  11
                  11
                  11
                  11
                  11
                  11
                  11
                  11
                  11
                  11
                  11
                  12
                  11
                  11
                  11
                  11
                  12
                  12
                  11
                  12
                  12
                  12
                  12
                  12
                  12
                  11
                  11
                  11
                  11
                  11
                  11
                  11
                  11
                  11
                  11
                  11
                  12
                  12
                  12
                  11
                  11
                  11
                  11
                  11
                  11
                  12
                  12
                  12
                  12
                  12
                  12
                  12
                  11
                  11
                  11
                  11
                  11
                  11
                  11
                  11
                  11
                  11
                  11
                  11
                  12
                  12
                  12
                  12
                  12
                  12
                  12
                  12
                  12
                  12
                  11
                  11
                  11
                  11
                  11
                  11
                  11
                  11
                  11
                  11
                  11
                  11
                  11
                  11
                  11
                  12
                  11
                  11
                  11
                  11
                  12
                  12
                  11
                  12
                  12
                  12
                  12
                  12
                  12
                  11
                  11
                  11
                  11
                  11
                  11
                  11
                  11
                  11
                  11
                  11
                  12
                  12
                  12
                  11
                  11
                  11
                  11
                  11
                  11
                  12
                  12
                  12
                  12
                  12
                  12
                  12
                  11
                  11
                  11
                  11
                  11
                  11
                  11
                  11
                  11
                  11
                  11
                  11
                  12
                  12
                  12
                  12
                  12
                  12
                  12
                  12
                  12
                  12
                  11
                  11
                  11
                  11
                  11
                  11
                  11
                  11
                  11
                  11
                  11
                  11
                  11
                  11
                  11
                  12
                  11
                  11
                  11
                  11
                  12
                  12
                  11
                  12
                  12
                  12
                  12
                  12
                  12
                  11
                  11
                  11
                  11
                  11
                  11
                  11
                  11
                  11
                  11
                  11
                  12
                  12
                  12
                  11
                  11
                  11
                  11
                  11
                  11
                  12
                  12
                  12
                  12
                  12
                  12
                  12
                  11
                  11
                  11
                  11
                  11
                  11
                  11
                  11
                  11
                  11
                  11
                  11
                  12
                  12
                  12
                  12
                  12
                  12
                  12
                  12
                  12
                  12
                  11
                  11
                  11
                  11
                  11
                  11
                  11
                  11
                  11
                  11
                  11
                  11
                  11
                  11
                  11
                  12
                  11
                  11
                  11
                  11
                  12
                  12
                  11
                  12
                  12
                  12
                  12
                  12
                  12
                  11
                  11
                  11
                  11
                  11
                  11
                  11
                  11
                  11
                  11
                  11
                  12
                  12
                  12
                  11
                  11
                  11
                  11
                  11
                  11
                  12
                  12
                  12
                  12
                  12
                  12
                  12
                  11
                  11
                  11
                  11
                  11
                  11
                  11
                  11
                  11
                  11
                  11
                  11
                  12
                  12
                  12
                  12
                  12
                  12
                  12
                  12
                  12
                  12
                  11
                  11
                  11
                  11
                  11
                  11
                  11
                  11
                  11
                  11
                  11
                  11
                  11
                  11
                  11
                  12
                  11
                  11
                  11
                  11
                  12
                  12
                  11
                  12
                  12
                  12
                  12
                  12
                  12
                  11
                  11
                  11
                  11
                  11
                  11
                  11
                  11
                  11
                  11
                  11
                  12
                  12
                  12
                  11
                  11
                  11
                  11
                  11
                  11
                  12
                  12
                  12
                  12
                  12
                  12
                  12
                  11
                  11
                  11
                  11
                  11
                  11
                  11
                  11
                  11
                  11
                  11
                  11
                  12
                  12
                  12
                  12
                  12
                  12
                  12
                  12
                  12
                  12
                  11
                  11
                  11
                  11
                  11
                  11
                  11
                  11
                  11
                  11
                  11
                  11
                  11
                  11
                  11
                  12
                  11
                  11
                  11
                  11
                  12
                  12
                  11
                  12
                  12
                  12
                  12
                  12
                  12
                  11
                  11
                  11
                  11
                  11
                  11
                  11
                  11
                  11
                  11
                  11
                  12
                  12
                  12
                  11
                  11
                  11
                  11
                  11
                  11
                  12
                  12
                  12
                  12
                  12
                  12
                  12
                  11
                  11
                  11
                  11
                  11
                  11
                  11
                  11
                  11
                  11
                  11
                  11
                  12
                  12
                  12
                  12
                  12
                  12
                  12
                  12
                  12
                  12
                  11
                  11
                  11
                  11
                  11
                  11
                  11
                  11
                  11
                  11
                  11
                  11
                  11
                  11
                  11
                  12
                  11
                  11
                  11
                  11
                  12
                  12
                  11
                  12
                  12
                  12
                  12
                  12
                  12
                  11
                  11
                  11
                  11
                  11
                  11
                  11
                  11
                  11
                  11
                  11
                  12
                  12
                  12
                  11
                  11
                  11
                  11
                  11
                  11
                  12
                  12
                  12
                  12
                  12
                  12
                  12
                  11
                  11
                  11
                  11
                  11
                  11
                  11
                  11
                  11
                  11
                  11
                  11
                  12
                  12
                  12
                  12
                  12
                  12
                  12
                  12
                  12
                  12
                  11
                  11
                  11
                  11
                  11
                  11
                  11
                  11
                  11
                  11
                  11
                  11
                  11
                  11
                  11
                  12
                  11
                  11
                  11
                  11
                  12
                  12
                  11
                  12
                  12
                  12
                  12
                  12
                  12
                  11
                  11
                  11
                  11
                  11
                  11
                  11
                  11
                  11
                  11
                  11
                  12
                  12
                  12
                  11
                  11
                  11
                  11
                  11
                  11
                  12
                  12
                  12
                  12
                  12
                  12
                  12
                  11
                  11
                  11
                  11
                  11
                  11
                  11
                  11
                  11
                  11
                  11
                  11
                  12
                  12
                  12
                  12
                  12
                  12
                  12
                  12
                  12
                  12
                  11
                  11
                  11
                  11
                  11
                  11
                  11
                  11
                  11
                  11
                  11
                  11
                  11
                  11
                  11
                  12
                  11
                  11
                  11
                  11
                  12
                  12
                  11
                  12
                  12
                  12
                  12
                  12
                  12
                  11
                  11
                  11
                  11
                  11
                  11
                  11
                  11
                  11
                  11
                  11
                  12
                  12
                  12
                  11
                  11
                  11
                  11
                  11
                  11
                  12
                  12
                  12
                  12
                  12
                  12
                  12
                  11
                  11
                  11
                  11
                  11
                  11
                  11
                  11
                  11
                  11
                  11
                  11
                  12
                  12
                  12
                  12
                  12
                  12
                  12
                  12
                  12
                  12
                  11
                  11
                  11
                  11
                  11
                  11
                  11
                  11
                  11
                  11
                  11
                  11
                  11
                  11
                  11
                  12
                  11
                  11
                  11
                  11
                  12
                  12
                  11
                  12
                  12
                  12
                  12
                  12
                  12
                  11
                  11
                  11
                  11
                  11
                  11
                  11
                  11
                  11
                  11
                  11
                  12
                  12
                  12
                  11
                  11
                  11
                  11
                  11
                  11
                  12
                  12
                  12
                  12
                  12
                  12
                  12
                  11
                  11
                  11
                  11
                  11
                  11
                  11
                  11
                  11
                  11
                  11
                  11
                  12
                  12
                  12
                  12
                  12
                  12
                  12
                  12
                  12
                  12
                  11
                  11
                  11
                  11
                  11
                  11
                  11
                  11
                  11
                  11
                  11
                  11
                  11
                  11
                  11
                  12
                  11
                  11
                  11
                  11
                  12
                  12
                  11
                  12
                  12
                  12
                  12
                  12
                  12
                  11
                  11
                  11
                  11
                  11
                  11
                  11
                  11
                  11
                  11
                  11
                  12
                  12
                  12
                  11
                  11
                  11
                  11
                  11
                  11
                  12
                  12
                  12
                  12
                  12
                  12
                  12
                  11
                  11
                  11
                  11
                  11
                  11
                  11
                  11
                  11
                  11
                  11
                  11
                  12
                  12
                  12
                  12
                  12
                  12
                  12
                  12
                  12
                  12
                  11
                  11
                  11
                  11
                  11
                  11
                  11
                  11
                  11
                  11
                  11
                  11
                  11
                  11
                  11
                  12
                  11
                  11
                  11
                  11
                  12
                  12
                  11
                  12
                  12
                  12
                  12
                  12
                  12
                  11
                  11
                  11
                  11
                  11
                  11
                  11
                  11
                  11
                  11
                  11
                  12
                  12
                  12
                  11
                  11
                  11
                  11
                  11
                  11
                  12
                  12
                  12
                  12
                  12
                  12
                  12
                  11
                  11
                  11
                  11
                  11
                  11
                  11
                  11
                  11
                  11
                  11
                  11
                  12
                  12
                  12
                  12
                  12
                  12
                  12
                  12
                  12
                  12
                  11
                  11
                  11
                  11
                  11
                  11
                  11
                  11
                  11
                  11
                  11
                  11
                  11
                  11
                  11
                  12
                  11
                  11
                  11
                  11
                  12
                  12
                  11
                  12
                  12
                  12
                  12
                  12
                  12
                  11
                  11
                  11
                  11
                  11
                  11
                  11
                  11
                  11
                  11
                  11
                  12
                  12
                  12
                  11
                  11
                  11
                  11
                  11
                  11
                  12
                  12
                  12
                  12
                  12
                  12
                  12
                  11
                  11
                  11
                  11
                  11
                  11
                  11
                  11
                  11
                  11
                  11
                  11
                  12
                  12
                  12
                  12
                  12
                  12
                  12
                  12
                  12
                  12
                  11
                  11
                  11
                  11
                  11
                  11
                  11
                  11
                  11
                  11
                  11
                  11
                  11
                  11
  
SCALARS                         Kspace  double 1
LOOKUP_TABLE default
                  11
                  11
                  11
                  11
                  11
                  11
                  11
                  11
                  11
                  11
                  11
                  11
                  11
                  11
                  11
                  11
                  11
                  11
                  11
                  11
                  11
                  11
                  11
                  11
                  11
                  11
                  11
                  11
                  11
                  11
                  11
                  11
                  11
                  11
                  11
                  11
                  11
                  11
                  11
                  11
                  11
                  11
                  11
                  11
                  11
                  11
                  11
                  11
                  11
                  11
                  11
                  11
                  11
                  11
                  11
                  11
                  11
                  11
                  11
                  11
                  11
                  11
                  11
                  11
                  11
                  11
                  11
                  11
                  11
                  11
                  11
                  11
                  11
                  11
                  11
                  11
                  11
                  11
                  11
                  11
                  11
                  11
                  11
                  11
                  11
                  11
                  11
                  11
                  11
                  11
                  11
                  11
                  11
                  11
                  11
                  11
                  11
                  11
                  11
                  11
                  11
                  11
                  11
                  11
                  11
                  11
                  11
                  11
                  11
                  11
                  11
                  11
                  11
                  11
                  11
                  11
                  11
                  11
                  11
                  11
                  11
                  11
                  11
                  11
                  11
                  11
                  11
                  11
                  11
                  11
                  11
                  11
                  11
                  11
                  11
                  11
                  11
                  11
                  11
                  11
                  11
                  11
                  11
                  11
                  11
                  11
                  11
                  11
                  11
                  11
                  11
                  11
                  11
                  11
                  11
                  11
                  11
                  11
                  11
                  11
                  11
                  11
                  11
                  11
                  11
                  11
                  11
                  11
                  11
                  11
                  11
                  11
                  11
                  11
                  11
                  11
                  11
                  11
                  11
                  11
                  11
                  11
                  11
                  11
                  11
                  11
                  11
                  11
                  11
                  11
                  11
                  11
                  11
                  11
                  11
                  11
                  11
                  11
                  11
                  11
                  11
                  11
                  11
                  11
                  11
                  11
                  11
                  11
                  11
                  11
                  11
                  11
                  11
                  11
                  11
                  11
                  11
                  11
                  11
                  11
                  11
                  11
                  11
                  11
                  11
                  11
                  11
                  11
                  11
                  11
                  11
                  11
                  11
                  11
                  11
                  11
                  11
                  11
                  11
                  11
                  11
                  11
                  11
                  11
                  11
                  11
                  11
                  11
                  11
                  11
                  11
                  11
                  11
                  11
                  11
                  11
                  11
                  11
                  11
                  11
                  11
                  11
                  11
                  11
                  11
                  11
                  11
                  11
                  11
                  11
                  11
                  11
                  11
                  11
                  11
                  11
                  11
                  11
                  11
                  11
                  11
                  11
                  11
                  11
                  11
                  11
                  11
                  11
                  11
                  11
                  11
                  11
                  11
                  11
                  11
                  11
                  11
                  11
                  11
                  11
                  11
                  11
                  11
                  11
                  11
                  11
                  11
                  11
                  11
                  11
                  11
                  11
                  12
                  12
                  12
                  12
                  12
                  12
                  12
                  12
                  12
                  12
                  12
                  12
                  12
                  12
                  12
                  12
                  12
                  12
                  12
                  12
                  12
                  12
                  12
                  12
                  12
                  12
                  12
                  12
                  12
                  12
                  12
                  12
                  12
                  12
                  12
                  12
                  12
                  12
                  12
                  12
                  12
                  12
                  12
                  12
                  12
                  12
                  12
                  12
                  12
                  12
                  12
                  12
                  12
                  12
                  12
                  12
                  12
                  12
                  12
                  12
                  12
                  12
                  12
                  12
                  12
                  12
                  12
                  12
                  12
                  12
                  12
                  12
                  12
                  12
                  12
                  12
                  12
                  12
                  12
                  12
                  12
                  12
                  12
                  12
                  12
                  12
                  12
                  12
                  12
                  12
                  12
                  12
                  12
                  12
                  12
                  12
                  12
                  12
                  12
                  12
                  12
                  12
                  12
                  12
                  12
                  12
                  12
                  12
                  12
                  12
                  12
                  12
                  12
                  12
                  12
                  12
                  12
                  12
                  12
                  12
                  12
                  12
                  12
                  12
                  12
                  12
                  12
                  12
                  12
                  12
                  12
                  12
                  12
                  12
                  12
                  12
                  12
                  12
                  12
                  12
                  12
                  12
                  12
                  12
                  12
                  12
                  12
                  12
                  12
                  12
                  12
                  12
                  12
                  12
                  12
                  12
                  12
                  12
                  12
                  12
                  12
                  12
                  12
                  12
                  12
                  12
                  12
                  12
                  12
                  12
                  12
                  12
                  12
                  12
                  12
                  12
                  12
                  12
                  12
                  12
                  12
                  12
                  12
                  12
                  12
                  12
                  12
                  12
                  12
                  12
                  12
                  12
                  12
                  12
                  12
                  12
                  12
                  12
                  12
                  12
                  12
                  12
                  12
                  12
                  12
                  12
                  12
                  12
                  12
                  12
                  12
                  12
                  12
                  12
                  12
                  12
                  12
                  12
                  12
                  12
                  12
                  12
                  12
                  12
                  12
                  12
                  12
                  12
                  12
                  12
                  12
                  12
                  12
                  12
                  13
                  13
                  13
                  13
                  13
                  13
                  13
                  13
                  13
                  13
                  13
                  13
                  13
                  13
                  13
                  13
                  13
                  13
                  13
                  13
                  13
                  13
                  13
                  13
                  13
                  13
                  13
                  13
                  13
                  13
                  13
                  13
                  13
                  13
                  13
                  13
                  13
                  13
                  13
                  13
                  13
                  13
                  13
                  13
                  13
                  13
                  13
                  13
                  13
                  13
                  13
                  13
                  13
                  13
                  13
                  13
                  13
                  13
                  13
                  13
                  13
                  13
                  13
                  13
                  13
                  13
                  13
                  13
                  13
                  13
                  13
                  13
                  13
                  13
                  13
                  13
                  13
                  13
                  13
                  13
                  13
                  13
                  13
                  13
                  13
                  13
                  13
                  13
                  13
                  13
                  13
                  13
                  13
                  13
                  13
                  13
                  13
                  13
                  13
                  13
                  13
                  13
                  13
                  13
                  13
                  13
                  13
                  13
                  13
                  13
                  13
                  13
                  13
                  13
                  13
                  13
                  13
                  13
                  13
                  13
                  13
                  13
                  13
                  13
                  13
                  13
                  13
                  13
                  13
                  13
                  13
                  13
                  13
                  13
                  13
                  13
                  13
                  13
                  13
                  13
                  13
                  13
                  13
                  13
                  13
                  13
                  13
                  13
                  13
                  13
                  13
                  13
                  13
                  13
                  13
                  13
                  13
                  13
                  13
                  13
                  13
                  13
                  13
                  13
                  13
                  13
                  13
                  13
                  13
                  13
                  13
                  13
                  13
                  13
                  13
                  13
                  13
                  13
                  13
                  13
                  13
                  13
                  13
                  13
                  13
                  13
                  13
                  13
                  13
                  13
                  13
                  13
                  13
                  13
                  13
                  13
                  13
                  13
                  13
                  13
                  13
                  13
                  13
                  13
                  13
                  13
                  13
                  13
                  13
                  13
                  13
                  13
                  13
                  13
                  13
                  13
                  13
                  13
                  13
                  13
                  13
                  13
                  13
                  13
                  13
                  13
                  13
                  13
                  13
                  13
                  13
                  13
                  13
                  13
                  14
                  14
                  14
                  14
                  14
                  14
                  14
                  14
                  14
                  14
                  14
                  14
                  14
                  14
                  14
                  14
                  14
                  14
                  14
                  14
                  14
                  14
                  14
                  14
                  14
                  14
                  14
                  14
                  14
                  14
                  14
                  14
                  14
                  14
                  14
                  14
                  14
                  14
                  14
                  14
                  14
                  14
                  14
                  14
                  14
                  14
                  14
                  14
                  14
                  14
                  14
                  14
                  14
                  14
                  14
                  14
                  14
                  14
                  14
                  14
                  14
                  14
                  14
                  14
                  14
                  14
                  14
                  14
                  14
                  14
                  14
                  14
                  14
                  14
                  14
                  14
                  14
                  14
                  14
                  14
                  14
                  14
                  14
                  14
                  14
                  14
                  14
                  14
                  14
                  14
                  14
                  14
                  14
                  14
                  14
                  14
                  14
                  14
                  14
                  14
                  14
                  14
                  14
                  14
                  14
                  14
                  14
                  14
                  14
                  14
                  14
                  14
                  14
                  14
                  14
                  14
                  14
                  14
                  14
                  14
                  14
                  14
                  14
                  14
                  14
                  14
                  14
                  14
                  14
                  14
                  14
                  14
                  14
                  14
                  14
                  14
                  14
                  14
                  14
                  14
                  14
                  14
                  14
                  14
                  14
                  14
                  14
                  14
                  14
                  14
                  14
                  14
                  14
                  14
                  14
                  14
                  14
                  14
                  14
                  14
                  14
                  14
                  14
                  14
                  14
                  14
                  14
                  14
                  14
                  14
                  14
                  14
                  14
                  14
                  14
                  14
                  14
                  14
                  14
                  14
                  14
                  14
                  14
                  14
                  14
                  14
                  14
                  14
                  14
                  14
                  14
                  14
                  14
                  14
                  14
                  14
                  14
                  14
                  14
                  14
                  14
                  14
                  14
                  14
                  14
                  14
                  14
                  14
                  14
                  14
                  14
                  14
                  14
                  14
                  14
                  14
                  14
                  14
                  14
                  14
                  14
                  14
                  14
                  14
                  14
                  14
                  14
                  14
                  14
                  14
                  14
                  14
                  14
                  14
                  15
                  15
                  15
                  15
                  15
                  15
                  15
                  15
                  15
                  15
                  15
                  15
                  15
                  15
                  15
                  15
                  15
                  15
                  15
                  15
                  15
                  15
                  15
                  15
                  15
                  15
                  15
                  15
                  15
                  15
                  15
                  15
                  15
                  15
                  15
                  15
                  15
                  15
                  15
                  15
                  15
                  15
                  15
                  15
                  15
                  15
                  15
                  15
                  15
                  15
                  15
                  15
                  15
                  15
                  15
                  15
                  15
                  15
                  15
                  15
                  15
                  15
                  15
                  15
                  15
                  15
                  15
                  15
                  15
                  15
                  15
                  15
                  15
                  15
                  15
                  15
                  15
                  15
                  15
                  15
                  15
                  15
                  15
                  15
                  15
                  15
                  15
                  15
                  15
                  15
                  15
                  15
                  15
                  15
                  15
                  15
                  15
                  15
                  15
                  15
                  15
                  15
                  15
                  15
                  15
                  15
                  15
                  15
                  15
                  15
                  15
                  15
                  15
                  15
                  15
                  15
                  15
                  15
                  15
                  15
                  15
                  15
                  15
                  15
                  15
                  15
                  15
                  15
                  15
                  15
                  15
                  15
                  15
                  15
                  15
                  15
                  15
                  15
                  15
                  15
                  15
                  15
                  15
                  15
                  15
                  15
                  15
                  15
                  15
                  15
                  15
                  15
                  15
                  15
                  15
                  15
                  15
                  15
                  15
                  15
                  15
                  15
                  15
                  15
                  15
                  15
                  15
                  15
                  15
                  15
                  15
                  15
                  15
                  15
                  15
                  15
                  15
                  15
                  15
                  15
                  15
                  15
                  15
                  15
                  15
                  15
                  15
                  15
                  15
                  15
                  15
                  15
                  15
                  15
                  15
                  15
                  15
                  15
                  15
                  15
                  15
                  15
                  15
                  15
                  15
                  15
                  15
                  15
                  15
                  15
                  15
                  15
                  15
                  15
                  15
                  15
                  15
                  15
                  15
                  15
                  15
                  15
                  15
                  15
                  15
                  15
                  15
                  15
                  15
                  15
                  15
                  15
                  15
                  15
                  15
                  15
                  15
                  15
                  15
                  15
                  15
                  15
                  15
                  15
                  15
                  15
                  15
                  15
                  15
                  15
                  15
                  15
                  15
                  15
                  15
                  15
                  15
                  15
                  15
                  15
                  15
                  15
                  15
                  15
                  15
                  15
                  15
                  15
                  15
                  15
                  15
                  15
                  15
                  15
                  15
                  15
                  15
                  15
                  15
                  15
                  15
                  15
                  15
                  15
                  15
                  15
                  15
                  15
                  15
                  15
                  15
                  15
                  15
                  15
                  15
                  15
                  15
                  15
                  15
                  15
                  15
                  15
                  15
                  15
                  15
                  15
                  15
                  15
                  15
                  15
                  15
                  15
                  16
                  16
                  16
                  16
                  16
                  16
                  16
                  16
                  16
                  16
                  16
                  16
                  16
                  16
                  16
                  16
                  16
                  16
                  16
                  16
                  16
                  16
                  16
                  16
                  16
                  16
                  16
                  16
                  16
                  16
                  16
                  16
                  16
                  16
                  16
                  16
                  16
                  16
                  16
                  16
                  16
                  16
                  16
                  16
                  16
                  16
                  16
                  16
                  16
                  16
                  16
                  16
                  16
                  16
                  16
                  16
                  16
                  16
                  16
                  16
                  16
                  16
                  16
                  16
                  16
                  16
                  16
                  16
                  16
                  16
                  16
                  16
                  16
                  16
                  16
                  16
                  16
                  16
                  16
                  16
                  16
                  16
                  16
                  16
                  16
                  16
                  16
                  16
                  16
                  16
                  16
                  16
                  16
                  16
                  16
                  16
                  16
                  16
                  16
                  16
                  16
                  16
                  16
                  16
                  16
                  16
                  16
                  16
                  16
                  16
                  16
                  16
                  16
                  16
                  16
                  16
                  16
                  16
                  16
                  16
                  16
                  16
                  16
                  16
                  16
                  16
                  16
                  16
                  16
                  16
                  16
                  16
                  16
                  16
                  16
                  16
                  16
                  16
                  16
                  16
                  16
                  16
                  16
                  16
                  16
                  16
                  16
                  16
                  16
                  16
                  16
                  16
                  16
                  16
                  16
                  16
                  16
                  16
                  16
                  16
                  16
                  16
                  16
                  16
                  16
                  16
                  16
                  16
                  16
                  16
                  16
                  16
                  16
                  16
                  16
                  16
                  16
                  16
                  16
                  16
                  16
                  16
                  16
                  16
                  16
                  16
                  16
                  16
                  16
                  16
                  16
                  16
                  16
                  16
                  16
                  16
                  16
                  16
                  16
                  16
                  16
                  16
                  16
                  16
                  16
                  16
                  16
                  16
                  16
                  16
                  16
                  16
                  16
                  16
                  16
                  16
                  16
                  16
                  16
                  16
                  16
                  16
                  16
                  16
                  16
                  16
                  16
                  16
                  16
                  16
                  16
                  16
                  16
                  16
                  17
                  17
                  17
                  17
                  17
                  17
                  17
                  17
                  17
                  17
                  17
                  17
                  17
                  17
                  17
                  17
                  17
                  17
                  17
                  17
                  17
                  17
                  17
                  17
                  17
                  17
                  17
                  17
                  17
                  17
                  17
                  17
                  17
                  17
                  17
                  17
                  17
                  17
                  17
                  17
                  17
                  17
                  17
                  17
                  17
                  17
                  17
                  17
                  17
                  17
                  17
                  17
                  17
                  17
                  17
                  17
                  17
                  17
                  17
                  17
                  17
                  17
                  17
                  17
                  17
                  17
                  17
                  17
                  17
                  17
                  17
                  17
                  17
                  17
                  17
                  17
                  17
                  17
                  17
                  17
                  17
                  17
                  17
                  17
                  17
                  17
                  17
                  17
                  17
                  17
                  17
                  17
                  17
                  17
                  17
                  17
                  17
                  17
                  17
                  17
                  17
                  17
                  17
                  17
                  17
                  17
                  17
                  17
                  17
                  17
                  17
                  17
                  17
                  17
                  17
                  17
                  17
                  17
                  17
                  17
                  17
                  17
                  17
                  17
                  17
                  17
                  17
                  17
                  17
                  17
                  17
                  17
                  17
                  17
                  17
                  17
                  17
                  17
                  17
                  17
                  17
                  17
                  17
                  17
                  17
                  17
                  17
                  17
                  17
                  17
                  17
                  17
                  17
                  17
                  17
                  17
                  17
                  17
                  17
                  17
                  17
                  17
                  17
                  17
                  17
                  17
                  17
                  17
                  17
                  17
                  17
                  17
                  17
                  17
                  17
                  17
                  17
                  17
                  17
                  17
                  17
                  17
                  17
                  17
                  17
                  17
                  17
                  17
                  17
                  17
                  17
                  17
                  17
                  17
                  17
                  17
                  17
                  17
                  17
                  17
                  17
                  17
                  17
                  17
                  17
                  17
                  17
                  17
                  17
                  17
                  17
                  17
                  17
                  17
                  17
                  17
                  17
                  17
                  17
                  17
                  17
                  17
                  17
                  17
                  17
                  17
                  17
                  17
                  17
                  17
                  17
                  17
                  17
                  17
                  18
                  18
                  18
                  18
                  18
                  18
                  18
                  18
                  18
                  18
                  18
                  18
                  18
                  18
                  18
                  18
                  18
                  18
                  18
                  18
                  18
                  18
                  18
                  18
                  18
                  18
                  18
                  18
                  18
                  18
                  18
                  18
                  18
                  18
                  18
                  18
                  18
                  18
                  18
                  18
                  18
                  18
                  18
                  18
                  18
                  18
                  18
                  18
                  18
                  18
                  18
                  18
                  18
                  18
                  18
                  18
                  18
                  18
                  18
                  18
                  18
                  18
                  18
                  18
                  18
                  18
                  18
                  18
                  18
                  18
                  18
                  18
                  18
                  18
                  18
                  18
                  18
                  18
                  18
                  18
                  18
                  18
                  18
                  18
                  18
                  18
                  18
                  18
                  18
                  18
                  18
                  18
                  18
                  18
                  18
                  18
                  18
                  18
                  18
                  18
                  18
                  18
                  18
                  18
                  18
                  18
                  18
                  18
                  18
                  18
                  18
                  18
                  18
                  18
                  18
                  18
                  18
                  18
                  18
                  18
                  18
                  18
                  18
                  18
                  18
                  18
                  18
                  18
                  18
                  18
                  18
                  18
                  18
                  18
                  18
                  18
                  18
                  18
                  18
                  18
                  18
                  18
                  18
                  18
                  18
                  18
                  18
                  18
                  18
                  18
                  18
                  18
                  18
                  18
                  18
                  18
  
SCALARS                 displacement_x  double 1
LOOKUP_TABLE default
         0.00000E+00
         0.00000E+00
         0.00000E+00
         0.00000E+00
         0.00000E+00
         0.00000E+00
         0.00000E+00
         0.00000E+00
         0.00000E+00
         0.00000E+00
         0.00000E+00
         0.00000E+00
         0.00000E+00
         0.00000E+00
         0.00000E+00
         0.00000E+00
         0.00000E+00
         0.00000E+00
         0.00000E+00
         0.00000E+00
         0.00000E+00
         0.00000E+00
         0.00000E+00
         0.00000E+00
         0.00000E+00
         0.00000E+00
         0.00000E+00
         0.00000E+00
         0.00000E+00
         0.00000E+00
         0.00000E+00
         0.00000E+00
         0.00000E+00
         0.00000E+00
         0.00000E+00
         0.00000E+00
         0.00000E+00
         0.00000E+00
         0.00000E+00
         0.00000E+00
         0.00000E+00
         0.00000E+00
         0.00000E+00
         0.00000E+00
         0.00000E+00
         0.00000E+00
         0.00000E+00
         0.00000E+00
         0.00000E+00
         0.00000E+00
         0.00000E+00
         0.00000E+00
         0.00000E+00
         0.00000E+00
         0.00000E+00
         0.00000E+00
         0.00000E+00
         0.00000E+00
         0.00000E+00
         0.00000E+00
         0.00000E+00
         0.00000E+00
         0.00000E+00
         0.00000E+00
         0.00000E+00
         0.00000E+00
         0.00000E+00
         0.00000E+00
         0.00000E+00
         0.00000E+00
         0.00000E+00
         0.00000E+00
         0.00000E+00
         0.00000E+00
         0.00000E+00
         0.00000E+00
         0.00000E+00
         0.00000E+00
         0.00000E+00
         0.00000E+00
         0.00000E+00
         0.00000E+00
         0.00000E+00
         0.00000E+00
         0.00000E+00
         0.00000E+00
         0.00000E+00
         0.00000E+00
         0.00000E+00
         0.00000E+00
         0.00000E+00
         0.00000E+00
         0.00000E+00
         0.00000E+00
         0.00000E+00
         0.00000E+00
         0.00000E+00
         0.00000E+00
         0.00000E+00
         0.00000E+00
         0.00000E+00
         0.00000E+00
         0.00000E+00
         0.00000E+00
         0.00000E+00
         0.00000E+00
         0.00000E+00
         0.00000E+00
         0.00000E+00
         0.00000E+00
         0.00000E+00
         0.00000E+00
         0.00000E+00
         0.00000E+00
         0.00000E+00
         0.00000E+00
         0.00000E+00
         0.00000E+00
         0.00000E+00
         0.00000E+00
         0.00000E+00
         0.00000E+00
         0.00000E+00
         0.00000E+00
         0.00000E+00
         0.00000E+00
         0.00000E+00
         0.00000E+00
         0.00000E+00
         0.00000E+00
         0.00000E+00
         0.00000E+00
         0.00000E+00
         0.00000E+00
         0.00000E+00
         0.00000E+00
         0.00000E+00
         0.00000E+00
         0.00000E+00
         0.00000E+00
         0.00000E+00
         0.00000E+00
         0.00000E+00
         0.00000E+00
         0.00000E+00
         0.00000E+00
         0.00000E+00
         0.00000E+00
         0.00000E+00
         0.00000E+00
         0.00000E+00
         0.00000E+00
         0.00000E+00
         0.00000E+00
         0.00000E+00
         0.00000E+00
         0.00000E+00
         0.00000E+00
         0.00000E+00
         0.00000E+00
         0.00000E+00
         0.00000E+00
         0.00000E+00
         0.00000E+00
         0.00000E+00
         0.00000E+00
         0.00000E+00
         0.00000E+00
         0.00000E+00
         0.00000E+00
         0.00000E+00
         0.00000E+00
         0.00000E+00
         0.00000E+00
         0.00000E+00
         0.00000E+00
         0.00000E+00
         0.00000E+00
         0.00000E+00
         0.00000E+00
         0.00000E+00
         0.00000E+00
         0.00000E+00
         0.00000E+00
         0.00000E+00
         0.00000E+00
         0.00000E+00
         0.00000E+00
         0.00000E+00
         0.00000E+00
         0.00000E+00
         0.00000E+00
         0.00000E+00
         0.00000E+00
         0.00000E+00
         0.00000E+00
         0.00000E+00
         0.00000E+00
         0.00000E+00
         0.00000E+00
         0.00000E+00
         0.00000E+00
         0.00000E+00
         0.00000E+00
         0.00000E+00
         0.00000E+00
         0.00000E+00
         0.00000E+00
         0.00000E+00
         0.00000E+00
         0.00000E+00
         0.00000E+00
         0.00000E+00
         0.00000E+00
         0.00000E+00
         0.00000E+00
         0.00000E+00
         0.00000E+00
         0.00000E+00
         0.00000E+00
         0.00000E+00
         0.00000E+00
         0.00000E+00
         0.00000E+00
         0.00000E+00
         0.00000E+00
         0.00000E+00
         0.00000E+00
         0.00000E+00
         0.00000E+00
         0.00000E+00
         0.00000E+00
         0.00000E+00
         0.00000E+00
         0.00000E+00
         0.00000E+00
         0.00000E+00
         0.00000E+00
         0.00000E+00
         0.00000E+00
         0.00000E+00
         0.00000E+00
         0.00000E+00
         0.00000E+00
         0.00000E+00
         0.00000E+00
         0.00000E+00
         0.00000E+00
         0.00000E+00
         0.00000E+00
         0.00000E+00
         0.00000E+00
         0.00000E+00
         0.00000E+00
         0.00000E+00
         0.00000E+00
         0.00000E+00
         0.00000E+00
         0.00000E+00
         0.00000E+00
         0.00000E+00
         0.00000E+00
         0.00000E+00
         0.00000E+00
         0.00000E+00
         0.00000E+00
         0.00000E+00
         0.00000E+00
         0.00000E+00
         0.00000E+00
         0.00000E+00
         0.00000E+00
         0.00000E+00
         0.00000E+00
         0.00000E+00
         0.00000E+00
         0.00000E+00
         0.00000E+00
         0.00000E+00
         0.00000E+00
         0.00000E+00
         0.00000E+00
         0.00000E+00
         0.00000E+00
         0.00000E+00
         0.00000E+00
         0.00000E+00
         0.00000E+00
         0.00000E+00
         0.00000E+00
         0.00000E+00
         0.00000E+00
         0.00000E+00
         0.00000E+00
         0.00000E+00
         0.00000E+00
         0.00000E+00
         0.00000E+00
         0.00000E+00
         0.00000E+00
         0.00000E+00
         0.00000E+00
         0.00000E+00
         0.00000E+00
         0.00000E+00
         0.00000E+00
         0.00000E+00
         0.00000E+00
         0.00000E+00
         0.00000E+00
         0.00000E+00
         0.00000E+00
         0.00000E+00
         0.00000E+00
         0.00000E+00
         0.00000E+00
         0.00000E+00
         0.00000E+00
         0.00000E+00
         0.00000E+00
         0.00000E+00
         0.00000E+00
         0.00000E+00
         0.00000E+00
         0.00000E+00
         0.00000E+00
         0.00000E+00
         0.00000E+00
         0.00000E+00
         0.00000E+00
         0.00000E+00
         0.00000E+00
         0.00000E+00
         0.00000E+00
         0.00000E+00
         0.00000E+00
         0.00000E+00
         0.00000E+00
         0.00000E+00
         0.00000E+00
         0.00000E+00
         0.00000E+00
         0.00000E+00
         0.00000E+00
         0.00000E+00
         0.00000E+00
         0.00000E+00
         0.00000E+00
         0.00000E+00
         0.00000E+00
         0.00000E+00
         0.00000E+00
         0.00000E+00
         0.00000E+00
         0.00000E+00
         0.00000E+00
         0.00000E+00
         0.00000E+00
         0.00000E+00
         0.00000E+00
         0.00000E+00
         0.00000E+00
         0.00000E+00
         0.00000E+00
         0.00000E+00
         0.00000E+00
         0.00000E+00
         0.00000E+00
         0.00000E+00
         0.00000E+00
         0.00000E+00
         0.00000E+00
         0.00000E+00
         0.00000E+00
         0.00000E+00
         0.00000E+00
         0.00000E+00
         0.00000E+00
         0.00000E+00
         0.00000E+00
         0.00000E+00
         0.00000E+00
         0.00000E+00
         0.00000E+00
         0.00000E+00
         0.00000E+00
         0.00000E+00
         0.00000E+00
         0.00000E+00
         0.00000E+00
         0.00000E+00
         0.00000E+00
         0.00000E+00
         0.00000E+00
         0.00000E+00
         0.00000E+00
         0.00000E+00
         0.00000E+00
         0.00000E+00
         0.00000E+00
         0.00000E+00
         0.00000E+00
         0.00000E+00
         0.00000E+00
         0.00000E+00
         0.00000E+00
         0.00000E+00
         0.00000E+00
         0.00000E+00
         0.00000E+00
         0.00000E+00
         0.00000E+00
         0.00000E+00
         0.00000E+00
         0.00000E+00
         0.00000E+00
         0.00000E+00
         0.00000E+00
         0.00000E+00
         0.00000E+00
         0.00000E+00
         0.00000E+00
         0.00000E+00
         0.00000E+00
         0.00000E+00
         0.00000E+00
         0.00000E+00
         0.00000E+00
         0.00000E+00
         0.00000E+00
         0.00000E+00
         0.00000E+00
         0.00000E+00
         0.00000E+00
         0.00000E+00
         0.00000E+00
         0.00000E+00
         0.00000E+00
         0.00000E+00
         0.00000E+00
         0.00000E+00
         0.00000E+00
         0.00000E+00
         0.00000E+00
         0.00000E+00
         0.00000E+00
         0.00000E+00
         0.00000E+00
         0.00000E+00
         0.00000E+00
         0.00000E+00
         0.00000E+00
         0.00000E+00
         0.00000E+00
         0.00000E+00
         0.00000E+00
         0.00000E+00
         0.00000E+00
         0.00000E+00
         0.00000E+00
         0.00000E+00
         0.00000E+00
         0.00000E+00
         0.00000E+00
         0.00000E+00
         0.00000E+00
         0.00000E+00
         0.00000E+00
         0.00000E+00
         0.00000E+00
         0.00000E+00
         0.00000E+00
         0.00000E+00
         0.00000E+00
         0.00000E+00
         0.00000E+00
         0.00000E+00
         0.00000E+00
         0.00000E+00
         0.00000E+00
         0.00000E+00
         0.00000E+00
         0.00000E+00
         0.00000E+00
         0.00000E+00
         0.00000E+00
         0.00000E+00
         0.00000E+00
         0.00000E+00
         0.00000E+00
         0.00000E+00
         0.00000E+00
         0.00000E+00
         0.00000E+00
         0.00000E+00
         0.00000E+00
         0.00000E+00
         0.00000E+00
         0.00000E+00
         0.00000E+00
         0.00000E+00
         0.00000E+00
         0.00000E+00
         0.00000E+00
         0.00000E+00
         0.00000E+00
         0.00000E+00
         0.00000E+00
         0.00000E+00
         0.00000E+00
         0.00000E+00
         0.00000E+00
         0.00000E+00
         0.00000E+00
         0.00000E+00
         0.00000E+00
         0.00000E+00
         0.00000E+00
         0.00000E+00
         0.00000E+00
         0.00000E+00
         0.00000E+00
         0.00000E+00
         0.00000E+00
         0.00000E+00
         0.00000E+00
         0.00000E+00
         0.00000E+00
         0.00000E+00
         0.00000E+00
         0.00000E+00
         0.00000E+00
         0.00000E+00
         0.00000E+00
         0.00000E+00
         0.00000E+00
         0.00000E+00
         0.00000E+00
         0.00000E+00
         0.00000E+00
         0.00000E+00
         0.00000E+00
         0.00000E+00
         0.00000E+00
         0.00000E+00
         0.00000E+00
         0.00000E+00
         0.00000E+00
         0.00000E+00
         0.00000E+00
         0.00000E+00
         0.00000E+00
         0.00000E+00
         0.00000E+00
         0.00000E+00
         0.00000E+00
         0.00000E+00
         0.00000E+00
         0.00000E+00
         0.00000E+00
         0.00000E+00
         0.00000E+00
         0.00000E+00
         0.00000E+00
         0.00000E+00
         0.00000E+00
         0.00000E+00
         0.00000E+00
         0.00000E+00
         0.00000E+00
         0.00000E+00
         0.00000E+00
         0.00000E+00
         0.00000E+00
         0.00000E+00
         0.00000E+00
         0.00000E+00
         0.00000E+00
         0.00000E+00
         0.00000E+00
         0.00000E+00
         0.00000E+00
         0.00000E+00
         0.00000E+00
         0.00000E+00
         0.00000E+00
         0.00000E+00
         0.00000E+00
         0.00000E+00
         0.00000E+00
         0.00000E+00
         0.00000E+00
         0.00000E+00
         0.00000E+00
         0.00000E+00
         0.00000E+00
         0.00000E+00
         0.00000E+00
         0.00000E+00
         0.00000E+00
         0.00000E+00
         0.00000E+00
         0.00000E+00
         0.00000E+00
         0.00000E+00
         0.00000E+00
         0.00000E+00
         0.00000E+00
         0.00000E+00
         0.00000E+00
         0.00000E+00
         0.00000E+00
         0.00000E+00
         0.00000E+00
         0.00000E+00
         0.00000E+00
         0.00000E+00
         0.00000E+00
         0.00000E+00
         0.00000E+00
         0.00000E+00
         0.00000E+00
         0.00000E+00
         0.00000E+00
         0.00000E+00
         0.00000E+00
         0.00000E+00
         0.00000E+00
         0.00000E+00
         0.00000E+00
         0.00000E+00
         0.00000E+00
         0.00000E+00
         0.00000E+00
         0.00000E+00
         0.00000E+00
         0.00000E+00
         0.00000E+00
         0.00000E+00
         0.00000E+00
         0.00000E+00
         0.00000E+00
         0.00000E+00
         0.00000E+00
         0.00000E+00
         0.00000E+00
         0.00000E+00
         0.00000E+00
         0.00000E+00
         0.00000E+00
         0.00000E+00
         0.00000E+00
         0.00000E+00
         0.00000E+00
         0.00000E+00
         0.00000E+00
         0.00000E+00
         0.00000E+00
         0.00000E+00
         0.00000E+00
         0.00000E+00
         0.00000E+00
         0.00000E+00
         0.00000E+00
         0.00000E+00
         0.00000E+00
         0.00000E+00
         0.00000E+00
         0.00000E+00
         0.00000E+00
         0.00000E+00
         0.00000E+00
         0.00000E+00
         0.00000E+00
         0.00000E+00
         0.00000E+00
         0.00000E+00
         0.00000E+00
         0.00000E+00
         0.00000E+00
         0.00000E+00
         0.00000E+00
         0.00000E+00
         0.00000E+00
         0.00000E+00
         0.00000E+00
         0.00000E+00
         0.00000E+00
         0.00000E+00
         0.00000E+00
         0.00000E+00
         0.00000E+00
         0.00000E+00
         0.00000E+00
         0.00000E+00
         0.00000E+00
         0.00000E+00
         0.00000E+00
         0.00000E+00
         0.00000E+00
         0.00000E+00
         0.00000E+00
         0.00000E+00
         0.00000E+00
         0.00000E+00
         0.00000E+00
         0.00000E+00
         0.00000E+00
         0.00000E+00
         0.00000E+00
         0.00000E+00
         0.00000E+00
         0.00000E+00
         0.00000E+00
         0.00000E+00
         0.00000E+00
         0.00000E+00
         0.00000E+00
         0.00000E+00
         0.00000E+00
         0.00000E+00
         0.00000E+00
         0.00000E+00
         0.00000E+00
         0.00000E+00
         0.00000E+00
         0.00000E+00
         0.00000E+00
         0.00000E+00
         0.00000E+00
         0.00000E+00
         0.00000E+00
         0.00000E+00
         0.00000E+00
         0.00000E+00
         0.00000E+00
         0.00000E+00
         0.00000E+00
         0.00000E+00
         0.00000E+00
         0.00000E+00
         0.00000E+00
         0.00000E+00
         0.00000E+00
         0.00000E+00
         0.00000E+00
         0.00000E+00
         0.00000E+00
         0.00000E+00
         0.00000E+00
         0.00000E+00
         0.00000E+00
         0.00000E+00
         0.00000E+00
         0.00000E+00
         0.00000E+00
         0.00000E+00
         0.00000E+00
         0.00000E+00
         0.00000E+00
         0.00000E+00
         0.00000E+00
         0.00000E+00
         0.00000E+00
         0.00000E+00
         0.00000E+00
         0.00000E+00
         0.00000E+00
         0.00000E+00
         0.00000E+00
         0.00000E+00
         0.00000E+00
         0.00000E+00
         0.00000E+00
         0.00000E+00
         0.00000E+00
         0.00000E+00
         0.00000E+00
         0.00000E+00
         0.00000E+00
         0.00000E+00
         0.00000E+00
         0.00000E+00
         0.00000E+00
         0.00000E+00
         0.00000E+00
         0.00000E+00
         0.00000E+00
         0.00000E+00
         0.00000E+00
         0.00000E+00
         0.00000E+00
         0.00000E+00
         0.00000E+00
         0.00000E+00
         0.00000E+00
         0.00000E+00
         0.00000E+00
         0.00000E+00
         0.00000E+00
         0.00000E+00
         0.00000E+00
         0.00000E+00
         0.00000E+00
         0.00000E+00
         0.00000E+00
         0.00000E+00
         0.00000E+00
         0.00000E+00
         0.00000E+00
         0.00000E+00
         0.00000E+00
         0.00000E+00
         0.00000E+00
         0.00000E+00
         0.00000E+00
         0.00000E+00
         0.00000E+00
         0.00000E+00
         0.00000E+00
         0.00000E+00
         0.00000E+00
         0.00000E+00
         0.00000E+00
         0.00000E+00
         0.00000E+00
         0.00000E+00
         0.00000E+00
         0.00000E+00
         0.00000E+00
         0.00000E+00
         0.00000E+00
         0.00000E+00
         0.00000E+00
         0.00000E+00
         0.00000E+00
         0.00000E+00
         0.00000E+00
         0.00000E+00
         0.00000E+00
         0.00000E+00
         0.00000E+00
         0.00000E+00
         0.00000E+00
         0.00000E+00
         0.00000E+00
         0.00000E+00
         0.00000E+00
         0.00000E+00
         0.00000E+00
         0.00000E+00
         0.00000E+00
         0.00000E+00
         0.00000E+00
         0.00000E+00
         0.00000E+00
         0.00000E+00
         0.00000E+00
         0.00000E+00
         0.00000E+00
         0.00000E+00
         0.00000E+00
         0.00000E+00
         0.00000E+00
         0.00000E+00
         0.00000E+00
         0.00000E+00
         0.00000E+00
         0.00000E+00
         0.00000E+00
         0.00000E+00
         0.00000E+00
         0.00000E+00
         0.00000E+00
         0.00000E+00
         0.00000E+00
         0.00000E+00
         0.00000E+00
         0.00000E+00
         0.00000E+00
         0.00000E+00
         0.00000E+00
         0.00000E+00
         0.00000E+00
         0.00000E+00
         0.00000E+00
         0.00000E+00
         0.00000E+00
         0.00000E+00
         0.00000E+00
         0.00000E+00
         0.00000E+00
         0.00000E+00
         0.00000E+00
         0.00000E+00
         0.00000E+00
         0.00000E+00
         0.00000E+00
         0.00000E+00
         0.00000E+00
         0.00000E+00
         0.00000E+00
         0.00000E+00
         0.00000E+00
         0.00000E+00
         0.00000E+00
         0.00000E+00
         0.00000E+00
         0.00000E+00
         0.00000E+00
         0.00000E+00
         0.00000E+00
         0.00000E+00
         0.00000E+00
         0.00000E+00
         0.00000E+00
         0.00000E+00
         0.00000E+00
         0.00000E+00
         0.00000E+00
         0.00000E+00
         0.00000E+00
         0.00000E+00
         0.00000E+00
         0.00000E+00
         0.00000E+00
         0.00000E+00
         0.00000E+00
         0.00000E+00
         0.00000E+00
         0.00000E+00
         0.00000E+00
         0.00000E+00
         0.00000E+00
         0.00000E+00
         0.00000E+00
         0.00000E+00
         0.00000E+00
         0.00000E+00
         0.00000E+00
         0.00000E+00
         0.00000E+00
         0.00000E+00
         0.00000E+00
         0.00000E+00
         0.00000E+00
         0.00000E+00
         0.00000E+00
         0.00000E+00
         0.00000E+00
         0.00000E+00
         0.00000E+00
         0.00000E+00
         0.00000E+00
         0.00000E+00
         0.00000E+00
         0.00000E+00
         0.00000E+00
         0.00000E+00
         0.00000E+00
         0.00000E+00
         0.00000E+00
         0.00000E+00
         0.00000E+00
         0.00000E+00
         0.00000E+00
         0.00000E+00
         0.00000E+00
         0.00000E+00
         0.00000E+00
         0.00000E+00
         0.00000E+00
         0.00000E+00
         0.00000E+00
         0.00000E+00
         0.00000E+00
         0.00000E+00
         0.00000E+00
         0.00000E+00
         0.00000E+00
         0.00000E+00
         0.00000E+00
         0.00000E+00
         0.00000E+00
         0.00000E+00
         0.00000E+00
         0.00000E+00
         0.00000E+00
         0.00000E+00
         0.00000E+00
         0.00000E+00
         0.00000E+00
         0.00000E+00
         0.00000E+00
         0.00000E+00
         0.00000E+00
         0.00000E+00
         0.00000E+00
         0.00000E+00
         0.00000E+00
         0.00000E+00
         0.00000E+00
         0.00000E+00
         0.00000E+00
         0.00000E+00
         0.00000E+00
         0.00000E+00
         0.00000E+00
         0.00000E+00
         0.00000E+00
         0.00000E+00
         0.00000E+00
         0.00000E+00
         0.00000E+00
         0.00000E+00
         0.00000E+00
         0.00000E+00
         0.00000E+00
         0.00000E+00
         0.00000E+00
         0.00000E+00
         0.00000E+00
         0.00000E+00
         0.00000E+00
         0.00000E+00
         0.00000E+00
         0.00000E+00
         0.00000E+00
         0.00000E+00
         0.00000E+00
         0.00000E+00
         0.00000E+00
         0.00000E+00
         0.00000E+00
         0.00000E+00
         0.00000E+00
         0.00000E+00
         0.00000E+00
         0.00000E+00
         0.00000E+00
         0.00000E+00
         0.00000E+00
         0.00000E+00
         0.00000E+00
         0.00000E+00
         0.00000E+00
         0.00000E+00
         0.00000E+00
         0.00000E+00
         0.00000E+00
         0.00000E+00
         0.00000E+00
         0.00000E+00
         0.00000E+00
         0.00000E+00
         0.00000E+00
         0.00000E+00
         0.00000E+00
         0.00000E+00
         0.00000E+00
         0.00000E+00
         0.00000E+00
         0.00000E+00
         0.00000E+00
         0.00000E+00
         0.00000E+00
         0.00000E+00
         0.00000E+00
         0.00000E+00
         0.00000E+00
         0.00000E+00
         0.00000E+00
         0.00000E+00
         0.00000E+00
         0.00000E+00
         0.00000E+00
         0.00000E+00
         0.00000E+00
         0.00000E+00
         0.00000E+00
         0.00000E+00
         0.00000E+00
         0.00000E+00
         0.00000E+00
         0.00000E+00
         0.00000E+00
         0.00000E+00
         0.00000E+00
         0.00000E+00
         0.00000E+00
         0.00000E+00
         0.00000E+00
         0.00000E+00
         0.00000E+00
         0.00000E+00
         0.00000E+00
         0.00000E+00
         0.00000E+00
         0.00000E+00
         0.00000E+00
         0.00000E+00
         0.00000E+00
         0.00000E+00
         0.00000E+00
         0.00000E+00
         0.00000E+00
         0.00000E+00
         0.00000E+00
         0.00000E+00
         0.00000E+00
         0.00000E+00
         0.00000E+00
         0.00000E+00
         0.00000E+00
         0.00000E+00
         0.00000E+00
         0.00000E+00
         0.00000E+00
         0.00000E+00
         0.00000E+00
         0.00000E+00
         0.00000E+00
         0.00000E+00
         0.00000E+00
         0.00000E+00
         0.00000E+00
         0.00000E+00
         0.00000E+00
         0.00000E+00
         0.00000E+00
         0.00000E+00
         0.00000E+00
         0.00000E+00
         0.00000E+00
         0.00000E+00
         0.00000E+00
         0.00000E+00
         0.00000E+00
         0.00000E+00
         0.00000E+00
         0.00000E+00
         0.00000E+00
         0.00000E+00
         0.00000E+00
         0.00000E+00
         0.00000E+00
         0.00000E+00
         0.00000E+00
         0.00000E+00
         0.00000E+00
         0.00000E+00
         0.00000E+00
         0.00000E+00
         0.00000E+00
         0.00000E+00
         0.00000E+00
         0.00000E+00
         0.00000E+00
         0.00000E+00
         0.00000E+00
         0.00000E+00
         0.00000E+00
         0.00000E+00
         0.00000E+00
         0.00000E+00
         0.00000E+00
         0.00000E+00
         0.00000E+00
         0.00000E+00
         0.00000E+00
         0.00000E+00
         0.00000E+00
         0.00000E+00
         0.00000E+00
         0.00000E+00
         0.00000E+00
         0.00000E+00
         0.00000E+00
         0.00000E+00
         0.00000E+00
         0.00000E+00
         0.00000E+00
         0.00000E+00
         0.00000E+00
         0.00000E+00
         0.00000E+00
         0.00000E+00
         0.00000E+00
         0.00000E+00
         0.00000E+00
         0.00000E+00
         0.00000E+00
         0.00000E+00
         0.00000E+00
         0.00000E+00
         0.00000E+00
         0.00000E+00
         0.00000E+00
         0.00000E+00
         0.00000E+00
         0.00000E+00
         0.00000E+00
         0.00000E+00
         0.00000E+00
         0.00000E+00
         0.00000E+00
         0.00000E+00
         0.00000E+00
         0.00000E+00
         0.00000E+00
         0.00000E+00
         0.00000E+00
         0.00000E+00
         0.00000E+00
         0.00000E+00
         0.00000E+00
         0.00000E+00
         0.00000E+00
         0.00000E+00
         0.00000E+00
         0.00000E+00
         0.00000E+00
         0.00000E+00
         0.00000E+00
         0.00000E+00
         0.00000E+00
         0.00000E+00
         0.00000E+00
         0.00000E+00
         0.00000E+00
         0.00000E+00
         0.00000E+00
         0.00000E+00
         0.00000E+00
         0.00000E+00
         0.00000E+00
         0.00000E+00
         0.00000E+00
         0.00000E+00
         0.00000E+00
         0.00000E+00
         0.00000E+00
         0.00000E+00
         0.00000E+00
         0.00000E+00
         0.00000E+00
         0.00000E+00
         0.00000E+00
         0.00000E+00
         0.00000E+00
         0.00000E+00
         0.00000E+00
         0.00000E+00
         0.00000E+00
         0.00000E+00
         0.00000E+00
         0.00000E+00
         0.00000E+00
         0.00000E+00
         0.00000E+00
         0.00000E+00
         0.00000E+00
         0.00000E+00
         0.00000E+00
         0.00000E+00
         0.00000E+00
         0.00000E+00
         0.00000E+00
         0.00000E+00
         0.00000E+00
         0.00000E+00
         0.00000E+00
         0.00000E+00
         0.00000E+00
         0.00000E+00
         0.00000E+00
         0.00000E+00
         0.00000E+00
         0.00000E+00
         0.00000E+00
         0.00000E+00
         0.00000E+00
         0.00000E+00
         0.00000E+00
         0.00000E+00
         0.00000E+00
         0.00000E+00
         0.00000E+00
         0.00000E+00
         0.00000E+00
         0.00000E+00
         0.00000E+00
         0.00000E+00
         0.00000E+00
         0.00000E+00
         0.00000E+00
         0.00000E+00
         0.00000E+00
         0.00000E+00
         0.00000E+00
         0.00000E+00
         0.00000E+00
         0.00000E+00
         0.00000E+00
         0.00000E+00
         0.00000E+00
         0.00000E+00
         0.00000E+00
         0.00000E+00
         0.00000E+00
         0.00000E+00
         0.00000E+00
         0.00000E+00
         0.00000E+00
         0.00000E+00
         0.00000E+00
         0.00000E+00
         0.00000E+00
         0.00000E+00
         0.00000E+00
         0.00000E+00
         0.00000E+00
         0.00000E+00
         0.00000E+00
         0.00000E+00
         0.00000E+00
         0.00000E+00
         0.00000E+00
         0.00000E+00
         0.00000E+00
         0.00000E+00
         0.00000E+00
         0.00000E+00
         0.00000E+00
         0.00000E+00
         0.00000E+00
         0.00000E+00
         0.00000E+00
         0.00000E+00
         0.00000E+00
         0.00000E+00
         0.00000E+00
         0.00000E+00
         0.00000E+00
         0.00000E+00
         0.00000E+00
         0.00000E+00
         0.00000E+00
         0.00000E+00
         0.00000E+00
         0.00000E+00
         0.00000E+00
         0.00000E+00
         0.00000E+00
         0.00000E+00
         0.00000E+00
         0.00000E+00
         0.00000E+00
         0.00000E+00
         0.00000E+00
         0.00000E+00
         0.00000E+00
         0.00000E+00
         0.00000E+00
         0.00000E+00
         0.00000E+00
         0.00000E+00
         0.00000E+00
         0.00000E+00
         0.00000E+00
         0.00000E+00
         0.00000E+00
         0.00000E+00
         0.00000E+00
         0.00000E+00
         0.00000E+00
         0.00000E+00
         0.00000E+00
         0.00000E+00
         0.00000E+00
         0.00000E+00
         0.00000E+00
         0.00000E+00
         0.00000E+00
         0.00000E+00
         0.00000E+00
         0.00000E+00
         0.00000E+00
         0.00000E+00
         0.00000E+00
         0.00000E+00
         0.00000E+00
         0.00000E+00
         0.00000E+00
         0.00000E+00
         0.00000E+00
         0.00000E+00
         0.00000E+00
         0.00000E+00
         0.00000E+00
         0.00000E+00
         0.00000E+00
         0.00000E+00
         0.00000E+00
         0.00000E+00
         0.00000E+00
         0.00000E+00
         0.00000E+00
         0.00000E+00
         0.00000E+00
         0.00000E+00
         0.00000E+00
         0.00000E+00
         0.00000E+00
         0.00000E+00
         0.00000E+00
         0.00000E+00
         0.00000E+00
         0.00000E+00
         0.00000E+00
         0.00000E+00
         0.00000E+00
         0.00000E+00
         0.00000E+00
         0.00000E+00
         0.00000E+00
         0.00000E+00
         0.00000E+00
         0.00000E+00
         0.00000E+00
         0.00000E+00
         0.00000E+00
         0.00000E+00
         0.00000E+00
         0.00000E+00
         0.00000E+00
         0.00000E+00
         0.00000E+00
         0.00000E+00
         0.00000E+00
         0.00000E+00
         0.00000E+00
         0.00000E+00
         0.00000E+00
         0.00000E+00
         0.00000E+00
         0.00000E+00
         0.00000E+00
         0.00000E+00
         0.00000E+00
         0.00000E+00
         0.00000E+00
         0.00000E+00
         0.00000E+00
         0.00000E+00
         0.00000E+00
         0.00000E+00
         0.00000E+00
         0.00000E+00
         0.00000E+00
         0.00000E+00
         0.00000E+00
         0.00000E+00
         0.00000E+00
         0.00000E+00
         0.00000E+00
         0.00000E+00
         0.00000E+00
         0.00000E+00
         0.00000E+00
         0.00000E+00
         0.00000E+00
         0.00000E+00
         0.00000E+00
         0.00000E+00
         0.00000E+00
         0.00000E+00
         0.00000E+00
         0.00000E+00
         0.00000E+00
         0.00000E+00
         0.00000E+00
         0.00000E+00
         0.00000E+00
         0.00000E+00
         0.00000E+00
         0.00000E+00
         0.00000E+00
         0.00000E+00
         0.00000E+00
         0.00000E+00
         0.00000E+00
         0.00000E+00
         0.00000E+00
         0.00000E+00
         0.00000E+00
         0.00000E+00
         0.00000E+00
         0.00000E+00
         0.00000E+00
         0.00000E+00
         0.00000E+00
         0.00000E+00
         0.00000E+00
         0.00000E+00
         0.00000E+00
         0.00000E+00
         0.00000E+00
         0.00000E+00
         0.00000E+00
         0.00000E+00
         0.00000E+00
         0.00000E+00
         0.00000E+00
         0.00000E+00
         0.00000E+00
         0.00000E+00
         0.00000E+00
         0.00000E+00
         0.00000E+00
         0.00000E+00
         0.00000E+00
         0.00000E+00
         0.00000E+00
         0.00000E+00
         0.00000E+00
         0.00000E+00
         0.00000E+00
         0.00000E+00
         0.00000E+00
         0.00000E+00
         0.00000E+00
         0.00000E+00
         0.00000E+00
         0.00000E+00
         0.00000E+00
         0.00000E+00
         0.00000E+00
         0.00000E+00
         0.00000E+00
         0.00000E+00
         0.00000E+00
         0.00000E+00
         0.00000E+00
         0.00000E+00
         0.00000E+00
         0.00000E+00
         0.00000E+00
         0.00000E+00
         0.00000E+00
         0.00000E+00
         0.00000E+00
         0.00000E+00
         0.00000E+00
         0.00000E+00
         0.00000E+00
         0.00000E+00
         0.00000E+00
         0.00000E+00
         0.00000E+00
         0.00000E+00
         0.00000E+00
         0.00000E+00
         0.00000E+00
         0.00000E+00
         0.00000E+00
         0.00000E+00
         0.00000E+00
         0.00000E+00
         0.00000E+00
         0.00000E+00
         0.00000E+00
         0.00000E+00
         0.00000E+00
         0.00000E+00
         0.00000E+00
         0.00000E+00
         0.00000E+00
         0.00000E+00
         0.00000E+00
         0.00000E+00
         0.00000E+00
         0.00000E+00
         0.00000E+00
         0.00000E+00
         0.00000E+00
         0.00000E+00
         0.00000E+00
         0.00000E+00
         0.00000E+00
         0.00000E+00
         0.00000E+00
         0.00000E+00
         0.00000E+00
         0.00000E+00
         0.00000E+00
         0.00000E+00
         0.00000E+00
         0.00000E+00
         0.00000E+00
         0.00000E+00
         0.00000E+00
         0.00000E+00
         0.00000E+00
         0.00000E+00
         0.00000E+00
         0.00000E+00
         0.00000E+00
         0.00000E+00
         0.00000E+00
         0.00000E+00
         0.00000E+00
         0.00000E+00
         0.00000E+00
         0.00000E+00
         0.00000E+00
         0.00000E+00
         0.00000E+00
         0.00000E+00
         0.00000E+00
         0.00000E+00
         0.00000E+00
         0.00000E+00
         0.00000E+00
         0.00000E+00
         0.00000E+00
         0.00000E+00
         0.00000E+00
         0.00000E+00
         0.00000E+00
         0.00000E+00
         0.00000E+00
         0.00000E+00
         0.00000E+00
         0.00000E+00
         0.00000E+00
         0.00000E+00
         0.00000E+00
         0.00000E+00
         0.00000E+00
         0.00000E+00
         0.00000E+00
         0.00000E+00
         0.00000E+00
         0.00000E+00
         0.00000E+00
         0.00000E+00
         0.00000E+00
         0.00000E+00
         0.00000E+00
         0.00000E+00
         0.00000E+00
         0.00000E+00
         0.00000E+00
         0.00000E+00
         0.00000E+00
         0.00000E+00
         0.00000E+00
         0.00000E+00
         0.00000E+00
         0.00000E+00
         0.00000E+00
         0.00000E+00
         0.00000E+00
         0.00000E+00
         0.00000E+00
         0.00000E+00
         0.00000E+00
         0.00000E+00
         0.00000E+00
         0.00000E+00
         0.00000E+00
         0.00000E+00
         0.00000E+00
         0.00000E+00
         0.00000E+00
         0.00000E+00
         0.00000E+00
         0.00000E+00
         0.00000E+00
         0.00000E+00
         0.00000E+00
         0.00000E+00
         0.00000E+00
         0.00000E+00
         0.00000E+00
         0.00000E+00
         0.00000E+00
         0.00000E+00
         0.00000E+00
         0.00000E+00
         0.00000E+00
         0.00000E+00
         0.00000E+00
         0.00000E+00
         0.00000E+00
         0.00000E+00
         0.00000E+00
         0.00000E+00
         0.00000E+00
         0.00000E+00
         0.00000E+00
         0.00000E+00
         0.00000E+00
         0.00000E+00
         0.00000E+00
         0.00000E+00
         0.00000E+00
         0.00000E+00
         0.00000E+00
         0.00000E+00
         0.00000E+00
         0.00000E+00
         0.00000E+00
         0.00000E+00
         0.00000E+00
         0.00000E+00
         0.00000E+00
         0.00000E+00
         0.00000E+00
         0.00000E+00
         0.00000E+00
         0.00000E+00
         0.00000E+00
         0.00000E+00
         0.00000E+00
         0.00000E+00
         0.00000E+00
         0.00000E+00
         0.00000E+00
         0.00000E+00
         0.00000E+00
         0.00000E+00
         0.00000E+00
         0.00000E+00
         0.00000E+00
         0.00000E+00
         0.00000E+00
         0.00000E+00
         0.00000E+00
         0.00000E+00
         0.00000E+00
         0.00000E+00
         0.00000E+00
         0.00000E+00
         0.00000E+00
         0.00000E+00
         0.00000E+00
         0.00000E+00
         0.00000E+00
         0.00000E+00
         0.00000E+00
         0.00000E+00
         0.00000E+00
         0.00000E+00
         0.00000E+00
         0.00000E+00
         0.00000E+00
         0.00000E+00
         0.00000E+00
         0.00000E+00
         0.00000E+00
         0.00000E+00
         0.00000E+00
         0.00000E+00
         0.00000E+00
         0.00000E+00
         0.00000E+00
         0.00000E+00
         0.00000E+00
         0.00000E+00
         0.00000E+00
         0.00000E+00
         0.00000E+00
         0.00000E+00
         0.00000E+00
         0.00000E+00
         0.00000E+00
         0.00000E+00
         0.00000E+00
         0.00000E+00
         0.00000E+00
         0.00000E+00
         0.00000E+00
         0.00000E+00
         0.00000E+00
         0.00000E+00
         0.00000E+00
         0.00000E+00
         0.00000E+00
         0.00000E+00
         0.00000E+00
         0.00000E+00
         0.00000E+00
         0.00000E+00
         0.00000E+00
         0.00000E+00
         0.00000E+00
         0.00000E+00
         0.00000E+00
         0.00000E+00
         0.00000E+00
         0.00000E+00
         0.00000E+00
         0.00000E+00
         0.00000E+00
         0.00000E+00
         0.00000E+00
         0.00000E+00
         0.00000E+00
         0.00000E+00
         0.00000E+00
         0.00000E+00
         0.00000E+00
         0.00000E+00
         0.00000E+00
         0.00000E+00
         0.00000E+00
         0.00000E+00
         0.00000E+00
         0.00000E+00
         0.00000E+00
         0.00000E+00
         0.00000E+00
         0.00000E+00
         0.00000E+00
         0.00000E+00
         0.00000E+00
         0.00000E+00
         0.00000E+00
         0.00000E+00
         0.00000E+00
         0.00000E+00
         0.00000E+00
         0.00000E+00
         0.00000E+00
         0.00000E+00
         0.00000E+00
         0.00000E+00
         0.00000E+00
         0.00000E+00
         0.00000E+00
         0.00000E+00
         0.00000E+00
         0.00000E+00
         0.00000E+00
         0.00000E+00
         0.00000E+00
         0.00000E+00
         0.00000E+00
         0.00000E+00
         0.00000E+00
         0.00000E+00
         0.00000E+00
         0.00000E+00
         0.00000E+00
         0.00000E+00
         0.00000E+00
         0.00000E+00
         0.00000E+00
         0.00000E+00
         0.00000E+00
         0.00000E+00
         0.00000E+00
         0.00000E+00
         0.00000E+00
         0.00000E+00
         0.00000E+00
         0.00000E+00
         0.00000E+00
         0.00000E+00
         0.00000E+00
         0.00000E+00
         0.00000E+00
         0.00000E+00
         0.00000E+00
         0.00000E+00
         0.00000E+00
         0.00000E+00
         0.00000E+00
         0.00000E+00
         0.00000E+00
         0.00000E+00
         0.00000E+00
         0.00000E+00
         0.00000E+00
         0.00000E+00
         0.00000E+00
         0.00000E+00
         0.00000E+00
         0.00000E+00
         0.00000E+00
         0.00000E+00
         0.00000E+00
         0.00000E+00
         0.00000E+00
         0.00000E+00
         0.00000E+00
         0.00000E+00
         0.00000E+00
         0.00000E+00
         0.00000E+00
         0.00000E+00
         0.00000E+00
         0.00000E+00
         0.00000E+00
         0.00000E+00
         0.00000E+00
         0.00000E+00
         0.00000E+00
         0.00000E+00
         0.00000E+00
         0.00000E+00
         0.00000E+00
         0.00000E+00
         0.00000E+00
         0.00000E+00
         0.00000E+00
         0.00000E+00
         0.00000E+00
         0.00000E+00
         0.00000E+00
         0.00000E+00
         0.00000E+00
         0.00000E+00
         0.00000E+00
         0.00000E+00
         0.00000E+00
         0.00000E+00
         0.00000E+00
         0.00000E+00
         0.00000E+00
         0.00000E+00
         0.00000E+00
         0.00000E+00
         0.00000E+00
         0.00000E+00
         0.00000E+00
         0.00000E+00
         0.00000E+00
         0.00000E+00
         0.00000E+00
         0.00000E+00
         0.00000E+00
         0.00000E+00
         0.00000E+00
         0.00000E+00
         0.00000E+00
         0.00000E+00
         0.00000E+00
  
SCALARS                 displacement_y  double 1
LOOKUP_TABLE default
         0.00000E+00
         0.00000E+00
         0.00000E+00
         0.00000E+00
         0.00000E+00
         0.00000E+00
         0.00000E+00
         0.00000E+00
         0.00000E+00
         0.00000E+00
         0.00000E+00
         0.00000E+00
         0.00000E+00
         0.00000E+00
         0.00000E+00
         0.00000E+00
         0.00000E+00
         0.00000E+00
         0.00000E+00
         0.00000E+00
         0.00000E+00
         0.00000E+00
         0.00000E+00
         0.00000E+00
         0.00000E+00
         0.00000E+00
         0.00000E+00
         0.00000E+00
         0.00000E+00
         0.00000E+00
         0.00000E+00
         0.00000E+00
         0.00000E+00
         0.00000E+00
         0.00000E+00
         0.00000E+00
         0.00000E+00
         0.00000E+00
         0.00000E+00
         0.00000E+00
         0.00000E+00
         0.00000E+00
         0.00000E+00
         0.00000E+00
         0.00000E+00
         0.00000E+00
         0.00000E+00
         0.00000E+00
         0.00000E+00
         0.00000E+00
         0.00000E+00
         0.00000E+00
         0.00000E+00
         0.00000E+00
         0.00000E+00
         0.00000E+00
         0.00000E+00
         0.00000E+00
         0.00000E+00
         0.00000E+00
         0.00000E+00
         0.00000E+00
         0.00000E+00
         0.00000E+00
         0.00000E+00
         0.00000E+00
         0.00000E+00
         0.00000E+00
         0.00000E+00
         0.00000E+00
         0.00000E+00
         0.00000E+00
         0.00000E+00
         0.00000E+00
         0.00000E+00
         0.00000E+00
         0.00000E+00
         0.00000E+00
         0.00000E+00
         0.00000E+00
         0.00000E+00
         0.00000E+00
         0.00000E+00
         0.00000E+00
         0.00000E+00
         0.00000E+00
         0.00000E+00
         0.00000E+00
         0.00000E+00
         0.00000E+00
         0.00000E+00
         0.00000E+00
         0.00000E+00
         0.00000E+00
         0.00000E+00
         0.00000E+00
         0.00000E+00
         0.00000E+00
         0.00000E+00
         0.00000E+00
         0.00000E+00
         0.00000E+00
         0.00000E+00
         0.00000E+00
         0.00000E+00
         0.00000E+00
         0.00000E+00
         0.00000E+00
         0.00000E+00
         0.00000E+00
         0.00000E+00
         0.00000E+00
         0.00000E+00
         0.00000E+00
         0.00000E+00
         0.00000E+00
         0.00000E+00
         0.00000E+00
         0.00000E+00
         0.00000E+00
         0.00000E+00
         0.00000E+00
         0.00000E+00
         0.00000E+00
         0.00000E+00
         0.00000E+00
         0.00000E+00
         0.00000E+00
         0.00000E+00
         0.00000E+00
         0.00000E+00
         0.00000E+00
         0.00000E+00
         0.00000E+00
         0.00000E+00
         0.00000E+00
         0.00000E+00
         0.00000E+00
         0.00000E+00
         0.00000E+00
         0.00000E+00
         0.00000E+00
         0.00000E+00
         0.00000E+00
         0.00000E+00
         0.00000E+00
         0.00000E+00
         0.00000E+00
         0.00000E+00
         0.00000E+00
         0.00000E+00
         0.00000E+00
         0.00000E+00
         0.00000E+00
         0.00000E+00
         0.00000E+00
         0.00000E+00
         0.00000E+00
         0.00000E+00
         0.00000E+00
         0.00000E+00
         0.00000E+00
         0.00000E+00
         0.00000E+00
         0.00000E+00
         0.00000E+00
         0.00000E+00
         0.00000E+00
         0.00000E+00
         0.00000E+00
         0.00000E+00
         0.00000E+00
         0.00000E+00
         0.00000E+00
         0.00000E+00
         0.00000E+00
         0.00000E+00
         0.00000E+00
         0.00000E+00
         0.00000E+00
         0.00000E+00
         0.00000E+00
         0.00000E+00
         0.00000E+00
         0.00000E+00
         0.00000E+00
         0.00000E+00
         0.00000E+00
         0.00000E+00
         0.00000E+00
         0.00000E+00
         0.00000E+00
         0.00000E+00
         0.00000E+00
         0.00000E+00
         0.00000E+00
         0.00000E+00
         0.00000E+00
         0.00000E+00
         0.00000E+00
         0.00000E+00
         0.00000E+00
         0.00000E+00
         0.00000E+00
         0.00000E+00
         0.00000E+00
         0.00000E+00
         0.00000E+00
         0.00000E+00
         0.00000E+00
         0.00000E+00
         0.00000E+00
         0.00000E+00
         0.00000E+00
         0.00000E+00
         0.00000E+00
         0.00000E+00
         0.00000E+00
         0.00000E+00
         0.00000E+00
         0.00000E+00
         0.00000E+00
         0.00000E+00
         0.00000E+00
         0.00000E+00
         0.00000E+00
         0.00000E+00
         0.00000E+00
         0.00000E+00
         0.00000E+00
         0.00000E+00
         0.00000E+00
         0.00000E+00
         0.00000E+00
         0.00000E+00
         0.00000E+00
         0.00000E+00
         0.00000E+00
         0.00000E+00
         0.00000E+00
         0.00000E+00
         0.00000E+00
         0.00000E+00
         0.00000E+00
         0.00000E+00
         0.00000E+00
         0.00000E+00
         0.00000E+00
         0.00000E+00
         0.00000E+00
         0.00000E+00
         0.00000E+00
         0.00000E+00
         0.00000E+00
         0.00000E+00
         0.00000E+00
         0.00000E+00
         0.00000E+00
         0.00000E+00
         0.00000E+00
         0.00000E+00
         0.00000E+00
         0.00000E+00
         0.00000E+00
         0.00000E+00
         0.00000E+00
         0.00000E+00
         0.00000E+00
         0.00000E+00
         0.00000E+00
         0.00000E+00
         0.00000E+00
         0.00000E+00
         0.00000E+00
         0.00000E+00
         0.00000E+00
         0.00000E+00
         0.00000E+00
         0.00000E+00
         0.00000E+00
         0.00000E+00
         0.00000E+00
         0.00000E+00
         0.00000E+00
         0.00000E+00
         0.00000E+00
         0.00000E+00
         0.00000E+00
         0.00000E+00
         0.00000E+00
         0.00000E+00
         0.00000E+00
         0.00000E+00
         0.00000E+00
         0.00000E+00
         0.00000E+00
         0.00000E+00
         0.00000E+00
         0.00000E+00
         0.00000E+00
         0.00000E+00
         0.00000E+00
         0.00000E+00
         0.00000E+00
         0.00000E+00
         0.00000E+00
         0.00000E+00
         0.00000E+00
         0.00000E+00
         0.00000E+00
         0.00000E+00
         0.00000E+00
         0.00000E+00
         0.00000E+00
         0.00000E+00
         0.00000E+00
         0.00000E+00
         0.00000E+00
         0.00000E+00
         0.00000E+00
         0.00000E+00
         0.00000E+00
         0.00000E+00
         0.00000E+00
         0.00000E+00
         0.00000E+00
         0.00000E+00
         0.00000E+00
         0.00000E+00
         0.00000E+00
         0.00000E+00
         0.00000E+00
         0.00000E+00
         0.00000E+00
         0.00000E+00
         0.00000E+00
         0.00000E+00
         0.00000E+00
         0.00000E+00
         0.00000E+00
         0.00000E+00
         0.00000E+00
         0.00000E+00
         0.00000E+00
         0.00000E+00
         0.00000E+00
         0.00000E+00
         0.00000E+00
         0.00000E+00
         0.00000E+00
         0.00000E+00
         0.00000E+00
         0.00000E+00
         0.00000E+00
         0.00000E+00
         0.00000E+00
         0.00000E+00
         0.00000E+00
         0.00000E+00
         0.00000E+00
         0.00000E+00
         0.00000E+00
         0.00000E+00
         0.00000E+00
         0.00000E+00
         0.00000E+00
         0.00000E+00
         0.00000E+00
         0.00000E+00
         0.00000E+00
         0.00000E+00
         0.00000E+00
         0.00000E+00
         0.00000E+00
         0.00000E+00
         0.00000E+00
         0.00000E+00
         0.00000E+00
         0.00000E+00
         0.00000E+00
         0.00000E+00
         0.00000E+00
         0.00000E+00
         0.00000E+00
         0.00000E+00
         0.00000E+00
         0.00000E+00
         0.00000E+00
         0.00000E+00
         0.00000E+00
         0.00000E+00
         0.00000E+00
         0.00000E+00
         0.00000E+00
         0.00000E+00
         0.00000E+00
         0.00000E+00
         0.00000E+00
         0.00000E+00
         0.00000E+00
         0.00000E+00
         0.00000E+00
         0.00000E+00
         0.00000E+00
         0.00000E+00
         0.00000E+00
         0.00000E+00
         0.00000E+00
         0.00000E+00
         0.00000E+00
         0.00000E+00
         0.00000E+00
         0.00000E+00
         0.00000E+00
         0.00000E+00
         0.00000E+00
         0.00000E+00
         0.00000E+00
         0.00000E+00
         0.00000E+00
         0.00000E+00
         0.00000E+00
         0.00000E+00
         0.00000E+00
         0.00000E+00
         0.00000E+00
         0.00000E+00
         0.00000E+00
         0.00000E+00
         0.00000E+00
         0.00000E+00
         0.00000E+00
         0.00000E+00
         0.00000E+00
         0.00000E+00
         0.00000E+00
         0.00000E+00
         0.00000E+00
         0.00000E+00
         0.00000E+00
         0.00000E+00
         0.00000E+00
         0.00000E+00
         0.00000E+00
         0.00000E+00
         0.00000E+00
         0.00000E+00
         0.00000E+00
         0.00000E+00
         0.00000E+00
         0.00000E+00
         0.00000E+00
         0.00000E+00
         0.00000E+00
         0.00000E+00
         0.00000E+00
         0.00000E+00
         0.00000E+00
         0.00000E+00
         0.00000E+00
         0.00000E+00
         0.00000E+00
         0.00000E+00
         0.00000E+00
         0.00000E+00
         0.00000E+00
         0.00000E+00
         0.00000E+00
         0.00000E+00
         0.00000E+00
         0.00000E+00
         0.00000E+00
         0.00000E+00
         0.00000E+00
         0.00000E+00
         0.00000E+00
         0.00000E+00
         0.00000E+00
         0.00000E+00
         0.00000E+00
         0.00000E+00
         0.00000E+00
         0.00000E+00
         0.00000E+00
         0.00000E+00
         0.00000E+00
         0.00000E+00
         0.00000E+00
         0.00000E+00
         0.00000E+00
         0.00000E+00
         0.00000E+00
         0.00000E+00
         0.00000E+00
         0.00000E+00
         0.00000E+00
         0.00000E+00
         0.00000E+00
         0.00000E+00
         0.00000E+00
         0.00000E+00
         0.00000E+00
         0.00000E+00
         0.00000E+00
         0.00000E+00
         0.00000E+00
         0.00000E+00
         0.00000E+00
         0.00000E+00
         0.00000E+00
         0.00000E+00
         0.00000E+00
         0.00000E+00
         0.00000E+00
         0.00000E+00
         0.00000E+00
         0.00000E+00
         0.00000E+00
         0.00000E+00
         0.00000E+00
         0.00000E+00
         0.00000E+00
         0.00000E+00
         0.00000E+00
         0.00000E+00
         0.00000E+00
         0.00000E+00
         0.00000E+00
         0.00000E+00
         0.00000E+00
         0.00000E+00
         0.00000E+00
         0.00000E+00
         0.00000E+00
         0.00000E+00
         0.00000E+00
         0.00000E+00
         0.00000E+00
         0.00000E+00
         0.00000E+00
         0.00000E+00
         0.00000E+00
         0.00000E+00
         0.00000E+00
         0.00000E+00
         0.00000E+00
         0.00000E+00
         0.00000E+00
         0.00000E+00
         0.00000E+00
         0.00000E+00
         0.00000E+00
         0.00000E+00
         0.00000E+00
         0.00000E+00
         0.00000E+00
         0.00000E+00
         0.00000E+00
         0.00000E+00
         0.00000E+00
         0.00000E+00
         0.00000E+00
         0.00000E+00
         0.00000E+00
         0.00000E+00
         0.00000E+00
         0.00000E+00
         0.00000E+00
         0.00000E+00
         0.00000E+00
         0.00000E+00
         0.00000E+00
         0.00000E+00
         0.00000E+00
         0.00000E+00
         0.00000E+00
         0.00000E+00
         0.00000E+00
         0.00000E+00
         0.00000E+00
         0.00000E+00
         0.00000E+00
         0.00000E+00
         0.00000E+00
         0.00000E+00
         0.00000E+00
         0.00000E+00
         0.00000E+00
         0.00000E+00
         0.00000E+00
         0.00000E+00
         0.00000E+00
         0.00000E+00
         0.00000E+00
         0.00000E+00
         0.00000E+00
         0.00000E+00
         0.00000E+00
         0.00000E+00
         0.00000E+00
         0.00000E+00
         0.00000E+00
         0.00000E+00
         0.00000E+00
         0.00000E+00
         0.00000E+00
         0.00000E+00
         0.00000E+00
         0.00000E+00
         0.00000E+00
         0.00000E+00
         0.00000E+00
         0.00000E+00
         0.00000E+00
         0.00000E+00
         0.00000E+00
         0.00000E+00
         0.00000E+00
         0.00000E+00
         0.00000E+00
         0.00000E+00
         0.00000E+00
         0.00000E+00
         0.00000E+00
         0.00000E+00
         0.00000E+00
         0.00000E+00
         0.00000E+00
         0.00000E+00
         0.00000E+00
         0.00000E+00
         0.00000E+00
         0.00000E+00
         0.00000E+00
         0.00000E+00
         0.00000E+00
         0.00000E+00
         0.00000E+00
         0.00000E+00
         0.00000E+00
         0.00000E+00
         0.00000E+00
         0.00000E+00
         0.00000E+00
         0.00000E+00
         0.00000E+00
         0.00000E+00
         0.00000E+00
         0.00000E+00
         0.00000E+00
         0.00000E+00
         0.00000E+00
         0.00000E+00
         0.00000E+00
         0.00000E+00
         0.00000E+00
         0.00000E+00
         0.00000E+00
         0.00000E+00
         0.00000E+00
         0.00000E+00
         0.00000E+00
         0.00000E+00
         0.00000E+00
         0.00000E+00
         0.00000E+00
         0.00000E+00
         0.00000E+00
         0.00000E+00
         0.00000E+00
         0.00000E+00
         0.00000E+00
         0.00000E+00
         0.00000E+00
         0.00000E+00
         0.00000E+00
         0.00000E+00
         0.00000E+00
         0.00000E+00
         0.00000E+00
         0.00000E+00
         0.00000E+00
         0.00000E+00
         0.00000E+00
         0.00000E+00
         0.00000E+00
         0.00000E+00
         0.00000E+00
         0.00000E+00
         0.00000E+00
         0.00000E+00
         0.00000E+00
         0.00000E+00
         0.00000E+00
         0.00000E+00
         0.00000E+00
         0.00000E+00
         0.00000E+00
         0.00000E+00
         0.00000E+00
         0.00000E+00
         0.00000E+00
         0.00000E+00
         0.00000E+00
         0.00000E+00
         0.00000E+00
         0.00000E+00
         0.00000E+00
         0.00000E+00
         0.00000E+00
         0.00000E+00
         0.00000E+00
         0.00000E+00
         0.00000E+00
         0.00000E+00
         0.00000E+00
         0.00000E+00
         0.00000E+00
         0.00000E+00
         0.00000E+00
         0.00000E+00
         0.00000E+00
         0.00000E+00
         0.00000E+00
         0.00000E+00
         0.00000E+00
         0.00000E+00
         0.00000E+00
         0.00000E+00
         0.00000E+00
         0.00000E+00
         0.00000E+00
         0.00000E+00
         0.00000E+00
         0.00000E+00
         0.00000E+00
         0.00000E+00
         0.00000E+00
         0.00000E+00
         0.00000E+00
         0.00000E+00
         0.00000E+00
         0.00000E+00
         0.00000E+00
         0.00000E+00
         0.00000E+00
         0.00000E+00
         0.00000E+00
         0.00000E+00
         0.00000E+00
         0.00000E+00
         0.00000E+00
         0.00000E+00
         0.00000E+00
         0.00000E+00
         0.00000E+00
         0.00000E+00
         0.00000E+00
         0.00000E+00
         0.00000E+00
         0.00000E+00
         0.00000E+00
         0.00000E+00
         0.00000E+00
         0.00000E+00
         0.00000E+00
         0.00000E+00
         0.00000E+00
         0.00000E+00
         0.00000E+00
         0.00000E+00
         0.00000E+00
         0.00000E+00
         0.00000E+00
         0.00000E+00
         0.00000E+00
         0.00000E+00
         0.00000E+00
         0.00000E+00
         0.00000E+00
         0.00000E+00
         0.00000E+00
         0.00000E+00
         0.00000E+00
         0.00000E+00
         0.00000E+00
         0.00000E+00
         0.00000E+00
         0.00000E+00
         0.00000E+00
         0.00000E+00
         0.00000E+00
         0.00000E+00
         0.00000E+00
         0.00000E+00
         0.00000E+00
         0.00000E+00
         0.00000E+00
         0.00000E+00
         0.00000E+00
         0.00000E+00
         0.00000E+00
         0.00000E+00
         0.00000E+00
         0.00000E+00
         0.00000E+00
         0.00000E+00
         0.00000E+00
         0.00000E+00
         0.00000E+00
         0.00000E+00
         0.00000E+00
         0.00000E+00
         0.00000E+00
         0.00000E+00
         0.00000E+00
         0.00000E+00
         0.00000E+00
         0.00000E+00
         0.00000E+00
         0.00000E+00
         0.00000E+00
         0.00000E+00
         0.00000E+00
         0.00000E+00
         0.00000E+00
         0.00000E+00
         0.00000E+00
         0.00000E+00
         0.00000E+00
         0.00000E+00
         0.00000E+00
         0.00000E+00
         0.00000E+00
         0.00000E+00
         0.00000E+00
         0.00000E+00
         0.00000E+00
         0.00000E+00
         0.00000E+00
         0.00000E+00
         0.00000E+00
         0.00000E+00
         0.00000E+00
         0.00000E+00
         0.00000E+00
         0.00000E+00
         0.00000E+00
         0.00000E+00
         0.00000E+00
         0.00000E+00
         0.00000E+00
         0.00000E+00
         0.00000E+00
         0.00000E+00
         0.00000E+00
         0.00000E+00
         0.00000E+00
         0.00000E+00
         0.00000E+00
         0.00000E+00
         0.00000E+00
         0.00000E+00
         0.00000E+00
         0.00000E+00
         0.00000E+00
         0.00000E+00
         0.00000E+00
         0.00000E+00
         0.00000E+00
         0.00000E+00
         0.00000E+00
         0.00000E+00
         0.00000E+00
         0.00000E+00
         0.00000E+00
         0.00000E+00
         0.00000E+00
         0.00000E+00
         0.00000E+00
         0.00000E+00
         0.00000E+00
         0.00000E+00
         0.00000E+00
         0.00000E+00
         0.00000E+00
         0.00000E+00
         0.00000E+00
         0.00000E+00
         0.00000E+00
         0.00000E+00
         0.00000E+00
         0.00000E+00
         0.00000E+00
         0.00000E+00
         0.00000E+00
         0.00000E+00
         0.00000E+00
         0.00000E+00
         0.00000E+00
         0.00000E+00
         0.00000E+00
         0.00000E+00
         0.00000E+00
         0.00000E+00
         0.00000E+00
         0.00000E+00
         0.00000E+00
         0.00000E+00
         0.00000E+00
         0.00000E+00
         0.00000E+00
         0.00000E+00
         0.00000E+00
         0.00000E+00
         0.00000E+00
         0.00000E+00
         0.00000E+00
         0.00000E+00
         0.00000E+00
         0.00000E+00
         0.00000E+00
         0.00000E+00
         0.00000E+00
         0.00000E+00
         0.00000E+00
         0.00000E+00
         0.00000E+00
         0.00000E+00
         0.00000E+00
         0.00000E+00
         0.00000E+00
         0.00000E+00
         0.00000E+00
         0.00000E+00
         0.00000E+00
         0.00000E+00
         0.00000E+00
         0.00000E+00
         0.00000E+00
         0.00000E+00
         0.00000E+00
         0.00000E+00
         0.00000E+00
         0.00000E+00
         0.00000E+00
         0.00000E+00
         0.00000E+00
         0.00000E+00
         0.00000E+00
         0.00000E+00
         0.00000E+00
         0.00000E+00
         0.00000E+00
         0.00000E+00
         0.00000E+00
         0.00000E+00
         0.00000E+00
         0.00000E+00
         0.00000E+00
         0.00000E+00
         0.00000E+00
         0.00000E+00
         0.00000E+00
         0.00000E+00
         0.00000E+00
         0.00000E+00
         0.00000E+00
         0.00000E+00
         0.00000E+00
         0.00000E+00
         0.00000E+00
         0.00000E+00
         0.00000E+00
         0.00000E+00
         0.00000E+00
         0.00000E+00
         0.00000E+00
         0.00000E+00
         0.00000E+00
         0.00000E+00
         0.00000E+00
         0.00000E+00
         0.00000E+00
         0.00000E+00
         0.00000E+00
         0.00000E+00
         0.00000E+00
         0.00000E+00
         0.00000E+00
         0.00000E+00
         0.00000E+00
         0.00000E+00
         0.00000E+00
         0.00000E+00
         0.00000E+00
         0.00000E+00
         0.00000E+00
         0.00000E+00
         0.00000E+00
         0.00000E+00
         0.00000E+00
         0.00000E+00
         0.00000E+00
         0.00000E+00
         0.00000E+00
         0.00000E+00
         0.00000E+00
         0.00000E+00
         0.00000E+00
         0.00000E+00
         0.00000E+00
         0.00000E+00
         0.00000E+00
         0.00000E+00
         0.00000E+00
         0.00000E+00
         0.00000E+00
         0.00000E+00
         0.00000E+00
         0.00000E+00
         0.00000E+00
         0.00000E+00
         0.00000E+00
         0.00000E+00
         0.00000E+00
         0.00000E+00
         0.00000E+00
         0.00000E+00
         0.00000E+00
         0.00000E+00
         0.00000E+00
         0.00000E+00
         0.00000E+00
         0.00000E+00
         0.00000E+00
         0.00000E+00
         0.00000E+00
         0.00000E+00
         0.00000E+00
         0.00000E+00
         0.00000E+00
         0.00000E+00
         0.00000E+00
         0.00000E+00
         0.00000E+00
         0.00000E+00
         0.00000E+00
         0.00000E+00
         0.00000E+00
         0.00000E+00
         0.00000E+00
         0.00000E+00
         0.00000E+00
         0.00000E+00
         0.00000E+00
         0.00000E+00
         0.00000E+00
         0.00000E+00
         0.00000E+00
         0.00000E+00
         0.00000E+00
         0.00000E+00
         0.00000E+00
         0.00000E+00
         0.00000E+00
         0.00000E+00
         0.00000E+00
         0.00000E+00
         0.00000E+00
         0.00000E+00
         0.00000E+00
         0.00000E+00
         0.00000E+00
         0.00000E+00
         0.00000E+00
         0.00000E+00
         0.00000E+00
         0.00000E+00
         0.00000E+00
         0.00000E+00
         0.00000E+00
         0.00000E+00
         0.00000E+00
         0.00000E+00
         0.00000E+00
         0.00000E+00
         0.00000E+00
         0.00000E+00
         0.00000E+00
         0.00000E+00
         0.00000E+00
         0.00000E+00
         0.00000E+00
         0.00000E+00
         0.00000E+00
         0.00000E+00
         0.00000E+00
         0.00000E+00
         0.00000E+00
         0.00000E+00
         0.00000E+00
         0.00000E+00
         0.00000E+00
         0.00000E+00
         0.00000E+00
         0.00000E+00
         0.00000E+00
         0.00000E+00
         0.00000E+00
         0.00000E+00
         0.00000E+00
         0.00000E+00
         0.00000E+00
         0.00000E+00
         0.00000E+00
         0.00000E+00
         0.00000E+00
         0.00000E+00
         0.00000E+00
         0.00000E+00
         0.00000E+00
         0.00000E+00
         0.00000E+00
         0.00000E+00
         0.00000E+00
         0.00000E+00
         0.00000E+00
         0.00000E+00
         0.00000E+00
         0.00000E+00
         0.00000E+00
         0.00000E+00
         0.00000E+00
         0.00000E+00
         0.00000E+00
         0.00000E+00
         0.00000E+00
         0.00000E+00
         0.00000E+00
         0.00000E+00
         0.00000E+00
         0.00000E+00
         0.00000E+00
         0.00000E+00
         0.00000E+00
         0.00000E+00
         0.00000E+00
         0.00000E+00
         0.00000E+00
         0.00000E+00
         0.00000E+00
         0.00000E+00
         0.00000E+00
         0.00000E+00
         0.00000E+00
         0.00000E+00
         0.00000E+00
         0.00000E+00
         0.00000E+00
         0.00000E+00
         0.00000E+00
         0.00000E+00
         0.00000E+00
         0.00000E+00
         0.00000E+00
         0.00000E+00
         0.00000E+00
         0.00000E+00
         0.00000E+00
         0.00000E+00
         0.00000E+00
         0.00000E+00
         0.00000E+00
         0.00000E+00
         0.00000E+00
         0.00000E+00
         0.00000E+00
         0.00000E+00
         0.00000E+00
         0.00000E+00
         0.00000E+00
         0.00000E+00
         0.00000E+00
         0.00000E+00
         0.00000E+00
         0.00000E+00
         0.00000E+00
         0.00000E+00
         0.00000E+00
         0.00000E+00
         0.00000E+00
         0.00000E+00
         0.00000E+00
         0.00000E+00
         0.00000E+00
         0.00000E+00
         0.00000E+00
         0.00000E+00
         0.00000E+00
         0.00000E+00
         0.00000E+00
         0.00000E+00
         0.00000E+00
         0.00000E+00
         0.00000E+00
         0.00000E+00
         0.00000E+00
         0.00000E+00
         0.00000E+00
         0.00000E+00
         0.00000E+00
         0.00000E+00
         0.00000E+00
         0.00000E+00
         0.00000E+00
         0.00000E+00
         0.00000E+00
         0.00000E+00
         0.00000E+00
         0.00000E+00
         0.00000E+00
         0.00000E+00
         0.00000E+00
         0.00000E+00
         0.00000E+00
         0.00000E+00
         0.00000E+00
         0.00000E+00
         0.00000E+00
         0.00000E+00
         0.00000E+00
         0.00000E+00
         0.00000E+00
         0.00000E+00
         0.00000E+00
         0.00000E+00
         0.00000E+00
         0.00000E+00
         0.00000E+00
         0.00000E+00
         0.00000E+00
         0.00000E+00
         0.00000E+00
         0.00000E+00
         0.00000E+00
         0.00000E+00
         0.00000E+00
         0.00000E+00
         0.00000E+00
         0.00000E+00
         0.00000E+00
         0.00000E+00
         0.00000E+00
         0.00000E+00
         0.00000E+00
         0.00000E+00
         0.00000E+00
         0.00000E+00
         0.00000E+00
         0.00000E+00
         0.00000E+00
         0.00000E+00
         0.00000E+00
         0.00000E+00
         0.00000E+00
         0.00000E+00
         0.00000E+00
         0.00000E+00
         0.00000E+00
         0.00000E+00
         0.00000E+00
         0.00000E+00
         0.00000E+00
         0.00000E+00
         0.00000E+00
         0.00000E+00
         0.00000E+00
         0.00000E+00
         0.00000E+00
         0.00000E+00
         0.00000E+00
         0.00000E+00
         0.00000E+00
         0.00000E+00
         0.00000E+00
         0.00000E+00
         0.00000E+00
         0.00000E+00
         0.00000E+00
         0.00000E+00
         0.00000E+00
         0.00000E+00
         0.00000E+00
         0.00000E+00
         0.00000E+00
         0.00000E+00
         0.00000E+00
         0.00000E+00
         0.00000E+00
         0.00000E+00
         0.00000E+00
         0.00000E+00
         0.00000E+00
         0.00000E+00
         0.00000E+00
         0.00000E+00
         0.00000E+00
         0.00000E+00
         0.00000E+00
         0.00000E+00
         0.00000E+00
         0.00000E+00
         0.00000E+00
         0.00000E+00
         0.00000E+00
         0.00000E+00
         0.00000E+00
         0.00000E+00
         0.00000E+00
         0.00000E+00
         0.00000E+00
         0.00000E+00
         0.00000E+00
         0.00000E+00
         0.00000E+00
         0.00000E+00
         0.00000E+00
         0.00000E+00
         0.00000E+00
         0.00000E+00
         0.00000E+00
         0.00000E+00
         0.00000E+00
         0.00000E+00
         0.00000E+00
         0.00000E+00
         0.00000E+00
         0.00000E+00
         0.00000E+00
         0.00000E+00
         0.00000E+00
         0.00000E+00
         0.00000E+00
         0.00000E+00
         0.00000E+00
         0.00000E+00
         0.00000E+00
         0.00000E+00
         0.00000E+00
         0.00000E+00
         0.00000E+00
         0.00000E+00
         0.00000E+00
         0.00000E+00
         0.00000E+00
         0.00000E+00
         0.00000E+00
         0.00000E+00
         0.00000E+00
         0.00000E+00
         0.00000E+00
         0.00000E+00
         0.00000E+00
         0.00000E+00
         0.00000E+00
         0.00000E+00
         0.00000E+00
         0.00000E+00
         0.00000E+00
         0.00000E+00
         0.00000E+00
         0.00000E+00
         0.00000E+00
         0.00000E+00
         0.00000E+00
         0.00000E+00
         0.00000E+00
         0.00000E+00
         0.00000E+00
         0.00000E+00
         0.00000E+00
         0.00000E+00
         0.00000E+00
         0.00000E+00
         0.00000E+00
         0.00000E+00
         0.00000E+00
         0.00000E+00
         0.00000E+00
         0.00000E+00
         0.00000E+00
         0.00000E+00
         0.00000E+00
         0.00000E+00
         0.00000E+00
         0.00000E+00
         0.00000E+00
         0.00000E+00
         0.00000E+00
         0.00000E+00
         0.00000E+00
         0.00000E+00
         0.00000E+00
         0.00000E+00
         0.00000E+00
         0.00000E+00
         0.00000E+00
         0.00000E+00
         0.00000E+00
         0.00000E+00
         0.00000E+00
         0.00000E+00
         0.00000E+00
         0.00000E+00
         0.00000E+00
         0.00000E+00
         0.00000E+00
         0.00000E+00
         0.00000E+00
         0.00000E+00
         0.00000E+00
         0.00000E+00
         0.00000E+00
         0.00000E+00
         0.00000E+00
         0.00000E+00
         0.00000E+00
         0.00000E+00
         0.00000E+00
         0.00000E+00
         0.00000E+00
         0.00000E+00
         0.00000E+00
         0.00000E+00
         0.00000E+00
         0.00000E+00
         0.00000E+00
         0.00000E+00
         0.00000E+00
         0.00000E+00
         0.00000E+00
         0.00000E+00
         0.00000E+00
         0.00000E+00
         0.00000E+00
         0.00000E+00
         0.00000E+00
         0.00000E+00
         0.00000E+00
         0.00000E+00
         0.00000E+00
         0.00000E+00
         0.00000E+00
         0.00000E+00
         0.00000E+00
         0.00000E+00
         0.00000E+00
         0.00000E+00
         0.00000E+00
         0.00000E+00
         0.00000E+00
         0.00000E+00
         0.00000E+00
         0.00000E+00
         0.00000E+00
         0.00000E+00
         0.00000E+00
         0.00000E+00
         0.00000E+00
         0.00000E+00
         0.00000E+00
         0.00000E+00
         0.00000E+00
         0.00000E+00
         0.00000E+00
         0.00000E+00
         0.00000E+00
         0.00000E+00
         0.00000E+00
         0.00000E+00
         0.00000E+00
         0.00000E+00
         0.00000E+00
         0.00000E+00
         0.00000E+00
         0.00000E+00
         0.00000E+00
         0.00000E+00
         0.00000E+00
         0.00000E+00
         0.00000E+00
         0.00000E+00
         0.00000E+00
         0.00000E+00
         0.00000E+00
         0.00000E+00
         0.00000E+00
         0.00000E+00
         0.00000E+00
         0.00000E+00
         0.00000E+00
         0.00000E+00
         0.00000E+00
         0.00000E+00
         0.00000E+00
         0.00000E+00
         0.00000E+00
         0.00000E+00
         0.00000E+00
         0.00000E+00
         0.00000E+00
         0.00000E+00
         0.00000E+00
         0.00000E+00
         0.00000E+00
         0.00000E+00
         0.00000E+00
         0.00000E+00
         0.00000E+00
         0.00000E+00
         0.00000E+00
         0.00000E+00
         0.00000E+00
         0.00000E+00
         0.00000E+00
         0.00000E+00
         0.00000E+00
         0.00000E+00
         0.00000E+00
         0.00000E+00
         0.00000E+00
         0.00000E+00
         0.00000E+00
         0.00000E+00
         0.00000E+00
         0.00000E+00
         0.00000E+00
         0.00000E+00
         0.00000E+00
         0.00000E+00
         0.00000E+00
         0.00000E+00
         0.00000E+00
         0.00000E+00
         0.00000E+00
         0.00000E+00
         0.00000E+00
         0.00000E+00
         0.00000E+00
         0.00000E+00
         0.00000E+00
         0.00000E+00
         0.00000E+00
         0.00000E+00
         0.00000E+00
         0.00000E+00
         0.00000E+00
         0.00000E+00
         0.00000E+00
         0.00000E+00
         0.00000E+00
         0.00000E+00
         0.00000E+00
         0.00000E+00
         0.00000E+00
         0.00000E+00
         0.00000E+00
         0.00000E+00
         0.00000E+00
         0.00000E+00
         0.00000E+00
         0.00000E+00
         0.00000E+00
         0.00000E+00
         0.00000E+00
         0.00000E+00
         0.00000E+00
         0.00000E+00
         0.00000E+00
         0.00000E+00
         0.00000E+00
         0.00000E+00
         0.00000E+00
         0.00000E+00
         0.00000E+00
         0.00000E+00
         0.00000E+00
         0.00000E+00
         0.00000E+00
         0.00000E+00
         0.00000E+00
         0.00000E+00
         0.00000E+00
         0.00000E+00
         0.00000E+00
         0.00000E+00
         0.00000E+00
         0.00000E+00
         0.00000E+00
         0.00000E+00
         0.00000E+00
         0.00000E+00
         0.00000E+00
         0.00000E+00
         0.00000E+00
         0.00000E+00
         0.00000E+00
         0.00000E+00
         0.00000E+00
         0.00000E+00
         0.00000E+00
         0.00000E+00
         0.00000E+00
         0.00000E+00
         0.00000E+00
         0.00000E+00
         0.00000E+00
         0.00000E+00
         0.00000E+00
         0.00000E+00
         0.00000E+00
         0.00000E+00
         0.00000E+00
         0.00000E+00
         0.00000E+00
         0.00000E+00
         0.00000E+00
         0.00000E+00
         0.00000E+00
         0.00000E+00
         0.00000E+00
         0.00000E+00
         0.00000E+00
         0.00000E+00
         0.00000E+00
         0.00000E+00
         0.00000E+00
         0.00000E+00
         0.00000E+00
         0.00000E+00
         0.00000E+00
         0.00000E+00
         0.00000E+00
         0.00000E+00
         0.00000E+00
         0.00000E+00
         0.00000E+00
         0.00000E+00
         0.00000E+00
         0.00000E+00
         0.00000E+00
         0.00000E+00
         0.00000E+00
         0.00000E+00
         0.00000E+00
         0.00000E+00
         0.00000E+00
         0.00000E+00
         0.00000E+00
         0.00000E+00
         0.00000E+00
         0.00000E+00
         0.00000E+00
         0.00000E+00
         0.00000E+00
         0.00000E+00
         0.00000E+00
         0.00000E+00
         0.00000E+00
         0.00000E+00
         0.00000E+00
         0.00000E+00
         0.00000E+00
         0.00000E+00
         0.00000E+00
         0.00000E+00
         0.00000E+00
         0.00000E+00
         0.00000E+00
         0.00000E+00
         0.00000E+00
         0.00000E+00
         0.00000E+00
         0.00000E+00
         0.00000E+00
         0.00000E+00
         0.00000E+00
         0.00000E+00
         0.00000E+00
         0.00000E+00
         0.00000E+00
         0.00000E+00
         0.00000E+00
         0.00000E+00
         0.00000E+00
         0.00000E+00
         0.00000E+00
         0.00000E+00
         0.00000E+00
         0.00000E+00
         0.00000E+00
         0.00000E+00
         0.00000E+00
         0.00000E+00
         0.00000E+00
         0.00000E+00
         0.00000E+00
         0.00000E+00
         0.00000E+00
         0.00000E+00
         0.00000E+00
         0.00000E+00
         0.00000E+00
         0.00000E+00
         0.00000E+00
         0.00000E+00
         0.00000E+00
         0.00000E+00
         0.00000E+00
         0.00000E+00
         0.00000E+00
         0.00000E+00
         0.00000E+00
         0.00000E+00
         0.00000E+00
         0.00000E+00
         0.00000E+00
         0.00000E+00
         0.00000E+00
         0.00000E+00
         0.00000E+00
         0.00000E+00
         0.00000E+00
         0.00000E+00
         0.00000E+00
         0.00000E+00
         0.00000E+00
         0.00000E+00
         0.00000E+00
         0.00000E+00
         0.00000E+00
         0.00000E+00
         0.00000E+00
         0.00000E+00
         0.00000E+00
         0.00000E+00
         0.00000E+00
         0.00000E+00
         0.00000E+00
         0.00000E+00
         0.00000E+00
         0.00000E+00
         0.00000E+00
         0.00000E+00
         0.00000E+00
         0.00000E+00
         0.00000E+00
         0.00000E+00
         0.00000E+00
         0.00000E+00
         0.00000E+00
         0.00000E+00
         0.00000E+00
         0.00000E+00
         0.00000E+00
         0.00000E+00
         0.00000E+00
         0.00000E+00
         0.00000E+00
         0.00000E+00
         0.00000E+00
         0.00000E+00
         0.00000E+00
         0.00000E+00
         0.00000E+00
         0.00000E+00
         0.00000E+00
         0.00000E+00
         0.00000E+00
         0.00000E+00
         0.00000E+00
         0.00000E+00
         0.00000E+00
         0.00000E+00
         0.00000E+00
         0.00000E+00
         0.00000E+00
         0.00000E+00
         0.00000E+00
         0.00000E+00
         0.00000E+00
         0.00000E+00
         0.00000E+00
         0.00000E+00
         0.00000E+00
         0.00000E+00
         0.00000E+00
         0.00000E+00
         0.00000E+00
         0.00000E+00
         0.00000E+00
         0.00000E+00
         0.00000E+00
         0.00000E+00
         0.00000E+00
         0.00000E+00
         0.00000E+00
         0.00000E+00
         0.00000E+00
         0.00000E+00
         0.00000E+00
         0.00000E+00
         0.00000E+00
         0.00000E+00
         0.00000E+00
         0.00000E+00
         0.00000E+00
         0.00000E+00
         0.00000E+00
         0.00000E+00
         0.00000E+00
         0.00000E+00
         0.00000E+00
         0.00000E+00
         0.00000E+00
         0.00000E+00
         0.00000E+00
         0.00000E+00
         0.00000E+00
         0.00000E+00
         0.00000E+00
         0.00000E+00
         0.00000E+00
         0.00000E+00
         0.00000E+00
         0.00000E+00
         0.00000E+00
         0.00000E+00
         0.00000E+00
         0.00000E+00
         0.00000E+00
         0.00000E+00
         0.00000E+00
         0.00000E+00
         0.00000E+00
         0.00000E+00
         0.00000E+00
         0.00000E+00
         0.00000E+00
         0.00000E+00
         0.00000E+00
         0.00000E+00
         0.00000E+00
         0.00000E+00
         0.00000E+00
         0.00000E+00
         0.00000E+00
         0.00000E+00
         0.00000E+00
         0.00000E+00
         0.00000E+00
         0.00000E+00
         0.00000E+00
         0.00000E+00
         0.00000E+00
         0.00000E+00
         0.00000E+00
         0.00000E+00
         0.00000E+00
         0.00000E+00
         0.00000E+00
         0.00000E+00
         0.00000E+00
         0.00000E+00
         0.00000E+00
         0.00000E+00
         0.00000E+00
         0.00000E+00
         0.00000E+00
         0.00000E+00
         0.00000E+00
         0.00000E+00
         0.00000E+00
         0.00000E+00
         0.00000E+00
         0.00000E+00
         0.00000E+00
         0.00000E+00
         0.00000E+00
         0.00000E+00
         0.00000E+00
         0.00000E+00
         0.00000E+00
         0.00000E+00
         0.00000E+00
         0.00000E+00
         0.00000E+00
         0.00000E+00
         0.00000E+00
         0.00000E+00
         0.00000E+00
         0.00000E+00
         0.00000E+00
         0.00000E+00
         0.00000E+00
         0.00000E+00
         0.00000E+00
         0.00000E+00
         0.00000E+00
         0.00000E+00
         0.00000E+00
         0.00000E+00
         0.00000E+00
         0.00000E+00
         0.00000E+00
         0.00000E+00
         0.00000E+00
         0.00000E+00
         0.00000E+00
         0.00000E+00
         0.00000E+00
         0.00000E+00
         0.00000E+00
         0.00000E+00
         0.00000E+00
         0.00000E+00
         0.00000E+00
         0.00000E+00
         0.00000E+00
         0.00000E+00
         0.00000E+00
         0.00000E+00
         0.00000E+00
         0.00000E+00
         0.00000E+00
         0.00000E+00
         0.00000E+00
         0.00000E+00
         0.00000E+00
         0.00000E+00
         0.00000E+00
         0.00000E+00
         0.00000E+00
         0.00000E+00
         0.00000E+00
         0.00000E+00
         0.00000E+00
         0.00000E+00
         0.00000E+00
  
SCALARS                 displacement_z  double 1
LOOKUP_TABLE default
        -0.55298E-02
        -0.55210E-02
        -0.55197E-02
        -0.55360E-02
        -0.33982E-16
        -0.38105E-16
        -0.36487E-16
        -0.33147E-16
        -0.55032E-02
        -0.55227E-02
        -0.34266E-16
        -0.33161E-16
        -0.55115E-02
        -0.55239E-02
        -0.40714E-16
        -0.38282E-16
        -0.55306E-02
        -0.55329E-02
        -0.30085E-16
        -0.33367E-16
        -0.55048E-02
        -0.54973E-02
        -0.55009E-02
        -0.40352E-16
        -0.35240E-16
        -0.36390E-16
        -0.55202E-02
        -0.55152E-02
        -0.38711E-16
        -0.32647E-16
        -0.55375E-02
        -0.55418E-02
        -0.55346E-02
        -0.33037E-16
        -0.30713E-16
        -0.29861E-16
        -0.55200E-02
        -0.55378E-02
        -0.34951E-16
        -0.31893E-16
        -0.55148E-02
        -0.55298E-02
        -0.30207E-16
        -0.26742E-16
        -0.55009E-02
        -0.55080E-02
        -0.33103E-16
        -0.36988E-16
        -0.55431E-02
        -0.32338E-16
        -0.55177E-02
        -0.38000E-16
        -0.55364E-02
        -0.34149E-16
        -0.55419E-02
        -0.32756E-16
        -0.55270E-02
        -0.55388E-02
        -0.33375E-16
        -0.32504E-16
        -0.55335E-02
        -0.55176E-02
        -0.33468E-16
        -0.37835E-16
        -0.55326E-02
        -0.32295E-16
        -0.55260E-02
        -0.35246E-16
        -0.54785E-02
        -0.54977E-02
        -0.33927E-16
        -0.35549E-16
        -0.55049E-02
        -0.35847E-16
        -0.55254E-02
        -0.28322E-16
        -0.55235E-02
        -0.27490E-16
        -0.55055E-02
        -0.28986E-16
        -0.54849E-02
        -0.55107E-02
        -0.27617E-16
        -0.28793E-16
        -0.55316E-02
        -0.26817E-16
        -0.55027E-02
        -0.35166E-16
        -0.54952E-02
        -0.35992E-16
        -0.54765E-02
        -0.55020E-02
        -0.34564E-16
        -0.34967E-16
        -0.55193E-02
        -0.31761E-16
        -0.55168E-02
        -0.31308E-16
        -0.55029E-02
        -0.33516E-16
        -0.54831E-02
        -0.55063E-02
        -0.32867E-16
        -0.33832E-16
        -0.54258E-02
        -0.54349E-02
        -0.25517E-16
        -0.24001E-16
        -0.54339E-02
        -0.24366E-16
        -0.54273E-02
        -0.23363E-16
        -0.54279E-02
        -0.23037E-16
        -0.54270E-02
        -0.21771E-16
        -0.54323E-02
        -0.19341E-16
        -0.54345E-02
        -0.17415E-16
        -0.54332E-02
        -0.17295E-16
        -0.54321E-02
        -0.18755E-16
        -0.54241E-02
        -0.19711E-16
        -0.54343E-02
        -0.17998E-16
        -0.54380E-02
        -0.16223E-16
        -0.54370E-02
        -0.16205E-16
        -0.54329E-02
        -0.18113E-16
        -0.54289E-02
        -0.20653E-16
        -0.54267E-02
        -0.22187E-16
        -0.54331E-02
        -0.23962E-16
        -0.54270E-02
        -0.25672E-16
        -0.54362E-02
        -0.23517E-16
        -0.54331E-02
        -0.20631E-16
        -0.54301E-02
        -0.20567E-16
        -0.54353E-02
        -0.22503E-16
        -0.54280E-02
        -0.23990E-16
        -0.54353E-02
        -0.22766E-16
        -0.54355E-02
        -0.22010E-16
        -0.77941E-02
        -0.77926E-02
        -0.77924E-02
        -0.77948E-02
        -0.77900E-02
        -0.77929E-02
        -0.77910E-02
        -0.77930E-02
        -0.77945E-02
        -0.77947E-02
        -0.77903E-02
        -0.77892E-02
        -0.77895E-02
        -0.77924E-02
        -0.77918E-02
        -0.77949E-02
        -0.77960E-02
        -0.77948E-02
        -0.77925E-02
        -0.77954E-02
        -0.77917E-02
        -0.77942E-02
        -0.77896E-02
        -0.77908E-02
        -0.77961E-02
        -0.77920E-02
        -0.77951E-02
        -0.77957E-02
        -0.77934E-02
        -0.77954E-02
        -0.77947E-02
        -0.77920E-02
        -0.77945E-02
        -0.77932E-02
        -0.77866E-02
        -0.77889E-02
        -0.77900E-02
        -0.77936E-02
        -0.77931E-02
        -0.77902E-02
        -0.77873E-02
        -0.77910E-02
        -0.77944E-02
        -0.77897E-02
        -0.77886E-02
        -0.77863E-02
        -0.77895E-02
        -0.77924E-02
        -0.77919E-02
        -0.77897E-02
        -0.77872E-02
        -0.77903E-02
        -0.77809E-02
        -0.77824E-02
        -0.77823E-02
        -0.77815E-02
        -0.77816E-02
        -0.77816E-02
        -0.77824E-02
        -0.77825E-02
        -0.77821E-02
        -0.77817E-02
        -0.77804E-02
        -0.77822E-02
        -0.77830E-02
        -0.77829E-02
        -0.77823E-02
        -0.77817E-02
        -0.77814E-02
        -0.77822E-02
        -0.77812E-02
        -0.77828E-02
        -0.77826E-02
        -0.77820E-02
        -0.77824E-02
        -0.77812E-02
        -0.77825E-02
        -0.77829E-02
        -0.79796E-02
        -0.79796E-02
        -0.79796E-02
        -0.79796E-02
        -0.79796E-02
        -0.79796E-02
        -0.79796E-02
        -0.79796E-02
        -0.79796E-02
        -0.79796E-02
        -0.79796E-02
        -0.79796E-02
        -0.79796E-02
        -0.79796E-02
        -0.79796E-02
        -0.79796E-02
        -0.79796E-02
        -0.79796E-02
        -0.79796E-02
        -0.79796E-02
        -0.79796E-02
        -0.79796E-02
        -0.79796E-02
        -0.79796E-02
        -0.79796E-02
        -0.79796E-02
        -0.79796E-02
        -0.79796E-02
        -0.79796E-02
        -0.79796E-02
        -0.79796E-02
        -0.79796E-02
        -0.79796E-02
        -0.79796E-02
        -0.79796E-02
        -0.79796E-02
        -0.79796E-02
        -0.79796E-02
        -0.79796E-02
        -0.79796E-02
        -0.79796E-02
        -0.79796E-02
        -0.79796E-02
        -0.79796E-02
        -0.79796E-02
        -0.79796E-02
        -0.79796E-02
        -0.79796E-02
        -0.79796E-02
        -0.79796E-02
        -0.79796E-02
        -0.79796E-02
        -0.79796E-02
        -0.79796E-02
        -0.79796E-02
        -0.79796E-02
        -0.79796E-02
        -0.79796E-02
        -0.79796E-02
        -0.79796E-02
        -0.79796E-02
        -0.79796E-02
        -0.79796E-02
        -0.79796E-02
        -0.79796E-02
        -0.79796E-02
        -0.79796E-02
        -0.79796E-02
        -0.79796E-02
        -0.79796E-02
        -0.79796E-02
        -0.79796E-02
        -0.79796E-02
        -0.79796E-02
        -0.79796E-02
        -0.79796E-02
        -0.79796E-02
        -0.79796E-02
        -0.79796E-02
        -0.79796E-02
        -0.79796E-02
        -0.79796E-02
        -0.79796E-02
        -0.79796E-02
        -0.79796E-02
        -0.79796E-02
        -0.79796E-02
        -0.79796E-02
        -0.79796E-02
        -0.79796E-02
        -0.79796E-02
        -0.79796E-02
        -0.79796E-02
        -0.79796E-02
        -0.79796E-02
        -0.79796E-02
        -0.79796E-02
        -0.79796E-02
        -0.79796E-02
        -0.79796E-02
        -0.79796E-02
        -0.79796E-02
        -0.79796E-02
        -0.79796E-02
        -0.79796E-02
        -0.79796E-02
        -0.79796E-02
        -0.79796E-02
        -0.79796E-02
        -0.79796E-02
        -0.79796E-02
        -0.79796E-02
        -0.79796E-02
        -0.79796E-02
        -0.79796E-02
        -0.79796E-02
        -0.79796E-02
        -0.79796E-02
        -0.79796E-02
        -0.79796E-02
        -0.79796E-02
        -0.79796E-02
        -0.79796E-02
        -0.79796E-02
        -0.79796E-02
        -0.79796E-02
        -0.79796E-02
        -0.79796E-02
        -0.79796E-02
        -0.79796E-02
        -0.79796E-02
        -0.79796E-02
        -0.79796E-02
        -0.79796E-02
        -0.79796E-02
        -0.79796E-02
        -0.79796E-02
        -0.79796E-02
        -0.79796E-02
        -0.79796E-02
        -0.79796E-02
        -0.79796E-02
        -0.79796E-02
        -0.79796E-02
        -0.79796E-02
        -0.79796E-02
        -0.79796E-02
        -0.79796E-02
        -0.79796E-02
        -0.79796E-02
        -0.79796E-02
        -0.79796E-02
        -0.79796E-02
        -0.79796E-02
        -0.79796E-02
        -0.79796E-02
        -0.79796E-02
        -0.79796E-02
        -0.79796E-02
        -0.79796E-02
        -0.79796E-02
        -0.79796E-02
        -0.79796E-02
        -0.79796E-02
        -0.79796E-02
        -0.79796E-02
        -0.79796E-02
        -0.79796E-02
        -0.79796E-02
        -0.79796E-02
        -0.79796E-02
        -0.79796E-02
        -0.79796E-02
        -0.79796E-02
        -0.79796E-02
        -0.79796E-02
        -0.79796E-02
        -0.79796E-02
        -0.79796E-02
        -0.79796E-02
        -0.79796E-02
        -0.79796E-02
        -0.79796E-02
        -0.79796E-02
        -0.79796E-02
        -0.79796E-02
        -0.79796E-02
        -0.79796E-02
        -0.79796E-02
        -0.79796E-02
        -0.79796E-02
        -0.79796E-02
        -0.79796E-02
        -0.79796E-02
        -0.79796E-02
        -0.79796E-02
        -0.79796E-02
        -0.79796E-02
        -0.79796E-02
        -0.79796E-02
        -0.79796E-02
        -0.79796E-02
        -0.79796E-02
        -0.79796E-02
        -0.79796E-02
        -0.79796E-02
        -0.79796E-02
        -0.79796E-02
        -0.79796E-02
        -0.79796E-02
        -0.79796E-02
        -0.79796E-02
        -0.79796E-02
        -0.79796E-02
        -0.79796E-02
        -0.79796E-02
        -0.79796E-02
        -0.79796E-02
        -0.79796E-02
        -0.79796E-02
        -0.79796E-02
        -0.79796E-02
        -0.79796E-02
        -0.79796E-02
        -0.79796E-02
        -0.79796E-02
        -0.79796E-02
        -0.79796E-02
        -0.79796E-02
        -0.79796E-02
        -0.79796E-02
        -0.79796E-02
        -0.79796E-02
        -0.79796E-02
        -0.79796E-02
        -0.79796E-02
        -0.79796E-02
        -0.79796E-02
        -0.79796E-02
        -0.79796E-02
        -0.79796E-02
        -0.79796E-02
        -0.79796E-02
        -0.79796E-02
        -0.79796E-02
        -0.79796E-02
        -0.79796E-02
        -0.79796E-02
        -0.79796E-02
        -0.79796E-02
        -0.79796E-02
        -0.79796E-02
        -0.79796E-02
        -0.79796E-02
        -0.79796E-02
        -0.79796E-02
        -0.79796E-02
        -0.79796E-02
        -0.79796E-02
        -0.79796E-02
        -0.79796E-02
        -0.79796E-02
        -0.79796E-02
        -0.79796E-02
        -0.79796E-02
        -0.79796E-02
        -0.79796E-02
        -0.79796E-02
        -0.79796E-02
        -0.79796E-02
        -0.79796E-02
        -0.79796E-02
        -0.79796E-02
        -0.79796E-02
        -0.79796E-02
        -0.79796E-02
        -0.79796E-02
        -0.79796E-02
        -0.79796E-02
        -0.79796E-02
        -0.79796E-02
        -0.79796E-02
        -0.79796E-02
        -0.79796E-02
        -0.79796E-02
        -0.79796E-02
        -0.79796E-02
        -0.79796E-02
        -0.79796E-02
        -0.79796E-02
        -0.79796E-02
        -0.79796E-02
        -0.79796E-02
        -0.79796E-02
        -0.79796E-02
        -0.79796E-02
        -0.79796E-02
        -0.79796E-02
        -0.79796E-02
        -0.79796E-02
        -0.79796E-02
        -0.79796E-02
        -0.79796E-02
        -0.79796E-02
        -0.79796E-02
        -0.79796E-02
        -0.79796E-02
        -0.79796E-02
        -0.79796E-02
        -0.79796E-02
        -0.79796E-02
        -0.79796E-02
        -0.79796E-02
        -0.79796E-02
        -0.79796E-02
        -0.79796E-02
        -0.79796E-02
        -0.79796E-02
        -0.79796E-02
        -0.79796E-02
        -0.79796E-02
        -0.79796E-02
        -0.79796E-02
        -0.79796E-02
        -0.79796E-02
        -0.79796E-02
        -0.79796E-02
        -0.79796E-02
        -0.79796E-02
        -0.79796E-02
        -0.79796E-02
        -0.79796E-02
        -0.79796E-02
        -0.79796E-02
        -0.79796E-02
        -0.79796E-02
        -0.79796E-02
        -0.79796E-02
        -0.79796E-02
        -0.79796E-02
        -0.79796E-02
        -0.79796E-02
        -0.79796E-02
        -0.79796E-02
        -0.79796E-02
        -0.79796E-02
        -0.79796E-02
        -0.79796E-02
        -0.79796E-02
        -0.79796E-02
        -0.79796E-02
        -0.79796E-02
        -0.79796E-02
        -0.79796E-02
        -0.79796E-02
        -0.79796E-02
        -0.79796E-02
        -0.79796E-02
        -0.79796E-02
        -0.79796E-02
        -0.79796E-02
        -0.79796E-02
        -0.79796E-02
        -0.79796E-02
        -0.79796E-02
        -0.79796E-02
        -0.79796E-02
        -0.79796E-02
        -0.79796E-02
        -0.79796E-02
        -0.79796E-02
        -0.79796E-02
        -0.79796E-02
        -0.79796E-02
        -0.79796E-02
        -0.79796E-02
        -0.79796E-02
        -0.79796E-02
        -0.79796E-02
        -0.79796E-02
        -0.79796E-02
        -0.79796E-02
        -0.79796E-02
        -0.79796E-02
        -0.79796E-02
        -0.79796E-02
        -0.79796E-02
        -0.79796E-02
        -0.79796E-02
        -0.79796E-02
        -0.79796E-02
        -0.79796E-02
        -0.79796E-02
        -0.79796E-02
        -0.79796E-02
        -0.79796E-02
        -0.79796E-02
        -0.79796E-02
        -0.79796E-02
        -0.79796E-02
        -0.79796E-02
        -0.79796E-02
        -0.79796E-02
        -0.79796E-02
        -0.79796E-02
        -0.79796E-02
        -0.79796E-02
        -0.79796E-02
        -0.79796E-02
        -0.79796E-02
        -0.79796E-02
        -0.79796E-02
        -0.79796E-02
        -0.79796E-02
        -0.79796E-02
        -0.79796E-02
        -0.79796E-02
        -0.79796E-02
        -0.79796E-02
        -0.79796E-02
        -0.79796E-02
        -0.79796E-02
        -0.79796E-02
        -0.79796E-02
        -0.79796E-02
        -0.79796E-02
        -0.79796E-02
        -0.79796E-02
        -0.79796E-02
        -0.79796E-02
        -0.79796E-02
        -0.79796E-02
        -0.79796E-02
        -0.79796E-02
        -0.79796E-02
        -0.79796E-02
        -0.79796E-02
        -0.79796E-02
        -0.79796E-02
        -0.79796E-02
        -0.79796E-02
        -0.79796E-02
        -0.79796E-02
        -0.79796E-02
        -0.79796E-02
        -0.79796E-02
        -0.79796E-02
        -0.79796E-02
        -0.79796E-02
        -0.79796E-02
        -0.79796E-02
        -0.79796E-02
        -0.79796E-02
        -0.79796E-02
        -0.79796E-02
        -0.79796E-02
        -0.79796E-02
        -0.79796E-02
        -0.79796E-02
        -0.79796E-02
        -0.79796E-02
        -0.79796E-02
        -0.79796E-02
        -0.79796E-02
        -0.79796E-02
        -0.79796E-02
        -0.79796E-02
        -0.79796E-02
        -0.79796E-02
        -0.79796E-02
        -0.79796E-02
        -0.79796E-02
        -0.79796E-02
        -0.79796E-02
        -0.79796E-02
        -0.79796E-02
        -0.79796E-02
        -0.79796E-02
        -0.79796E-02
        -0.79796E-02
        -0.79796E-02
        -0.79796E-02
        -0.79796E-02
        -0.79796E-02
        -0.79796E-02
        -0.79796E-02
        -0.79796E-02
        -0.79796E-02
        -0.79796E-02
        -0.79796E-02
        -0.79796E-02
        -0.79796E-02
        -0.79796E-02
        -0.79796E-02
        -0.79796E-02
        -0.79796E-02
        -0.79796E-02
        -0.79796E-02
        -0.79796E-02
        -0.79796E-02
        -0.79796E-02
        -0.79796E-02
        -0.79796E-02
        -0.79796E-02
        -0.79796E-02
        -0.79796E-02
        -0.79796E-02
        -0.79796E-02
        -0.79796E-02
        -0.79796E-02
        -0.79796E-02
        -0.79796E-02
        -0.79796E-02
        -0.79796E-02
        -0.79796E-02
        -0.79796E-02
        -0.79796E-02
        -0.79796E-02
        -0.79796E-02
        -0.79796E-02
        -0.79796E-02
        -0.79796E-02
        -0.79796E-02
        -0.79796E-02
        -0.79796E-02
        -0.79796E-02
        -0.79796E-02
        -0.79796E-02
        -0.79796E-02
        -0.79796E-02
        -0.79796E-02
        -0.79796E-02
        -0.79796E-02
        -0.79796E-02
        -0.79796E-02
        -0.79796E-02
        -0.79796E-02
        -0.79796E-02
        -0.79796E-02
        -0.79796E-02
        -0.79796E-02
        -0.79796E-02
        -0.79796E-02
        -0.79796E-02
        -0.79796E-02
        -0.79796E-02
        -0.79796E-02
        -0.79796E-02
        -0.79796E-02
        -0.79796E-02
        -0.79796E-02
        -0.79796E-02
        -0.79796E-02
        -0.79796E-02
        -0.79796E-02
        -0.79796E-02
        -0.79796E-02
        -0.79796E-02
        -0.79796E-02
        -0.79796E-02
        -0.79796E-02
        -0.79796E-02
        -0.79796E-02
        -0.79796E-02
        -0.79796E-02
        -0.79796E-02
        -0.79796E-02
        -0.79796E-02
        -0.79796E-02
        -0.79796E-02
        -0.79796E-02
        -0.79796E-02
        -0.79796E-02
        -0.79796E-02
        -0.79796E-02
        -0.79796E-02
        -0.79796E-02
        -0.79796E-02
        -0.79796E-02
        -0.79796E-02
        -0.79796E-02
        -0.79796E-02
        -0.79796E-02
        -0.79796E-02
        -0.79796E-02
        -0.79796E-02
        -0.79796E-02
        -0.79796E-02
        -0.79796E-02
        -0.79796E-02
        -0.79796E-02
        -0.79796E-02
        -0.79796E-02
        -0.79796E-02
        -0.79796E-02
        -0.79796E-02
        -0.79796E-02
        -0.79796E-02
        -0.79796E-02
        -0.79796E-02
        -0.79796E-02
        -0.79796E-02
        -0.79796E-02
        -0.79796E-02
        -0.79796E-02
        -0.79796E-02
        -0.79796E-02
        -0.79796E-02
        -0.79796E-02
        -0.79796E-02
        -0.79796E-02
        -0.79796E-02
        -0.79796E-02
        -0.79796E-02
        -0.79796E-02
        -0.79796E-02
        -0.79796E-02
        -0.79796E-02
        -0.79796E-02
        -0.79796E-02
        -0.79796E-02
        -0.79796E-02
        -0.79796E-02
        -0.79796E-02
        -0.79796E-02
        -0.79796E-02
        -0.79796E-02
        -0.79796E-02
        -0.79796E-02
        -0.79796E-02
        -0.79796E-02
        -0.79796E-02
        -0.79796E-02
        -0.79796E-02
        -0.79796E-02
        -0.79796E-02
        -0.79796E-02
        -0.79796E-02
        -0.79796E-02
        -0.79796E-02
        -0.79796E-02
        -0.79796E-02
        -0.79796E-02
        -0.79796E-02
        -0.79796E-02
        -0.79796E-02
        -0.79796E-02
        -0.79796E-02
        -0.79796E-02
        -0.79796E-02
        -0.79796E-02
        -0.79796E-02
        -0.79796E-02
        -0.79796E-02
        -0.79796E-02
        -0.79796E-02
        -0.79796E-02
        -0.79796E-02
        -0.79796E-02
        -0.79796E-02
        -0.79796E-02
        -0.79796E-02
        -0.79796E-02
        -0.79796E-02
        -0.79796E-02
        -0.79796E-02
        -0.79796E-02
        -0.79796E-02
        -0.79796E-02
        -0.79796E-02
        -0.79796E-02
        -0.79796E-02
        -0.79796E-02
        -0.79796E-02
        -0.79796E-02
        -0.79796E-02
        -0.79796E-02
        -0.79796E-02
        -0.79796E-02
        -0.79796E-02
        -0.79796E-02
        -0.79796E-02
        -0.79796E-02
        -0.79796E-02
        -0.79796E-02
        -0.79796E-02
        -0.79796E-02
        -0.79796E-02
        -0.79796E-02
        -0.79796E-02
        -0.79796E-02
        -0.79796E-02
        -0.79796E-02
        -0.79796E-02
        -0.79796E-02
        -0.79796E-02
        -0.79796E-02
        -0.79796E-02
        -0.79796E-02
        -0.79796E-02
        -0.79796E-02
        -0.79796E-02
        -0.79796E-02
        -0.79796E-02
        -0.79796E-02
        -0.79796E-02
        -0.79796E-02
        -0.79796E-02
        -0.79796E-02
        -0.79796E-02
        -0.79796E-02
        -0.79796E-02
        -0.79796E-02
        -0.79796E-02
        -0.79796E-02
        -0.79796E-02
        -0.79796E-02
        -0.79796E-02
        -0.79796E-02
        -0.79796E-02
        -0.79796E-02
        -0.79796E-02
        -0.79796E-02
        -0.79796E-02
        -0.79796E-02
        -0.79796E-02
        -0.79796E-02
        -0.79796E-02
        -0.79796E-02
        -0.79796E-02
        -0.79796E-02
        -0.79796E-02
        -0.79796E-02
        -0.79796E-02
        -0.79796E-02
        -0.79796E-02
        -0.79796E-02
        -0.79796E-02
        -0.79796E-02
        -0.79796E-02
        -0.79796E-02
        -0.79796E-02
        -0.79796E-02
        -0.79796E-02
        -0.79796E-02
        -0.79796E-02
        -0.79796E-02
        -0.79796E-02
        -0.79796E-02
        -0.79796E-02
        -0.79796E-02
        -0.79796E-02
        -0.79796E-02
        -0.79796E-02
        -0.79796E-02
        -0.79796E-02
        -0.79796E-02
        -0.79796E-02
        -0.79796E-02
        -0.79796E-02
        -0.79796E-02
        -0.79796E-02
        -0.79796E-02
        -0.79796E-02
        -0.79796E-02
        -0.79796E-02
        -0.79796E-02
        -0.79796E-02
        -0.79796E-02
        -0.79796E-02
        -0.79796E-02
        -0.79796E-02
        -0.79796E-02
        -0.79796E-02
        -0.79796E-02
        -0.79796E-02
        -0.79796E-02
        -0.79796E-02
        -0.79796E-02
        -0.79796E-02
        -0.79796E-02
        -0.79796E-02
        -0.79796E-02
        -0.79796E-02
        -0.79796E-02
        -0.79796E-02
        -0.79796E-02
        -0.79796E-02
        -0.79796E-02
        -0.79796E-02
        -0.79796E-02
        -0.79796E-02
        -0.79796E-02
        -0.79796E-02
        -0.79796E-02
        -0.79796E-02
        -0.79796E-02
        -0.79796E-02
        -0.79796E-02
        -0.79796E-02
        -0.79796E-02
        -0.79796E-02
        -0.79796E-02
        -0.79796E-02
        -0.79796E-02
        -0.79796E-02
        -0.79796E-02
        -0.79796E-02
        -0.79796E-02
        -0.79796E-02
        -0.79796E-02
        -0.79796E-02
        -0.79796E-02
        -0.79796E-02
        -0.79796E-02
        -0.79796E-02
        -0.79796E-02
        -0.79796E-02
        -0.79796E-02
        -0.79796E-02
        -0.79796E-02
        -0.79796E-02
        -0.79796E-02
        -0.79796E-02
        -0.79796E-02
        -0.79796E-02
        -0.79796E-02
        -0.79796E-02
        -0.79796E-02
        -0.79796E-02
        -0.79796E-02
        -0.79796E-02
        -0.79796E-02
        -0.79796E-02
        -0.79796E-02
        -0.79796E-02
        -0.79796E-02
        -0.79796E-02
        -0.79796E-02
        -0.79796E-02
        -0.79796E-02
        -0.79796E-02
        -0.79796E-02
        -0.79796E-02
        -0.79796E-02
        -0.79796E-02
        -0.79796E-02
        -0.79796E-02
        -0.79796E-02
        -0.79796E-02
        -0.79796E-02
        -0.79796E-02
        -0.79796E-02
        -0.79796E-02
        -0.79796E-02
        -0.79796E-02
        -0.79796E-02
        -0.79796E-02
        -0.79796E-02
        -0.79796E-02
        -0.79796E-02
        -0.79796E-02
        -0.79796E-02
        -0.79796E-02
        -0.79796E-02
        -0.79796E-02
        -0.79796E-02
        -0.79796E-02
        -0.79796E-02
        -0.79796E-02
        -0.79796E-02
        -0.79796E-02
        -0.79796E-02
        -0.79796E-02
        -0.79796E-02
        -0.79796E-02
        -0.79796E-02
        -0.79796E-02
        -0.79796E-02
        -0.79796E-02
        -0.79796E-02
        -0.79796E-02
        -0.79796E-02
        -0.79796E-02
        -0.79796E-02
        -0.79796E-02
        -0.79796E-02
        -0.79796E-02
        -0.79796E-02
        -0.79796E-02
        -0.79796E-02
        -0.79796E-02
        -0.79796E-02
        -0.79796E-02
        -0.79796E-02
        -0.79796E-02
        -0.79796E-02
        -0.79796E-02
        -0.79796E-02
        -0.79796E-02
        -0.79796E-02
        -0.79796E-02
        -0.79796E-02
        -0.79796E-02
        -0.79796E-02
        -0.79796E-02
        -0.79796E-02
        -0.79796E-02
        -0.79796E-02
        -0.79796E-02
        -0.79796E-02
        -0.79796E-02
        -0.79796E-02
        -0.79796E-02
        -0.79796E-02
        -0.79796E-02
        -0.79796E-02
        -0.79796E-02
        -0.79796E-02
        -0.79796E-02
        -0.79796E-02
        -0.79796E-02
        -0.79796E-02
        -0.79796E-02
        -0.79796E-02
        -0.79796E-02
        -0.79796E-02
        -0.79796E-02
        -0.79796E-02
        -0.79796E-02
        -0.79796E-02
        -0.79796E-02
        -0.79796E-02
        -0.79796E-02
        -0.79796E-02
        -0.79796E-02
        -0.79796E-02
        -0.79796E-02
        -0.79796E-02
        -0.79796E-02
        -0.79796E-02
        -0.79796E-02
        -0.79796E-02
        -0.79796E-02
        -0.79796E-02
        -0.79796E-02
        -0.79796E-02
        -0.79796E-02
        -0.79796E-02
        -0.79796E-02
        -0.79796E-02
        -0.79796E-02
        -0.79796E-02
        -0.79796E-02
        -0.79796E-02
        -0.79796E-02
        -0.79796E-02
        -0.79796E-02
        -0.79796E-02
        -0.79796E-02
        -0.79796E-02
        -0.79796E-02
        -0.79796E-02
        -0.79796E-02
        -0.79796E-02
        -0.79796E-02
        -0.79796E-02
        -0.79796E-02
        -0.79796E-02
        -0.79796E-02
        -0.79796E-02
        -0.79796E-02
        -0.79796E-02
        -0.79796E-02
        -0.79796E-02
        -0.79796E-02
        -0.79796E-02
        -0.79796E-02
        -0.79796E-02
        -0.79796E-02
        -0.79796E-02
        -0.79796E-02
        -0.79796E-02
        -0.79796E-02
        -0.79796E-02
        -0.79796E-02
        -0.79796E-02
        -0.79796E-02
        -0.79796E-02
        -0.79796E-02
        -0.79796E-02
        -0.79796E-02
        -0.79796E-02
        -0.79796E-02
        -0.79796E-02
        -0.79796E-02
        -0.79796E-02
        -0.79796E-02
        -0.79796E-02
        -0.79796E-02
        -0.79796E-02
        -0.79796E-02
        -0.79796E-02
        -0.79796E-02
        -0.79796E-02
        -0.79796E-02
        -0.79796E-02
        -0.79796E-02
        -0.79796E-02
        -0.79796E-02
        -0.79796E-02
        -0.79796E-02
        -0.79796E-02
        -0.79796E-02
        -0.79796E-02
        -0.79796E-02
        -0.79796E-02
        -0.79796E-02
        -0.79796E-02
        -0.79796E-02
        -0.79796E-02
        -0.79796E-02
        -0.79796E-02
        -0.79796E-02
        -0.79796E-02
        -0.79796E-02
        -0.79796E-02
        -0.79796E-02
        -0.79796E-02
        -0.79796E-02
        -0.79796E-02
        -0.79796E-02
        -0.79796E-02
        -0.79796E-02
        -0.79796E-02
        -0.79796E-02
        -0.79796E-02
        -0.79796E-02
        -0.79796E-02
        -0.79796E-02
        -0.79796E-02
        -0.79796E-02
        -0.79796E-02
        -0.79796E-02
        -0.79796E-02
        -0.79796E-02
        -0.79796E-02
        -0.79796E-02
        -0.79796E-02
        -0.79796E-02
        -0.79796E-02
        -0.79796E-02
        -0.79796E-02
        -0.79796E-02
        -0.79796E-02
        -0.79796E-02
        -0.79796E-02
        -0.79796E-02
        -0.79796E-02
        -0.79796E-02
        -0.79796E-02
        -0.79796E-02
        -0.79796E-02
        -0.79796E-02
        -0.79796E-02
        -0.79796E-02
        -0.79796E-02
        -0.79796E-02
        -0.79796E-02
        -0.79796E-02
        -0.79796E-02
        -0.79796E-02
        -0.79796E-02
        -0.79796E-02
        -0.79796E-02
        -0.79796E-02
        -0.79796E-02
        -0.79796E-02
        -0.79796E-02
        -0.79796E-02
        -0.79796E-02
        -0.79796E-02
        -0.79796E-02
        -0.79796E-02
        -0.79796E-02
        -0.79796E-02
        -0.79796E-02
        -0.79796E-02
        -0.79796E-02
        -0.79796E-02
        -0.79796E-02
        -0.79796E-02
        -0.79796E-02
        -0.79796E-02
        -0.79796E-02
        -0.79796E-02
        -0.79796E-02
        -0.79796E-02
        -0.79796E-02
        -0.79796E-02
        -0.79796E-02
        -0.79796E-02
        -0.79796E-02
        -0.79796E-02
        -0.79796E-02
        -0.79796E-02
        -0.79796E-02
        -0.79796E-02
        -0.79796E-02
        -0.79796E-02
        -0.79796E-02
        -0.79796E-02
        -0.79796E-02
        -0.79796E-02
        -0.79796E-02
        -0.79796E-02
        -0.79796E-02
        -0.79796E-02
        -0.79796E-02
        -0.79796E-02
        -0.79796E-02
        -0.79796E-02
        -0.79796E-02
        -0.79796E-02
        -0.79796E-02
        -0.79796E-02
        -0.79796E-02
        -0.79796E-02
        -0.79796E-02
        -0.79796E-02
        -0.79796E-02
        -0.79796E-02
        -0.79796E-02
        -0.79796E-02
        -0.79796E-02
        -0.79796E-02
        -0.79796E-02
        -0.79796E-02
        -0.79796E-02
        -0.79796E-02
        -0.79796E-02
        -0.79796E-02
        -0.79796E-02
        -0.79796E-02
        -0.79796E-02
        -0.79796E-02
        -0.79796E-02
        -0.79796E-02
        -0.79796E-02
        -0.79796E-02
        -0.79796E-02
        -0.79796E-02
        -0.79796E-02
        -0.79796E-02
        -0.79796E-02
        -0.79796E-02
        -0.79796E-02
        -0.79796E-02
        -0.79796E-02
        -0.79796E-02
        -0.79796E-02
        -0.79796E-02
        -0.79796E-02
        -0.79796E-02
        -0.79796E-02
        -0.79796E-02
        -0.79796E-02
        -0.79796E-02
        -0.79796E-02
        -0.79796E-02
        -0.79796E-02
        -0.79796E-02
        -0.79796E-02
        -0.79796E-02
        -0.79796E-02
        -0.79796E-02
        -0.79796E-02
        -0.79796E-02
        -0.79796E-02
        -0.79796E-02
        -0.79796E-02
        -0.79796E-02
        -0.79796E-02
        -0.79796E-02
        -0.79796E-02
        -0.79796E-02
        -0.79796E-02
        -0.79796E-02
        -0.79796E-02
        -0.79796E-02
        -0.79796E-02
        -0.79796E-02
        -0.79796E-02
        -0.79796E-02
        -0.79796E-02
        -0.79796E-02
        -0.79796E-02
        -0.79796E-02
        -0.79796E-02
        -0.79796E-02
        -0.79796E-02
        -0.79796E-02
        -0.79796E-02
        -0.79796E-02
        -0.79796E-02
        -0.79796E-02
        -0.79796E-02
        -0.79796E-02
        -0.79796E-02
        -0.79796E-02
        -0.79796E-02
        -0.79796E-02
        -0.79796E-02
        -0.79796E-02
        -0.79796E-02
        -0.79796E-02
        -0.79796E-02
        -0.79796E-02
        -0.79796E-02
        -0.79796E-02
        -0.79796E-02
        -0.79796E-02
        -0.79796E-02
        -0.79796E-02
        -0.79796E-02
        -0.79796E-02
        -0.79796E-02
        -0.79796E-02
        -0.79796E-02
        -0.79796E-02
        -0.79796E-02
        -0.79796E-02
        -0.79796E-02
        -0.79796E-02
        -0.79796E-02
        -0.79796E-02
        -0.79796E-02
        -0.79796E-02
        -0.79796E-02
        -0.79796E-02
        -0.79796E-02
        -0.79796E-02
        -0.79796E-02
        -0.79796E-02
        -0.79796E-02
        -0.79796E-02
        -0.79796E-02
        -0.79796E-02
        -0.79796E-02
        -0.79796E-02
        -0.79796E-02
        -0.79796E-02
        -0.79796E-02
        -0.79796E-02
        -0.79796E-02
        -0.79796E-02
        -0.79796E-02
        -0.79796E-02
        -0.79796E-02
        -0.79796E-02
        -0.79796E-02
        -0.79796E-02
        -0.79796E-02
        -0.79796E-02
        -0.79796E-02
        -0.79796E-02
        -0.79796E-02
        -0.79796E-02
        -0.79796E-02
        -0.79796E-02
        -0.79796E-02
        -0.79796E-02
        -0.79796E-02
        -0.79796E-02
        -0.79796E-02
        -0.79796E-02
        -0.79796E-02
        -0.79796E-02
        -0.79796E-02
        -0.79796E-02
        -0.79796E-02
        -0.79796E-02
        -0.79796E-02
        -0.79796E-02
        -0.79796E-02
        -0.79796E-02
        -0.79796E-02
        -0.79796E-02
        -0.79796E-02
        -0.79796E-02
        -0.79796E-02
        -0.79796E-02
        -0.79796E-02
        -0.79796E-02
        -0.79796E-02
        -0.79796E-02
        -0.79796E-02
        -0.79796E-02
        -0.79796E-02
        -0.79796E-02
        -0.79796E-02
        -0.79796E-02
        -0.79796E-02
        -0.79796E-02
        -0.79796E-02
        -0.79796E-02
        -0.79796E-02
        -0.79796E-02
        -0.79796E-02
        -0.79796E-02
        -0.79796E-02
        -0.79796E-02
        -0.79796E-02
        -0.79796E-02
        -0.79796E-02
        -0.79796E-02
        -0.79796E-02
        -0.79796E-02
        -0.79796E-02
        -0.79796E-02
        -0.79796E-02
        -0.79796E-02
        -0.79796E-02
        -0.79796E-02
        -0.79796E-02
        -0.79796E-02
        -0.79796E-02
        -0.79796E-02
        -0.79796E-02
        -0.79796E-02
        -0.79796E-02
        -0.79796E-02
        -0.79796E-02
        -0.79796E-02
        -0.79796E-02
        -0.79796E-02
        -0.79796E-02
        -0.79796E-02
        -0.79796E-02
        -0.79796E-02
        -0.79796E-02
        -0.79796E-02
        -0.79796E-02
        -0.79796E-02
        -0.79796E-02
        -0.79796E-02
        -0.79796E-02
        -0.79796E-02
        -0.79796E-02
        -0.79796E-02
        -0.79796E-02
        -0.79796E-02
        -0.79796E-02
        -0.79796E-02
        -0.79796E-02
        -0.79796E-02
        -0.79796E-02
        -0.79796E-02
        -0.79796E-02
        -0.79796E-02
        -0.79796E-02
        -0.79796E-02
        -0.79796E-02
        -0.79796E-02
        -0.79796E-02
        -0.79796E-02
        -0.79796E-02
        -0.79796E-02
        -0.79796E-02
        -0.79796E-02
        -0.79796E-02
        -0.79796E-02
        -0.79796E-02
        -0.79796E-02
        -0.79796E-02
        -0.79796E-02
        -0.79796E-02
        -0.79796E-02
        -0.79796E-02
        -0.79796E-02
        -0.79796E-02
        -0.79796E-02
        -0.79796E-02
        -0.79796E-02
        -0.79796E-02
        -0.79796E-02
        -0.79796E-02
        -0.79796E-02
        -0.79796E-02
        -0.79796E-02
        -0.79796E-02
        -0.79796E-02
        -0.79796E-02
        -0.79796E-02
        -0.79796E-02
        -0.79796E-02
        -0.79796E-02
        -0.79796E-02
        -0.79796E-02
        -0.79796E-02
        -0.79796E-02
        -0.79796E-02
        -0.79796E-02
        -0.79796E-02
        -0.79796E-02
        -0.79796E-02
        -0.79796E-02
        -0.79796E-02
        -0.79796E-02
        -0.79796E-02
        -0.79796E-02
        -0.79796E-02
        -0.79796E-02
        -0.79796E-02
        -0.79796E-02
        -0.79796E-02
        -0.79796E-02
        -0.79796E-02
        -0.79796E-02
        -0.79796E-02
        -0.79796E-02
        -0.79796E-02
        -0.79796E-02
        -0.79796E-02
        -0.79796E-02
        -0.79796E-02
        -0.79796E-02
        -0.79796E-02
        -0.79796E-02
        -0.79796E-02
        -0.79796E-02
        -0.79796E-02
        -0.79796E-02
        -0.79796E-02
        -0.79796E-02
        -0.79796E-02
        -0.79796E-02
        -0.79796E-02
        -0.79796E-02
        -0.79796E-02
        -0.79796E-02
        -0.79796E-02
        -0.79796E-02
        -0.79796E-02
        -0.79796E-02
        -0.79796E-02
        -0.79796E-02
        -0.79796E-02
        -0.79796E-02
        -0.79796E-02
        -0.79796E-02
        -0.79796E-02
        -0.79796E-02
        -0.79796E-02
        -0.79796E-02
        -0.79796E-02
        -0.79796E-02
        -0.79796E-02
        -0.79796E-02
        -0.79796E-02
        -0.79796E-02
        -0.79796E-02
        -0.79796E-02
        -0.79796E-02
        -0.79796E-02
        -0.79796E-02
        -0.79796E-02
        -0.79796E-02
        -0.79796E-02
        -0.79796E-02
        -0.79796E-02
        -0.79796E-02
        -0.79796E-02
        -0.79796E-02
        -0.79796E-02
        -0.79796E-02
        -0.79796E-02
        -0.79796E-02
        -0.79796E-02
        -0.79796E-02
        -0.79796E-02
        -0.79796E-02
        -0.79796E-02
        -0.79796E-02
        -0.79796E-02
        -0.79796E-02
        -0.79796E-02
        -0.79796E-02
        -0.79796E-02
        -0.79796E-02
        -0.79796E-02
        -0.79796E-02
        -0.79796E-02
        -0.79796E-02
        -0.79796E-02
        -0.79796E-02
        -0.79796E-02
        -0.79796E-02
        -0.79796E-02
        -0.79796E-02
        -0.79796E-02
        -0.79796E-02
        -0.79796E-02
        -0.79796E-02
        -0.79796E-02
        -0.79796E-02
        -0.79796E-02
        -0.79796E-02
        -0.79796E-02
        -0.79796E-02
        -0.79796E-02
        -0.79796E-02
        -0.79796E-02
        -0.79796E-02
        -0.79796E-02
        -0.79796E-02
        -0.79796E-02
        -0.79796E-02
        -0.79796E-02
        -0.79796E-02
        -0.79796E-02
        -0.79796E-02
        -0.79796E-02
        -0.79796E-02
        -0.79796E-02
        -0.79796E-02
        -0.79796E-02
        -0.79796E-02
        -0.79796E-02
        -0.79796E-02
        -0.79796E-02
        -0.79796E-02
        -0.79796E-02
        -0.79796E-02
        -0.79796E-02
        -0.79796E-02
        -0.79796E-02
        -0.79796E-02
        -0.79796E-02
        -0.79796E-02
        -0.79796E-02
        -0.79796E-02
        -0.79796E-02
        -0.79796E-02
        -0.79796E-02
        -0.79796E-02
        -0.79796E-02
        -0.79796E-02
        -0.79796E-02
        -0.79796E-02
        -0.79796E-02
        -0.79796E-02
        -0.79796E-02
        -0.79796E-02
        -0.79796E-02
        -0.79796E-02
        -0.79796E-02
        -0.79796E-02
        -0.79796E-02
        -0.79796E-02
        -0.79796E-02
        -0.79796E-02
        -0.79796E-02
        -0.79796E-02
        -0.79796E-02
        -0.79796E-02
        -0.79796E-02
        -0.79796E-02
        -0.79796E-02
        -0.79796E-02
        -0.79796E-02
        -0.79796E-02
        -0.79796E-02
        -0.79796E-02
        -0.79796E-02
        -0.79796E-02
        -0.79796E-02
        -0.79796E-02
        -0.79796E-02
        -0.79796E-02
        -0.79796E-02
        -0.79796E-02
        -0.79796E-02
        -0.79796E-02
        -0.79796E-02
        -0.79796E-02
        -0.79796E-02
        -0.79796E-02
        -0.79796E-02
        -0.79796E-02
        -0.79796E-02
        -0.79796E-02
        -0.79796E-02
        -0.79796E-02
        -0.79796E-02
        -0.79796E-02
        -0.79796E-02
        -0.79796E-02
        -0.79796E-02
        -0.79796E-02
        -0.79796E-02
        -0.79796E-02
        -0.79796E-02
        -0.79796E-02
        -0.79796E-02
        -0.79796E-02
        -0.79796E-02
        -0.79796E-02
        -0.79796E-02
        -0.79796E-02
        -0.79796E-02
        -0.79796E-02
        -0.79796E-02
        -0.79796E-02
        -0.79796E-02
        -0.79796E-02
        -0.79796E-02
        -0.79796E-02
        -0.79796E-02
        -0.79796E-02
        -0.79796E-02
        -0.79796E-02
        -0.79796E-02
        -0.79796E-02
        -0.79796E-02
        -0.79796E-02
        -0.79796E-02
        -0.79796E-02
        -0.79796E-02
        -0.79796E-02
        -0.79796E-02
        -0.79796E-02
        -0.79796E-02
        -0.79796E-02
        -0.79796E-02
        -0.79796E-02
        -0.79796E-02
        -0.79796E-02
        -0.79796E-02
        -0.79796E-02
        -0.79796E-02
        -0.79796E-02
        -0.79796E-02
        -0.79796E-02
        -0.79796E-02
        -0.79796E-02
        -0.79796E-02
        -0.79796E-02
        -0.79796E-02
        -0.79796E-02
        -0.79796E-02
        -0.79796E-02
        -0.79796E-02
        -0.79796E-02
        -0.79796E-02
        -0.79796E-02
        -0.79796E-02
        -0.79796E-02
        -0.79796E-02
        -0.79796E-02
        -0.79796E-02
        -0.79796E-02
        -0.79796E-02
        -0.79796E-02
        -0.79796E-02
        -0.79796E-02
        -0.79796E-02
        -0.79796E-02
        -0.79796E-02
        -0.79796E-02
        -0.79796E-02
        -0.79796E-02
        -0.79796E-02
        -0.79796E-02
        -0.79796E-02
        -0.79796E-02
        -0.79796E-02
        -0.79796E-02
        -0.79796E-02
        -0.79796E-02
        -0.79796E-02
        -0.79796E-02
        -0.79796E-02
        -0.79796E-02
        -0.79796E-02
        -0.79796E-02
        -0.79796E-02
        -0.79796E-02
        -0.79796E-02
        -0.79796E-02
        -0.79796E-02
        -0.79796E-02
        -0.79796E-02
        -0.79796E-02
        -0.79796E-02
        -0.79796E-02
        -0.79796E-02
        -0.79796E-02
        -0.79796E-02
        -0.79796E-02
        -0.79796E-02
        -0.79796E-02
        -0.79796E-02
        -0.79796E-02
        -0.79796E-02
        -0.79796E-02
        -0.79796E-02
        -0.79796E-02
        -0.79796E-02
        -0.79796E-02
        -0.79796E-02
        -0.79796E-02
        -0.79796E-02
        -0.79796E-02
        -0.79796E-02
        -0.79796E-02
  
SCALARS                     velocity_x  double 1
LOOKUP_TABLE default
         0.00000E+00
         0.00000E+00
         0.00000E+00
         0.00000E+00
         0.00000E+00
         0.00000E+00
         0.00000E+00
         0.00000E+00
         0.00000E+00
         0.00000E+00
         0.00000E+00
         0.00000E+00
         0.00000E+00
         0.00000E+00
         0.00000E+00
         0.00000E+00
         0.00000E+00
         0.00000E+00
         0.00000E+00
         0.00000E+00
         0.00000E+00
         0.00000E+00
         0.00000E+00
         0.00000E+00
         0.00000E+00
         0.00000E+00
         0.00000E+00
         0.00000E+00
         0.00000E+00
         0.00000E+00
         0.00000E+00
         0.00000E+00
         0.00000E+00
         0.00000E+00
         0.00000E+00
         0.00000E+00
         0.00000E+00
         0.00000E+00
         0.00000E+00
         0.00000E+00
         0.00000E+00
         0.00000E+00
         0.00000E+00
         0.00000E+00
         0.00000E+00
         0.00000E+00
         0.00000E+00
         0.00000E+00
         0.00000E+00
         0.00000E+00
         0.00000E+00
         0.00000E+00
         0.00000E+00
         0.00000E+00
         0.00000E+00
         0.00000E+00
         0.00000E+00
         0.00000E+00
         0.00000E+00
         0.00000E+00
         0.00000E+00
         0.00000E+00
         0.00000E+00
         0.00000E+00
         0.00000E+00
         0.00000E+00
         0.00000E+00
         0.00000E+00
         0.00000E+00
         0.00000E+00
         0.00000E+00
         0.00000E+00
         0.00000E+00
         0.00000E+00
         0.00000E+00
         0.00000E+00
         0.00000E+00
         0.00000E+00
         0.00000E+00
         0.00000E+00
         0.00000E+00
         0.00000E+00
         0.00000E+00
         0.00000E+00
         0.00000E+00
         0.00000E+00
         0.00000E+00
         0.00000E+00
         0.00000E+00
         0.00000E+00
         0.00000E+00
         0.00000E+00
         0.00000E+00
         0.00000E+00
         0.00000E+00
         0.00000E+00
         0.00000E+00
         0.00000E+00
         0.00000E+00
         0.00000E+00
         0.00000E+00
         0.00000E+00
         0.00000E+00
         0.00000E+00
         0.00000E+00
         0.00000E+00
         0.00000E+00
         0.00000E+00
         0.00000E+00
         0.00000E+00
         0.00000E+00
         0.00000E+00
         0.00000E+00
         0.00000E+00
         0.00000E+00
         0.00000E+00
         0.00000E+00
         0.00000E+00
         0.00000E+00
         0.00000E+00
         0.00000E+00
         0.00000E+00
         0.00000E+00
         0.00000E+00
         0.00000E+00
         0.00000E+00
         0.00000E+00
         0.00000E+00
         0.00000E+00
         0.00000E+00
         0.00000E+00
         0.00000E+00
         0.00000E+00
         0.00000E+00
         0.00000E+00
         0.00000E+00
         0.00000E+00
         0.00000E+00
         0.00000E+00
         0.00000E+00
         0.00000E+00
         0.00000E+00
         0.00000E+00
         0.00000E+00
         0.00000E+00
         0.00000E+00
         0.00000E+00
         0.00000E+00
         0.00000E+00
         0.00000E+00
         0.00000E+00
         0.00000E+00
         0.00000E+00
         0.00000E+00
         0.00000E+00
         0.00000E+00
         0.00000E+00
         0.00000E+00
         0.00000E+00
         0.00000E+00
         0.00000E+00
         0.00000E+00
         0.00000E+00
         0.00000E+00
         0.00000E+00
         0.00000E+00
         0.00000E+00
         0.00000E+00
         0.00000E+00
         0.00000E+00
         0.00000E+00
         0.00000E+00
         0.00000E+00
         0.00000E+00
         0.00000E+00
         0.00000E+00
         0.00000E+00
         0.00000E+00
         0.00000E+00
         0.00000E+00
         0.00000E+00
         0.00000E+00
         0.00000E+00
         0.00000E+00
         0.00000E+00
         0.00000E+00
         0.00000E+00
         0.00000E+00
         0.00000E+00
         0.00000E+00
         0.00000E+00
         0.00000E+00
         0.00000E+00
         0.00000E+00
         0.00000E+00
         0.00000E+00
         0.00000E+00
         0.00000E+00
         0.00000E+00
         0.00000E+00
         0.00000E+00
         0.00000E+00
         0.00000E+00
         0.00000E+00
         0.00000E+00
         0.00000E+00
         0.00000E+00
         0.00000E+00
         0.00000E+00
         0.00000E+00
         0.00000E+00
         0.00000E+00
         0.00000E+00
         0.00000E+00
         0.00000E+00
         0.00000E+00
         0.00000E+00
         0.00000E+00
         0.00000E+00
         0.00000E+00
         0.00000E+00
         0.00000E+00
         0.00000E+00
         0.00000E+00
         0.00000E+00
         0.00000E+00
         0.00000E+00
         0.00000E+00
         0.00000E+00
         0.00000E+00
         0.00000E+00
         0.00000E+00
         0.00000E+00
         0.00000E+00
         0.00000E+00
         0.00000E+00
         0.00000E+00
         0.00000E+00
         0.00000E+00
         0.00000E+00
         0.00000E+00
         0.00000E+00
         0.00000E+00
         0.00000E+00
         0.00000E+00
         0.00000E+00
         0.00000E+00
         0.00000E+00
         0.00000E+00
         0.00000E+00
         0.00000E+00
         0.00000E+00
         0.00000E+00
         0.00000E+00
         0.00000E+00
         0.00000E+00
         0.00000E+00
         0.00000E+00
         0.00000E+00
         0.00000E+00
         0.00000E+00
         0.00000E+00
         0.00000E+00
         0.00000E+00
         0.00000E+00
         0.00000E+00
         0.00000E+00
         0.00000E+00
         0.00000E+00
         0.00000E+00
         0.00000E+00
         0.00000E+00
         0.00000E+00
         0.00000E+00
         0.00000E+00
         0.00000E+00
         0.00000E+00
         0.00000E+00
         0.00000E+00
         0.00000E+00
         0.00000E+00
         0.00000E+00
         0.00000E+00
         0.00000E+00
         0.00000E+00
         0.00000E+00
         0.00000E+00
         0.00000E+00
         0.00000E+00
         0.00000E+00
         0.00000E+00
         0.00000E+00
         0.00000E+00
         0.00000E+00
         0.00000E+00
         0.00000E+00
         0.00000E+00
         0.00000E+00
         0.00000E+00
         0.00000E+00
         0.00000E+00
         0.00000E+00
         0.00000E+00
         0.00000E+00
         0.00000E+00
         0.00000E+00
         0.00000E+00
         0.00000E+00
         0.00000E+00
         0.00000E+00
         0.00000E+00
         0.00000E+00
         0.00000E+00
         0.00000E+00
         0.00000E+00
         0.00000E+00
         0.00000E+00
         0.00000E+00
         0.00000E+00
         0.00000E+00
         0.00000E+00
         0.00000E+00
         0.00000E+00
         0.00000E+00
         0.00000E+00
         0.00000E+00
         0.00000E+00
         0.00000E+00
         0.00000E+00
         0.00000E+00
         0.00000E+00
         0.00000E+00
         0.00000E+00
         0.00000E+00
         0.00000E+00
         0.00000E+00
         0.00000E+00
         0.00000E+00
         0.00000E+00
         0.00000E+00
         0.00000E+00
         0.00000E+00
         0.00000E+00
         0.00000E+00
         0.00000E+00
         0.00000E+00
         0.00000E+00
         0.00000E+00
         0.00000E+00
         0.00000E+00
         0.00000E+00
         0.00000E+00
         0.00000E+00
         0.00000E+00
         0.00000E+00
         0.00000E+00
         0.00000E+00
         0.00000E+00
         0.00000E+00
         0.00000E+00
         0.00000E+00
         0.00000E+00
         0.00000E+00
         0.00000E+00
         0.00000E+00
         0.00000E+00
         0.00000E+00
         0.00000E+00
         0.00000E+00
         0.00000E+00
         0.00000E+00
         0.00000E+00
         0.00000E+00
         0.00000E+00
         0.00000E+00
         0.00000E+00
         0.00000E+00
         0.00000E+00
         0.00000E+00
         0.00000E+00
         0.00000E+00
         0.00000E+00
         0.00000E+00
         0.00000E+00
         0.00000E+00
         0.00000E+00
         0.00000E+00
         0.00000E+00
         0.00000E+00
         0.00000E+00
         0.00000E+00
         0.00000E+00
         0.00000E+00
         0.00000E+00
         0.00000E+00
         0.00000E+00
         0.00000E+00
         0.00000E+00
         0.00000E+00
         0.00000E+00
         0.00000E+00
         0.00000E+00
         0.00000E+00
         0.00000E+00
         0.00000E+00
         0.00000E+00
         0.00000E+00
         0.00000E+00
         0.00000E+00
         0.00000E+00
         0.00000E+00
         0.00000E+00
         0.00000E+00
         0.00000E+00
         0.00000E+00
         0.00000E+00
         0.00000E+00
         0.00000E+00
         0.00000E+00
         0.00000E+00
         0.00000E+00
         0.00000E+00
         0.00000E+00
         0.00000E+00
         0.00000E+00
         0.00000E+00
         0.00000E+00
         0.00000E+00
         0.00000E+00
         0.00000E+00
         0.00000E+00
         0.00000E+00
         0.00000E+00
         0.00000E+00
         0.00000E+00
         0.00000E+00
         0.00000E+00
         0.00000E+00
         0.00000E+00
         0.00000E+00
         0.00000E+00
         0.00000E+00
         0.00000E+00
         0.00000E+00
         0.00000E+00
         0.00000E+00
         0.00000E+00
         0.00000E+00
         0.00000E+00
         0.00000E+00
         0.00000E+00
         0.00000E+00
         0.00000E+00
         0.00000E+00
         0.00000E+00
         0.00000E+00
         0.00000E+00
         0.00000E+00
         0.00000E+00
         0.00000E+00
         0.00000E+00
         0.00000E+00
         0.00000E+00
         0.00000E+00
         0.00000E+00
         0.00000E+00
         0.00000E+00
         0.00000E+00
         0.00000E+00
         0.00000E+00
         0.00000E+00
         0.00000E+00
         0.00000E+00
         0.00000E+00
         0.00000E+00
         0.00000E+00
         0.00000E+00
         0.00000E+00
         0.00000E+00
         0.00000E+00
         0.00000E+00
         0.00000E+00
         0.00000E+00
         0.00000E+00
         0.00000E+00
         0.00000E+00
         0.00000E+00
         0.00000E+00
         0.00000E+00
         0.00000E+00
         0.00000E+00
         0.00000E+00
         0.00000E+00
         0.00000E+00
         0.00000E+00
         0.00000E+00
         0.00000E+00
         0.00000E+00
         0.00000E+00
         0.00000E+00
         0.00000E+00
         0.00000E+00
         0.00000E+00
         0.00000E+00
         0.00000E+00
         0.00000E+00
         0.00000E+00
         0.00000E+00
         0.00000E+00
         0.00000E+00
         0.00000E+00
         0.00000E+00
         0.00000E+00
         0.00000E+00
         0.00000E+00
         0.00000E+00
         0.00000E+00
         0.00000E+00
         0.00000E+00
         0.00000E+00
         0.00000E+00
         0.00000E+00
         0.00000E+00
         0.00000E+00
         0.00000E+00
         0.00000E+00
         0.00000E+00
         0.00000E+00
         0.00000E+00
         0.00000E+00
         0.00000E+00
         0.00000E+00
         0.00000E+00
         0.00000E+00
         0.00000E+00
         0.00000E+00
         0.00000E+00
         0.00000E+00
         0.00000E+00
         0.00000E+00
         0.00000E+00
         0.00000E+00
         0.00000E+00
         0.00000E+00
         0.00000E+00
         0.00000E+00
         0.00000E+00
         0.00000E+00
         0.00000E+00
         0.00000E+00
         0.00000E+00
         0.00000E+00
         0.00000E+00
         0.00000E+00
         0.00000E+00
         0.00000E+00
         0.00000E+00
         0.00000E+00
         0.00000E+00
         0.00000E+00
         0.00000E+00
         0.00000E+00
         0.00000E+00
         0.00000E+00
         0.00000E+00
         0.00000E+00
         0.00000E+00
         0.00000E+00
         0.00000E+00
         0.00000E+00
         0.00000E+00
         0.00000E+00
         0.00000E+00
         0.00000E+00
         0.00000E+00
         0.00000E+00
         0.00000E+00
         0.00000E+00
         0.00000E+00
         0.00000E+00
         0.00000E+00
         0.00000E+00
         0.00000E+00
         0.00000E+00
         0.00000E+00
         0.00000E+00
         0.00000E+00
         0.00000E+00
         0.00000E+00
         0.00000E+00
         0.00000E+00
         0.00000E+00
         0.00000E+00
         0.00000E+00
         0.00000E+00
         0.00000E+00
         0.00000E+00
         0.00000E+00
         0.00000E+00
         0.00000E+00
         0.00000E+00
         0.00000E+00
         0.00000E+00
         0.00000E+00
         0.00000E+00
         0.00000E+00
         0.00000E+00
         0.00000E+00
         0.00000E+00
         0.00000E+00
         0.00000E+00
         0.00000E+00
         0.00000E+00
         0.00000E+00
         0.00000E+00
         0.00000E+00
         0.00000E+00
         0.00000E+00
         0.00000E+00
         0.00000E+00
         0.00000E+00
         0.00000E+00
         0.00000E+00
         0.00000E+00
         0.00000E+00
         0.00000E+00
         0.00000E+00
         0.00000E+00
         0.00000E+00
         0.00000E+00
         0.00000E+00
         0.00000E+00
         0.00000E+00
         0.00000E+00
         0.00000E+00
         0.00000E+00
         0.00000E+00
         0.00000E+00
         0.00000E+00
         0.00000E+00
         0.00000E+00
         0.00000E+00
         0.00000E+00
         0.00000E+00
         0.00000E+00
         0.00000E+00
         0.00000E+00
         0.00000E+00
         0.00000E+00
         0.00000E+00
         0.00000E+00
         0.00000E+00
         0.00000E+00
         0.00000E+00
         0.00000E+00
         0.00000E+00
         0.00000E+00
         0.00000E+00
         0.00000E+00
         0.00000E+00
         0.00000E+00
         0.00000E+00
         0.00000E+00
         0.00000E+00
         0.00000E+00
         0.00000E+00
         0.00000E+00
         0.00000E+00
         0.00000E+00
         0.00000E+00
         0.00000E+00
         0.00000E+00
         0.00000E+00
         0.00000E+00
         0.00000E+00
         0.00000E+00
         0.00000E+00
         0.00000E+00
         0.00000E+00
         0.00000E+00
         0.00000E+00
         0.00000E+00
         0.00000E+00
         0.00000E+00
         0.00000E+00
         0.00000E+00
         0.00000E+00
         0.00000E+00
         0.00000E+00
         0.00000E+00
         0.00000E+00
         0.00000E+00
         0.00000E+00
         0.00000E+00
         0.00000E+00
         0.00000E+00
         0.00000E+00
         0.00000E+00
         0.00000E+00
         0.00000E+00
         0.00000E+00
         0.00000E+00
         0.00000E+00
         0.00000E+00
         0.00000E+00
         0.00000E+00
         0.00000E+00
         0.00000E+00
         0.00000E+00
         0.00000E+00
         0.00000E+00
         0.00000E+00
         0.00000E+00
         0.00000E+00
         0.00000E+00
         0.00000E+00
         0.00000E+00
         0.00000E+00
         0.00000E+00
         0.00000E+00
         0.00000E+00
         0.00000E+00
         0.00000E+00
         0.00000E+00
         0.00000E+00
         0.00000E+00
         0.00000E+00
         0.00000E+00
         0.00000E+00
         0.00000E+00
         0.00000E+00
         0.00000E+00
         0.00000E+00
         0.00000E+00
         0.00000E+00
         0.00000E+00
         0.00000E+00
         0.00000E+00
         0.00000E+00
         0.00000E+00
         0.00000E+00
         0.00000E+00
         0.00000E+00
         0.00000E+00
         0.00000E+00
         0.00000E+00
         0.00000E+00
         0.00000E+00
         0.00000E+00
         0.00000E+00
         0.00000E+00
         0.00000E+00
         0.00000E+00
         0.00000E+00
         0.00000E+00
         0.00000E+00
         0.00000E+00
         0.00000E+00
         0.00000E+00
         0.00000E+00
         0.00000E+00
         0.00000E+00
         0.00000E+00
         0.00000E+00
         0.00000E+00
         0.00000E+00
         0.00000E+00
         0.00000E+00
         0.00000E+00
         0.00000E+00
         0.00000E+00
         0.00000E+00
         0.00000E+00
         0.00000E+00
         0.00000E+00
         0.00000E+00
         0.00000E+00
         0.00000E+00
         0.00000E+00
         0.00000E+00
         0.00000E+00
         0.00000E+00
         0.00000E+00
         0.00000E+00
         0.00000E+00
         0.00000E+00
         0.00000E+00
         0.00000E+00
         0.00000E+00
         0.00000E+00
         0.00000E+00
         0.00000E+00
         0.00000E+00
         0.00000E+00
         0.00000E+00
         0.00000E+00
         0.00000E+00
         0.00000E+00
         0.00000E+00
         0.00000E+00
         0.00000E+00
         0.00000E+00
         0.00000E+00
         0.00000E+00
         0.00000E+00
         0.00000E+00
         0.00000E+00
         0.00000E+00
         0.00000E+00
         0.00000E+00
         0.00000E+00
         0.00000E+00
         0.00000E+00
         0.00000E+00
         0.00000E+00
         0.00000E+00
         0.00000E+00
         0.00000E+00
         0.00000E+00
         0.00000E+00
         0.00000E+00
         0.00000E+00
         0.00000E+00
         0.00000E+00
         0.00000E+00
         0.00000E+00
         0.00000E+00
         0.00000E+00
         0.00000E+00
         0.00000E+00
         0.00000E+00
         0.00000E+00
         0.00000E+00
         0.00000E+00
         0.00000E+00
         0.00000E+00
         0.00000E+00
         0.00000E+00
         0.00000E+00
         0.00000E+00
         0.00000E+00
         0.00000E+00
         0.00000E+00
         0.00000E+00
         0.00000E+00
         0.00000E+00
         0.00000E+00
         0.00000E+00
         0.00000E+00
         0.00000E+00
         0.00000E+00
         0.00000E+00
         0.00000E+00
         0.00000E+00
         0.00000E+00
         0.00000E+00
         0.00000E+00
         0.00000E+00
         0.00000E+00
         0.00000E+00
         0.00000E+00
         0.00000E+00
         0.00000E+00
         0.00000E+00
         0.00000E+00
         0.00000E+00
         0.00000E+00
         0.00000E+00
         0.00000E+00
         0.00000E+00
         0.00000E+00
         0.00000E+00
         0.00000E+00
         0.00000E+00
         0.00000E+00
         0.00000E+00
         0.00000E+00
         0.00000E+00
         0.00000E+00
         0.00000E+00
         0.00000E+00
         0.00000E+00
         0.00000E+00
         0.00000E+00
         0.00000E+00
         0.00000E+00
         0.00000E+00
         0.00000E+00
         0.00000E+00
         0.00000E+00
         0.00000E+00
         0.00000E+00
         0.00000E+00
         0.00000E+00
         0.00000E+00
         0.00000E+00
         0.00000E+00
         0.00000E+00
         0.00000E+00
         0.00000E+00
         0.00000E+00
         0.00000E+00
         0.00000E+00
         0.00000E+00
         0.00000E+00
         0.00000E+00
         0.00000E+00
         0.00000E+00
         0.00000E+00
         0.00000E+00
         0.00000E+00
         0.00000E+00
         0.00000E+00
         0.00000E+00
         0.00000E+00
         0.00000E+00
         0.00000E+00
         0.00000E+00
         0.00000E+00
         0.00000E+00
         0.00000E+00
         0.00000E+00
         0.00000E+00
         0.00000E+00
         0.00000E+00
         0.00000E+00
         0.00000E+00
         0.00000E+00
         0.00000E+00
         0.00000E+00
         0.00000E+00
         0.00000E+00
         0.00000E+00
         0.00000E+00
         0.00000E+00
         0.00000E+00
         0.00000E+00
         0.00000E+00
         0.00000E+00
         0.00000E+00
         0.00000E+00
         0.00000E+00
         0.00000E+00
         0.00000E+00
         0.00000E+00
         0.00000E+00
         0.00000E+00
         0.00000E+00
         0.00000E+00
         0.00000E+00
         0.00000E+00
         0.00000E+00
         0.00000E+00
         0.00000E+00
         0.00000E+00
         0.00000E+00
         0.00000E+00
         0.00000E+00
         0.00000E+00
         0.00000E+00
         0.00000E+00
         0.00000E+00
         0.00000E+00
         0.00000E+00
         0.00000E+00
         0.00000E+00
         0.00000E+00
         0.00000E+00
         0.00000E+00
         0.00000E+00
         0.00000E+00
         0.00000E+00
         0.00000E+00
         0.00000E+00
         0.00000E+00
         0.00000E+00
         0.00000E+00
         0.00000E+00
         0.00000E+00
         0.00000E+00
         0.00000E+00
         0.00000E+00
         0.00000E+00
         0.00000E+00
         0.00000E+00
         0.00000E+00
         0.00000E+00
         0.00000E+00
         0.00000E+00
         0.00000E+00
         0.00000E+00
         0.00000E+00
         0.00000E+00
         0.00000E+00
         0.00000E+00
         0.00000E+00
         0.00000E+00
         0.00000E+00
         0.00000E+00
         0.00000E+00
         0.00000E+00
         0.00000E+00
         0.00000E+00
         0.00000E+00
         0.00000E+00
         0.00000E+00
         0.00000E+00
         0.00000E+00
         0.00000E+00
         0.00000E+00
         0.00000E+00
         0.00000E+00
         0.00000E+00
         0.00000E+00
         0.00000E+00
         0.00000E+00
         0.00000E+00
         0.00000E+00
         0.00000E+00
         0.00000E+00
         0.00000E+00
         0.00000E+00
         0.00000E+00
         0.00000E+00
         0.00000E+00
         0.00000E+00
         0.00000E+00
         0.00000E+00
         0.00000E+00
         0.00000E+00
         0.00000E+00
         0.00000E+00
         0.00000E+00
         0.00000E+00
         0.00000E+00
         0.00000E+00
         0.00000E+00
         0.00000E+00
         0.00000E+00
         0.00000E+00
         0.00000E+00
         0.00000E+00
         0.00000E+00
         0.00000E+00
         0.00000E+00
         0.00000E+00
         0.00000E+00
         0.00000E+00
         0.00000E+00
         0.00000E+00
         0.00000E+00
         0.00000E+00
         0.00000E+00
         0.00000E+00
         0.00000E+00
         0.00000E+00
         0.00000E+00
         0.00000E+00
         0.00000E+00
         0.00000E+00
         0.00000E+00
         0.00000E+00
         0.00000E+00
         0.00000E+00
         0.00000E+00
         0.00000E+00
         0.00000E+00
         0.00000E+00
         0.00000E+00
         0.00000E+00
         0.00000E+00
         0.00000E+00
         0.00000E+00
         0.00000E+00
         0.00000E+00
         0.00000E+00
         0.00000E+00
         0.00000E+00
         0.00000E+00
         0.00000E+00
         0.00000E+00
         0.00000E+00
         0.00000E+00
         0.00000E+00
         0.00000E+00
         0.00000E+00
         0.00000E+00
         0.00000E+00
         0.00000E+00
         0.00000E+00
         0.00000E+00
         0.00000E+00
         0.00000E+00
         0.00000E+00
         0.00000E+00
         0.00000E+00
         0.00000E+00
         0.00000E+00
         0.00000E+00
         0.00000E+00
         0.00000E+00
         0.00000E+00
         0.00000E+00
         0.00000E+00
         0.00000E+00
         0.00000E+00
         0.00000E+00
         0.00000E+00
         0.00000E+00
         0.00000E+00
         0.00000E+00
         0.00000E+00
         0.00000E+00
         0.00000E+00
         0.00000E+00
         0.00000E+00
         0.00000E+00
         0.00000E+00
         0.00000E+00
         0.00000E+00
         0.00000E+00
         0.00000E+00
         0.00000E+00
         0.00000E+00
         0.00000E+00
         0.00000E+00
         0.00000E+00
         0.00000E+00
         0.00000E+00
         0.00000E+00
         0.00000E+00
         0.00000E+00
         0.00000E+00
         0.00000E+00
         0.00000E+00
         0.00000E+00
         0.00000E+00
         0.00000E+00
         0.00000E+00
         0.00000E+00
         0.00000E+00
         0.00000E+00
         0.00000E+00
         0.00000E+00
         0.00000E+00
         0.00000E+00
         0.00000E+00
         0.00000E+00
         0.00000E+00
         0.00000E+00
         0.00000E+00
         0.00000E+00
         0.00000E+00
         0.00000E+00
         0.00000E+00
         0.00000E+00
         0.00000E+00
         0.00000E+00
         0.00000E+00
         0.00000E+00
         0.00000E+00
         0.00000E+00
         0.00000E+00
         0.00000E+00
         0.00000E+00
         0.00000E+00
         0.00000E+00
         0.00000E+00
         0.00000E+00
         0.00000E+00
         0.00000E+00
         0.00000E+00
         0.00000E+00
         0.00000E+00
         0.00000E+00
         0.00000E+00
         0.00000E+00
         0.00000E+00
         0.00000E+00
         0.00000E+00
         0.00000E+00
         0.00000E+00
         0.00000E+00
         0.00000E+00
         0.00000E+00
         0.00000E+00
         0.00000E+00
         0.00000E+00
         0.00000E+00
         0.00000E+00
         0.00000E+00
         0.00000E+00
         0.00000E+00
         0.00000E+00
         0.00000E+00
         0.00000E+00
         0.00000E+00
         0.00000E+00
         0.00000E+00
         0.00000E+00
         0.00000E+00
         0.00000E+00
         0.00000E+00
         0.00000E+00
         0.00000E+00
         0.00000E+00
         0.00000E+00
         0.00000E+00
         0.00000E+00
         0.00000E+00
         0.00000E+00
         0.00000E+00
         0.00000E+00
         0.00000E+00
         0.00000E+00
         0.00000E+00
         0.00000E+00
         0.00000E+00
         0.00000E+00
         0.00000E+00
         0.00000E+00
         0.00000E+00
         0.00000E+00
         0.00000E+00
         0.00000E+00
         0.00000E+00
         0.00000E+00
         0.00000E+00
         0.00000E+00
         0.00000E+00
         0.00000E+00
         0.00000E+00
         0.00000E+00
         0.00000E+00
         0.00000E+00
         0.00000E+00
         0.00000E+00
         0.00000E+00
         0.00000E+00
         0.00000E+00
         0.00000E+00
         0.00000E+00
         0.00000E+00
         0.00000E+00
         0.00000E+00
         0.00000E+00
         0.00000E+00
         0.00000E+00
         0.00000E+00
         0.00000E+00
         0.00000E+00
         0.00000E+00
         0.00000E+00
         0.00000E+00
         0.00000E+00
         0.00000E+00
         0.00000E+00
         0.00000E+00
         0.00000E+00
         0.00000E+00
         0.00000E+00
         0.00000E+00
         0.00000E+00
         0.00000E+00
         0.00000E+00
         0.00000E+00
         0.00000E+00
         0.00000E+00
         0.00000E+00
         0.00000E+00
         0.00000E+00
         0.00000E+00
         0.00000E+00
         0.00000E+00
         0.00000E+00
         0.00000E+00
         0.00000E+00
         0.00000E+00
         0.00000E+00
         0.00000E+00
         0.00000E+00
         0.00000E+00
         0.00000E+00
         0.00000E+00
         0.00000E+00
         0.00000E+00
         0.00000E+00
         0.00000E+00
         0.00000E+00
         0.00000E+00
         0.00000E+00
         0.00000E+00
         0.00000E+00
         0.00000E+00
         0.00000E+00
         0.00000E+00
         0.00000E+00
         0.00000E+00
         0.00000E+00
         0.00000E+00
         0.00000E+00
         0.00000E+00
         0.00000E+00
         0.00000E+00
         0.00000E+00
         0.00000E+00
         0.00000E+00
         0.00000E+00
         0.00000E+00
         0.00000E+00
         0.00000E+00
         0.00000E+00
         0.00000E+00
         0.00000E+00
         0.00000E+00
         0.00000E+00
         0.00000E+00
         0.00000E+00
         0.00000E+00
         0.00000E+00
         0.00000E+00
         0.00000E+00
         0.00000E+00
         0.00000E+00
         0.00000E+00
         0.00000E+00
         0.00000E+00
         0.00000E+00
         0.00000E+00
         0.00000E+00
         0.00000E+00
         0.00000E+00
         0.00000E+00
         0.00000E+00
         0.00000E+00
         0.00000E+00
         0.00000E+00
         0.00000E+00
         0.00000E+00
         0.00000E+00
         0.00000E+00
         0.00000E+00
         0.00000E+00
         0.00000E+00
         0.00000E+00
         0.00000E+00
         0.00000E+00
         0.00000E+00
         0.00000E+00
         0.00000E+00
         0.00000E+00
         0.00000E+00
         0.00000E+00
         0.00000E+00
         0.00000E+00
         0.00000E+00
         0.00000E+00
         0.00000E+00
         0.00000E+00
         0.00000E+00
         0.00000E+00
         0.00000E+00
         0.00000E+00
         0.00000E+00
         0.00000E+00
         0.00000E+00
         0.00000E+00
         0.00000E+00
         0.00000E+00
         0.00000E+00
         0.00000E+00
         0.00000E+00
         0.00000E+00
         0.00000E+00
         0.00000E+00
         0.00000E+00
         0.00000E+00
         0.00000E+00
         0.00000E+00
         0.00000E+00
         0.00000E+00
         0.00000E+00
         0.00000E+00
         0.00000E+00
         0.00000E+00
         0.00000E+00
         0.00000E+00
         0.00000E+00
         0.00000E+00
         0.00000E+00
         0.00000E+00
         0.00000E+00
         0.00000E+00
         0.00000E+00
         0.00000E+00
         0.00000E+00
         0.00000E+00
         0.00000E+00
         0.00000E+00
         0.00000E+00
         0.00000E+00
         0.00000E+00
         0.00000E+00
         0.00000E+00
         0.00000E+00
         0.00000E+00
         0.00000E+00
         0.00000E+00
         0.00000E+00
         0.00000E+00
         0.00000E+00
         0.00000E+00
         0.00000E+00
         0.00000E+00
         0.00000E+00
         0.00000E+00
         0.00000E+00
         0.00000E+00
         0.00000E+00
         0.00000E+00
         0.00000E+00
         0.00000E+00
         0.00000E+00
         0.00000E+00
         0.00000E+00
         0.00000E+00
         0.00000E+00
         0.00000E+00
         0.00000E+00
         0.00000E+00
         0.00000E+00
         0.00000E+00
         0.00000E+00
         0.00000E+00
         0.00000E+00
         0.00000E+00
         0.00000E+00
         0.00000E+00
         0.00000E+00
         0.00000E+00
         0.00000E+00
         0.00000E+00
         0.00000E+00
         0.00000E+00
         0.00000E+00
         0.00000E+00
         0.00000E+00
         0.00000E+00
         0.00000E+00
         0.00000E+00
         0.00000E+00
         0.00000E+00
         0.00000E+00
         0.00000E+00
         0.00000E+00
         0.00000E+00
         0.00000E+00
         0.00000E+00
         0.00000E+00
         0.00000E+00
         0.00000E+00
         0.00000E+00
         0.00000E+00
         0.00000E+00
         0.00000E+00
         0.00000E+00
         0.00000E+00
         0.00000E+00
         0.00000E+00
         0.00000E+00
         0.00000E+00
         0.00000E+00
         0.00000E+00
         0.00000E+00
         0.00000E+00
         0.00000E+00
         0.00000E+00
         0.00000E+00
         0.00000E+00
         0.00000E+00
         0.00000E+00
         0.00000E+00
         0.00000E+00
         0.00000E+00
         0.00000E+00
         0.00000E+00
         0.00000E+00
         0.00000E+00
         0.00000E+00
         0.00000E+00
         0.00000E+00
         0.00000E+00
         0.00000E+00
         0.00000E+00
         0.00000E+00
         0.00000E+00
         0.00000E+00
         0.00000E+00
         0.00000E+00
         0.00000E+00
         0.00000E+00
         0.00000E+00
         0.00000E+00
         0.00000E+00
         0.00000E+00
         0.00000E+00
         0.00000E+00
         0.00000E+00
         0.00000E+00
         0.00000E+00
         0.00000E+00
         0.00000E+00
         0.00000E+00
         0.00000E+00
         0.00000E+00
         0.00000E+00
         0.00000E+00
         0.00000E+00
         0.00000E+00
         0.00000E+00
         0.00000E+00
         0.00000E+00
         0.00000E+00
         0.00000E+00
         0.00000E+00
         0.00000E+00
         0.00000E+00
         0.00000E+00
         0.00000E+00
         0.00000E+00
         0.00000E+00
         0.00000E+00
         0.00000E+00
         0.00000E+00
         0.00000E+00
         0.00000E+00
         0.00000E+00
         0.00000E+00
         0.00000E+00
         0.00000E+00
         0.00000E+00
         0.00000E+00
         0.00000E+00
         0.00000E+00
         0.00000E+00
         0.00000E+00
         0.00000E+00
         0.00000E+00
         0.00000E+00
         0.00000E+00
         0.00000E+00
         0.00000E+00
         0.00000E+00
         0.00000E+00
         0.00000E+00
         0.00000E+00
         0.00000E+00
         0.00000E+00
         0.00000E+00
         0.00000E+00
         0.00000E+00
         0.00000E+00
         0.00000E+00
         0.00000E+00
         0.00000E+00
         0.00000E+00
         0.00000E+00
         0.00000E+00
         0.00000E+00
         0.00000E+00
         0.00000E+00
         0.00000E+00
         0.00000E+00
         0.00000E+00
         0.00000E+00
         0.00000E+00
         0.00000E+00
         0.00000E+00
         0.00000E+00
         0.00000E+00
         0.00000E+00
         0.00000E+00
         0.00000E+00
         0.00000E+00
         0.00000E+00
         0.00000E+00
         0.00000E+00
         0.00000E+00
         0.00000E+00
         0.00000E+00
         0.00000E+00
         0.00000E+00
         0.00000E+00
         0.00000E+00
         0.00000E+00
         0.00000E+00
         0.00000E+00
         0.00000E+00
         0.00000E+00
         0.00000E+00
         0.00000E+00
         0.00000E+00
         0.00000E+00
         0.00000E+00
         0.00000E+00
         0.00000E+00
         0.00000E+00
         0.00000E+00
         0.00000E+00
         0.00000E+00
         0.00000E+00
         0.00000E+00
         0.00000E+00
         0.00000E+00
         0.00000E+00
         0.00000E+00
         0.00000E+00
         0.00000E+00
         0.00000E+00
         0.00000E+00
         0.00000E+00
         0.00000E+00
         0.00000E+00
         0.00000E+00
         0.00000E+00
         0.00000E+00
         0.00000E+00
         0.00000E+00
         0.00000E+00
         0.00000E+00
         0.00000E+00
         0.00000E+00
         0.00000E+00
         0.00000E+00
         0.00000E+00
         0.00000E+00
         0.00000E+00
         0.00000E+00
         0.00000E+00
         0.00000E+00
         0.00000E+00
         0.00000E+00
         0.00000E+00
         0.00000E+00
         0.00000E+00
         0.00000E+00
         0.00000E+00
         0.00000E+00
         0.00000E+00
         0.00000E+00
         0.00000E+00
         0.00000E+00
         0.00000E+00
         0.00000E+00
         0.00000E+00
         0.00000E+00
         0.00000E+00
         0.00000E+00
         0.00000E+00
         0.00000E+00
         0.00000E+00
         0.00000E+00
         0.00000E+00
         0.00000E+00
         0.00000E+00
         0.00000E+00
         0.00000E+00
         0.00000E+00
         0.00000E+00
         0.00000E+00
         0.00000E+00
         0.00000E+00
         0.00000E+00
         0.00000E+00
         0.00000E+00
         0.00000E+00
         0.00000E+00
         0.00000E+00
         0.00000E+00
         0.00000E+00
         0.00000E+00
         0.00000E+00
         0.00000E+00
         0.00000E+00
         0.00000E+00
         0.00000E+00
         0.00000E+00
         0.00000E+00
         0.00000E+00
         0.00000E+00
         0.00000E+00
         0.00000E+00
         0.00000E+00
         0.00000E+00
         0.00000E+00
         0.00000E+00
         0.00000E+00
         0.00000E+00
         0.00000E+00
         0.00000E+00
         0.00000E+00
         0.00000E+00
         0.00000E+00
         0.00000E+00
         0.00000E+00
         0.00000E+00
         0.00000E+00
         0.00000E+00
         0.00000E+00
         0.00000E+00
         0.00000E+00
         0.00000E+00
         0.00000E+00
         0.00000E+00
         0.00000E+00
         0.00000E+00
         0.00000E+00
         0.00000E+00
         0.00000E+00
         0.00000E+00
         0.00000E+00
         0.00000E+00
         0.00000E+00
         0.00000E+00
         0.00000E+00
         0.00000E+00
         0.00000E+00
         0.00000E+00
         0.00000E+00
         0.00000E+00
         0.00000E+00
         0.00000E+00
         0.00000E+00
         0.00000E+00
         0.00000E+00
         0.00000E+00
         0.00000E+00
         0.00000E+00
         0.00000E+00
         0.00000E+00
         0.00000E+00
         0.00000E+00
         0.00000E+00
         0.00000E+00
         0.00000E+00
         0.00000E+00
         0.00000E+00
         0.00000E+00
         0.00000E+00
         0.00000E+00
         0.00000E+00
         0.00000E+00
         0.00000E+00
         0.00000E+00
         0.00000E+00
         0.00000E+00
         0.00000E+00
         0.00000E+00
         0.00000E+00
         0.00000E+00
         0.00000E+00
         0.00000E+00
         0.00000E+00
         0.00000E+00
         0.00000E+00
         0.00000E+00
         0.00000E+00
         0.00000E+00
         0.00000E+00
         0.00000E+00
         0.00000E+00
         0.00000E+00
         0.00000E+00
         0.00000E+00
         0.00000E+00
         0.00000E+00
         0.00000E+00
         0.00000E+00
         0.00000E+00
         0.00000E+00
         0.00000E+00
         0.00000E+00
         0.00000E+00
         0.00000E+00
         0.00000E+00
         0.00000E+00
         0.00000E+00
         0.00000E+00
         0.00000E+00
         0.00000E+00
         0.00000E+00
         0.00000E+00
         0.00000E+00
         0.00000E+00
         0.00000E+00
         0.00000E+00
         0.00000E+00
         0.00000E+00
         0.00000E+00
         0.00000E+00
         0.00000E+00
         0.00000E+00
         0.00000E+00
         0.00000E+00
         0.00000E+00
         0.00000E+00
         0.00000E+00
         0.00000E+00
         0.00000E+00
         0.00000E+00
         0.00000E+00
         0.00000E+00
         0.00000E+00
         0.00000E+00
         0.00000E+00
         0.00000E+00
         0.00000E+00
         0.00000E+00
         0.00000E+00
         0.00000E+00
         0.00000E+00
         0.00000E+00
         0.00000E+00
         0.00000E+00
         0.00000E+00
         0.00000E+00
         0.00000E+00
         0.00000E+00
         0.00000E+00
         0.00000E+00
         0.00000E+00
         0.00000E+00
         0.00000E+00
         0.00000E+00
         0.00000E+00
         0.00000E+00
         0.00000E+00
         0.00000E+00
         0.00000E+00
         0.00000E+00
         0.00000E+00
         0.00000E+00
         0.00000E+00
         0.00000E+00
         0.00000E+00
         0.00000E+00
         0.00000E+00
         0.00000E+00
         0.00000E+00
         0.00000E+00
         0.00000E+00
         0.00000E+00
         0.00000E+00
         0.00000E+00
         0.00000E+00
         0.00000E+00
         0.00000E+00
         0.00000E+00
         0.00000E+00
         0.00000E+00
         0.00000E+00
         0.00000E+00
         0.00000E+00
         0.00000E+00
         0.00000E+00
         0.00000E+00
         0.00000E+00
         0.00000E+00
         0.00000E+00
         0.00000E+00
         0.00000E+00
         0.00000E+00
         0.00000E+00
         0.00000E+00
         0.00000E+00
         0.00000E+00
         0.00000E+00
         0.00000E+00
         0.00000E+00
         0.00000E+00
         0.00000E+00
         0.00000E+00
         0.00000E+00
         0.00000E+00
         0.00000E+00
         0.00000E+00
         0.00000E+00
         0.00000E+00
         0.00000E+00
         0.00000E+00
         0.00000E+00
         0.00000E+00
         0.00000E+00
         0.00000E+00
         0.00000E+00
         0.00000E+00
         0.00000E+00
         0.00000E+00
         0.00000E+00
         0.00000E+00
         0.00000E+00
         0.00000E+00
         0.00000E+00
         0.00000E+00
         0.00000E+00
         0.00000E+00
         0.00000E+00
         0.00000E+00
         0.00000E+00
         0.00000E+00
         0.00000E+00
         0.00000E+00
         0.00000E+00
         0.00000E+00
         0.00000E+00
         0.00000E+00
         0.00000E+00
         0.00000E+00
         0.00000E+00
         0.00000E+00
         0.00000E+00
         0.00000E+00
         0.00000E+00
         0.00000E+00
         0.00000E+00
         0.00000E+00
         0.00000E+00
         0.00000E+00
         0.00000E+00
         0.00000E+00
         0.00000E+00
         0.00000E+00
         0.00000E+00
         0.00000E+00
         0.00000E+00
         0.00000E+00
         0.00000E+00
         0.00000E+00
         0.00000E+00
         0.00000E+00
         0.00000E+00
         0.00000E+00
         0.00000E+00
         0.00000E+00
         0.00000E+00
         0.00000E+00
         0.00000E+00
         0.00000E+00
         0.00000E+00
         0.00000E+00
  
SCALARS                     velocity_y  double 1
LOOKUP_TABLE default
         0.00000E+00
         0.00000E+00
         0.00000E+00
         0.00000E+00
         0.00000E+00
         0.00000E+00
         0.00000E+00
         0.00000E+00
         0.00000E+00
         0.00000E+00
         0.00000E+00
         0.00000E+00
         0.00000E+00
         0.00000E+00
         0.00000E+00
         0.00000E+00
         0.00000E+00
         0.00000E+00
         0.00000E+00
         0.00000E+00
         0.00000E+00
         0.00000E+00
         0.00000E+00
         0.00000E+00
         0.00000E+00
         0.00000E+00
         0.00000E+00
         0.00000E+00
         0.00000E+00
         0.00000E+00
         0.00000E+00
         0.00000E+00
         0.00000E+00
         0.00000E+00
         0.00000E+00
         0.00000E+00
         0.00000E+00
         0.00000E+00
         0.00000E+00
         0.00000E+00
         0.00000E+00
         0.00000E+00
         0.00000E+00
         0.00000E+00
         0.00000E+00
         0.00000E+00
         0.00000E+00
         0.00000E+00
         0.00000E+00
         0.00000E+00
         0.00000E+00
         0.00000E+00
         0.00000E+00
         0.00000E+00
         0.00000E+00
         0.00000E+00
         0.00000E+00
         0.00000E+00
         0.00000E+00
         0.00000E+00
         0.00000E+00
         0.00000E+00
         0.00000E+00
         0.00000E+00
         0.00000E+00
         0.00000E+00
         0.00000E+00
         0.00000E+00
         0.00000E+00
         0.00000E+00
         0.00000E+00
         0.00000E+00
         0.00000E+00
         0.00000E+00
         0.00000E+00
         0.00000E+00
         0.00000E+00
         0.00000E+00
         0.00000E+00
         0.00000E+00
         0.00000E+00
         0.00000E+00
         0.00000E+00
         0.00000E+00
         0.00000E+00
         0.00000E+00
         0.00000E+00
         0.00000E+00
         0.00000E+00
         0.00000E+00
         0.00000E+00
         0.00000E+00
         0.00000E+00
         0.00000E+00
         0.00000E+00
         0.00000E+00
         0.00000E+00
         0.00000E+00
         0.00000E+00
         0.00000E+00
         0.00000E+00
         0.00000E+00
         0.00000E+00
         0.00000E+00
         0.00000E+00
         0.00000E+00
         0.00000E+00
         0.00000E+00
         0.00000E+00
         0.00000E+00
         0.00000E+00
         0.00000E+00
         0.00000E+00
         0.00000E+00
         0.00000E+00
         0.00000E+00
         0.00000E+00
         0.00000E+00
         0.00000E+00
         0.00000E+00
         0.00000E+00
         0.00000E+00
         0.00000E+00
         0.00000E+00
         0.00000E+00
         0.00000E+00
         0.00000E+00
         0.00000E+00
         0.00000E+00
         0.00000E+00
         0.00000E+00
         0.00000E+00
         0.00000E+00
         0.00000E+00
         0.00000E+00
         0.00000E+00
         0.00000E+00
         0.00000E+00
         0.00000E+00
         0.00000E+00
         0.00000E+00
         0.00000E+00
         0.00000E+00
         0.00000E+00
         0.00000E+00
         0.00000E+00
         0.00000E+00
         0.00000E+00
         0.00000E+00
         0.00000E+00
         0.00000E+00
         0.00000E+00
         0.00000E+00
         0.00000E+00
         0.00000E+00
         0.00000E+00
         0.00000E+00
         0.00000E+00
         0.00000E+00
         0.00000E+00
         0.00000E+00
         0.00000E+00
         0.00000E+00
         0.00000E+00
         0.00000E+00
         0.00000E+00
         0.00000E+00
         0.00000E+00
         0.00000E+00
         0.00000E+00
         0.00000E+00
         0.00000E+00
         0.00000E+00
         0.00000E+00
         0.00000E+00
         0.00000E+00
         0.00000E+00
         0.00000E+00
         0.00000E+00
         0.00000E+00
         0.00000E+00
         0.00000E+00
         0.00000E+00
         0.00000E+00
         0.00000E+00
         0.00000E+00
         0.00000E+00
         0.00000E+00
         0.00000E+00
         0.00000E+00
         0.00000E+00
         0.00000E+00
         0.00000E+00
         0.00000E+00
         0.00000E+00
         0.00000E+00
         0.00000E+00
         0.00000E+00
         0.00000E+00
         0.00000E+00
         0.00000E+00
         0.00000E+00
         0.00000E+00
         0.00000E+00
         0.00000E+00
         0.00000E+00
         0.00000E+00
         0.00000E+00
         0.00000E+00
         0.00000E+00
         0.00000E+00
         0.00000E+00
         0.00000E+00
         0.00000E+00
         0.00000E+00
         0.00000E+00
         0.00000E+00
         0.00000E+00
         0.00000E+00
         0.00000E+00
         0.00000E+00
         0.00000E+00
         0.00000E+00
         0.00000E+00
         0.00000E+00
         0.00000E+00
         0.00000E+00
         0.00000E+00
         0.00000E+00
         0.00000E+00
         0.00000E+00
         0.00000E+00
         0.00000E+00
         0.00000E+00
         0.00000E+00
         0.00000E+00
         0.00000E+00
         0.00000E+00
         0.00000E+00
         0.00000E+00
         0.00000E+00
         0.00000E+00
         0.00000E+00
         0.00000E+00
         0.00000E+00
         0.00000E+00
         0.00000E+00
         0.00000E+00
         0.00000E+00
         0.00000E+00
         0.00000E+00
         0.00000E+00
         0.00000E+00
         0.00000E+00
         0.00000E+00
         0.00000E+00
         0.00000E+00
         0.00000E+00
         0.00000E+00
         0.00000E+00
         0.00000E+00
         0.00000E+00
         0.00000E+00
         0.00000E+00
         0.00000E+00
         0.00000E+00
         0.00000E+00
         0.00000E+00
         0.00000E+00
         0.00000E+00
         0.00000E+00
         0.00000E+00
         0.00000E+00
         0.00000E+00
         0.00000E+00
         0.00000E+00
         0.00000E+00
         0.00000E+00
         0.00000E+00
         0.00000E+00
         0.00000E+00
         0.00000E+00
         0.00000E+00
         0.00000E+00
         0.00000E+00
         0.00000E+00
         0.00000E+00
         0.00000E+00
         0.00000E+00
         0.00000E+00
         0.00000E+00
         0.00000E+00
         0.00000E+00
         0.00000E+00
         0.00000E+00
         0.00000E+00
         0.00000E+00
         0.00000E+00
         0.00000E+00
         0.00000E+00
         0.00000E+00
         0.00000E+00
         0.00000E+00
         0.00000E+00
         0.00000E+00
         0.00000E+00
         0.00000E+00
         0.00000E+00
         0.00000E+00
         0.00000E+00
         0.00000E+00
         0.00000E+00
         0.00000E+00
         0.00000E+00
         0.00000E+00
         0.00000E+00
         0.00000E+00
         0.00000E+00
         0.00000E+00
         0.00000E+00
         0.00000E+00
         0.00000E+00
         0.00000E+00
         0.00000E+00
         0.00000E+00
         0.00000E+00
         0.00000E+00
         0.00000E+00
         0.00000E+00
         0.00000E+00
         0.00000E+00
         0.00000E+00
         0.00000E+00
         0.00000E+00
         0.00000E+00
         0.00000E+00
         0.00000E+00
         0.00000E+00
         0.00000E+00
         0.00000E+00
         0.00000E+00
         0.00000E+00
         0.00000E+00
         0.00000E+00
         0.00000E+00
         0.00000E+00
         0.00000E+00
         0.00000E+00
         0.00000E+00
         0.00000E+00
         0.00000E+00
         0.00000E+00
         0.00000E+00
         0.00000E+00
         0.00000E+00
         0.00000E+00
         0.00000E+00
         0.00000E+00
         0.00000E+00
         0.00000E+00
         0.00000E+00
         0.00000E+00
         0.00000E+00
         0.00000E+00
         0.00000E+00
         0.00000E+00
         0.00000E+00
         0.00000E+00
         0.00000E+00
         0.00000E+00
         0.00000E+00
         0.00000E+00
         0.00000E+00
         0.00000E+00
         0.00000E+00
         0.00000E+00
         0.00000E+00
         0.00000E+00
         0.00000E+00
         0.00000E+00
         0.00000E+00
         0.00000E+00
         0.00000E+00
         0.00000E+00
         0.00000E+00
         0.00000E+00
         0.00000E+00
         0.00000E+00
         0.00000E+00
         0.00000E+00
         0.00000E+00
         0.00000E+00
         0.00000E+00
         0.00000E+00
         0.00000E+00
         0.00000E+00
         0.00000E+00
         0.00000E+00
         0.00000E+00
         0.00000E+00
         0.00000E+00
         0.00000E+00
         0.00000E+00
         0.00000E+00
         0.00000E+00
         0.00000E+00
         0.00000E+00
         0.00000E+00
         0.00000E+00
         0.00000E+00
         0.00000E+00
         0.00000E+00
         0.00000E+00
         0.00000E+00
         0.00000E+00
         0.00000E+00
         0.00000E+00
         0.00000E+00
         0.00000E+00
         0.00000E+00
         0.00000E+00
         0.00000E+00
         0.00000E+00
         0.00000E+00
         0.00000E+00
         0.00000E+00
         0.00000E+00
         0.00000E+00
         0.00000E+00
         0.00000E+00
         0.00000E+00
         0.00000E+00
         0.00000E+00
         0.00000E+00
         0.00000E+00
         0.00000E+00
         0.00000E+00
         0.00000E+00
         0.00000E+00
         0.00000E+00
         0.00000E+00
         0.00000E+00
         0.00000E+00
         0.00000E+00
         0.00000E+00
         0.00000E+00
         0.00000E+00
         0.00000E+00
         0.00000E+00
         0.00000E+00
         0.00000E+00
         0.00000E+00
         0.00000E+00
         0.00000E+00
         0.00000E+00
         0.00000E+00
         0.00000E+00
         0.00000E+00
         0.00000E+00
         0.00000E+00
         0.00000E+00
         0.00000E+00
         0.00000E+00
         0.00000E+00
         0.00000E+00
         0.00000E+00
         0.00000E+00
         0.00000E+00
         0.00000E+00
         0.00000E+00
         0.00000E+00
         0.00000E+00
         0.00000E+00
         0.00000E+00
         0.00000E+00
         0.00000E+00
         0.00000E+00
         0.00000E+00
         0.00000E+00
         0.00000E+00
         0.00000E+00
         0.00000E+00
         0.00000E+00
         0.00000E+00
         0.00000E+00
         0.00000E+00
         0.00000E+00
         0.00000E+00
         0.00000E+00
         0.00000E+00
         0.00000E+00
         0.00000E+00
         0.00000E+00
         0.00000E+00
         0.00000E+00
         0.00000E+00
         0.00000E+00
         0.00000E+00
         0.00000E+00
         0.00000E+00
         0.00000E+00
         0.00000E+00
         0.00000E+00
         0.00000E+00
         0.00000E+00
         0.00000E+00
         0.00000E+00
         0.00000E+00
         0.00000E+00
         0.00000E+00
         0.00000E+00
         0.00000E+00
         0.00000E+00
         0.00000E+00
         0.00000E+00
         0.00000E+00
         0.00000E+00
         0.00000E+00
         0.00000E+00
         0.00000E+00
         0.00000E+00
         0.00000E+00
         0.00000E+00
         0.00000E+00
         0.00000E+00
         0.00000E+00
         0.00000E+00
         0.00000E+00
         0.00000E+00
         0.00000E+00
         0.00000E+00
         0.00000E+00
         0.00000E+00
         0.00000E+00
         0.00000E+00
         0.00000E+00
         0.00000E+00
         0.00000E+00
         0.00000E+00
         0.00000E+00
         0.00000E+00
         0.00000E+00
         0.00000E+00
         0.00000E+00
         0.00000E+00
         0.00000E+00
         0.00000E+00
         0.00000E+00
         0.00000E+00
         0.00000E+00
         0.00000E+00
         0.00000E+00
         0.00000E+00
         0.00000E+00
         0.00000E+00
         0.00000E+00
         0.00000E+00
         0.00000E+00
         0.00000E+00
         0.00000E+00
         0.00000E+00
         0.00000E+00
         0.00000E+00
         0.00000E+00
         0.00000E+00
         0.00000E+00
         0.00000E+00
         0.00000E+00
         0.00000E+00
         0.00000E+00
         0.00000E+00
         0.00000E+00
         0.00000E+00
         0.00000E+00
         0.00000E+00
         0.00000E+00
         0.00000E+00
         0.00000E+00
         0.00000E+00
         0.00000E+00
         0.00000E+00
         0.00000E+00
         0.00000E+00
         0.00000E+00
         0.00000E+00
         0.00000E+00
         0.00000E+00
         0.00000E+00
         0.00000E+00
         0.00000E+00
         0.00000E+00
         0.00000E+00
         0.00000E+00
         0.00000E+00
         0.00000E+00
         0.00000E+00
         0.00000E+00
         0.00000E+00
         0.00000E+00
         0.00000E+00
         0.00000E+00
         0.00000E+00
         0.00000E+00
         0.00000E+00
         0.00000E+00
         0.00000E+00
         0.00000E+00
         0.00000E+00
         0.00000E+00
         0.00000E+00
         0.00000E+00
         0.00000E+00
         0.00000E+00
         0.00000E+00
         0.00000E+00
         0.00000E+00
         0.00000E+00
         0.00000E+00
         0.00000E+00
         0.00000E+00
         0.00000E+00
         0.00000E+00
         0.00000E+00
         0.00000E+00
         0.00000E+00
         0.00000E+00
         0.00000E+00
         0.00000E+00
         0.00000E+00
         0.00000E+00
         0.00000E+00
         0.00000E+00
         0.00000E+00
         0.00000E+00
         0.00000E+00
         0.00000E+00
         0.00000E+00
         0.00000E+00
         0.00000E+00
         0.00000E+00
         0.00000E+00
         0.00000E+00
         0.00000E+00
         0.00000E+00
         0.00000E+00
         0.00000E+00
         0.00000E+00
         0.00000E+00
         0.00000E+00
         0.00000E+00
         0.00000E+00
         0.00000E+00
         0.00000E+00
         0.00000E+00
         0.00000E+00
         0.00000E+00
         0.00000E+00
         0.00000E+00
         0.00000E+00
         0.00000E+00
         0.00000E+00
         0.00000E+00
         0.00000E+00
         0.00000E+00
         0.00000E+00
         0.00000E+00
         0.00000E+00
         0.00000E+00
         0.00000E+00
         0.00000E+00
         0.00000E+00
         0.00000E+00
         0.00000E+00
         0.00000E+00
         0.00000E+00
         0.00000E+00
         0.00000E+00
         0.00000E+00
         0.00000E+00
         0.00000E+00
         0.00000E+00
         0.00000E+00
         0.00000E+00
         0.00000E+00
         0.00000E+00
         0.00000E+00
         0.00000E+00
         0.00000E+00
         0.00000E+00
         0.00000E+00
         0.00000E+00
         0.00000E+00
         0.00000E+00
         0.00000E+00
         0.00000E+00
         0.00000E+00
         0.00000E+00
         0.00000E+00
         0.00000E+00
         0.00000E+00
         0.00000E+00
         0.00000E+00
         0.00000E+00
         0.00000E+00
         0.00000E+00
         0.00000E+00
         0.00000E+00
         0.00000E+00
         0.00000E+00
         0.00000E+00
         0.00000E+00
         0.00000E+00
         0.00000E+00
         0.00000E+00
         0.00000E+00
         0.00000E+00
         0.00000E+00
         0.00000E+00
         0.00000E+00
         0.00000E+00
         0.00000E+00
         0.00000E+00
         0.00000E+00
         0.00000E+00
         0.00000E+00
         0.00000E+00
         0.00000E+00
         0.00000E+00
         0.00000E+00
         0.00000E+00
         0.00000E+00
         0.00000E+00
         0.00000E+00
         0.00000E+00
         0.00000E+00
         0.00000E+00
         0.00000E+00
         0.00000E+00
         0.00000E+00
         0.00000E+00
         0.00000E+00
         0.00000E+00
         0.00000E+00
         0.00000E+00
         0.00000E+00
         0.00000E+00
         0.00000E+00
         0.00000E+00
         0.00000E+00
         0.00000E+00
         0.00000E+00
         0.00000E+00
         0.00000E+00
         0.00000E+00
         0.00000E+00
         0.00000E+00
         0.00000E+00
         0.00000E+00
         0.00000E+00
         0.00000E+00
         0.00000E+00
         0.00000E+00
         0.00000E+00
         0.00000E+00
         0.00000E+00
         0.00000E+00
         0.00000E+00
         0.00000E+00
         0.00000E+00
         0.00000E+00
         0.00000E+00
         0.00000E+00
         0.00000E+00
         0.00000E+00
         0.00000E+00
         0.00000E+00
         0.00000E+00
         0.00000E+00
         0.00000E+00
         0.00000E+00
         0.00000E+00
         0.00000E+00
         0.00000E+00
         0.00000E+00
         0.00000E+00
         0.00000E+00
         0.00000E+00
         0.00000E+00
         0.00000E+00
         0.00000E+00
         0.00000E+00
         0.00000E+00
         0.00000E+00
         0.00000E+00
         0.00000E+00
         0.00000E+00
         0.00000E+00
         0.00000E+00
         0.00000E+00
         0.00000E+00
         0.00000E+00
         0.00000E+00
         0.00000E+00
         0.00000E+00
         0.00000E+00
         0.00000E+00
         0.00000E+00
         0.00000E+00
         0.00000E+00
         0.00000E+00
         0.00000E+00
         0.00000E+00
         0.00000E+00
         0.00000E+00
         0.00000E+00
         0.00000E+00
         0.00000E+00
         0.00000E+00
         0.00000E+00
         0.00000E+00
         0.00000E+00
         0.00000E+00
         0.00000E+00
         0.00000E+00
         0.00000E+00
         0.00000E+00
         0.00000E+00
         0.00000E+00
         0.00000E+00
         0.00000E+00
         0.00000E+00
         0.00000E+00
         0.00000E+00
         0.00000E+00
         0.00000E+00
         0.00000E+00
         0.00000E+00
         0.00000E+00
         0.00000E+00
         0.00000E+00
         0.00000E+00
         0.00000E+00
         0.00000E+00
         0.00000E+00
         0.00000E+00
         0.00000E+00
         0.00000E+00
         0.00000E+00
         0.00000E+00
         0.00000E+00
         0.00000E+00
         0.00000E+00
         0.00000E+00
         0.00000E+00
         0.00000E+00
         0.00000E+00
         0.00000E+00
         0.00000E+00
         0.00000E+00
         0.00000E+00
         0.00000E+00
         0.00000E+00
         0.00000E+00
         0.00000E+00
         0.00000E+00
         0.00000E+00
         0.00000E+00
         0.00000E+00
         0.00000E+00
         0.00000E+00
         0.00000E+00
         0.00000E+00
         0.00000E+00
         0.00000E+00
         0.00000E+00
         0.00000E+00
         0.00000E+00
         0.00000E+00
         0.00000E+00
         0.00000E+00
         0.00000E+00
         0.00000E+00
         0.00000E+00
         0.00000E+00
         0.00000E+00
         0.00000E+00
         0.00000E+00
         0.00000E+00
         0.00000E+00
         0.00000E+00
         0.00000E+00
         0.00000E+00
         0.00000E+00
         0.00000E+00
         0.00000E+00
         0.00000E+00
         0.00000E+00
         0.00000E+00
         0.00000E+00
         0.00000E+00
         0.00000E+00
         0.00000E+00
         0.00000E+00
         0.00000E+00
         0.00000E+00
         0.00000E+00
         0.00000E+00
         0.00000E+00
         0.00000E+00
         0.00000E+00
         0.00000E+00
         0.00000E+00
         0.00000E+00
         0.00000E+00
         0.00000E+00
         0.00000E+00
         0.00000E+00
         0.00000E+00
         0.00000E+00
         0.00000E+00
         0.00000E+00
         0.00000E+00
         0.00000E+00
         0.00000E+00
         0.00000E+00
         0.00000E+00
         0.00000E+00
         0.00000E+00
         0.00000E+00
         0.00000E+00
         0.00000E+00
         0.00000E+00
         0.00000E+00
         0.00000E+00
         0.00000E+00
         0.00000E+00
         0.00000E+00
         0.00000E+00
         0.00000E+00
         0.00000E+00
         0.00000E+00
         0.00000E+00
         0.00000E+00
         0.00000E+00
         0.00000E+00
         0.00000E+00
         0.00000E+00
         0.00000E+00
         0.00000E+00
         0.00000E+00
         0.00000E+00
         0.00000E+00
         0.00000E+00
         0.00000E+00
         0.00000E+00
         0.00000E+00
         0.00000E+00
         0.00000E+00
         0.00000E+00
         0.00000E+00
         0.00000E+00
         0.00000E+00
         0.00000E+00
         0.00000E+00
         0.00000E+00
         0.00000E+00
         0.00000E+00
         0.00000E+00
         0.00000E+00
         0.00000E+00
         0.00000E+00
         0.00000E+00
         0.00000E+00
         0.00000E+00
         0.00000E+00
         0.00000E+00
         0.00000E+00
         0.00000E+00
         0.00000E+00
         0.00000E+00
         0.00000E+00
         0.00000E+00
         0.00000E+00
         0.00000E+00
         0.00000E+00
         0.00000E+00
         0.00000E+00
         0.00000E+00
         0.00000E+00
         0.00000E+00
         0.00000E+00
         0.00000E+00
         0.00000E+00
         0.00000E+00
         0.00000E+00
         0.00000E+00
         0.00000E+00
         0.00000E+00
         0.00000E+00
         0.00000E+00
         0.00000E+00
         0.00000E+00
         0.00000E+00
         0.00000E+00
         0.00000E+00
         0.00000E+00
         0.00000E+00
         0.00000E+00
         0.00000E+00
         0.00000E+00
         0.00000E+00
         0.00000E+00
         0.00000E+00
         0.00000E+00
         0.00000E+00
         0.00000E+00
         0.00000E+00
         0.00000E+00
         0.00000E+00
         0.00000E+00
         0.00000E+00
         0.00000E+00
         0.00000E+00
         0.00000E+00
         0.00000E+00
         0.00000E+00
         0.00000E+00
         0.00000E+00
         0.00000E+00
         0.00000E+00
         0.00000E+00
         0.00000E+00
         0.00000E+00
         0.00000E+00
         0.00000E+00
         0.00000E+00
         0.00000E+00
         0.00000E+00
         0.00000E+00
         0.00000E+00
         0.00000E+00
         0.00000E+00
         0.00000E+00
         0.00000E+00
         0.00000E+00
         0.00000E+00
         0.00000E+00
         0.00000E+00
         0.00000E+00
         0.00000E+00
         0.00000E+00
         0.00000E+00
         0.00000E+00
         0.00000E+00
         0.00000E+00
         0.00000E+00
         0.00000E+00
         0.00000E+00
         0.00000E+00
         0.00000E+00
         0.00000E+00
         0.00000E+00
         0.00000E+00
         0.00000E+00
         0.00000E+00
         0.00000E+00
         0.00000E+00
         0.00000E+00
         0.00000E+00
         0.00000E+00
         0.00000E+00
         0.00000E+00
         0.00000E+00
         0.00000E+00
         0.00000E+00
         0.00000E+00
         0.00000E+00
         0.00000E+00
         0.00000E+00
         0.00000E+00
         0.00000E+00
         0.00000E+00
         0.00000E+00
         0.00000E+00
         0.00000E+00
         0.00000E+00
         0.00000E+00
         0.00000E+00
         0.00000E+00
         0.00000E+00
         0.00000E+00
         0.00000E+00
         0.00000E+00
         0.00000E+00
         0.00000E+00
         0.00000E+00
         0.00000E+00
         0.00000E+00
         0.00000E+00
         0.00000E+00
         0.00000E+00
         0.00000E+00
         0.00000E+00
         0.00000E+00
         0.00000E+00
         0.00000E+00
         0.00000E+00
         0.00000E+00
         0.00000E+00
         0.00000E+00
         0.00000E+00
         0.00000E+00
         0.00000E+00
         0.00000E+00
         0.00000E+00
         0.00000E+00
         0.00000E+00
         0.00000E+00
         0.00000E+00
         0.00000E+00
         0.00000E+00
         0.00000E+00
         0.00000E+00
         0.00000E+00
         0.00000E+00
         0.00000E+00
         0.00000E+00
         0.00000E+00
         0.00000E+00
         0.00000E+00
         0.00000E+00
         0.00000E+00
         0.00000E+00
         0.00000E+00
         0.00000E+00
         0.00000E+00
         0.00000E+00
         0.00000E+00
         0.00000E+00
         0.00000E+00
         0.00000E+00
         0.00000E+00
         0.00000E+00
         0.00000E+00
         0.00000E+00
         0.00000E+00
         0.00000E+00
         0.00000E+00
         0.00000E+00
         0.00000E+00
         0.00000E+00
         0.00000E+00
         0.00000E+00
         0.00000E+00
         0.00000E+00
         0.00000E+00
         0.00000E+00
         0.00000E+00
         0.00000E+00
         0.00000E+00
         0.00000E+00
         0.00000E+00
         0.00000E+00
         0.00000E+00
         0.00000E+00
         0.00000E+00
         0.00000E+00
         0.00000E+00
         0.00000E+00
         0.00000E+00
         0.00000E+00
         0.00000E+00
         0.00000E+00
         0.00000E+00
         0.00000E+00
         0.00000E+00
         0.00000E+00
         0.00000E+00
         0.00000E+00
         0.00000E+00
         0.00000E+00
         0.00000E+00
         0.00000E+00
         0.00000E+00
         0.00000E+00
         0.00000E+00
         0.00000E+00
         0.00000E+00
         0.00000E+00
         0.00000E+00
         0.00000E+00
         0.00000E+00
         0.00000E+00
         0.00000E+00
         0.00000E+00
         0.00000E+00
         0.00000E+00
         0.00000E+00
         0.00000E+00
         0.00000E+00
         0.00000E+00
         0.00000E+00
         0.00000E+00
         0.00000E+00
         0.00000E+00
         0.00000E+00
         0.00000E+00
         0.00000E+00
         0.00000E+00
         0.00000E+00
         0.00000E+00
         0.00000E+00
         0.00000E+00
         0.00000E+00
         0.00000E+00
         0.00000E+00
         0.00000E+00
         0.00000E+00
         0.00000E+00
         0.00000E+00
         0.00000E+00
         0.00000E+00
         0.00000E+00
         0.00000E+00
         0.00000E+00
         0.00000E+00
         0.00000E+00
         0.00000E+00
         0.00000E+00
         0.00000E+00
         0.00000E+00
         0.00000E+00
         0.00000E+00
         0.00000E+00
         0.00000E+00
         0.00000E+00
         0.00000E+00
         0.00000E+00
         0.00000E+00
         0.00000E+00
         0.00000E+00
         0.00000E+00
         0.00000E+00
         0.00000E+00
         0.00000E+00
         0.00000E+00
         0.00000E+00
         0.00000E+00
         0.00000E+00
         0.00000E+00
         0.00000E+00
         0.00000E+00
         0.00000E+00
         0.00000E+00
         0.00000E+00
         0.00000E+00
         0.00000E+00
         0.00000E+00
         0.00000E+00
         0.00000E+00
         0.00000E+00
         0.00000E+00
         0.00000E+00
         0.00000E+00
         0.00000E+00
         0.00000E+00
         0.00000E+00
         0.00000E+00
         0.00000E+00
         0.00000E+00
         0.00000E+00
         0.00000E+00
         0.00000E+00
         0.00000E+00
         0.00000E+00
         0.00000E+00
         0.00000E+00
         0.00000E+00
         0.00000E+00
         0.00000E+00
         0.00000E+00
         0.00000E+00
         0.00000E+00
         0.00000E+00
         0.00000E+00
         0.00000E+00
         0.00000E+00
         0.00000E+00
         0.00000E+00
         0.00000E+00
         0.00000E+00
         0.00000E+00
         0.00000E+00
         0.00000E+00
         0.00000E+00
         0.00000E+00
         0.00000E+00
         0.00000E+00
         0.00000E+00
         0.00000E+00
         0.00000E+00
         0.00000E+00
         0.00000E+00
         0.00000E+00
         0.00000E+00
         0.00000E+00
         0.00000E+00
         0.00000E+00
         0.00000E+00
         0.00000E+00
         0.00000E+00
         0.00000E+00
         0.00000E+00
         0.00000E+00
         0.00000E+00
         0.00000E+00
         0.00000E+00
         0.00000E+00
         0.00000E+00
         0.00000E+00
         0.00000E+00
         0.00000E+00
         0.00000E+00
         0.00000E+00
         0.00000E+00
         0.00000E+00
         0.00000E+00
         0.00000E+00
         0.00000E+00
         0.00000E+00
         0.00000E+00
         0.00000E+00
         0.00000E+00
         0.00000E+00
         0.00000E+00
         0.00000E+00
         0.00000E+00
         0.00000E+00
         0.00000E+00
         0.00000E+00
         0.00000E+00
         0.00000E+00
         0.00000E+00
         0.00000E+00
         0.00000E+00
         0.00000E+00
         0.00000E+00
         0.00000E+00
         0.00000E+00
         0.00000E+00
         0.00000E+00
         0.00000E+00
         0.00000E+00
         0.00000E+00
         0.00000E+00
         0.00000E+00
         0.00000E+00
         0.00000E+00
         0.00000E+00
         0.00000E+00
         0.00000E+00
         0.00000E+00
         0.00000E+00
         0.00000E+00
         0.00000E+00
         0.00000E+00
         0.00000E+00
         0.00000E+00
         0.00000E+00
         0.00000E+00
         0.00000E+00
         0.00000E+00
         0.00000E+00
         0.00000E+00
         0.00000E+00
         0.00000E+00
         0.00000E+00
         0.00000E+00
         0.00000E+00
         0.00000E+00
         0.00000E+00
         0.00000E+00
         0.00000E+00
         0.00000E+00
         0.00000E+00
         0.00000E+00
         0.00000E+00
         0.00000E+00
         0.00000E+00
         0.00000E+00
         0.00000E+00
         0.00000E+00
         0.00000E+00
         0.00000E+00
         0.00000E+00
         0.00000E+00
         0.00000E+00
         0.00000E+00
         0.00000E+00
         0.00000E+00
         0.00000E+00
         0.00000E+00
         0.00000E+00
         0.00000E+00
         0.00000E+00
         0.00000E+00
         0.00000E+00
         0.00000E+00
         0.00000E+00
         0.00000E+00
         0.00000E+00
         0.00000E+00
         0.00000E+00
         0.00000E+00
         0.00000E+00
         0.00000E+00
         0.00000E+00
         0.00000E+00
         0.00000E+00
         0.00000E+00
         0.00000E+00
         0.00000E+00
         0.00000E+00
         0.00000E+00
         0.00000E+00
         0.00000E+00
         0.00000E+00
         0.00000E+00
         0.00000E+00
         0.00000E+00
         0.00000E+00
         0.00000E+00
         0.00000E+00
         0.00000E+00
         0.00000E+00
         0.00000E+00
         0.00000E+00
         0.00000E+00
         0.00000E+00
         0.00000E+00
         0.00000E+00
         0.00000E+00
         0.00000E+00
         0.00000E+00
         0.00000E+00
         0.00000E+00
         0.00000E+00
         0.00000E+00
         0.00000E+00
         0.00000E+00
         0.00000E+00
         0.00000E+00
         0.00000E+00
         0.00000E+00
         0.00000E+00
         0.00000E+00
         0.00000E+00
         0.00000E+00
         0.00000E+00
         0.00000E+00
         0.00000E+00
         0.00000E+00
         0.00000E+00
         0.00000E+00
         0.00000E+00
         0.00000E+00
         0.00000E+00
         0.00000E+00
         0.00000E+00
         0.00000E+00
         0.00000E+00
         0.00000E+00
         0.00000E+00
         0.00000E+00
         0.00000E+00
         0.00000E+00
         0.00000E+00
         0.00000E+00
         0.00000E+00
         0.00000E+00
         0.00000E+00
         0.00000E+00
         0.00000E+00
         0.00000E+00
         0.00000E+00
         0.00000E+00
         0.00000E+00
         0.00000E+00
         0.00000E+00
         0.00000E+00
         0.00000E+00
         0.00000E+00
         0.00000E+00
         0.00000E+00
         0.00000E+00
         0.00000E+00
         0.00000E+00
         0.00000E+00
         0.00000E+00
         0.00000E+00
         0.00000E+00
         0.00000E+00
         0.00000E+00
         0.00000E+00
         0.00000E+00
         0.00000E+00
         0.00000E+00
         0.00000E+00
         0.00000E+00
         0.00000E+00
         0.00000E+00
         0.00000E+00
         0.00000E+00
         0.00000E+00
         0.00000E+00
         0.00000E+00
         0.00000E+00
         0.00000E+00
         0.00000E+00
         0.00000E+00
         0.00000E+00
         0.00000E+00
         0.00000E+00
         0.00000E+00
         0.00000E+00
         0.00000E+00
         0.00000E+00
         0.00000E+00
         0.00000E+00
         0.00000E+00
         0.00000E+00
         0.00000E+00
         0.00000E+00
         0.00000E+00
         0.00000E+00
         0.00000E+00
         0.00000E+00
         0.00000E+00
         0.00000E+00
         0.00000E+00
         0.00000E+00
         0.00000E+00
         0.00000E+00
         0.00000E+00
         0.00000E+00
         0.00000E+00
         0.00000E+00
         0.00000E+00
         0.00000E+00
         0.00000E+00
         0.00000E+00
         0.00000E+00
         0.00000E+00
         0.00000E+00
         0.00000E+00
         0.00000E+00
         0.00000E+00
         0.00000E+00
         0.00000E+00
         0.00000E+00
         0.00000E+00
         0.00000E+00
         0.00000E+00
         0.00000E+00
         0.00000E+00
         0.00000E+00
         0.00000E+00
         0.00000E+00
         0.00000E+00
         0.00000E+00
         0.00000E+00
         0.00000E+00
         0.00000E+00
         0.00000E+00
         0.00000E+00
         0.00000E+00
         0.00000E+00
         0.00000E+00
         0.00000E+00
         0.00000E+00
         0.00000E+00
         0.00000E+00
         0.00000E+00
         0.00000E+00
         0.00000E+00
         0.00000E+00
         0.00000E+00
         0.00000E+00
         0.00000E+00
         0.00000E+00
         0.00000E+00
         0.00000E+00
         0.00000E+00
         0.00000E+00
         0.00000E+00
         0.00000E+00
         0.00000E+00
         0.00000E+00
         0.00000E+00
         0.00000E+00
         0.00000E+00
         0.00000E+00
         0.00000E+00
         0.00000E+00
         0.00000E+00
         0.00000E+00
         0.00000E+00
         0.00000E+00
         0.00000E+00
         0.00000E+00
         0.00000E+00
         0.00000E+00
         0.00000E+00
         0.00000E+00
         0.00000E+00
         0.00000E+00
         0.00000E+00
         0.00000E+00
         0.00000E+00
         0.00000E+00
         0.00000E+00
         0.00000E+00
         0.00000E+00
         0.00000E+00
         0.00000E+00
         0.00000E+00
         0.00000E+00
         0.00000E+00
         0.00000E+00
         0.00000E+00
         0.00000E+00
         0.00000E+00
         0.00000E+00
         0.00000E+00
         0.00000E+00
         0.00000E+00
         0.00000E+00
         0.00000E+00
         0.00000E+00
         0.00000E+00
         0.00000E+00
         0.00000E+00
         0.00000E+00
         0.00000E+00
         0.00000E+00
         0.00000E+00
         0.00000E+00
         0.00000E+00
         0.00000E+00
         0.00000E+00
         0.00000E+00
         0.00000E+00
         0.00000E+00
         0.00000E+00
         0.00000E+00
         0.00000E+00
         0.00000E+00
         0.00000E+00
         0.00000E+00
         0.00000E+00
         0.00000E+00
         0.00000E+00
         0.00000E+00
         0.00000E+00
         0.00000E+00
         0.00000E+00
         0.00000E+00
         0.00000E+00
         0.00000E+00
         0.00000E+00
         0.00000E+00
         0.00000E+00
         0.00000E+00
         0.00000E+00
         0.00000E+00
         0.00000E+00
         0.00000E+00
         0.00000E+00
         0.00000E+00
         0.00000E+00
         0.00000E+00
         0.00000E+00
         0.00000E+00
         0.00000E+00
         0.00000E+00
         0.00000E+00
         0.00000E+00
         0.00000E+00
         0.00000E+00
         0.00000E+00
         0.00000E+00
         0.00000E+00
         0.00000E+00
         0.00000E+00
         0.00000E+00
         0.00000E+00
         0.00000E+00
         0.00000E+00
         0.00000E+00
         0.00000E+00
         0.00000E+00
         0.00000E+00
         0.00000E+00
         0.00000E+00
         0.00000E+00
         0.00000E+00
         0.00000E+00
         0.00000E+00
         0.00000E+00
         0.00000E+00
         0.00000E+00
         0.00000E+00
         0.00000E+00
         0.00000E+00
         0.00000E+00
         0.00000E+00
         0.00000E+00
         0.00000E+00
         0.00000E+00
         0.00000E+00
         0.00000E+00
         0.00000E+00
         0.00000E+00
         0.00000E+00
         0.00000E+00
         0.00000E+00
         0.00000E+00
         0.00000E+00
         0.00000E+00
         0.00000E+00
         0.00000E+00
         0.00000E+00
         0.00000E+00
         0.00000E+00
         0.00000E+00
         0.00000E+00
         0.00000E+00
         0.00000E+00
         0.00000E+00
         0.00000E+00
         0.00000E+00
         0.00000E+00
         0.00000E+00
         0.00000E+00
         0.00000E+00
         0.00000E+00
         0.00000E+00
         0.00000E+00
         0.00000E+00
         0.00000E+00
         0.00000E+00
         0.00000E+00
         0.00000E+00
         0.00000E+00
         0.00000E+00
         0.00000E+00
         0.00000E+00
         0.00000E+00
         0.00000E+00
         0.00000E+00
         0.00000E+00
         0.00000E+00
         0.00000E+00
         0.00000E+00
         0.00000E+00
         0.00000E+00
         0.00000E+00
         0.00000E+00
         0.00000E+00
         0.00000E+00
         0.00000E+00
         0.00000E+00
         0.00000E+00
         0.00000E+00
         0.00000E+00
         0.00000E+00
         0.00000E+00
         0.00000E+00
         0.00000E+00
         0.00000E+00
         0.00000E+00
         0.00000E+00
         0.00000E+00
         0.00000E+00
         0.00000E+00
         0.00000E+00
         0.00000E+00
         0.00000E+00
         0.00000E+00
         0.00000E+00
         0.00000E+00
         0.00000E+00
         0.00000E+00
         0.00000E+00
         0.00000E+00
         0.00000E+00
         0.00000E+00
         0.00000E+00
         0.00000E+00
         0.00000E+00
         0.00000E+00
         0.00000E+00
         0.00000E+00
         0.00000E+00
         0.00000E+00
         0.00000E+00
         0.00000E+00
         0.00000E+00
         0.00000E+00
         0.00000E+00
         0.00000E+00
         0.00000E+00
         0.00000E+00
         0.00000E+00
         0.00000E+00
         0.00000E+00
         0.00000E+00
         0.00000E+00
         0.00000E+00
         0.00000E+00
         0.00000E+00
         0.00000E+00
         0.00000E+00
         0.00000E+00
         0.00000E+00
         0.00000E+00
         0.00000E+00
         0.00000E+00
         0.00000E+00
         0.00000E+00
         0.00000E+00
         0.00000E+00
         0.00000E+00
         0.00000E+00
         0.00000E+00
         0.00000E+00
         0.00000E+00
         0.00000E+00
         0.00000E+00
         0.00000E+00
         0.00000E+00
         0.00000E+00
         0.00000E+00
         0.00000E+00
         0.00000E+00
         0.00000E+00
         0.00000E+00
         0.00000E+00
         0.00000E+00
         0.00000E+00
         0.00000E+00
         0.00000E+00
         0.00000E+00
         0.00000E+00
         0.00000E+00
         0.00000E+00
         0.00000E+00
         0.00000E+00
         0.00000E+00
         0.00000E+00
         0.00000E+00
         0.00000E+00
         0.00000E+00
         0.00000E+00
         0.00000E+00
         0.00000E+00
         0.00000E+00
         0.00000E+00
         0.00000E+00
         0.00000E+00
         0.00000E+00
         0.00000E+00
         0.00000E+00
         0.00000E+00
         0.00000E+00
         0.00000E+00
         0.00000E+00
         0.00000E+00
         0.00000E+00
         0.00000E+00
         0.00000E+00
         0.00000E+00
         0.00000E+00
         0.00000E+00
         0.00000E+00
         0.00000E+00
         0.00000E+00
         0.00000E+00
         0.00000E+00
         0.00000E+00
         0.00000E+00
         0.00000E+00
         0.00000E+00
         0.00000E+00
         0.00000E+00
         0.00000E+00
         0.00000E+00
         0.00000E+00
         0.00000E+00
         0.00000E+00
         0.00000E+00
         0.00000E+00
         0.00000E+00
         0.00000E+00
         0.00000E+00
         0.00000E+00
         0.00000E+00
         0.00000E+00
         0.00000E+00
         0.00000E+00
         0.00000E+00
         0.00000E+00
         0.00000E+00
         0.00000E+00
         0.00000E+00
         0.00000E+00
         0.00000E+00
         0.00000E+00
         0.00000E+00
         0.00000E+00
         0.00000E+00
         0.00000E+00
         0.00000E+00
         0.00000E+00
         0.00000E+00
         0.00000E+00
         0.00000E+00
         0.00000E+00
         0.00000E+00
         0.00000E+00
         0.00000E+00
         0.00000E+00
         0.00000E+00
         0.00000E+00
         0.00000E+00
         0.00000E+00
         0.00000E+00
         0.00000E+00
         0.00000E+00
         0.00000E+00
         0.00000E+00
         0.00000E+00
         0.00000E+00
         0.00000E+00
         0.00000E+00
         0.00000E+00
         0.00000E+00
         0.00000E+00
         0.00000E+00
         0.00000E+00
  
SCALARS                     velocity_z  double 1
LOOKUP_TABLE default
        -0.37300E+03
        -0.37300E+03
        -0.37300E+03
        -0.37300E+03
         0.00000E+00
         0.00000E+00
         0.00000E+00
         0.00000E+00
        -0.37300E+03
        -0.37300E+03
         0.00000E+00
         0.00000E+00
        -0.37300E+03
        -0.37300E+03
         0.00000E+00
         0.00000E+00
        -0.37300E+03
        -0.37300E+03
         0.00000E+00
         0.00000E+00
        -0.37300E+03
        -0.37300E+03
        -0.37300E+03
         0.00000E+00
         0.00000E+00
         0.00000E+00
        -0.37300E+03
        -0.37300E+03
         0.00000E+00
         0.00000E+00
        -0.37300E+03
        -0.37300E+03
        -0.37300E+03
         0.00000E+00
         0.00000E+00
         0.00000E+00
        -0.37300E+03
        -0.37300E+03
         0.00000E+00
         0.00000E+00
        -0.37300E+03
        -0.37300E+03
         0.00000E+00
         0.00000E+00
        -0.37300E+03
        -0.37300E+03
         0.00000E+00
         0.00000E+00
        -0.37300E+03
         0.00000E+00
        -0.37300E+03
         0.00000E+00
        -0.37300E+03
         0.00000E+00
        -0.37300E+03
         0.00000E+00
        -0.37300E+03
        -0.37300E+03
         0.00000E+00
         0.00000E+00
        -0.37300E+03
        -0.37300E+03
         0.00000E+00
         0.00000E+00
        -0.37300E+03
         0.00000E+00
        -0.37300E+03
         0.00000E+00
        -0.37300E+03
        -0.37300E+03
         0.00000E+00
         0.00000E+00
        -0.37300E+03
         0.00000E+00
        -0.37300E+03
         0.00000E+00
        -0.37300E+03
         0.00000E+00
        -0.37300E+03
         0.00000E+00
        -0.37300E+03
        -0.37300E+03
         0.00000E+00
         0.00000E+00
        -0.37300E+03
         0.00000E+00
        -0.37300E+03
         0.00000E+00
        -0.37300E+03
         0.00000E+00
        -0.37300E+03
        -0.37300E+03
         0.00000E+00
         0.00000E+00
        -0.37300E+03
         0.00000E+00
        -0.37300E+03
         0.00000E+00
        -0.37300E+03
         0.00000E+00
        -0.37300E+03
        -0.37300E+03
         0.00000E+00
         0.00000E+00
        -0.37300E+03
        -0.37300E+03
         0.00000E+00
         0.00000E+00
        -0.37300E+03
         0.00000E+00
        -0.37300E+03
         0.00000E+00
        -0.37300E+03
         0.00000E+00
        -0.37300E+03
         0.00000E+00
        -0.37300E+03
         0.00000E+00
        -0.37300E+03
         0.00000E+00
        -0.37300E+03
         0.00000E+00
        -0.37300E+03
         0.00000E+00
        -0.37300E+03
         0.00000E+00
        -0.37300E+03
         0.00000E+00
        -0.37300E+03
         0.00000E+00
        -0.37300E+03
         0.00000E+00
        -0.37300E+03
         0.00000E+00
        -0.37300E+03
         0.00000E+00
        -0.37300E+03
         0.00000E+00
        -0.37300E+03
         0.00000E+00
        -0.37300E+03
         0.00000E+00
        -0.37300E+03
         0.00000E+00
        -0.37300E+03
         0.00000E+00
        -0.37300E+03
         0.00000E+00
        -0.37300E+03
         0.00000E+00
        -0.37300E+03
         0.00000E+00
        -0.37300E+03
         0.00000E+00
        -0.37300E+03
         0.00000E+00
        -0.37300E+03
        -0.37300E+03
        -0.37300E+03
        -0.37300E+03
        -0.37300E+03
        -0.37300E+03
        -0.37300E+03
        -0.37300E+03
        -0.37300E+03
        -0.37300E+03
        -0.37300E+03
        -0.37300E+03
        -0.37300E+03
        -0.37300E+03
        -0.37300E+03
        -0.37300E+03
        -0.37300E+03
        -0.37300E+03
        -0.37300E+03
        -0.37300E+03
        -0.37300E+03
        -0.37300E+03
        -0.37300E+03
        -0.37300E+03
        -0.37300E+03
        -0.37300E+03
        -0.37300E+03
        -0.37300E+03
        -0.37300E+03
        -0.37300E+03
        -0.37300E+03
        -0.37300E+03
        -0.37300E+03
        -0.37300E+03
        -0.37300E+03
        -0.37300E+03
        -0.37300E+03
        -0.37300E+03
        -0.37300E+03
        -0.37300E+03
        -0.37300E+03
        -0.37300E+03
        -0.37300E+03
        -0.37300E+03
        -0.37300E+03
        -0.37300E+03
        -0.37300E+03
        -0.37300E+03
        -0.37300E+03
        -0.37300E+03
        -0.37300E+03
        -0.37300E+03
        -0.37300E+03
        -0.37300E+03
        -0.37300E+03
        -0.37300E+03
        -0.37300E+03
        -0.37300E+03
        -0.37300E+03
        -0.37300E+03
        -0.37300E+03
        -0.37300E+03
        -0.37300E+03
        -0.37300E+03
        -0.37300E+03
        -0.37300E+03
        -0.37300E+03
        -0.37300E+03
        -0.37300E+03
        -0.37300E+03
        -0.37300E+03
        -0.37300E+03
        -0.37300E+03
        -0.37300E+03
        -0.37300E+03
        -0.37300E+03
        -0.37300E+03
        -0.37300E+03
        -0.37300E+03
        -0.37300E+03
        -0.37300E+03
        -0.37300E+03
        -0.37300E+03
        -0.37300E+03
        -0.37300E+03
        -0.37300E+03
        -0.37300E+03
        -0.37300E+03
        -0.37300E+03
        -0.37300E+03
        -0.37300E+03
        -0.37300E+03
        -0.37300E+03
        -0.37300E+03
        -0.37300E+03
        -0.37300E+03
        -0.37300E+03
        -0.37300E+03
        -0.37300E+03
        -0.37300E+03
        -0.37300E+03
        -0.37300E+03
        -0.37300E+03
        -0.37300E+03
        -0.37300E+03
        -0.37300E+03
        -0.37300E+03
        -0.37300E+03
        -0.37300E+03
        -0.37300E+03
        -0.37300E+03
        -0.37300E+03
        -0.37300E+03
        -0.37300E+03
        -0.37300E+03
        -0.37300E+03
        -0.37300E+03
        -0.37300E+03
        -0.37300E+03
        -0.37300E+03
        -0.37300E+03
        -0.37300E+03
        -0.37300E+03
        -0.37300E+03
        -0.37300E+03
        -0.37300E+03
        -0.37300E+03
        -0.37300E+03
        -0.37300E+03
        -0.37300E+03
        -0.37300E+03
        -0.37300E+03
        -0.37300E+03
        -0.37300E+03
        -0.37300E+03
        -0.37300E+03
        -0.37300E+03
        -0.37300E+03
        -0.37300E+03
        -0.37300E+03
        -0.37300E+03
        -0.37300E+03
        -0.37300E+03
        -0.37300E+03
        -0.37300E+03
        -0.37300E+03
        -0.37300E+03
        -0.37300E+03
        -0.37300E+03
        -0.37300E+03
        -0.37300E+03
        -0.37300E+03
        -0.37300E+03
        -0.37300E+03
        -0.37300E+03
        -0.37300E+03
        -0.37300E+03
        -0.37300E+03
        -0.37300E+03
        -0.37300E+03
        -0.37300E+03
        -0.37300E+03
        -0.37300E+03
        -0.37300E+03
        -0.37300E+03
        -0.37300E+03
        -0.37300E+03
        -0.37300E+03
        -0.37300E+03
        -0.37300E+03
        -0.37300E+03
        -0.37300E+03
        -0.37300E+03
        -0.37300E+03
        -0.37300E+03
        -0.37300E+03
        -0.37300E+03
        -0.37300E+03
        -0.37300E+03
        -0.37300E+03
        -0.37300E+03
        -0.37300E+03
        -0.37300E+03
        -0.37300E+03
        -0.37300E+03
        -0.37300E+03
        -0.37300E+03
        -0.37300E+03
        -0.37300E+03
        -0.37300E+03
        -0.37300E+03
        -0.37300E+03
        -0.37300E+03
        -0.37300E+03
        -0.37300E+03
        -0.37300E+03
        -0.37300E+03
        -0.37300E+03
        -0.37300E+03
        -0.37300E+03
        -0.37300E+03
        -0.37300E+03
        -0.37300E+03
        -0.37300E+03
        -0.37300E+03
        -0.37300E+03
        -0.37300E+03
        -0.37300E+03
        -0.37300E+03
        -0.37300E+03
        -0.37300E+03
        -0.37300E+03
        -0.37300E+03
        -0.37300E+03
        -0.37300E+03
        -0.37300E+03
        -0.37300E+03
        -0.37300E+03
        -0.37300E+03
        -0.37300E+03
        -0.37300E+03
        -0.37300E+03
        -0.37300E+03
        -0.37300E+03
        -0.37300E+03
        -0.37300E+03
        -0.37300E+03
        -0.37300E+03
        -0.37300E+03
        -0.37300E+03
        -0.37300E+03
        -0.37300E+03
        -0.37300E+03
        -0.37300E+03
        -0.37300E+03
        -0.37300E+03
        -0.37300E+03
        -0.37300E+03
        -0.37300E+03
        -0.37300E+03
        -0.37300E+03
        -0.37300E+03
        -0.37300E+03
        -0.37300E+03
        -0.37300E+03
        -0.37300E+03
        -0.37300E+03
        -0.37300E+03
        -0.37300E+03
        -0.37300E+03
        -0.37300E+03
        -0.37300E+03
        -0.37300E+03
        -0.37300E+03
        -0.37300E+03
        -0.37300E+03
        -0.37300E+03
        -0.37300E+03
        -0.37300E+03
        -0.37300E+03
        -0.37300E+03
        -0.37300E+03
        -0.37300E+03
        -0.37300E+03
        -0.37300E+03
        -0.37300E+03
        -0.37300E+03
        -0.37300E+03
        -0.37300E+03
        -0.37300E+03
        -0.37300E+03
        -0.37300E+03
        -0.37300E+03
        -0.37300E+03
        -0.37300E+03
        -0.37300E+03
        -0.37300E+03
        -0.37300E+03
        -0.37300E+03
        -0.37300E+03
        -0.37300E+03
        -0.37300E+03
        -0.37300E+03
        -0.37300E+03
        -0.37300E+03
        -0.37300E+03
        -0.37300E+03
        -0.37300E+03
        -0.37300E+03
        -0.37300E+03
        -0.37300E+03
        -0.37300E+03
        -0.37300E+03
        -0.37300E+03
        -0.37300E+03
        -0.37300E+03
        -0.37300E+03
        -0.37300E+03
        -0.37300E+03
        -0.37300E+03
        -0.37300E+03
        -0.37300E+03
        -0.37300E+03
        -0.37300E+03
        -0.37300E+03
        -0.37300E+03
        -0.37300E+03
        -0.37300E+03
        -0.37300E+03
        -0.37300E+03
        -0.37300E+03
        -0.37300E+03
        -0.37300E+03
        -0.37300E+03
        -0.37300E+03
        -0.37300E+03
        -0.37300E+03
        -0.37300E+03
        -0.37300E+03
        -0.37300E+03
        -0.37300E+03
        -0.37300E+03
        -0.37300E+03
        -0.37300E+03
        -0.37300E+03
        -0.37300E+03
        -0.37300E+03
        -0.37300E+03
        -0.37300E+03
        -0.37300E+03
        -0.37300E+03
        -0.37300E+03
        -0.37300E+03
        -0.37300E+03
        -0.37300E+03
        -0.37300E+03
        -0.37300E+03
        -0.37300E+03
        -0.37300E+03
        -0.37300E+03
        -0.37300E+03
        -0.37300E+03
        -0.37300E+03
        -0.37300E+03
        -0.37300E+03
        -0.37300E+03
        -0.37300E+03
        -0.37300E+03
        -0.37300E+03
        -0.37300E+03
        -0.37300E+03
        -0.37300E+03
        -0.37300E+03
        -0.37300E+03
        -0.37300E+03
        -0.37300E+03
        -0.37300E+03
        -0.37300E+03
        -0.37300E+03
        -0.37300E+03
        -0.37300E+03
        -0.37300E+03
        -0.37300E+03
        -0.37300E+03
        -0.37300E+03
        -0.37300E+03
        -0.37300E+03
        -0.37300E+03
        -0.37300E+03
        -0.37300E+03
        -0.37300E+03
        -0.37300E+03
        -0.37300E+03
        -0.37300E+03
        -0.37300E+03
        -0.37300E+03
        -0.37300E+03
        -0.37300E+03
        -0.37300E+03
        -0.37300E+03
        -0.37300E+03
        -0.37300E+03
        -0.37300E+03
        -0.37300E+03
        -0.37300E+03
        -0.37300E+03
        -0.37300E+03
        -0.37300E+03
        -0.37300E+03
        -0.37300E+03
        -0.37300E+03
        -0.37300E+03
        -0.37300E+03
        -0.37300E+03
        -0.37300E+03
        -0.37300E+03
        -0.37300E+03
        -0.37300E+03
        -0.37300E+03
        -0.37300E+03
        -0.37300E+03
        -0.37300E+03
        -0.37300E+03
        -0.37300E+03
        -0.37300E+03
        -0.37300E+03
        -0.37300E+03
        -0.37300E+03
        -0.37300E+03
        -0.37300E+03
        -0.37300E+03
        -0.37300E+03
        -0.37300E+03
        -0.37300E+03
        -0.37300E+03
        -0.37300E+03
        -0.37300E+03
        -0.37300E+03
        -0.37300E+03
        -0.37300E+03
        -0.37300E+03
        -0.37300E+03
        -0.37300E+03
        -0.37300E+03
        -0.37300E+03
        -0.37300E+03
        -0.37300E+03
        -0.37300E+03
        -0.37300E+03
        -0.37300E+03
        -0.37300E+03
        -0.37300E+03
        -0.37300E+03
        -0.37300E+03
        -0.37300E+03
        -0.37300E+03
        -0.37300E+03
        -0.37300E+03
        -0.37300E+03
        -0.37300E+03
        -0.37300E+03
        -0.37300E+03
        -0.37300E+03
        -0.37300E+03
        -0.37300E+03
        -0.37300E+03
        -0.37300E+03
        -0.37300E+03
        -0.37300E+03
        -0.37300E+03
        -0.37300E+03
        -0.37300E+03
        -0.37300E+03
        -0.37300E+03
        -0.37300E+03
        -0.37300E+03
        -0.37300E+03
        -0.37300E+03
        -0.37300E+03
        -0.37300E+03
        -0.37300E+03
        -0.37300E+03
        -0.37300E+03
        -0.37300E+03
        -0.37300E+03
        -0.37300E+03
        -0.37300E+03
        -0.37300E+03
        -0.37300E+03
        -0.37300E+03
        -0.37300E+03
        -0.37300E+03
        -0.37300E+03
        -0.37300E+03
        -0.37300E+03
        -0.37300E+03
        -0.37300E+03
        -0.37300E+03
        -0.37300E+03
        -0.37300E+03
        -0.37300E+03
        -0.37300E+03
        -0.37300E+03
        -0.37300E+03
        -0.37300E+03
        -0.37300E+03
        -0.37300E+03
        -0.37300E+03
        -0.37300E+03
        -0.37300E+03
        -0.37300E+03
        -0.37300E+03
        -0.37300E+03
        -0.37300E+03
        -0.37300E+03
        -0.37300E+03
        -0.37300E+03
        -0.37300E+03
        -0.37300E+03
        -0.37300E+03
        -0.37300E+03
        -0.37300E+03
        -0.37300E+03
        -0.37300E+03
        -0.37300E+03
        -0.37300E+03
        -0.37300E+03
        -0.37300E+03
        -0.37300E+03
        -0.37300E+03
        -0.37300E+03
        -0.37300E+03
        -0.37300E+03
        -0.37300E+03
        -0.37300E+03
        -0.37300E+03
        -0.37300E+03
        -0.37300E+03
        -0.37300E+03
        -0.37300E+03
        -0.37300E+03
        -0.37300E+03
        -0.37300E+03
        -0.37300E+03
        -0.37300E+03
        -0.37300E+03
        -0.37300E+03
        -0.37300E+03
        -0.37300E+03
        -0.37300E+03
        -0.37300E+03
        -0.37300E+03
        -0.37300E+03
        -0.37300E+03
        -0.37300E+03
        -0.37300E+03
        -0.37300E+03
        -0.37300E+03
        -0.37300E+03
        -0.37300E+03
        -0.37300E+03
        -0.37300E+03
        -0.37300E+03
        -0.37300E+03
        -0.37300E+03
        -0.37300E+03
        -0.37300E+03
        -0.37300E+03
        -0.37300E+03
        -0.37300E+03
        -0.37300E+03
        -0.37300E+03
        -0.37300E+03
        -0.37300E+03
        -0.37300E+03
        -0.37300E+03
        -0.37300E+03
        -0.37300E+03
        -0.37300E+03
        -0.37300E+03
        -0.37300E+03
        -0.37300E+03
        -0.37300E+03
        -0.37300E+03
        -0.37300E+03
        -0.37300E+03
        -0.37300E+03
        -0.37300E+03
        -0.37300E+03
        -0.37300E+03
        -0.37300E+03
        -0.37300E+03
        -0.37300E+03
        -0.37300E+03
        -0.37300E+03
        -0.37300E+03
        -0.37300E+03
        -0.37300E+03
        -0.37300E+03
        -0.37300E+03
        -0.37300E+03
        -0.37300E+03
        -0.37300E+03
        -0.37300E+03
        -0.37300E+03
        -0.37300E+03
        -0.37300E+03
        -0.37300E+03
        -0.37300E+03
        -0.37300E+03
        -0.37300E+03
        -0.37300E+03
        -0.37300E+03
        -0.37300E+03
        -0.37300E+03
        -0.37300E+03
        -0.37300E+03
        -0.37300E+03
        -0.37300E+03
        -0.37300E+03
        -0.37300E+03
        -0.37300E+03
        -0.37300E+03
        -0.37300E+03
        -0.37300E+03
        -0.37300E+03
        -0.37300E+03
        -0.37300E+03
        -0.37300E+03
        -0.37300E+03
        -0.37300E+03
        -0.37300E+03
        -0.37300E+03
        -0.37300E+03
        -0.37300E+03
        -0.37300E+03
        -0.37300E+03
        -0.37300E+03
        -0.37300E+03
        -0.37300E+03
        -0.37300E+03
        -0.37300E+03
        -0.37300E+03
        -0.37300E+03
        -0.37300E+03
        -0.37300E+03
        -0.37300E+03
        -0.37300E+03
        -0.37300E+03
        -0.37300E+03
        -0.37300E+03
        -0.37300E+03
        -0.37300E+03
        -0.37300E+03
        -0.37300E+03
        -0.37300E+03
        -0.37300E+03
        -0.37300E+03
        -0.37300E+03
        -0.37300E+03
        -0.37300E+03
        -0.37300E+03
        -0.37300E+03
        -0.37300E+03
        -0.37300E+03
        -0.37300E+03
        -0.37300E+03
        -0.37300E+03
        -0.37300E+03
        -0.37300E+03
        -0.37300E+03
        -0.37300E+03
        -0.37300E+03
        -0.37300E+03
        -0.37300E+03
        -0.37300E+03
        -0.37300E+03
        -0.37300E+03
        -0.37300E+03
        -0.37300E+03
        -0.37300E+03
        -0.37300E+03
        -0.37300E+03
        -0.37300E+03
        -0.37300E+03
        -0.37300E+03
        -0.37300E+03
        -0.37300E+03
        -0.37300E+03
        -0.37300E+03
        -0.37300E+03
        -0.37300E+03
        -0.37300E+03
        -0.37300E+03
        -0.37300E+03
        -0.37300E+03
        -0.37300E+03
        -0.37300E+03
        -0.37300E+03
        -0.37300E+03
        -0.37300E+03
        -0.37300E+03
        -0.37300E+03
        -0.37300E+03
        -0.37300E+03
        -0.37300E+03
        -0.37300E+03
        -0.37300E+03
        -0.37300E+03
        -0.37300E+03
        -0.37300E+03
        -0.37300E+03
        -0.37300E+03
        -0.37300E+03
        -0.37300E+03
        -0.37300E+03
        -0.37300E+03
        -0.37300E+03
        -0.37300E+03
        -0.37300E+03
        -0.37300E+03
        -0.37300E+03
        -0.37300E+03
        -0.37300E+03
        -0.37300E+03
        -0.37300E+03
        -0.37300E+03
        -0.37300E+03
        -0.37300E+03
        -0.37300E+03
        -0.37300E+03
        -0.37300E+03
        -0.37300E+03
        -0.37300E+03
        -0.37300E+03
        -0.37300E+03
        -0.37300E+03
        -0.37300E+03
        -0.37300E+03
        -0.37300E+03
        -0.37300E+03
        -0.37300E+03
        -0.37300E+03
        -0.37300E+03
        -0.37300E+03
        -0.37300E+03
        -0.37300E+03
        -0.37300E+03
        -0.37300E+03
        -0.37300E+03
        -0.37300E+03
        -0.37300E+03
        -0.37300E+03
        -0.37300E+03
        -0.37300E+03
        -0.37300E+03
        -0.37300E+03
        -0.37300E+03
        -0.37300E+03
        -0.37300E+03
        -0.37300E+03
        -0.37300E+03
        -0.37300E+03
        -0.37300E+03
        -0.37300E+03
        -0.37300E+03
        -0.37300E+03
        -0.37300E+03
        -0.37300E+03
        -0.37300E+03
        -0.37300E+03
        -0.37300E+03
        -0.37300E+03
        -0.37300E+03
        -0.37300E+03
        -0.37300E+03
        -0.37300E+03
        -0.37300E+03
        -0.37300E+03
        -0.37300E+03
        -0.37300E+03
        -0.37300E+03
        -0.37300E+03
        -0.37300E+03
        -0.37300E+03
        -0.37300E+03
        -0.37300E+03
        -0.37300E+03
        -0.37300E+03
        -0.37300E+03
        -0.37300E+03
        -0.37300E+03
        -0.37300E+03
        -0.37300E+03
        -0.37300E+03
        -0.37300E+03
        -0.37300E+03
        -0.37300E+03
        -0.37300E+03
        -0.37300E+03
        -0.37300E+03
        -0.37300E+03
        -0.37300E+03
        -0.37300E+03
        -0.37300E+03
        -0.37300E+03
        -0.37300E+03
        -0.37300E+03
        -0.37300E+03
        -0.37300E+03
        -0.37300E+03
        -0.37300E+03
        -0.37300E+03
        -0.37300E+03
        -0.37300E+03
        -0.37300E+03
        -0.37300E+03
        -0.37300E+03
        -0.37300E+03
        -0.37300E+03
        -0.37300E+03
        -0.37300E+03
        -0.37300E+03
        -0.37300E+03
        -0.37300E+03
        -0.37300E+03
        -0.37300E+03
        -0.37300E+03
        -0.37300E+03
        -0.37300E+03
        -0.37300E+03
        -0.37300E+03
        -0.37300E+03
        -0.37300E+03
        -0.37300E+03
        -0.37300E+03
        -0.37300E+03
        -0.37300E+03
        -0.37300E+03
        -0.37300E+03
        -0.37300E+03
        -0.37300E+03
        -0.37300E+03
        -0.37300E+03
        -0.37300E+03
        -0.37300E+03
        -0.37300E+03
        -0.37300E+03
        -0.37300E+03
        -0.37300E+03
        -0.37300E+03
        -0.37300E+03
        -0.37300E+03
        -0.37300E+03
        -0.37300E+03
        -0.37300E+03
        -0.37300E+03
        -0.37300E+03
        -0.37300E+03
        -0.37300E+03
        -0.37300E+03
        -0.37300E+03
        -0.37300E+03
        -0.37300E+03
        -0.37300E+03
        -0.37300E+03
        -0.37300E+03
        -0.37300E+03
        -0.37300E+03
        -0.37300E+03
        -0.37300E+03
        -0.37300E+03
        -0.37300E+03
        -0.37300E+03
        -0.37300E+03
        -0.37300E+03
        -0.37300E+03
        -0.37300E+03
        -0.37300E+03
        -0.37300E+03
        -0.37300E+03
        -0.37300E+03
        -0.37300E+03
        -0.37300E+03
        -0.37300E+03
        -0.37300E+03
        -0.37300E+03
        -0.37300E+03
        -0.37300E+03
        -0.37300E+03
        -0.37300E+03
        -0.37300E+03
        -0.37300E+03
        -0.37300E+03
        -0.37300E+03
        -0.37300E+03
        -0.37300E+03
        -0.37300E+03
        -0.37300E+03
        -0.37300E+03
        -0.37300E+03
        -0.37300E+03
        -0.37300E+03
        -0.37300E+03
        -0.37300E+03
        -0.37300E+03
        -0.37300E+03
        -0.37300E+03
        -0.37300E+03
        -0.37300E+03
        -0.37300E+03
        -0.37300E+03
        -0.37300E+03
        -0.37300E+03
        -0.37300E+03
        -0.37300E+03
        -0.37300E+03
        -0.37300E+03
        -0.37300E+03
        -0.37300E+03
        -0.37300E+03
        -0.37300E+03
        -0.37300E+03
        -0.37300E+03
        -0.37300E+03
        -0.37300E+03
        -0.37300E+03
        -0.37300E+03
        -0.37300E+03
        -0.37300E+03
        -0.37300E+03
        -0.37300E+03
        -0.37300E+03
        -0.37300E+03
        -0.37300E+03
        -0.37300E+03
        -0.37300E+03
        -0.37300E+03
        -0.37300E+03
        -0.37300E+03
        -0.37300E+03
        -0.37300E+03
        -0.37300E+03
        -0.37300E+03
        -0.37300E+03
        -0.37300E+03
        -0.37300E+03
        -0.37300E+03
        -0.37300E+03
        -0.37300E+03
        -0.37300E+03
        -0.37300E+03
        -0.37300E+03
        -0.37300E+03
        -0.37300E+03
        -0.37300E+03
        -0.37300E+03
        -0.37300E+03
        -0.37300E+03
        -0.37300E+03
        -0.37300E+03
        -0.37300E+03
        -0.37300E+03
        -0.37300E+03
        -0.37300E+03
        -0.37300E+03
        -0.37300E+03
        -0.37300E+03
        -0.37300E+03
        -0.37300E+03
        -0.37300E+03
        -0.37300E+03
        -0.37300E+03
        -0.37300E+03
        -0.37300E+03
        -0.37300E+03
        -0.37300E+03
        -0.37300E+03
        -0.37300E+03
        -0.37300E+03
        -0.37300E+03
        -0.37300E+03
        -0.37300E+03
        -0.37300E+03
        -0.37300E+03
        -0.37300E+03
        -0.37300E+03
        -0.37300E+03
        -0.37300E+03
        -0.37300E+03
        -0.37300E+03
        -0.37300E+03
        -0.37300E+03
        -0.37300E+03
        -0.37300E+03
        -0.37300E+03
        -0.37300E+03
        -0.37300E+03
        -0.37300E+03
        -0.37300E+03
        -0.37300E+03
        -0.37300E+03
        -0.37300E+03
        -0.37300E+03
        -0.37300E+03
        -0.37300E+03
        -0.37300E+03
        -0.37300E+03
        -0.37300E+03
        -0.37300E+03
        -0.37300E+03
        -0.37300E+03
        -0.37300E+03
        -0.37300E+03
        -0.37300E+03
        -0.37300E+03
        -0.37300E+03
        -0.37300E+03
        -0.37300E+03
        -0.37300E+03
        -0.37300E+03
        -0.37300E+03
        -0.37300E+03
        -0.37300E+03
        -0.37300E+03
        -0.37300E+03
        -0.37300E+03
        -0.37300E+03
        -0.37300E+03
        -0.37300E+03
        -0.37300E+03
        -0.37300E+03
        -0.37300E+03
        -0.37300E+03
        -0.37300E+03
        -0.37300E+03
        -0.37300E+03
        -0.37300E+03
        -0.37300E+03
        -0.37300E+03
        -0.37300E+03
        -0.37300E+03
        -0.37300E+03
        -0.37300E+03
        -0.37300E+03
        -0.37300E+03
        -0.37300E+03
        -0.37300E+03
        -0.37300E+03
        -0.37300E+03
        -0.37300E+03
        -0.37300E+03
        -0.37300E+03
        -0.37300E+03
        -0.37300E+03
        -0.37300E+03
        -0.37300E+03
        -0.37300E+03
        -0.37300E+03
        -0.37300E+03
        -0.37300E+03
        -0.37300E+03
        -0.37300E+03
        -0.37300E+03
        -0.37300E+03
        -0.37300E+03
        -0.37300E+03
        -0.37300E+03
        -0.37300E+03
        -0.37300E+03
        -0.37300E+03
        -0.37300E+03
        -0.37300E+03
        -0.37300E+03
        -0.37300E+03
        -0.37300E+03
        -0.37300E+03
        -0.37300E+03
        -0.37300E+03
        -0.37300E+03
        -0.37300E+03
        -0.37300E+03
        -0.37300E+03
        -0.37300E+03
        -0.37300E+03
        -0.37300E+03
        -0.37300E+03
        -0.37300E+03
        -0.37300E+03
        -0.37300E+03
        -0.37300E+03
        -0.37300E+03
        -0.37300E+03
        -0.37300E+03
        -0.37300E+03
        -0.37300E+03
        -0.37300E+03
        -0.37300E+03
        -0.37300E+03
        -0.37300E+03
        -0.37300E+03
        -0.37300E+03
        -0.37300E+03
        -0.37300E+03
        -0.37300E+03
        -0.37300E+03
        -0.37300E+03
        -0.37300E+03
        -0.37300E+03
        -0.37300E+03
        -0.37300E+03
        -0.37300E+03
        -0.37300E+03
        -0.37300E+03
        -0.37300E+03
        -0.37300E+03
        -0.37300E+03
        -0.37300E+03
        -0.37300E+03
        -0.37300E+03
        -0.37300E+03
        -0.37300E+03
        -0.37300E+03
        -0.37300E+03
        -0.37300E+03
        -0.37300E+03
        -0.37300E+03
        -0.37300E+03
        -0.37300E+03
        -0.37300E+03
        -0.37300E+03
        -0.37300E+03
        -0.37300E+03
        -0.37300E+03
        -0.37300E+03
        -0.37300E+03
        -0.37300E+03
        -0.37300E+03
        -0.37300E+03
        -0.37300E+03
        -0.37300E+03
        -0.37300E+03
        -0.37300E+03
        -0.37300E+03
        -0.37300E+03
        -0.37300E+03
        -0.37300E+03
        -0.37300E+03
        -0.37300E+03
        -0.37300E+03
        -0.37300E+03
        -0.37300E+03
        -0.37300E+03
        -0.37300E+03
        -0.37300E+03
        -0.37300E+03
        -0.37300E+03
        -0.37300E+03
        -0.37300E+03
        -0.37300E+03
        -0.37300E+03
        -0.37300E+03
        -0.37300E+03
        -0.37300E+03
        -0.37300E+03
        -0.37300E+03
        -0.37300E+03
        -0.37300E+03
        -0.37300E+03
        -0.37300E+03
        -0.37300E+03
        -0.37300E+03
        -0.37300E+03
        -0.37300E+03
        -0.37300E+03
        -0.37300E+03
        -0.37300E+03
        -0.37300E+03
        -0.37300E+03
        -0.37300E+03
        -0.37300E+03
        -0.37300E+03
        -0.37300E+03
        -0.37300E+03
        -0.37300E+03
        -0.37300E+03
        -0.37300E+03
        -0.37300E+03
        -0.37300E+03
        -0.37300E+03
        -0.37300E+03
        -0.37300E+03
        -0.37300E+03
        -0.37300E+03
        -0.37300E+03
        -0.37300E+03
        -0.37300E+03
        -0.37300E+03
        -0.37300E+03
        -0.37300E+03
        -0.37300E+03
        -0.37300E+03
        -0.37300E+03
        -0.37300E+03
        -0.37300E+03
        -0.37300E+03
        -0.37300E+03
        -0.37300E+03
        -0.37300E+03
        -0.37300E+03
        -0.37300E+03
        -0.37300E+03
        -0.37300E+03
        -0.37300E+03
        -0.37300E+03
        -0.37300E+03
        -0.37300E+03
        -0.37300E+03
        -0.37300E+03
        -0.37300E+03
        -0.37300E+03
        -0.37300E+03
        -0.37300E+03
        -0.37300E+03
        -0.37300E+03
        -0.37300E+03
        -0.37300E+03
        -0.37300E+03
        -0.37300E+03
        -0.37300E+03
        -0.37300E+03
        -0.37300E+03
        -0.37300E+03
        -0.37300E+03
        -0.37300E+03
        -0.37300E+03
        -0.37300E+03
        -0.37300E+03
        -0.37300E+03
        -0.37300E+03
        -0.37300E+03
        -0.37300E+03
        -0.37300E+03
        -0.37300E+03
        -0.37300E+03
        -0.37300E+03
        -0.37300E+03
        -0.37300E+03
        -0.37300E+03
        -0.37300E+03
        -0.37300E+03
        -0.37300E+03
        -0.37300E+03
        -0.37300E+03
        -0.37300E+03
        -0.37300E+03
        -0.37300E+03
        -0.37300E+03
        -0.37300E+03
        -0.37300E+03
        -0.37300E+03
        -0.37300E+03
        -0.37300E+03
        -0.37300E+03
        -0.37300E+03
        -0.37300E+03
        -0.37300E+03
        -0.37300E+03
        -0.37300E+03
        -0.37300E+03
        -0.37300E+03
        -0.37300E+03
        -0.37300E+03
        -0.37300E+03
        -0.37300E+03
        -0.37300E+03
        -0.37300E+03
        -0.37300E+03
        -0.37300E+03
        -0.37300E+03
        -0.37300E+03
        -0.37300E+03
        -0.37300E+03
        -0.37300E+03
        -0.37300E+03
        -0.37300E+03
        -0.37300E+03
        -0.37300E+03
        -0.37300E+03
        -0.37300E+03
        -0.37300E+03
        -0.37300E+03
        -0.37300E+03
        -0.37300E+03
        -0.37300E+03
        -0.37300E+03
        -0.37300E+03
        -0.37300E+03
        -0.37300E+03
        -0.37300E+03
        -0.37300E+03
        -0.37300E+03
        -0.37300E+03
        -0.37300E+03
        -0.37300E+03
        -0.37300E+03
        -0.37300E+03
        -0.37300E+03
        -0.37300E+03
        -0.37300E+03
        -0.37300E+03
        -0.37300E+03
        -0.37300E+03
        -0.37300E+03
        -0.37300E+03
        -0.37300E+03
        -0.37300E+03
        -0.37300E+03
        -0.37300E+03
        -0.37300E+03
        -0.37300E+03
        -0.37300E+03
        -0.37300E+03
        -0.37300E+03
        -0.37300E+03
        -0.37300E+03
        -0.37300E+03
        -0.37300E+03
        -0.37300E+03
        -0.37300E+03
        -0.37300E+03
        -0.37300E+03
        -0.37300E+03
        -0.37300E+03
        -0.37300E+03
        -0.37300E+03
        -0.37300E+03
        -0.37300E+03
        -0.37300E+03
        -0.37300E+03
        -0.37300E+03
        -0.37300E+03
        -0.37300E+03
        -0.37300E+03
        -0.37300E+03
        -0.37300E+03
        -0.37300E+03
        -0.37300E+03
        -0.37300E+03
        -0.37300E+03
        -0.37300E+03
        -0.37300E+03
        -0.37300E+03
        -0.37300E+03
        -0.37300E+03
        -0.37300E+03
        -0.37300E+03
        -0.37300E+03
        -0.37300E+03
        -0.37300E+03
        -0.37300E+03
        -0.37300E+03
        -0.37300E+03
        -0.37300E+03
        -0.37300E+03
        -0.37300E+03
        -0.37300E+03
        -0.37300E+03
        -0.37300E+03
        -0.37300E+03
        -0.37300E+03
        -0.37300E+03
        -0.37300E+03
        -0.37300E+03
        -0.37300E+03
        -0.37300E+03
        -0.37300E+03
        -0.37300E+03
        -0.37300E+03
        -0.37300E+03
        -0.37300E+03
        -0.37300E+03
        -0.37300E+03
        -0.37300E+03
        -0.37300E+03
        -0.37300E+03
        -0.37300E+03
        -0.37300E+03
        -0.37300E+03
        -0.37300E+03
        -0.37300E+03
        -0.37300E+03
        -0.37300E+03
        -0.37300E+03
        -0.37300E+03
        -0.37300E+03
        -0.37300E+03
        -0.37300E+03
        -0.37300E+03
        -0.37300E+03
        -0.37300E+03
        -0.37300E+03
        -0.37300E+03
        -0.37300E+03
        -0.37300E+03
        -0.37300E+03
        -0.37300E+03
        -0.37300E+03
        -0.37300E+03
        -0.37300E+03
        -0.37300E+03
        -0.37300E+03
        -0.37300E+03
        -0.37300E+03
        -0.37300E+03
        -0.37300E+03
        -0.37300E+03
        -0.37300E+03
        -0.37300E+03
        -0.37300E+03
        -0.37300E+03
        -0.37300E+03
        -0.37300E+03
        -0.37300E+03
        -0.37300E+03
        -0.37300E+03
        -0.37300E+03
        -0.37300E+03
        -0.37300E+03
        -0.37300E+03
        -0.37300E+03
        -0.37300E+03
        -0.37300E+03
        -0.37300E+03
        -0.37300E+03
        -0.37300E+03
        -0.37300E+03
        -0.37300E+03
        -0.37300E+03
        -0.37300E+03
        -0.37300E+03
        -0.37300E+03
        -0.37300E+03
        -0.37300E+03
        -0.37300E+03
        -0.37300E+03
        -0.37300E+03
        -0.37300E+03
        -0.37300E+03
        -0.37300E+03
        -0.37300E+03
        -0.37300E+03
        -0.37300E+03
        -0.37300E+03
        -0.37300E+03
        -0.37300E+03
        -0.37300E+03
        -0.37300E+03
        -0.37300E+03
        -0.37300E+03
        -0.37300E+03
        -0.37300E+03
        -0.37300E+03
        -0.37300E+03
        -0.37300E+03
        -0.37300E+03
        -0.37300E+03
        -0.37300E+03
        -0.37300E+03
        -0.37300E+03
        -0.37300E+03
        -0.37300E+03
        -0.37300E+03
        -0.37300E+03
        -0.37300E+03
        -0.37300E+03
        -0.37300E+03
        -0.37300E+03
        -0.37300E+03
        -0.37300E+03
        -0.37300E+03
        -0.37300E+03
        -0.37300E+03
        -0.37300E+03
        -0.37300E+03
        -0.37300E+03
        -0.37300E+03
        -0.37300E+03
        -0.37300E+03
        -0.37300E+03
        -0.37300E+03
        -0.37300E+03
        -0.37300E+03
        -0.37300E+03
        -0.37300E+03
        -0.37300E+03
        -0.37300E+03
        -0.37300E+03
        -0.37300E+03
        -0.37300E+03
        -0.37300E+03
        -0.37300E+03
        -0.37300E+03
        -0.37300E+03
        -0.37300E+03
        -0.37300E+03
        -0.37300E+03
        -0.37300E+03
        -0.37300E+03
        -0.37300E+03
        -0.37300E+03
        -0.37300E+03
        -0.37300E+03
        -0.37300E+03
        -0.37300E+03
        -0.37300E+03
        -0.37300E+03
        -0.37300E+03
        -0.37300E+03
        -0.37300E+03
        -0.37300E+03
        -0.37300E+03
        -0.37300E+03
        -0.37300E+03
        -0.37300E+03
        -0.37300E+03
        -0.37300E+03
        -0.37300E+03
        -0.37300E+03
        -0.37300E+03
        -0.37300E+03
        -0.37300E+03
        -0.37300E+03
        -0.37300E+03
        -0.37300E+03
        -0.37300E+03
        -0.37300E+03
        -0.37300E+03
        -0.37300E+03
        -0.37300E+03
        -0.37300E+03
        -0.37300E+03
        -0.37300E+03
        -0.37300E+03
        -0.37300E+03
        -0.37300E+03
        -0.37300E+03
        -0.37300E+03
        -0.37300E+03
        -0.37300E+03
        -0.37300E+03
        -0.37300E+03
        -0.37300E+03
        -0.37300E+03
        -0.37300E+03
        -0.37300E+03
        -0.37300E+03
        -0.37300E+03
        -0.37300E+03
        -0.37300E+03
        -0.37300E+03
        -0.37300E+03
        -0.37300E+03
        -0.37300E+03
        -0.37300E+03
        -0.37300E+03
        -0.37300E+03
        -0.37300E+03
        -0.37300E+03
        -0.37300E+03
        -0.37300E+03
        -0.37300E+03
        -0.37300E+03
        -0.37300E+03
        -0.37300E+03
        -0.37300E+03
        -0.37300E+03
        -0.37300E+03
        -0.37300E+03
        -0.37300E+03
        -0.37300E+03
        -0.37300E+03
        -0.37300E+03
        -0.37300E+03
        -0.37300E+03
        -0.37300E+03
        -0.37300E+03
        -0.37300E+03
        -0.37300E+03
        -0.37300E+03
        -0.37300E+03
        -0.37300E+03
        -0.37300E+03
        -0.37300E+03
        -0.37300E+03
        -0.37300E+03
        -0.37300E+03
        -0.37300E+03
        -0.37300E+03
        -0.37300E+03
        -0.37300E+03
        -0.37300E+03
        -0.37300E+03
        -0.37300E+03
        -0.37300E+03
        -0.37300E+03
        -0.37300E+03
        -0.37300E+03
        -0.37300E+03
        -0.37300E+03
        -0.37300E+03
        -0.37300E+03
        -0.37300E+03
        -0.37300E+03
        -0.37300E+03
        -0.37300E+03
        -0.37300E+03
        -0.37300E+03
        -0.37300E+03
        -0.37300E+03
        -0.37300E+03
        -0.37300E+03
        -0.37300E+03
        -0.37300E+03
        -0.37300E+03
        -0.37300E+03
        -0.37300E+03
        -0.37300E+03
        -0.37300E+03
        -0.37300E+03
        -0.37300E+03
        -0.37300E+03
        -0.37300E+03
        -0.37300E+03
        -0.37300E+03
        -0.37300E+03
        -0.37300E+03
        -0.37300E+03
        -0.37300E+03
        -0.37300E+03
        -0.37300E+03
        -0.37300E+03
        -0.37300E+03
        -0.37300E+03
        -0.37300E+03
        -0.37300E+03
        -0.37300E+03
        -0.37300E+03
        -0.37300E+03
        -0.37300E+03
        -0.37300E+03
        -0.37300E+03
        -0.37300E+03
        -0.37300E+03
        -0.37300E+03
        -0.37300E+03
        -0.37300E+03
        -0.37300E+03
        -0.37300E+03
        -0.37300E+03
        -0.37300E+03
        -0.37300E+03
        -0.37300E+03
        -0.37300E+03
        -0.37300E+03
        -0.37300E+03
        -0.37300E+03
        -0.37300E+03
        -0.37300E+03
        -0.37300E+03
        -0.37300E+03
        -0.37300E+03
        -0.37300E+03
        -0.37300E+03
        -0.37300E+03
        -0.37300E+03
        -0.37300E+03
        -0.37300E+03
        -0.37300E+03
        -0.37300E+03
        -0.37300E+03
        -0.37300E+03
        -0.37300E+03
        -0.37300E+03
        -0.37300E+03
        -0.37300E+03
        -0.37300E+03
        -0.37300E+03
        -0.37300E+03
        -0.37300E+03
        -0.37300E+03
        -0.37300E+03
        -0.37300E+03
        -0.37300E+03
        -0.37300E+03
        -0.37300E+03
        -0.37300E+03
        -0.37300E+03
        -0.37300E+03
        -0.37300E+03
        -0.37300E+03
        -0.37300E+03
        -0.37300E+03
        -0.37300E+03
        -0.37300E+03
        -0.37300E+03
        -0.37300E+03
        -0.37300E+03
        -0.37300E+03
        -0.37300E+03
        -0.37300E+03
        -0.37300E+03
        -0.37300E+03
        -0.37300E+03
        -0.37300E+03
        -0.37300E+03
        -0.37300E+03
        -0.37300E+03
        -0.37300E+03
        -0.37300E+03
        -0.37300E+03
        -0.37300E+03
        -0.37300E+03
        -0.37300E+03
        -0.37300E+03
        -0.37300E+03
        -0.37300E+03
        -0.37300E+03
        -0.37300E+03
        -0.37300E+03
        -0.37300E+03
        -0.37300E+03
        -0.37300E+03
        -0.37300E+03
        -0.37300E+03
        -0.37300E+03
        -0.37300E+03
        -0.37300E+03
        -0.37300E+03
        -0.37300E+03
        -0.37300E+03
        -0.37300E+03
        -0.37300E+03
        -0.37300E+03
        -0.37300E+03
        -0.37300E+03
        -0.37300E+03
        -0.37300E+03
        -0.37300E+03
        -0.37300E+03
        -0.37300E+03
        -0.37300E+03
        -0.37300E+03
        -0.37300E+03
        -0.37300E+03
        -0.37300E+03
        -0.37300E+03
        -0.37300E+03
        -0.37300E+03
        -0.37300E+03
        -0.37300E+03
        -0.37300E+03
        -0.37300E+03
        -0.37300E+03
        -0.37300E+03
        -0.37300E+03
        -0.37300E+03
        -0.37300E+03
        -0.37300E+03
        -0.37300E+03
        -0.37300E+03
        -0.37300E+03
        -0.37300E+03
        -0.37300E+03
        -0.37300E+03
        -0.37300E+03
        -0.37300E+03
        -0.37300E+03
        -0.37300E+03
        -0.37300E+03
        -0.37300E+03
        -0.37300E+03
        -0.37300E+03
        -0.37300E+03
        -0.37300E+03
        -0.37300E+03
        -0.37300E+03
        -0.37300E+03
        -0.37300E+03
        -0.37300E+03
        -0.37300E+03
        -0.37300E+03
        -0.37300E+03
        -0.37300E+03
        -0.37300E+03
        -0.37300E+03
        -0.37300E+03
        -0.37300E+03
        -0.37300E+03
        -0.37300E+03
        -0.37300E+03
        -0.37300E+03
        -0.37300E+03
        -0.37300E+03
        -0.37300E+03
        -0.37300E+03
        -0.37300E+03
        -0.37300E+03
        -0.37300E+03
        -0.37300E+03
        -0.37300E+03
        -0.37300E+03
        -0.37300E+03
        -0.37300E+03
  
SCALARS                 acceleration_x  double 1
LOOKUP_TABLE default
         0.00000E+00
         0.00000E+00
         0.00000E+00
         0.00000E+00
         0.00000E+00
         0.00000E+00
         0.00000E+00
         0.00000E+00
         0.00000E+00
         0.00000E+00
         0.00000E+00
         0.00000E+00
         0.00000E+00
         0.00000E+00
         0.00000E+00
         0.00000E+00
         0.00000E+00
         0.00000E+00
         0.00000E+00
         0.00000E+00
         0.00000E+00
         0.00000E+00
         0.00000E+00
         0.00000E+00
         0.00000E+00
         0.00000E+00
         0.00000E+00
         0.00000E+00
         0.00000E+00
         0.00000E+00
         0.00000E+00
         0.00000E+00
         0.00000E+00
         0.00000E+00
         0.00000E+00
         0.00000E+00
         0.00000E+00
         0.00000E+00
         0.00000E+00
         0.00000E+00
         0.00000E+00
         0.00000E+00
         0.00000E+00
         0.00000E+00
         0.00000E+00
         0.00000E+00
         0.00000E+00
         0.00000E+00
         0.00000E+00
         0.00000E+00
         0.00000E+00
         0.00000E+00
         0.00000E+00
         0.00000E+00
         0.00000E+00
         0.00000E+00
         0.00000E+00
         0.00000E+00
         0.00000E+00
         0.00000E+00
         0.00000E+00
         0.00000E+00
         0.00000E+00
         0.00000E+00
         0.00000E+00
         0.00000E+00
         0.00000E+00
         0.00000E+00
         0.00000E+00
         0.00000E+00
         0.00000E+00
         0.00000E+00
         0.00000E+00
         0.00000E+00
         0.00000E+00
         0.00000E+00
         0.00000E+00
         0.00000E+00
         0.00000E+00
         0.00000E+00
         0.00000E+00
         0.00000E+00
         0.00000E+00
         0.00000E+00
         0.00000E+00
         0.00000E+00
         0.00000E+00
         0.00000E+00
         0.00000E+00
         0.00000E+00
         0.00000E+00
         0.00000E+00
         0.00000E+00
         0.00000E+00
         0.00000E+00
         0.00000E+00
         0.00000E+00
         0.00000E+00
         0.00000E+00
         0.00000E+00
         0.00000E+00
         0.00000E+00
         0.00000E+00
         0.00000E+00
         0.00000E+00
         0.00000E+00
         0.00000E+00
         0.00000E+00
         0.00000E+00
         0.00000E+00
         0.00000E+00
         0.00000E+00
         0.00000E+00
         0.00000E+00
         0.00000E+00
         0.00000E+00
         0.00000E+00
         0.00000E+00
         0.00000E+00
         0.00000E+00
         0.00000E+00
         0.00000E+00
         0.00000E+00
         0.00000E+00
         0.00000E+00
         0.00000E+00
         0.00000E+00
         0.00000E+00
         0.00000E+00
         0.00000E+00
         0.00000E+00
         0.00000E+00
         0.00000E+00
         0.00000E+00
         0.00000E+00
         0.00000E+00
         0.00000E+00
         0.00000E+00
         0.00000E+00
         0.00000E+00
         0.00000E+00
         0.00000E+00
         0.00000E+00
         0.00000E+00
         0.00000E+00
         0.00000E+00
         0.00000E+00
         0.00000E+00
         0.00000E+00
         0.00000E+00
         0.00000E+00
         0.00000E+00
         0.00000E+00
         0.00000E+00
         0.00000E+00
         0.00000E+00
         0.00000E+00
         0.00000E+00
         0.00000E+00
         0.00000E+00
         0.00000E+00
         0.00000E+00
         0.00000E+00
         0.00000E+00
         0.00000E+00
         0.00000E+00
         0.00000E+00
         0.00000E+00
         0.00000E+00
         0.00000E+00
         0.00000E+00
         0.00000E+00
         0.00000E+00
         0.00000E+00
         0.00000E+00
         0.00000E+00
         0.00000E+00
         0.00000E+00
         0.00000E+00
         0.00000E+00
         0.00000E+00
         0.00000E+00
         0.00000E+00
         0.00000E+00
         0.00000E+00
         0.00000E+00
         0.00000E+00
         0.00000E+00
         0.00000E+00
         0.00000E+00
         0.00000E+00
         0.00000E+00
         0.00000E+00
         0.00000E+00
         0.00000E+00
         0.00000E+00
         0.00000E+00
         0.00000E+00
         0.00000E+00
         0.00000E+00
         0.00000E+00
         0.00000E+00
         0.00000E+00
         0.00000E+00
         0.00000E+00
         0.00000E+00
         0.00000E+00
         0.00000E+00
         0.00000E+00
         0.00000E+00
         0.00000E+00
         0.00000E+00
         0.00000E+00
         0.00000E+00
         0.00000E+00
         0.00000E+00
         0.00000E+00
         0.00000E+00
         0.00000E+00
         0.00000E+00
         0.00000E+00
         0.00000E+00
         0.00000E+00
         0.00000E+00
         0.00000E+00
         0.00000E+00
         0.00000E+00
         0.00000E+00
         0.00000E+00
         0.00000E+00
         0.00000E+00
         0.00000E+00
         0.00000E+00
         0.00000E+00
         0.00000E+00
         0.00000E+00
         0.00000E+00
         0.00000E+00
         0.00000E+00
         0.00000E+00
         0.00000E+00
         0.00000E+00
         0.00000E+00
         0.00000E+00
         0.00000E+00
         0.00000E+00
         0.00000E+00
         0.00000E+00
         0.00000E+00
         0.00000E+00
         0.00000E+00
         0.00000E+00
         0.00000E+00
         0.00000E+00
         0.00000E+00
         0.00000E+00
         0.00000E+00
         0.00000E+00
         0.00000E+00
         0.00000E+00
         0.00000E+00
         0.00000E+00
         0.00000E+00
         0.00000E+00
         0.00000E+00
         0.00000E+00
         0.00000E+00
         0.00000E+00
         0.00000E+00
         0.00000E+00
         0.00000E+00
         0.00000E+00
         0.00000E+00
         0.00000E+00
         0.00000E+00
         0.00000E+00
         0.00000E+00
         0.00000E+00
         0.00000E+00
         0.00000E+00
         0.00000E+00
         0.00000E+00
         0.00000E+00
         0.00000E+00
         0.00000E+00
         0.00000E+00
         0.00000E+00
         0.00000E+00
         0.00000E+00
         0.00000E+00
         0.00000E+00
         0.00000E+00
         0.00000E+00
         0.00000E+00
         0.00000E+00
         0.00000E+00
         0.00000E+00
         0.00000E+00
         0.00000E+00
         0.00000E+00
         0.00000E+00
         0.00000E+00
         0.00000E+00
         0.00000E+00
         0.00000E+00
         0.00000E+00
         0.00000E+00
         0.00000E+00
         0.00000E+00
         0.00000E+00
         0.00000E+00
         0.00000E+00
         0.00000E+00
         0.00000E+00
         0.00000E+00
         0.00000E+00
         0.00000E+00
         0.00000E+00
         0.00000E+00
         0.00000E+00
         0.00000E+00
         0.00000E+00
         0.00000E+00
         0.00000E+00
         0.00000E+00
         0.00000E+00
         0.00000E+00
         0.00000E+00
         0.00000E+00
         0.00000E+00
         0.00000E+00
         0.00000E+00
         0.00000E+00
         0.00000E+00
         0.00000E+00
         0.00000E+00
         0.00000E+00
         0.00000E+00
         0.00000E+00
         0.00000E+00
         0.00000E+00
         0.00000E+00
         0.00000E+00
         0.00000E+00
         0.00000E+00
         0.00000E+00
         0.00000E+00
         0.00000E+00
         0.00000E+00
         0.00000E+00
         0.00000E+00
         0.00000E+00
         0.00000E+00
         0.00000E+00
         0.00000E+00
         0.00000E+00
         0.00000E+00
         0.00000E+00
         0.00000E+00
         0.00000E+00
         0.00000E+00
         0.00000E+00
         0.00000E+00
         0.00000E+00
         0.00000E+00
         0.00000E+00
         0.00000E+00
         0.00000E+00
         0.00000E+00
         0.00000E+00
         0.00000E+00
         0.00000E+00
         0.00000E+00
         0.00000E+00
         0.00000E+00
         0.00000E+00
         0.00000E+00
         0.00000E+00
         0.00000E+00
         0.00000E+00
         0.00000E+00
         0.00000E+00
         0.00000E+00
         0.00000E+00
         0.00000E+00
         0.00000E+00
         0.00000E+00
         0.00000E+00
         0.00000E+00
         0.00000E+00
         0.00000E+00
         0.00000E+00
         0.00000E+00
         0.00000E+00
         0.00000E+00
         0.00000E+00
         0.00000E+00
         0.00000E+00
         0.00000E+00
         0.00000E+00
         0.00000E+00
         0.00000E+00
         0.00000E+00
         0.00000E+00
         0.00000E+00
         0.00000E+00
         0.00000E+00
         0.00000E+00
         0.00000E+00
         0.00000E+00
         0.00000E+00
         0.00000E+00
         0.00000E+00
         0.00000E+00
         0.00000E+00
         0.00000E+00
         0.00000E+00
         0.00000E+00
         0.00000E+00
         0.00000E+00
         0.00000E+00
         0.00000E+00
         0.00000E+00
         0.00000E+00
         0.00000E+00
         0.00000E+00
         0.00000E+00
         0.00000E+00
         0.00000E+00
         0.00000E+00
         0.00000E+00
         0.00000E+00
         0.00000E+00
         0.00000E+00
         0.00000E+00
         0.00000E+00
         0.00000E+00
         0.00000E+00
         0.00000E+00
         0.00000E+00
         0.00000E+00
         0.00000E+00
         0.00000E+00
         0.00000E+00
         0.00000E+00
         0.00000E+00
         0.00000E+00
         0.00000E+00
         0.00000E+00
         0.00000E+00
         0.00000E+00
         0.00000E+00
         0.00000E+00
         0.00000E+00
         0.00000E+00
         0.00000E+00
         0.00000E+00
         0.00000E+00
         0.00000E+00
         0.00000E+00
         0.00000E+00
         0.00000E+00
         0.00000E+00
         0.00000E+00
         0.00000E+00
         0.00000E+00
         0.00000E+00
         0.00000E+00
         0.00000E+00
         0.00000E+00
         0.00000E+00
         0.00000E+00
         0.00000E+00
         0.00000E+00
         0.00000E+00
         0.00000E+00
         0.00000E+00
         0.00000E+00
         0.00000E+00
         0.00000E+00
         0.00000E+00
         0.00000E+00
         0.00000E+00
         0.00000E+00
         0.00000E+00
         0.00000E+00
         0.00000E+00
         0.00000E+00
         0.00000E+00
         0.00000E+00
         0.00000E+00
         0.00000E+00
         0.00000E+00
         0.00000E+00
         0.00000E+00
         0.00000E+00
         0.00000E+00
         0.00000E+00
         0.00000E+00
         0.00000E+00
         0.00000E+00
         0.00000E+00
         0.00000E+00
         0.00000E+00
         0.00000E+00
         0.00000E+00
         0.00000E+00
         0.00000E+00
         0.00000E+00
         0.00000E+00
         0.00000E+00
         0.00000E+00
         0.00000E+00
         0.00000E+00
         0.00000E+00
         0.00000E+00
         0.00000E+00
         0.00000E+00
         0.00000E+00
         0.00000E+00
         0.00000E+00
         0.00000E+00
         0.00000E+00
         0.00000E+00
         0.00000E+00
         0.00000E+00
         0.00000E+00
         0.00000E+00
         0.00000E+00
         0.00000E+00
         0.00000E+00
         0.00000E+00
         0.00000E+00
         0.00000E+00
         0.00000E+00
         0.00000E+00
         0.00000E+00
         0.00000E+00
         0.00000E+00
         0.00000E+00
         0.00000E+00
         0.00000E+00
         0.00000E+00
         0.00000E+00
         0.00000E+00
         0.00000E+00
         0.00000E+00
         0.00000E+00
         0.00000E+00
         0.00000E+00
         0.00000E+00
         0.00000E+00
         0.00000E+00
         0.00000E+00
         0.00000E+00
         0.00000E+00
         0.00000E+00
         0.00000E+00
         0.00000E+00
         0.00000E+00
         0.00000E+00
         0.00000E+00
         0.00000E+00
         0.00000E+00
         0.00000E+00
         0.00000E+00
         0.00000E+00
         0.00000E+00
         0.00000E+00
         0.00000E+00
         0.00000E+00
         0.00000E+00
         0.00000E+00
         0.00000E+00
         0.00000E+00
         0.00000E+00
         0.00000E+00
         0.00000E+00
         0.00000E+00
         0.00000E+00
         0.00000E+00
         0.00000E+00
         0.00000E+00
         0.00000E+00
         0.00000E+00
         0.00000E+00
         0.00000E+00
         0.00000E+00
         0.00000E+00
         0.00000E+00
         0.00000E+00
         0.00000E+00
         0.00000E+00
         0.00000E+00
         0.00000E+00
         0.00000E+00
         0.00000E+00
         0.00000E+00
         0.00000E+00
         0.00000E+00
         0.00000E+00
         0.00000E+00
         0.00000E+00
         0.00000E+00
         0.00000E+00
         0.00000E+00
         0.00000E+00
         0.00000E+00
         0.00000E+00
         0.00000E+00
         0.00000E+00
         0.00000E+00
         0.00000E+00
         0.00000E+00
         0.00000E+00
         0.00000E+00
         0.00000E+00
         0.00000E+00
         0.00000E+00
         0.00000E+00
         0.00000E+00
         0.00000E+00
         0.00000E+00
         0.00000E+00
         0.00000E+00
         0.00000E+00
         0.00000E+00
         0.00000E+00
         0.00000E+00
         0.00000E+00
         0.00000E+00
         0.00000E+00
         0.00000E+00
         0.00000E+00
         0.00000E+00
         0.00000E+00
         0.00000E+00
         0.00000E+00
         0.00000E+00
         0.00000E+00
         0.00000E+00
         0.00000E+00
         0.00000E+00
         0.00000E+00
         0.00000E+00
         0.00000E+00
         0.00000E+00
         0.00000E+00
         0.00000E+00
         0.00000E+00
         0.00000E+00
         0.00000E+00
         0.00000E+00
         0.00000E+00
         0.00000E+00
         0.00000E+00
         0.00000E+00
         0.00000E+00
         0.00000E+00
         0.00000E+00
         0.00000E+00
         0.00000E+00
         0.00000E+00
         0.00000E+00
         0.00000E+00
         0.00000E+00
         0.00000E+00
         0.00000E+00
         0.00000E+00
         0.00000E+00
         0.00000E+00
         0.00000E+00
         0.00000E+00
         0.00000E+00
         0.00000E+00
         0.00000E+00
         0.00000E+00
         0.00000E+00
         0.00000E+00
         0.00000E+00
         0.00000E+00
         0.00000E+00
         0.00000E+00
         0.00000E+00
         0.00000E+00
         0.00000E+00
         0.00000E+00
         0.00000E+00
         0.00000E+00
         0.00000E+00
         0.00000E+00
         0.00000E+00
         0.00000E+00
         0.00000E+00
         0.00000E+00
         0.00000E+00
         0.00000E+00
         0.00000E+00
         0.00000E+00
         0.00000E+00
         0.00000E+00
         0.00000E+00
         0.00000E+00
         0.00000E+00
         0.00000E+00
         0.00000E+00
         0.00000E+00
         0.00000E+00
         0.00000E+00
         0.00000E+00
         0.00000E+00
         0.00000E+00
         0.00000E+00
         0.00000E+00
         0.00000E+00
         0.00000E+00
         0.00000E+00
         0.00000E+00
         0.00000E+00
         0.00000E+00
         0.00000E+00
         0.00000E+00
         0.00000E+00
         0.00000E+00
         0.00000E+00
         0.00000E+00
         0.00000E+00
         0.00000E+00
         0.00000E+00
         0.00000E+00
         0.00000E+00
         0.00000E+00
         0.00000E+00
         0.00000E+00
         0.00000E+00
         0.00000E+00
         0.00000E+00
         0.00000E+00
         0.00000E+00
         0.00000E+00
         0.00000E+00
         0.00000E+00
         0.00000E+00
         0.00000E+00
         0.00000E+00
         0.00000E+00
         0.00000E+00
         0.00000E+00
         0.00000E+00
         0.00000E+00
         0.00000E+00
         0.00000E+00
         0.00000E+00
         0.00000E+00
         0.00000E+00
         0.00000E+00
         0.00000E+00
         0.00000E+00
         0.00000E+00
         0.00000E+00
         0.00000E+00
         0.00000E+00
         0.00000E+00
         0.00000E+00
         0.00000E+00
         0.00000E+00
         0.00000E+00
         0.00000E+00
         0.00000E+00
         0.00000E+00
         0.00000E+00
         0.00000E+00
         0.00000E+00
         0.00000E+00
         0.00000E+00
         0.00000E+00
         0.00000E+00
         0.00000E+00
         0.00000E+00
         0.00000E+00
         0.00000E+00
         0.00000E+00
         0.00000E+00
         0.00000E+00
         0.00000E+00
         0.00000E+00
         0.00000E+00
         0.00000E+00
         0.00000E+00
         0.00000E+00
         0.00000E+00
         0.00000E+00
         0.00000E+00
         0.00000E+00
         0.00000E+00
         0.00000E+00
         0.00000E+00
         0.00000E+00
         0.00000E+00
         0.00000E+00
         0.00000E+00
         0.00000E+00
         0.00000E+00
         0.00000E+00
         0.00000E+00
         0.00000E+00
         0.00000E+00
         0.00000E+00
         0.00000E+00
         0.00000E+00
         0.00000E+00
         0.00000E+00
         0.00000E+00
         0.00000E+00
         0.00000E+00
         0.00000E+00
         0.00000E+00
         0.00000E+00
         0.00000E+00
         0.00000E+00
         0.00000E+00
         0.00000E+00
         0.00000E+00
         0.00000E+00
         0.00000E+00
         0.00000E+00
         0.00000E+00
         0.00000E+00
         0.00000E+00
         0.00000E+00
         0.00000E+00
         0.00000E+00
         0.00000E+00
         0.00000E+00
         0.00000E+00
         0.00000E+00
         0.00000E+00
         0.00000E+00
         0.00000E+00
         0.00000E+00
         0.00000E+00
         0.00000E+00
         0.00000E+00
         0.00000E+00
         0.00000E+00
         0.00000E+00
         0.00000E+00
         0.00000E+00
         0.00000E+00
         0.00000E+00
         0.00000E+00
         0.00000E+00
         0.00000E+00
         0.00000E+00
         0.00000E+00
         0.00000E+00
         0.00000E+00
         0.00000E+00
         0.00000E+00
         0.00000E+00
         0.00000E+00
         0.00000E+00
         0.00000E+00
         0.00000E+00
         0.00000E+00
         0.00000E+00
         0.00000E+00
         0.00000E+00
         0.00000E+00
         0.00000E+00
         0.00000E+00
         0.00000E+00
         0.00000E+00
         0.00000E+00
         0.00000E+00
         0.00000E+00
         0.00000E+00
         0.00000E+00
         0.00000E+00
         0.00000E+00
         0.00000E+00
         0.00000E+00
         0.00000E+00
         0.00000E+00
         0.00000E+00
         0.00000E+00
         0.00000E+00
         0.00000E+00
         0.00000E+00
         0.00000E+00
         0.00000E+00
         0.00000E+00
         0.00000E+00
         0.00000E+00
         0.00000E+00
         0.00000E+00
         0.00000E+00
         0.00000E+00
         0.00000E+00
         0.00000E+00
         0.00000E+00
         0.00000E+00
         0.00000E+00
         0.00000E+00
         0.00000E+00
         0.00000E+00
         0.00000E+00
         0.00000E+00
         0.00000E+00
         0.00000E+00
         0.00000E+00
         0.00000E+00
         0.00000E+00
         0.00000E+00
         0.00000E+00
         0.00000E+00
         0.00000E+00
         0.00000E+00
         0.00000E+00
         0.00000E+00
         0.00000E+00
         0.00000E+00
         0.00000E+00
         0.00000E+00
         0.00000E+00
         0.00000E+00
         0.00000E+00
         0.00000E+00
         0.00000E+00
         0.00000E+00
         0.00000E+00
         0.00000E+00
         0.00000E+00
         0.00000E+00
         0.00000E+00
         0.00000E+00
         0.00000E+00
         0.00000E+00
         0.00000E+00
         0.00000E+00
         0.00000E+00
         0.00000E+00
         0.00000E+00
         0.00000E+00
         0.00000E+00
         0.00000E+00
         0.00000E+00
         0.00000E+00
         0.00000E+00
         0.00000E+00
         0.00000E+00
         0.00000E+00
         0.00000E+00
         0.00000E+00
         0.00000E+00
         0.00000E+00
         0.00000E+00
         0.00000E+00
         0.00000E+00
         0.00000E+00
         0.00000E+00
         0.00000E+00
         0.00000E+00
         0.00000E+00
         0.00000E+00
         0.00000E+00
         0.00000E+00
         0.00000E+00
         0.00000E+00
         0.00000E+00
         0.00000E+00
         0.00000E+00
         0.00000E+00
         0.00000E+00
         0.00000E+00
         0.00000E+00
         0.00000E+00
         0.00000E+00
         0.00000E+00
         0.00000E+00
         0.00000E+00
         0.00000E+00
         0.00000E+00
         0.00000E+00
         0.00000E+00
         0.00000E+00
         0.00000E+00
         0.00000E+00
         0.00000E+00
         0.00000E+00
         0.00000E+00
         0.00000E+00
         0.00000E+00
         0.00000E+00
         0.00000E+00
         0.00000E+00
         0.00000E+00
         0.00000E+00
         0.00000E+00
         0.00000E+00
         0.00000E+00
         0.00000E+00
         0.00000E+00
         0.00000E+00
         0.00000E+00
         0.00000E+00
         0.00000E+00
         0.00000E+00
         0.00000E+00
         0.00000E+00
         0.00000E+00
         0.00000E+00
         0.00000E+00
         0.00000E+00
         0.00000E+00
         0.00000E+00
         0.00000E+00
         0.00000E+00
         0.00000E+00
         0.00000E+00
         0.00000E+00
         0.00000E+00
         0.00000E+00
         0.00000E+00
         0.00000E+00
         0.00000E+00
         0.00000E+00
         0.00000E+00
         0.00000E+00
         0.00000E+00
         0.00000E+00
         0.00000E+00
         0.00000E+00
         0.00000E+00
         0.00000E+00
         0.00000E+00
         0.00000E+00
         0.00000E+00
         0.00000E+00
         0.00000E+00
         0.00000E+00
         0.00000E+00
         0.00000E+00
         0.00000E+00
         0.00000E+00
         0.00000E+00
         0.00000E+00
         0.00000E+00
         0.00000E+00
         0.00000E+00
         0.00000E+00
         0.00000E+00
         0.00000E+00
         0.00000E+00
         0.00000E+00
         0.00000E+00
         0.00000E+00
         0.00000E+00
         0.00000E+00
         0.00000E+00
         0.00000E+00
         0.00000E+00
         0.00000E+00
         0.00000E+00
         0.00000E+00
         0.00000E+00
         0.00000E+00
         0.00000E+00
         0.00000E+00
         0.00000E+00
         0.00000E+00
         0.00000E+00
         0.00000E+00
         0.00000E+00
         0.00000E+00
         0.00000E+00
         0.00000E+00
         0.00000E+00
         0.00000E+00
         0.00000E+00
         0.00000E+00
         0.00000E+00
         0.00000E+00
         0.00000E+00
         0.00000E+00
         0.00000E+00
         0.00000E+00
         0.00000E+00
         0.00000E+00
         0.00000E+00
         0.00000E+00
         0.00000E+00
         0.00000E+00
         0.00000E+00
         0.00000E+00
         0.00000E+00
         0.00000E+00
         0.00000E+00
         0.00000E+00
         0.00000E+00
         0.00000E+00
         0.00000E+00
         0.00000E+00
         0.00000E+00
         0.00000E+00
         0.00000E+00
         0.00000E+00
         0.00000E+00
         0.00000E+00
         0.00000E+00
         0.00000E+00
         0.00000E+00
         0.00000E+00
         0.00000E+00
         0.00000E+00
         0.00000E+00
         0.00000E+00
         0.00000E+00
         0.00000E+00
         0.00000E+00
         0.00000E+00
         0.00000E+00
         0.00000E+00
         0.00000E+00
         0.00000E+00
         0.00000E+00
         0.00000E+00
         0.00000E+00
         0.00000E+00
         0.00000E+00
         0.00000E+00
         0.00000E+00
         0.00000E+00
         0.00000E+00
         0.00000E+00
         0.00000E+00
         0.00000E+00
         0.00000E+00
         0.00000E+00
         0.00000E+00
         0.00000E+00
         0.00000E+00
         0.00000E+00
         0.00000E+00
         0.00000E+00
         0.00000E+00
         0.00000E+00
         0.00000E+00
         0.00000E+00
         0.00000E+00
         0.00000E+00
         0.00000E+00
         0.00000E+00
         0.00000E+00
         0.00000E+00
         0.00000E+00
         0.00000E+00
         0.00000E+00
         0.00000E+00
         0.00000E+00
         0.00000E+00
         0.00000E+00
         0.00000E+00
         0.00000E+00
         0.00000E+00
         0.00000E+00
         0.00000E+00
         0.00000E+00
         0.00000E+00
         0.00000E+00
         0.00000E+00
         0.00000E+00
         0.00000E+00
         0.00000E+00
         0.00000E+00
         0.00000E+00
         0.00000E+00
         0.00000E+00
         0.00000E+00
         0.00000E+00
         0.00000E+00
         0.00000E+00
         0.00000E+00
         0.00000E+00
         0.00000E+00
         0.00000E+00
         0.00000E+00
         0.00000E+00
         0.00000E+00
         0.00000E+00
         0.00000E+00
         0.00000E+00
         0.00000E+00
         0.00000E+00
         0.00000E+00
         0.00000E+00
         0.00000E+00
         0.00000E+00
         0.00000E+00
         0.00000E+00
         0.00000E+00
         0.00000E+00
         0.00000E+00
         0.00000E+00
         0.00000E+00
         0.00000E+00
         0.00000E+00
         0.00000E+00
         0.00000E+00
         0.00000E+00
         0.00000E+00
         0.00000E+00
         0.00000E+00
         0.00000E+00
         0.00000E+00
         0.00000E+00
         0.00000E+00
         0.00000E+00
         0.00000E+00
         0.00000E+00
         0.00000E+00
         0.00000E+00
         0.00000E+00
         0.00000E+00
         0.00000E+00
         0.00000E+00
         0.00000E+00
         0.00000E+00
         0.00000E+00
         0.00000E+00
         0.00000E+00
         0.00000E+00
         0.00000E+00
         0.00000E+00
         0.00000E+00
         0.00000E+00
         0.00000E+00
         0.00000E+00
         0.00000E+00
         0.00000E+00
         0.00000E+00
         0.00000E+00
         0.00000E+00
         0.00000E+00
         0.00000E+00
         0.00000E+00
         0.00000E+00
         0.00000E+00
         0.00000E+00
         0.00000E+00
         0.00000E+00
         0.00000E+00
         0.00000E+00
         0.00000E+00
         0.00000E+00
         0.00000E+00
         0.00000E+00
         0.00000E+00
         0.00000E+00
         0.00000E+00
         0.00000E+00
         0.00000E+00
         0.00000E+00
         0.00000E+00
         0.00000E+00
         0.00000E+00
         0.00000E+00
         0.00000E+00
         0.00000E+00
         0.00000E+00
         0.00000E+00
         0.00000E+00
         0.00000E+00
         0.00000E+00
         0.00000E+00
         0.00000E+00
         0.00000E+00
         0.00000E+00
         0.00000E+00
         0.00000E+00
         0.00000E+00
         0.00000E+00
         0.00000E+00
         0.00000E+00
         0.00000E+00
         0.00000E+00
         0.00000E+00
         0.00000E+00
         0.00000E+00
         0.00000E+00
         0.00000E+00
         0.00000E+00
         0.00000E+00
         0.00000E+00
         0.00000E+00
         0.00000E+00
         0.00000E+00
         0.00000E+00
         0.00000E+00
         0.00000E+00
         0.00000E+00
         0.00000E+00
         0.00000E+00
         0.00000E+00
         0.00000E+00
         0.00000E+00
         0.00000E+00
         0.00000E+00
         0.00000E+00
         0.00000E+00
         0.00000E+00
         0.00000E+00
         0.00000E+00
         0.00000E+00
         0.00000E+00
         0.00000E+00
         0.00000E+00
         0.00000E+00
         0.00000E+00
         0.00000E+00
         0.00000E+00
         0.00000E+00
         0.00000E+00
         0.00000E+00
         0.00000E+00
         0.00000E+00
         0.00000E+00
         0.00000E+00
         0.00000E+00
         0.00000E+00
         0.00000E+00
         0.00000E+00
         0.00000E+00
         0.00000E+00
         0.00000E+00
         0.00000E+00
         0.00000E+00
         0.00000E+00
         0.00000E+00
         0.00000E+00
         0.00000E+00
         0.00000E+00
         0.00000E+00
         0.00000E+00
         0.00000E+00
         0.00000E+00
         0.00000E+00
         0.00000E+00
         0.00000E+00
         0.00000E+00
         0.00000E+00
         0.00000E+00
         0.00000E+00
         0.00000E+00
         0.00000E+00
         0.00000E+00
         0.00000E+00
         0.00000E+00
         0.00000E+00
         0.00000E+00
         0.00000E+00
         0.00000E+00
         0.00000E+00
         0.00000E+00
         0.00000E+00
         0.00000E+00
         0.00000E+00
         0.00000E+00
         0.00000E+00
         0.00000E+00
         0.00000E+00
         0.00000E+00
         0.00000E+00
         0.00000E+00
         0.00000E+00
         0.00000E+00
         0.00000E+00
         0.00000E+00
         0.00000E+00
         0.00000E+00
         0.00000E+00
         0.00000E+00
         0.00000E+00
         0.00000E+00
         0.00000E+00
         0.00000E+00
         0.00000E+00
         0.00000E+00
         0.00000E+00
         0.00000E+00
         0.00000E+00
         0.00000E+00
         0.00000E+00
         0.00000E+00
         0.00000E+00
         0.00000E+00
         0.00000E+00
         0.00000E+00
         0.00000E+00
         0.00000E+00
         0.00000E+00
         0.00000E+00
         0.00000E+00
         0.00000E+00
         0.00000E+00
         0.00000E+00
         0.00000E+00
         0.00000E+00
         0.00000E+00
         0.00000E+00
         0.00000E+00
         0.00000E+00
         0.00000E+00
         0.00000E+00
         0.00000E+00
         0.00000E+00
         0.00000E+00
         0.00000E+00
         0.00000E+00
         0.00000E+00
         0.00000E+00
         0.00000E+00
         0.00000E+00
         0.00000E+00
         0.00000E+00
         0.00000E+00
         0.00000E+00
         0.00000E+00
         0.00000E+00
         0.00000E+00
         0.00000E+00
         0.00000E+00
         0.00000E+00
         0.00000E+00
         0.00000E+00
         0.00000E+00
         0.00000E+00
         0.00000E+00
         0.00000E+00
         0.00000E+00
         0.00000E+00
         0.00000E+00
         0.00000E+00
         0.00000E+00
         0.00000E+00
         0.00000E+00
         0.00000E+00
         0.00000E+00
         0.00000E+00
         0.00000E+00
         0.00000E+00
         0.00000E+00
         0.00000E+00
         0.00000E+00
         0.00000E+00
         0.00000E+00
         0.00000E+00
         0.00000E+00
         0.00000E+00
         0.00000E+00
         0.00000E+00
         0.00000E+00
         0.00000E+00
         0.00000E+00
         0.00000E+00
         0.00000E+00
         0.00000E+00
         0.00000E+00
         0.00000E+00
         0.00000E+00
         0.00000E+00
         0.00000E+00
         0.00000E+00
         0.00000E+00
         0.00000E+00
         0.00000E+00
         0.00000E+00
         0.00000E+00
         0.00000E+00
         0.00000E+00
         0.00000E+00
         0.00000E+00
         0.00000E+00
         0.00000E+00
         0.00000E+00
         0.00000E+00
         0.00000E+00
         0.00000E+00
         0.00000E+00
         0.00000E+00
         0.00000E+00
         0.00000E+00
         0.00000E+00
         0.00000E+00
         0.00000E+00
         0.00000E+00
         0.00000E+00
         0.00000E+00
         0.00000E+00
         0.00000E+00
         0.00000E+00
         0.00000E+00
         0.00000E+00
         0.00000E+00
         0.00000E+00
         0.00000E+00
         0.00000E+00
         0.00000E+00
         0.00000E+00
         0.00000E+00
         0.00000E+00
         0.00000E+00
         0.00000E+00
         0.00000E+00
         0.00000E+00
         0.00000E+00
         0.00000E+00
         0.00000E+00
         0.00000E+00
         0.00000E+00
         0.00000E+00
         0.00000E+00
         0.00000E+00
         0.00000E+00
         0.00000E+00
         0.00000E+00
         0.00000E+00
         0.00000E+00
         0.00000E+00
         0.00000E+00
         0.00000E+00
         0.00000E+00
         0.00000E+00
         0.00000E+00
         0.00000E+00
         0.00000E+00
         0.00000E+00
         0.00000E+00
         0.00000E+00
         0.00000E+00
         0.00000E+00
         0.00000E+00
         0.00000E+00
         0.00000E+00
         0.00000E+00
         0.00000E+00
         0.00000E+00
         0.00000E+00
         0.00000E+00
         0.00000E+00
         0.00000E+00
         0.00000E+00
         0.00000E+00
         0.00000E+00
         0.00000E+00
         0.00000E+00
         0.00000E+00
         0.00000E+00
         0.00000E+00
         0.00000E+00
         0.00000E+00
         0.00000E+00
         0.00000E+00
         0.00000E+00
         0.00000E+00
         0.00000E+00
         0.00000E+00
         0.00000E+00
         0.00000E+00
         0.00000E+00
         0.00000E+00
         0.00000E+00
         0.00000E+00
         0.00000E+00
         0.00000E+00
         0.00000E+00
         0.00000E+00
         0.00000E+00
         0.00000E+00
         0.00000E+00
         0.00000E+00
         0.00000E+00
         0.00000E+00
         0.00000E+00
         0.00000E+00
         0.00000E+00
         0.00000E+00
         0.00000E+00
         0.00000E+00
         0.00000E+00
         0.00000E+00
         0.00000E+00
         0.00000E+00
         0.00000E+00
         0.00000E+00
         0.00000E+00
         0.00000E+00
         0.00000E+00
         0.00000E+00
         0.00000E+00
         0.00000E+00
         0.00000E+00
         0.00000E+00
         0.00000E+00
         0.00000E+00
         0.00000E+00
         0.00000E+00
         0.00000E+00
         0.00000E+00
         0.00000E+00
         0.00000E+00
         0.00000E+00
         0.00000E+00
         0.00000E+00
         0.00000E+00
         0.00000E+00
         0.00000E+00
         0.00000E+00
         0.00000E+00
         0.00000E+00
         0.00000E+00
         0.00000E+00
         0.00000E+00
         0.00000E+00
         0.00000E+00
         0.00000E+00
         0.00000E+00
         0.00000E+00
         0.00000E+00
         0.00000E+00
         0.00000E+00
         0.00000E+00
         0.00000E+00
         0.00000E+00
         0.00000E+00
         0.00000E+00
         0.00000E+00
         0.00000E+00
         0.00000E+00
         0.00000E+00
         0.00000E+00
         0.00000E+00
         0.00000E+00
         0.00000E+00
         0.00000E+00
         0.00000E+00
         0.00000E+00
         0.00000E+00
         0.00000E+00
         0.00000E+00
         0.00000E+00
         0.00000E+00
         0.00000E+00
         0.00000E+00
         0.00000E+00
         0.00000E+00
         0.00000E+00
         0.00000E+00
         0.00000E+00
         0.00000E+00
         0.00000E+00
         0.00000E+00
         0.00000E+00
         0.00000E+00
         0.00000E+00
         0.00000E+00
         0.00000E+00
         0.00000E+00
         0.00000E+00
         0.00000E+00
         0.00000E+00
         0.00000E+00
         0.00000E+00
         0.00000E+00
         0.00000E+00
         0.00000E+00
         0.00000E+00
         0.00000E+00
         0.00000E+00
         0.00000E+00
         0.00000E+00
         0.00000E+00
         0.00000E+00
         0.00000E+00
         0.00000E+00
         0.00000E+00
         0.00000E+00
         0.00000E+00
         0.00000E+00
         0.00000E+00
         0.00000E+00
         0.00000E+00
         0.00000E+00
         0.00000E+00
         0.00000E+00
         0.00000E+00
         0.00000E+00
         0.00000E+00
         0.00000E+00
         0.00000E+00
         0.00000E+00
         0.00000E+00
         0.00000E+00
         0.00000E+00
         0.00000E+00
         0.00000E+00
         0.00000E+00
         0.00000E+00
         0.00000E+00
         0.00000E+00
         0.00000E+00
         0.00000E+00
         0.00000E+00
         0.00000E+00
         0.00000E+00
         0.00000E+00
         0.00000E+00
         0.00000E+00
         0.00000E+00
         0.00000E+00
         0.00000E+00
         0.00000E+00
         0.00000E+00
         0.00000E+00
         0.00000E+00
         0.00000E+00
         0.00000E+00
         0.00000E+00
         0.00000E+00
         0.00000E+00
         0.00000E+00
         0.00000E+00
         0.00000E+00
         0.00000E+00
         0.00000E+00
         0.00000E+00
         0.00000E+00
         0.00000E+00
         0.00000E+00
         0.00000E+00
         0.00000E+00
         0.00000E+00
         0.00000E+00
         0.00000E+00
         0.00000E+00
         0.00000E+00
         0.00000E+00
         0.00000E+00
         0.00000E+00
         0.00000E+00
         0.00000E+00
         0.00000E+00
         0.00000E+00
         0.00000E+00
         0.00000E+00
         0.00000E+00
         0.00000E+00
         0.00000E+00
         0.00000E+00
         0.00000E+00
         0.00000E+00
         0.00000E+00
         0.00000E+00
         0.00000E+00
         0.00000E+00
         0.00000E+00
         0.00000E+00
         0.00000E+00
         0.00000E+00
         0.00000E+00
         0.00000E+00
         0.00000E+00
         0.00000E+00
         0.00000E+00
         0.00000E+00
         0.00000E+00
         0.00000E+00
         0.00000E+00
         0.00000E+00
         0.00000E+00
         0.00000E+00
         0.00000E+00
         0.00000E+00
         0.00000E+00
         0.00000E+00
         0.00000E+00
         0.00000E+00
         0.00000E+00
         0.00000E+00
         0.00000E+00
         0.00000E+00
         0.00000E+00
         0.00000E+00
         0.00000E+00
         0.00000E+00
         0.00000E+00
         0.00000E+00
         0.00000E+00
         0.00000E+00
         0.00000E+00
         0.00000E+00
         0.00000E+00
         0.00000E+00
         0.00000E+00
         0.00000E+00
         0.00000E+00
         0.00000E+00
         0.00000E+00
         0.00000E+00
         0.00000E+00
         0.00000E+00
         0.00000E+00
         0.00000E+00
         0.00000E+00
         0.00000E+00
         0.00000E+00
         0.00000E+00
         0.00000E+00
         0.00000E+00
         0.00000E+00
         0.00000E+00
         0.00000E+00
         0.00000E+00
         0.00000E+00
         0.00000E+00
         0.00000E+00
         0.00000E+00
         0.00000E+00
         0.00000E+00
         0.00000E+00
         0.00000E+00
         0.00000E+00
         0.00000E+00
         0.00000E+00
         0.00000E+00
         0.00000E+00
         0.00000E+00
         0.00000E+00
         0.00000E+00
         0.00000E+00
         0.00000E+00
         0.00000E+00
         0.00000E+00
         0.00000E+00
         0.00000E+00
         0.00000E+00
         0.00000E+00
         0.00000E+00
         0.00000E+00
         0.00000E+00
         0.00000E+00
         0.00000E+00
         0.00000E+00
         0.00000E+00
         0.00000E+00
         0.00000E+00
         0.00000E+00
         0.00000E+00
         0.00000E+00
         0.00000E+00
         0.00000E+00
         0.00000E+00
         0.00000E+00
         0.00000E+00
         0.00000E+00
         0.00000E+00
         0.00000E+00
         0.00000E+00
         0.00000E+00
         0.00000E+00
         0.00000E+00
         0.00000E+00
         0.00000E+00
         0.00000E+00
         0.00000E+00
         0.00000E+00
         0.00000E+00
         0.00000E+00
         0.00000E+00
         0.00000E+00
         0.00000E+00
         0.00000E+00
         0.00000E+00
         0.00000E+00
         0.00000E+00
         0.00000E+00
         0.00000E+00
         0.00000E+00
         0.00000E+00
         0.00000E+00
         0.00000E+00
         0.00000E+00
         0.00000E+00
         0.00000E+00
         0.00000E+00
         0.00000E+00
         0.00000E+00
         0.00000E+00
         0.00000E+00
         0.00000E+00
         0.00000E+00
         0.00000E+00
         0.00000E+00
         0.00000E+00
         0.00000E+00
         0.00000E+00
         0.00000E+00
         0.00000E+00
         0.00000E+00
         0.00000E+00
         0.00000E+00
         0.00000E+00
         0.00000E+00
         0.00000E+00
         0.00000E+00
         0.00000E+00
         0.00000E+00
         0.00000E+00
         0.00000E+00
         0.00000E+00
         0.00000E+00
         0.00000E+00
         0.00000E+00
         0.00000E+00
         0.00000E+00
         0.00000E+00
         0.00000E+00
         0.00000E+00
         0.00000E+00
         0.00000E+00
         0.00000E+00
         0.00000E+00
         0.00000E+00
         0.00000E+00
         0.00000E+00
         0.00000E+00
         0.00000E+00
         0.00000E+00
         0.00000E+00
         0.00000E+00
         0.00000E+00
         0.00000E+00
         0.00000E+00
         0.00000E+00
         0.00000E+00
         0.00000E+00
         0.00000E+00
         0.00000E+00
         0.00000E+00
         0.00000E+00
  
SCALARS                 acceleration_y  double 1
LOOKUP_TABLE default
         0.00000E+00
         0.00000E+00
         0.00000E+00
         0.00000E+00
         0.00000E+00
         0.00000E+00
         0.00000E+00
         0.00000E+00
         0.00000E+00
         0.00000E+00
         0.00000E+00
         0.00000E+00
         0.00000E+00
         0.00000E+00
         0.00000E+00
         0.00000E+00
         0.00000E+00
         0.00000E+00
         0.00000E+00
         0.00000E+00
         0.00000E+00
         0.00000E+00
         0.00000E+00
         0.00000E+00
         0.00000E+00
         0.00000E+00
         0.00000E+00
         0.00000E+00
         0.00000E+00
         0.00000E+00
         0.00000E+00
         0.00000E+00
         0.00000E+00
         0.00000E+00
         0.00000E+00
         0.00000E+00
         0.00000E+00
         0.00000E+00
         0.00000E+00
         0.00000E+00
         0.00000E+00
         0.00000E+00
         0.00000E+00
         0.00000E+00
         0.00000E+00
         0.00000E+00
         0.00000E+00
         0.00000E+00
         0.00000E+00
         0.00000E+00
         0.00000E+00
         0.00000E+00
         0.00000E+00
         0.00000E+00
         0.00000E+00
         0.00000E+00
         0.00000E+00
         0.00000E+00
         0.00000E+00
         0.00000E+00
         0.00000E+00
         0.00000E+00
         0.00000E+00
         0.00000E+00
         0.00000E+00
         0.00000E+00
         0.00000E+00
         0.00000E+00
         0.00000E+00
         0.00000E+00
         0.00000E+00
         0.00000E+00
         0.00000E+00
         0.00000E+00
         0.00000E+00
         0.00000E+00
         0.00000E+00
         0.00000E+00
         0.00000E+00
         0.00000E+00
         0.00000E+00
         0.00000E+00
         0.00000E+00
         0.00000E+00
         0.00000E+00
         0.00000E+00
         0.00000E+00
         0.00000E+00
         0.00000E+00
         0.00000E+00
         0.00000E+00
         0.00000E+00
         0.00000E+00
         0.00000E+00
         0.00000E+00
         0.00000E+00
         0.00000E+00
         0.00000E+00
         0.00000E+00
         0.00000E+00
         0.00000E+00
         0.00000E+00
         0.00000E+00
         0.00000E+00
         0.00000E+00
         0.00000E+00
         0.00000E+00
         0.00000E+00
         0.00000E+00
         0.00000E+00
         0.00000E+00
         0.00000E+00
         0.00000E+00
         0.00000E+00
         0.00000E+00
         0.00000E+00
         0.00000E+00
         0.00000E+00
         0.00000E+00
         0.00000E+00
         0.00000E+00
         0.00000E+00
         0.00000E+00
         0.00000E+00
         0.00000E+00
         0.00000E+00
         0.00000E+00
         0.00000E+00
         0.00000E+00
         0.00000E+00
         0.00000E+00
         0.00000E+00
         0.00000E+00
         0.00000E+00
         0.00000E+00
         0.00000E+00
         0.00000E+00
         0.00000E+00
         0.00000E+00
         0.00000E+00
         0.00000E+00
         0.00000E+00
         0.00000E+00
         0.00000E+00
         0.00000E+00
         0.00000E+00
         0.00000E+00
         0.00000E+00
         0.00000E+00
         0.00000E+00
         0.00000E+00
         0.00000E+00
         0.00000E+00
         0.00000E+00
         0.00000E+00
         0.00000E+00
         0.00000E+00
         0.00000E+00
         0.00000E+00
         0.00000E+00
         0.00000E+00
         0.00000E+00
         0.00000E+00
         0.00000E+00
         0.00000E+00
         0.00000E+00
         0.00000E+00
         0.00000E+00
         0.00000E+00
         0.00000E+00
         0.00000E+00
         0.00000E+00
         0.00000E+00
         0.00000E+00
         0.00000E+00
         0.00000E+00
         0.00000E+00
         0.00000E+00
         0.00000E+00
         0.00000E+00
         0.00000E+00
         0.00000E+00
         0.00000E+00
         0.00000E+00
         0.00000E+00
         0.00000E+00
         0.00000E+00
         0.00000E+00
         0.00000E+00
         0.00000E+00
         0.00000E+00
         0.00000E+00
         0.00000E+00
         0.00000E+00
         0.00000E+00
         0.00000E+00
         0.00000E+00
         0.00000E+00
         0.00000E+00
         0.00000E+00
         0.00000E+00
         0.00000E+00
         0.00000E+00
         0.00000E+00
         0.00000E+00
         0.00000E+00
         0.00000E+00
         0.00000E+00
         0.00000E+00
         0.00000E+00
         0.00000E+00
         0.00000E+00
         0.00000E+00
         0.00000E+00
         0.00000E+00
         0.00000E+00
         0.00000E+00
         0.00000E+00
         0.00000E+00
         0.00000E+00
         0.00000E+00
         0.00000E+00
         0.00000E+00
         0.00000E+00
         0.00000E+00
         0.00000E+00
         0.00000E+00
         0.00000E+00
         0.00000E+00
         0.00000E+00
         0.00000E+00
         0.00000E+00
         0.00000E+00
         0.00000E+00
         0.00000E+00
         0.00000E+00
         0.00000E+00
         0.00000E+00
         0.00000E+00
         0.00000E+00
         0.00000E+00
         0.00000E+00
         0.00000E+00
         0.00000E+00
         0.00000E+00
         0.00000E+00
         0.00000E+00
         0.00000E+00
         0.00000E+00
         0.00000E+00
         0.00000E+00
         0.00000E+00
         0.00000E+00
         0.00000E+00
         0.00000E+00
         0.00000E+00
         0.00000E+00
         0.00000E+00
         0.00000E+00
         0.00000E+00
         0.00000E+00
         0.00000E+00
         0.00000E+00
         0.00000E+00
         0.00000E+00
         0.00000E+00
         0.00000E+00
         0.00000E+00
         0.00000E+00
         0.00000E+00
         0.00000E+00
         0.00000E+00
         0.00000E+00
         0.00000E+00
         0.00000E+00
         0.00000E+00
         0.00000E+00
         0.00000E+00
         0.00000E+00
         0.00000E+00
         0.00000E+00
         0.00000E+00
         0.00000E+00
         0.00000E+00
         0.00000E+00
         0.00000E+00
         0.00000E+00
         0.00000E+00
         0.00000E+00
         0.00000E+00
         0.00000E+00
         0.00000E+00
         0.00000E+00
         0.00000E+00
         0.00000E+00
         0.00000E+00
         0.00000E+00
         0.00000E+00
         0.00000E+00
         0.00000E+00
         0.00000E+00
         0.00000E+00
         0.00000E+00
         0.00000E+00
         0.00000E+00
         0.00000E+00
         0.00000E+00
         0.00000E+00
         0.00000E+00
         0.00000E+00
         0.00000E+00
         0.00000E+00
         0.00000E+00
         0.00000E+00
         0.00000E+00
         0.00000E+00
         0.00000E+00
         0.00000E+00
         0.00000E+00
         0.00000E+00
         0.00000E+00
         0.00000E+00
         0.00000E+00
         0.00000E+00
         0.00000E+00
         0.00000E+00
         0.00000E+00
         0.00000E+00
         0.00000E+00
         0.00000E+00
         0.00000E+00
         0.00000E+00
         0.00000E+00
         0.00000E+00
         0.00000E+00
         0.00000E+00
         0.00000E+00
         0.00000E+00
         0.00000E+00
         0.00000E+00
         0.00000E+00
         0.00000E+00
         0.00000E+00
         0.00000E+00
         0.00000E+00
         0.00000E+00
         0.00000E+00
         0.00000E+00
         0.00000E+00
         0.00000E+00
         0.00000E+00
         0.00000E+00
         0.00000E+00
         0.00000E+00
         0.00000E+00
         0.00000E+00
         0.00000E+00
         0.00000E+00
         0.00000E+00
         0.00000E+00
         0.00000E+00
         0.00000E+00
         0.00000E+00
         0.00000E+00
         0.00000E+00
         0.00000E+00
         0.00000E+00
         0.00000E+00
         0.00000E+00
         0.00000E+00
         0.00000E+00
         0.00000E+00
         0.00000E+00
         0.00000E+00
         0.00000E+00
         0.00000E+00
         0.00000E+00
         0.00000E+00
         0.00000E+00
         0.00000E+00
         0.00000E+00
         0.00000E+00
         0.00000E+00
         0.00000E+00
         0.00000E+00
         0.00000E+00
         0.00000E+00
         0.00000E+00
         0.00000E+00
         0.00000E+00
         0.00000E+00
         0.00000E+00
         0.00000E+00
         0.00000E+00
         0.00000E+00
         0.00000E+00
         0.00000E+00
         0.00000E+00
         0.00000E+00
         0.00000E+00
         0.00000E+00
         0.00000E+00
         0.00000E+00
         0.00000E+00
         0.00000E+00
         0.00000E+00
         0.00000E+00
         0.00000E+00
         0.00000E+00
         0.00000E+00
         0.00000E+00
         0.00000E+00
         0.00000E+00
         0.00000E+00
         0.00000E+00
         0.00000E+00
         0.00000E+00
         0.00000E+00
         0.00000E+00
         0.00000E+00
         0.00000E+00
         0.00000E+00
         0.00000E+00
         0.00000E+00
         0.00000E+00
         0.00000E+00
         0.00000E+00
         0.00000E+00
         0.00000E+00
         0.00000E+00
         0.00000E+00
         0.00000E+00
         0.00000E+00
         0.00000E+00
         0.00000E+00
         0.00000E+00
         0.00000E+00
         0.00000E+00
         0.00000E+00
         0.00000E+00
         0.00000E+00
         0.00000E+00
         0.00000E+00
         0.00000E+00
         0.00000E+00
         0.00000E+00
         0.00000E+00
         0.00000E+00
         0.00000E+00
         0.00000E+00
         0.00000E+00
         0.00000E+00
         0.00000E+00
         0.00000E+00
         0.00000E+00
         0.00000E+00
         0.00000E+00
         0.00000E+00
         0.00000E+00
         0.00000E+00
         0.00000E+00
         0.00000E+00
         0.00000E+00
         0.00000E+00
         0.00000E+00
         0.00000E+00
         0.00000E+00
         0.00000E+00
         0.00000E+00
         0.00000E+00
         0.00000E+00
         0.00000E+00
         0.00000E+00
         0.00000E+00
         0.00000E+00
         0.00000E+00
         0.00000E+00
         0.00000E+00
         0.00000E+00
         0.00000E+00
         0.00000E+00
         0.00000E+00
         0.00000E+00
         0.00000E+00
         0.00000E+00
         0.00000E+00
         0.00000E+00
         0.00000E+00
         0.00000E+00
         0.00000E+00
         0.00000E+00
         0.00000E+00
         0.00000E+00
         0.00000E+00
         0.00000E+00
         0.00000E+00
         0.00000E+00
         0.00000E+00
         0.00000E+00
         0.00000E+00
         0.00000E+00
         0.00000E+00
         0.00000E+00
         0.00000E+00
         0.00000E+00
         0.00000E+00
         0.00000E+00
         0.00000E+00
         0.00000E+00
         0.00000E+00
         0.00000E+00
         0.00000E+00
         0.00000E+00
         0.00000E+00
         0.00000E+00
         0.00000E+00
         0.00000E+00
         0.00000E+00
         0.00000E+00
         0.00000E+00
         0.00000E+00
         0.00000E+00
         0.00000E+00
         0.00000E+00
         0.00000E+00
         0.00000E+00
         0.00000E+00
         0.00000E+00
         0.00000E+00
         0.00000E+00
         0.00000E+00
         0.00000E+00
         0.00000E+00
         0.00000E+00
         0.00000E+00
         0.00000E+00
         0.00000E+00
         0.00000E+00
         0.00000E+00
         0.00000E+00
         0.00000E+00
         0.00000E+00
         0.00000E+00
         0.00000E+00
         0.00000E+00
         0.00000E+00
         0.00000E+00
         0.00000E+00
         0.00000E+00
         0.00000E+00
         0.00000E+00
         0.00000E+00
         0.00000E+00
         0.00000E+00
         0.00000E+00
         0.00000E+00
         0.00000E+00
         0.00000E+00
         0.00000E+00
         0.00000E+00
         0.00000E+00
         0.00000E+00
         0.00000E+00
         0.00000E+00
         0.00000E+00
         0.00000E+00
         0.00000E+00
         0.00000E+00
         0.00000E+00
         0.00000E+00
         0.00000E+00
         0.00000E+00
         0.00000E+00
         0.00000E+00
         0.00000E+00
         0.00000E+00
         0.00000E+00
         0.00000E+00
         0.00000E+00
         0.00000E+00
         0.00000E+00
         0.00000E+00
         0.00000E+00
         0.00000E+00
         0.00000E+00
         0.00000E+00
         0.00000E+00
         0.00000E+00
         0.00000E+00
         0.00000E+00
         0.00000E+00
         0.00000E+00
         0.00000E+00
         0.00000E+00
         0.00000E+00
         0.00000E+00
         0.00000E+00
         0.00000E+00
         0.00000E+00
         0.00000E+00
         0.00000E+00
         0.00000E+00
         0.00000E+00
         0.00000E+00
         0.00000E+00
         0.00000E+00
         0.00000E+00
         0.00000E+00
         0.00000E+00
         0.00000E+00
         0.00000E+00
         0.00000E+00
         0.00000E+00
         0.00000E+00
         0.00000E+00
         0.00000E+00
         0.00000E+00
         0.00000E+00
         0.00000E+00
         0.00000E+00
         0.00000E+00
         0.00000E+00
         0.00000E+00
         0.00000E+00
         0.00000E+00
         0.00000E+00
         0.00000E+00
         0.00000E+00
         0.00000E+00
         0.00000E+00
         0.00000E+00
         0.00000E+00
         0.00000E+00
         0.00000E+00
         0.00000E+00
         0.00000E+00
         0.00000E+00
         0.00000E+00
         0.00000E+00
         0.00000E+00
         0.00000E+00
         0.00000E+00
         0.00000E+00
         0.00000E+00
         0.00000E+00
         0.00000E+00
         0.00000E+00
         0.00000E+00
         0.00000E+00
         0.00000E+00
         0.00000E+00
         0.00000E+00
         0.00000E+00
         0.00000E+00
         0.00000E+00
         0.00000E+00
         0.00000E+00
         0.00000E+00
         0.00000E+00
         0.00000E+00
         0.00000E+00
         0.00000E+00
         0.00000E+00
         0.00000E+00
         0.00000E+00
         0.00000E+00
         0.00000E+00
         0.00000E+00
         0.00000E+00
         0.00000E+00
         0.00000E+00
         0.00000E+00
         0.00000E+00
         0.00000E+00
         0.00000E+00
         0.00000E+00
         0.00000E+00
         0.00000E+00
         0.00000E+00
         0.00000E+00
         0.00000E+00
         0.00000E+00
         0.00000E+00
         0.00000E+00
         0.00000E+00
         0.00000E+00
         0.00000E+00
         0.00000E+00
         0.00000E+00
         0.00000E+00
         0.00000E+00
         0.00000E+00
         0.00000E+00
         0.00000E+00
         0.00000E+00
         0.00000E+00
         0.00000E+00
         0.00000E+00
         0.00000E+00
         0.00000E+00
         0.00000E+00
         0.00000E+00
         0.00000E+00
         0.00000E+00
         0.00000E+00
         0.00000E+00
         0.00000E+00
         0.00000E+00
         0.00000E+00
         0.00000E+00
         0.00000E+00
         0.00000E+00
         0.00000E+00
         0.00000E+00
         0.00000E+00
         0.00000E+00
         0.00000E+00
         0.00000E+00
         0.00000E+00
         0.00000E+00
         0.00000E+00
         0.00000E+00
         0.00000E+00
         0.00000E+00
         0.00000E+00
         0.00000E+00
         0.00000E+00
         0.00000E+00
         0.00000E+00
         0.00000E+00
         0.00000E+00
         0.00000E+00
         0.00000E+00
         0.00000E+00
         0.00000E+00
         0.00000E+00
         0.00000E+00
         0.00000E+00
         0.00000E+00
         0.00000E+00
         0.00000E+00
         0.00000E+00
         0.00000E+00
         0.00000E+00
         0.00000E+00
         0.00000E+00
         0.00000E+00
         0.00000E+00
         0.00000E+00
         0.00000E+00
         0.00000E+00
         0.00000E+00
         0.00000E+00
         0.00000E+00
         0.00000E+00
         0.00000E+00
         0.00000E+00
         0.00000E+00
         0.00000E+00
         0.00000E+00
         0.00000E+00
         0.00000E+00
         0.00000E+00
         0.00000E+00
         0.00000E+00
         0.00000E+00
         0.00000E+00
         0.00000E+00
         0.00000E+00
         0.00000E+00
         0.00000E+00
         0.00000E+00
         0.00000E+00
         0.00000E+00
         0.00000E+00
         0.00000E+00
         0.00000E+00
         0.00000E+00
         0.00000E+00
         0.00000E+00
         0.00000E+00
         0.00000E+00
         0.00000E+00
         0.00000E+00
         0.00000E+00
         0.00000E+00
         0.00000E+00
         0.00000E+00
         0.00000E+00
         0.00000E+00
         0.00000E+00
         0.00000E+00
         0.00000E+00
         0.00000E+00
         0.00000E+00
         0.00000E+00
         0.00000E+00
         0.00000E+00
         0.00000E+00
         0.00000E+00
         0.00000E+00
         0.00000E+00
         0.00000E+00
         0.00000E+00
         0.00000E+00
         0.00000E+00
         0.00000E+00
         0.00000E+00
         0.00000E+00
         0.00000E+00
         0.00000E+00
         0.00000E+00
         0.00000E+00
         0.00000E+00
         0.00000E+00
         0.00000E+00
         0.00000E+00
         0.00000E+00
         0.00000E+00
         0.00000E+00
         0.00000E+00
         0.00000E+00
         0.00000E+00
         0.00000E+00
         0.00000E+00
         0.00000E+00
         0.00000E+00
         0.00000E+00
         0.00000E+00
         0.00000E+00
         0.00000E+00
         0.00000E+00
         0.00000E+00
         0.00000E+00
         0.00000E+00
         0.00000E+00
         0.00000E+00
         0.00000E+00
         0.00000E+00
         0.00000E+00
         0.00000E+00
         0.00000E+00
         0.00000E+00
         0.00000E+00
         0.00000E+00
         0.00000E+00
         0.00000E+00
         0.00000E+00
         0.00000E+00
         0.00000E+00
         0.00000E+00
         0.00000E+00
         0.00000E+00
         0.00000E+00
         0.00000E+00
         0.00000E+00
         0.00000E+00
         0.00000E+00
         0.00000E+00
         0.00000E+00
         0.00000E+00
         0.00000E+00
         0.00000E+00
         0.00000E+00
         0.00000E+00
         0.00000E+00
         0.00000E+00
         0.00000E+00
         0.00000E+00
         0.00000E+00
         0.00000E+00
         0.00000E+00
         0.00000E+00
         0.00000E+00
         0.00000E+00
         0.00000E+00
         0.00000E+00
         0.00000E+00
         0.00000E+00
         0.00000E+00
         0.00000E+00
         0.00000E+00
         0.00000E+00
         0.00000E+00
         0.00000E+00
         0.00000E+00
         0.00000E+00
         0.00000E+00
         0.00000E+00
         0.00000E+00
         0.00000E+00
         0.00000E+00
         0.00000E+00
         0.00000E+00
         0.00000E+00
         0.00000E+00
         0.00000E+00
         0.00000E+00
         0.00000E+00
         0.00000E+00
         0.00000E+00
         0.00000E+00
         0.00000E+00
         0.00000E+00
         0.00000E+00
         0.00000E+00
         0.00000E+00
         0.00000E+00
         0.00000E+00
         0.00000E+00
         0.00000E+00
         0.00000E+00
         0.00000E+00
         0.00000E+00
         0.00000E+00
         0.00000E+00
         0.00000E+00
         0.00000E+00
         0.00000E+00
         0.00000E+00
         0.00000E+00
         0.00000E+00
         0.00000E+00
         0.00000E+00
         0.00000E+00
         0.00000E+00
         0.00000E+00
         0.00000E+00
         0.00000E+00
         0.00000E+00
         0.00000E+00
         0.00000E+00
         0.00000E+00
         0.00000E+00
         0.00000E+00
         0.00000E+00
         0.00000E+00
         0.00000E+00
         0.00000E+00
         0.00000E+00
         0.00000E+00
         0.00000E+00
         0.00000E+00
         0.00000E+00
         0.00000E+00
         0.00000E+00
         0.00000E+00
         0.00000E+00
         0.00000E+00
         0.00000E+00
         0.00000E+00
         0.00000E+00
         0.00000E+00
         0.00000E+00
         0.00000E+00
         0.00000E+00
         0.00000E+00
         0.00000E+00
         0.00000E+00
         0.00000E+00
         0.00000E+00
         0.00000E+00
         0.00000E+00
         0.00000E+00
         0.00000E+00
         0.00000E+00
         0.00000E+00
         0.00000E+00
         0.00000E+00
         0.00000E+00
         0.00000E+00
         0.00000E+00
         0.00000E+00
         0.00000E+00
         0.00000E+00
         0.00000E+00
         0.00000E+00
         0.00000E+00
         0.00000E+00
         0.00000E+00
         0.00000E+00
         0.00000E+00
         0.00000E+00
         0.00000E+00
         0.00000E+00
         0.00000E+00
         0.00000E+00
         0.00000E+00
         0.00000E+00
         0.00000E+00
         0.00000E+00
         0.00000E+00
         0.00000E+00
         0.00000E+00
         0.00000E+00
         0.00000E+00
         0.00000E+00
         0.00000E+00
         0.00000E+00
         0.00000E+00
         0.00000E+00
         0.00000E+00
         0.00000E+00
         0.00000E+00
         0.00000E+00
         0.00000E+00
         0.00000E+00
         0.00000E+00
         0.00000E+00
         0.00000E+00
         0.00000E+00
         0.00000E+00
         0.00000E+00
         0.00000E+00
         0.00000E+00
         0.00000E+00
         0.00000E+00
         0.00000E+00
         0.00000E+00
         0.00000E+00
         0.00000E+00
         0.00000E+00
         0.00000E+00
         0.00000E+00
         0.00000E+00
         0.00000E+00
         0.00000E+00
         0.00000E+00
         0.00000E+00
         0.00000E+00
         0.00000E+00
         0.00000E+00
         0.00000E+00
         0.00000E+00
         0.00000E+00
         0.00000E+00
         0.00000E+00
         0.00000E+00
         0.00000E+00
         0.00000E+00
         0.00000E+00
         0.00000E+00
         0.00000E+00
         0.00000E+00
         0.00000E+00
         0.00000E+00
         0.00000E+00
         0.00000E+00
         0.00000E+00
         0.00000E+00
         0.00000E+00
         0.00000E+00
         0.00000E+00
         0.00000E+00
         0.00000E+00
         0.00000E+00
         0.00000E+00
         0.00000E+00
         0.00000E+00
         0.00000E+00
         0.00000E+00
         0.00000E+00
         0.00000E+00
         0.00000E+00
         0.00000E+00
         0.00000E+00
         0.00000E+00
         0.00000E+00
         0.00000E+00
         0.00000E+00
         0.00000E+00
         0.00000E+00
         0.00000E+00
         0.00000E+00
         0.00000E+00
         0.00000E+00
         0.00000E+00
         0.00000E+00
         0.00000E+00
         0.00000E+00
         0.00000E+00
         0.00000E+00
         0.00000E+00
         0.00000E+00
         0.00000E+00
         0.00000E+00
         0.00000E+00
         0.00000E+00
         0.00000E+00
         0.00000E+00
         0.00000E+00
         0.00000E+00
         0.00000E+00
         0.00000E+00
         0.00000E+00
         0.00000E+00
         0.00000E+00
         0.00000E+00
         0.00000E+00
         0.00000E+00
         0.00000E+00
         0.00000E+00
         0.00000E+00
         0.00000E+00
         0.00000E+00
         0.00000E+00
         0.00000E+00
         0.00000E+00
         0.00000E+00
         0.00000E+00
         0.00000E+00
         0.00000E+00
         0.00000E+00
         0.00000E+00
         0.00000E+00
         0.00000E+00
         0.00000E+00
         0.00000E+00
         0.00000E+00
         0.00000E+00
         0.00000E+00
         0.00000E+00
         0.00000E+00
         0.00000E+00
         0.00000E+00
         0.00000E+00
         0.00000E+00
         0.00000E+00
         0.00000E+00
         0.00000E+00
         0.00000E+00
         0.00000E+00
         0.00000E+00
         0.00000E+00
         0.00000E+00
         0.00000E+00
         0.00000E+00
         0.00000E+00
         0.00000E+00
         0.00000E+00
         0.00000E+00
         0.00000E+00
         0.00000E+00
         0.00000E+00
         0.00000E+00
         0.00000E+00
         0.00000E+00
         0.00000E+00
         0.00000E+00
         0.00000E+00
         0.00000E+00
         0.00000E+00
         0.00000E+00
         0.00000E+00
         0.00000E+00
         0.00000E+00
         0.00000E+00
         0.00000E+00
         0.00000E+00
         0.00000E+00
         0.00000E+00
         0.00000E+00
         0.00000E+00
         0.00000E+00
         0.00000E+00
         0.00000E+00
         0.00000E+00
         0.00000E+00
         0.00000E+00
         0.00000E+00
         0.00000E+00
         0.00000E+00
         0.00000E+00
         0.00000E+00
         0.00000E+00
         0.00000E+00
         0.00000E+00
         0.00000E+00
         0.00000E+00
         0.00000E+00
         0.00000E+00
         0.00000E+00
         0.00000E+00
         0.00000E+00
         0.00000E+00
         0.00000E+00
         0.00000E+00
         0.00000E+00
         0.00000E+00
         0.00000E+00
         0.00000E+00
         0.00000E+00
         0.00000E+00
         0.00000E+00
         0.00000E+00
         0.00000E+00
         0.00000E+00
         0.00000E+00
         0.00000E+00
         0.00000E+00
         0.00000E+00
         0.00000E+00
         0.00000E+00
         0.00000E+00
         0.00000E+00
         0.00000E+00
         0.00000E+00
         0.00000E+00
         0.00000E+00
         0.00000E+00
         0.00000E+00
         0.00000E+00
         0.00000E+00
         0.00000E+00
         0.00000E+00
         0.00000E+00
         0.00000E+00
         0.00000E+00
         0.00000E+00
         0.00000E+00
         0.00000E+00
         0.00000E+00
         0.00000E+00
         0.00000E+00
         0.00000E+00
         0.00000E+00
         0.00000E+00
         0.00000E+00
         0.00000E+00
         0.00000E+00
         0.00000E+00
         0.00000E+00
         0.00000E+00
         0.00000E+00
         0.00000E+00
         0.00000E+00
         0.00000E+00
         0.00000E+00
         0.00000E+00
         0.00000E+00
         0.00000E+00
         0.00000E+00
         0.00000E+00
         0.00000E+00
         0.00000E+00
         0.00000E+00
         0.00000E+00
         0.00000E+00
         0.00000E+00
         0.00000E+00
         0.00000E+00
         0.00000E+00
         0.00000E+00
         0.00000E+00
         0.00000E+00
         0.00000E+00
         0.00000E+00
         0.00000E+00
         0.00000E+00
         0.00000E+00
         0.00000E+00
         0.00000E+00
         0.00000E+00
         0.00000E+00
         0.00000E+00
         0.00000E+00
         0.00000E+00
         0.00000E+00
         0.00000E+00
         0.00000E+00
         0.00000E+00
         0.00000E+00
         0.00000E+00
         0.00000E+00
         0.00000E+00
         0.00000E+00
         0.00000E+00
         0.00000E+00
         0.00000E+00
         0.00000E+00
         0.00000E+00
         0.00000E+00
         0.00000E+00
         0.00000E+00
         0.00000E+00
         0.00000E+00
         0.00000E+00
         0.00000E+00
         0.00000E+00
         0.00000E+00
         0.00000E+00
         0.00000E+00
         0.00000E+00
         0.00000E+00
         0.00000E+00
         0.00000E+00
         0.00000E+00
         0.00000E+00
         0.00000E+00
         0.00000E+00
         0.00000E+00
         0.00000E+00
         0.00000E+00
         0.00000E+00
         0.00000E+00
         0.00000E+00
         0.00000E+00
         0.00000E+00
         0.00000E+00
         0.00000E+00
         0.00000E+00
         0.00000E+00
         0.00000E+00
         0.00000E+00
         0.00000E+00
         0.00000E+00
         0.00000E+00
         0.00000E+00
         0.00000E+00
         0.00000E+00
         0.00000E+00
         0.00000E+00
         0.00000E+00
         0.00000E+00
         0.00000E+00
         0.00000E+00
         0.00000E+00
         0.00000E+00
         0.00000E+00
         0.00000E+00
         0.00000E+00
         0.00000E+00
         0.00000E+00
         0.00000E+00
         0.00000E+00
         0.00000E+00
         0.00000E+00
         0.00000E+00
         0.00000E+00
         0.00000E+00
         0.00000E+00
         0.00000E+00
         0.00000E+00
         0.00000E+00
         0.00000E+00
         0.00000E+00
         0.00000E+00
         0.00000E+00
         0.00000E+00
         0.00000E+00
         0.00000E+00
         0.00000E+00
         0.00000E+00
         0.00000E+00
         0.00000E+00
         0.00000E+00
         0.00000E+00
         0.00000E+00
         0.00000E+00
         0.00000E+00
         0.00000E+00
         0.00000E+00
         0.00000E+00
         0.00000E+00
         0.00000E+00
         0.00000E+00
         0.00000E+00
         0.00000E+00
         0.00000E+00
         0.00000E+00
         0.00000E+00
         0.00000E+00
         0.00000E+00
         0.00000E+00
         0.00000E+00
         0.00000E+00
         0.00000E+00
         0.00000E+00
         0.00000E+00
         0.00000E+00
         0.00000E+00
         0.00000E+00
         0.00000E+00
         0.00000E+00
         0.00000E+00
         0.00000E+00
         0.00000E+00
         0.00000E+00
         0.00000E+00
         0.00000E+00
         0.00000E+00
         0.00000E+00
         0.00000E+00
         0.00000E+00
         0.00000E+00
         0.00000E+00
         0.00000E+00
         0.00000E+00
         0.00000E+00
         0.00000E+00
         0.00000E+00
         0.00000E+00
         0.00000E+00
         0.00000E+00
         0.00000E+00
         0.00000E+00
         0.00000E+00
         0.00000E+00
         0.00000E+00
         0.00000E+00
         0.00000E+00
         0.00000E+00
         0.00000E+00
         0.00000E+00
         0.00000E+00
         0.00000E+00
         0.00000E+00
         0.00000E+00
         0.00000E+00
         0.00000E+00
         0.00000E+00
         0.00000E+00
         0.00000E+00
         0.00000E+00
         0.00000E+00
         0.00000E+00
         0.00000E+00
         0.00000E+00
         0.00000E+00
         0.00000E+00
         0.00000E+00
         0.00000E+00
         0.00000E+00
         0.00000E+00
         0.00000E+00
         0.00000E+00
         0.00000E+00
         0.00000E+00
         0.00000E+00
         0.00000E+00
         0.00000E+00
         0.00000E+00
         0.00000E+00
         0.00000E+00
         0.00000E+00
         0.00000E+00
         0.00000E+00
         0.00000E+00
         0.00000E+00
         0.00000E+00
         0.00000E+00
         0.00000E+00
         0.00000E+00
         0.00000E+00
         0.00000E+00
         0.00000E+00
         0.00000E+00
         0.00000E+00
         0.00000E+00
         0.00000E+00
         0.00000E+00
         0.00000E+00
         0.00000E+00
         0.00000E+00
         0.00000E+00
         0.00000E+00
         0.00000E+00
         0.00000E+00
         0.00000E+00
         0.00000E+00
         0.00000E+00
         0.00000E+00
         0.00000E+00
         0.00000E+00
         0.00000E+00
         0.00000E+00
         0.00000E+00
         0.00000E+00
         0.00000E+00
         0.00000E+00
         0.00000E+00
         0.00000E+00
         0.00000E+00
         0.00000E+00
         0.00000E+00
         0.00000E+00
         0.00000E+00
         0.00000E+00
         0.00000E+00
         0.00000E+00
         0.00000E+00
         0.00000E+00
         0.00000E+00
         0.00000E+00
         0.00000E+00
         0.00000E+00
         0.00000E+00
         0.00000E+00
         0.00000E+00
         0.00000E+00
         0.00000E+00
         0.00000E+00
         0.00000E+00
         0.00000E+00
         0.00000E+00
         0.00000E+00
         0.00000E+00
         0.00000E+00
         0.00000E+00
         0.00000E+00
         0.00000E+00
         0.00000E+00
         0.00000E+00
         0.00000E+00
         0.00000E+00
         0.00000E+00
         0.00000E+00
         0.00000E+00
         0.00000E+00
         0.00000E+00
         0.00000E+00
         0.00000E+00
         0.00000E+00
         0.00000E+00
         0.00000E+00
         0.00000E+00
         0.00000E+00
         0.00000E+00
         0.00000E+00
         0.00000E+00
         0.00000E+00
         0.00000E+00
         0.00000E+00
         0.00000E+00
         0.00000E+00
         0.00000E+00
         0.00000E+00
         0.00000E+00
         0.00000E+00
         0.00000E+00
         0.00000E+00
         0.00000E+00
         0.00000E+00
         0.00000E+00
         0.00000E+00
         0.00000E+00
         0.00000E+00
         0.00000E+00
         0.00000E+00
         0.00000E+00
         0.00000E+00
         0.00000E+00
         0.00000E+00
         0.00000E+00
         0.00000E+00
         0.00000E+00
         0.00000E+00
         0.00000E+00
         0.00000E+00
         0.00000E+00
         0.00000E+00
         0.00000E+00
         0.00000E+00
         0.00000E+00
         0.00000E+00
         0.00000E+00
         0.00000E+00
         0.00000E+00
         0.00000E+00
         0.00000E+00
         0.00000E+00
         0.00000E+00
         0.00000E+00
         0.00000E+00
         0.00000E+00
         0.00000E+00
         0.00000E+00
         0.00000E+00
         0.00000E+00
         0.00000E+00
         0.00000E+00
         0.00000E+00
         0.00000E+00
         0.00000E+00
         0.00000E+00
         0.00000E+00
         0.00000E+00
         0.00000E+00
         0.00000E+00
         0.00000E+00
         0.00000E+00
         0.00000E+00
         0.00000E+00
         0.00000E+00
         0.00000E+00
         0.00000E+00
         0.00000E+00
         0.00000E+00
         0.00000E+00
         0.00000E+00
         0.00000E+00
         0.00000E+00
         0.00000E+00
         0.00000E+00
         0.00000E+00
         0.00000E+00
         0.00000E+00
         0.00000E+00
         0.00000E+00
         0.00000E+00
         0.00000E+00
         0.00000E+00
         0.00000E+00
         0.00000E+00
         0.00000E+00
         0.00000E+00
         0.00000E+00
         0.00000E+00
         0.00000E+00
         0.00000E+00
         0.00000E+00
         0.00000E+00
         0.00000E+00
         0.00000E+00
         0.00000E+00
         0.00000E+00
         0.00000E+00
         0.00000E+00
         0.00000E+00
         0.00000E+00
         0.00000E+00
         0.00000E+00
         0.00000E+00
         0.00000E+00
         0.00000E+00
         0.00000E+00
         0.00000E+00
         0.00000E+00
         0.00000E+00
         0.00000E+00
         0.00000E+00
         0.00000E+00
         0.00000E+00
         0.00000E+00
         0.00000E+00
         0.00000E+00
         0.00000E+00
         0.00000E+00
         0.00000E+00
         0.00000E+00
         0.00000E+00
         0.00000E+00
         0.00000E+00
         0.00000E+00
         0.00000E+00
         0.00000E+00
         0.00000E+00
         0.00000E+00
         0.00000E+00
         0.00000E+00
         0.00000E+00
         0.00000E+00
         0.00000E+00
         0.00000E+00
         0.00000E+00
         0.00000E+00
         0.00000E+00
         0.00000E+00
         0.00000E+00
         0.00000E+00
         0.00000E+00
         0.00000E+00
         0.00000E+00
         0.00000E+00
         0.00000E+00
         0.00000E+00
         0.00000E+00
         0.00000E+00
         0.00000E+00
         0.00000E+00
         0.00000E+00
         0.00000E+00
         0.00000E+00
         0.00000E+00
         0.00000E+00
         0.00000E+00
         0.00000E+00
         0.00000E+00
         0.00000E+00
         0.00000E+00
         0.00000E+00
         0.00000E+00
         0.00000E+00
         0.00000E+00
         0.00000E+00
         0.00000E+00
         0.00000E+00
         0.00000E+00
         0.00000E+00
         0.00000E+00
         0.00000E+00
         0.00000E+00
         0.00000E+00
         0.00000E+00
         0.00000E+00
         0.00000E+00
         0.00000E+00
         0.00000E+00
         0.00000E+00
         0.00000E+00
         0.00000E+00
         0.00000E+00
         0.00000E+00
         0.00000E+00
         0.00000E+00
         0.00000E+00
         0.00000E+00
         0.00000E+00
         0.00000E+00
         0.00000E+00
         0.00000E+00
         0.00000E+00
         0.00000E+00
         0.00000E+00
         0.00000E+00
         0.00000E+00
         0.00000E+00
         0.00000E+00
         0.00000E+00
         0.00000E+00
         0.00000E+00
         0.00000E+00
         0.00000E+00
         0.00000E+00
         0.00000E+00
         0.00000E+00
         0.00000E+00
         0.00000E+00
         0.00000E+00
         0.00000E+00
         0.00000E+00
         0.00000E+00
         0.00000E+00
         0.00000E+00
         0.00000E+00
         0.00000E+00
         0.00000E+00
         0.00000E+00
         0.00000E+00
         0.00000E+00
         0.00000E+00
         0.00000E+00
         0.00000E+00
         0.00000E+00
         0.00000E+00
         0.00000E+00
         0.00000E+00
         0.00000E+00
         0.00000E+00
         0.00000E+00
         0.00000E+00
         0.00000E+00
         0.00000E+00
         0.00000E+00
         0.00000E+00
         0.00000E+00
         0.00000E+00
         0.00000E+00
         0.00000E+00
         0.00000E+00
         0.00000E+00
         0.00000E+00
         0.00000E+00
         0.00000E+00
         0.00000E+00
         0.00000E+00
         0.00000E+00
         0.00000E+00
         0.00000E+00
         0.00000E+00
         0.00000E+00
         0.00000E+00
         0.00000E+00
         0.00000E+00
         0.00000E+00
         0.00000E+00
         0.00000E+00
         0.00000E+00
         0.00000E+00
         0.00000E+00
         0.00000E+00
         0.00000E+00
         0.00000E+00
         0.00000E+00
         0.00000E+00
         0.00000E+00
         0.00000E+00
         0.00000E+00
         0.00000E+00
         0.00000E+00
         0.00000E+00
         0.00000E+00
         0.00000E+00
         0.00000E+00
         0.00000E+00
         0.00000E+00
         0.00000E+00
         0.00000E+00
         0.00000E+00
         0.00000E+00
         0.00000E+00
         0.00000E+00
         0.00000E+00
         0.00000E+00
         0.00000E+00
         0.00000E+00
         0.00000E+00
         0.00000E+00
         0.00000E+00
         0.00000E+00
         0.00000E+00
         0.00000E+00
         0.00000E+00
         0.00000E+00
         0.00000E+00
         0.00000E+00
         0.00000E+00
         0.00000E+00
         0.00000E+00
         0.00000E+00
         0.00000E+00
         0.00000E+00
         0.00000E+00
         0.00000E+00
         0.00000E+00
         0.00000E+00
         0.00000E+00
         0.00000E+00
         0.00000E+00
         0.00000E+00
         0.00000E+00
         0.00000E+00
         0.00000E+00
         0.00000E+00
         0.00000E+00
         0.00000E+00
         0.00000E+00
         0.00000E+00
         0.00000E+00
         0.00000E+00
         0.00000E+00
         0.00000E+00
         0.00000E+00
         0.00000E+00
         0.00000E+00
         0.00000E+00
         0.00000E+00
         0.00000E+00
         0.00000E+00
         0.00000E+00
         0.00000E+00
         0.00000E+00
         0.00000E+00
         0.00000E+00
         0.00000E+00
         0.00000E+00
         0.00000E+00
         0.00000E+00
         0.00000E+00
         0.00000E+00
         0.00000E+00
         0.00000E+00
         0.00000E+00
         0.00000E+00
         0.00000E+00
         0.00000E+00
         0.00000E+00
         0.00000E+00
         0.00000E+00
         0.00000E+00
         0.00000E+00
         0.00000E+00
         0.00000E+00
         0.00000E+00
         0.00000E+00
         0.00000E+00
         0.00000E+00
         0.00000E+00
         0.00000E+00
         0.00000E+00
         0.00000E+00
         0.00000E+00
         0.00000E+00
         0.00000E+00
         0.00000E+00
         0.00000E+00
         0.00000E+00
         0.00000E+00
         0.00000E+00
         0.00000E+00
         0.00000E+00
         0.00000E+00
         0.00000E+00
         0.00000E+00
         0.00000E+00
         0.00000E+00
         0.00000E+00
         0.00000E+00
         0.00000E+00
         0.00000E+00
         0.00000E+00
         0.00000E+00
         0.00000E+00
         0.00000E+00
         0.00000E+00
         0.00000E+00
         0.00000E+00
         0.00000E+00
         0.00000E+00
         0.00000E+00
         0.00000E+00
         0.00000E+00
         0.00000E+00
         0.00000E+00
         0.00000E+00
         0.00000E+00
         0.00000E+00
         0.00000E+00
         0.00000E+00
         0.00000E+00
         0.00000E+00
         0.00000E+00
         0.00000E+00
         0.00000E+00
         0.00000E+00
         0.00000E+00
         0.00000E+00
         0.00000E+00
         0.00000E+00
         0.00000E+00
         0.00000E+00
         0.00000E+00
         0.00000E+00
         0.00000E+00
         0.00000E+00
         0.00000E+00
         0.00000E+00
         0.00000E+00
         0.00000E+00
         0.00000E+00
  
SCALARS                 acceleration_z  double 1
LOOKUP_TABLE default
         0.00000E+00
         0.00000E+00
         0.00000E+00
         0.00000E+00
         0.00000E+00
         0.00000E+00
         0.00000E+00
         0.00000E+00
         0.00000E+00
         0.00000E+00
         0.00000E+00
         0.00000E+00
         0.00000E+00
         0.00000E+00
         0.00000E+00
         0.00000E+00
         0.00000E+00
         0.00000E+00
         0.00000E+00
         0.00000E+00
         0.00000E+00
         0.00000E+00
         0.00000E+00
         0.00000E+00
         0.00000E+00
         0.00000E+00
         0.00000E+00
         0.00000E+00
         0.00000E+00
         0.00000E+00
         0.00000E+00
         0.00000E+00
         0.00000E+00
         0.00000E+00
         0.00000E+00
         0.00000E+00
         0.00000E+00
         0.00000E+00
         0.00000E+00
         0.00000E+00
         0.00000E+00
         0.00000E+00
         0.00000E+00
         0.00000E+00
         0.00000E+00
         0.00000E+00
         0.00000E+00
         0.00000E+00
         0.00000E+00
         0.00000E+00
         0.00000E+00
         0.00000E+00
         0.00000E+00
         0.00000E+00
         0.00000E+00
         0.00000E+00
         0.00000E+00
         0.00000E+00
         0.00000E+00
         0.00000E+00
         0.00000E+00
         0.00000E+00
         0.00000E+00
         0.00000E+00
         0.00000E+00
         0.00000E+00
         0.00000E+00
         0.00000E+00
         0.00000E+00
         0.00000E+00
         0.00000E+00
         0.00000E+00
         0.00000E+00
         0.00000E+00
         0.00000E+00
         0.00000E+00
         0.00000E+00
         0.00000E+00
         0.00000E+00
         0.00000E+00
         0.00000E+00
         0.00000E+00
         0.00000E+00
         0.00000E+00
         0.00000E+00
         0.00000E+00
         0.00000E+00
         0.00000E+00
         0.00000E+00
         0.00000E+00
         0.00000E+00
         0.00000E+00
         0.00000E+00
         0.00000E+00
         0.00000E+00
         0.00000E+00
         0.00000E+00
         0.00000E+00
         0.00000E+00
         0.00000E+00
         0.00000E+00
         0.00000E+00
         0.00000E+00
         0.00000E+00
         0.00000E+00
         0.00000E+00
         0.00000E+00
         0.00000E+00
         0.00000E+00
         0.00000E+00
         0.00000E+00
         0.00000E+00
         0.00000E+00
         0.00000E+00
         0.00000E+00
         0.00000E+00
         0.00000E+00
         0.00000E+00
         0.00000E+00
         0.00000E+00
         0.00000E+00
         0.00000E+00
         0.00000E+00
         0.00000E+00
         0.00000E+00
         0.00000E+00
         0.00000E+00
         0.00000E+00
         0.00000E+00
         0.00000E+00
         0.00000E+00
         0.00000E+00
         0.00000E+00
         0.00000E+00
         0.00000E+00
         0.00000E+00
         0.00000E+00
         0.00000E+00
         0.00000E+00
         0.00000E+00
         0.00000E+00
         0.00000E+00
         0.00000E+00
         0.00000E+00
         0.00000E+00
         0.00000E+00
         0.00000E+00
         0.00000E+00
         0.00000E+00
         0.00000E+00
         0.00000E+00
         0.00000E+00
         0.00000E+00
         0.00000E+00
         0.00000E+00
         0.00000E+00
         0.00000E+00
         0.00000E+00
         0.00000E+00
         0.00000E+00
         0.00000E+00
         0.00000E+00
         0.00000E+00
         0.00000E+00
         0.00000E+00
         0.00000E+00
         0.00000E+00
         0.00000E+00
         0.00000E+00
         0.00000E+00
         0.00000E+00
         0.00000E+00
         0.00000E+00
         0.00000E+00
         0.00000E+00
         0.00000E+00
         0.00000E+00
         0.00000E+00
         0.00000E+00
         0.00000E+00
         0.00000E+00
         0.00000E+00
         0.00000E+00
         0.00000E+00
         0.00000E+00
         0.00000E+00
         0.00000E+00
         0.00000E+00
         0.00000E+00
         0.00000E+00
         0.00000E+00
         0.00000E+00
         0.00000E+00
         0.00000E+00
         0.00000E+00
         0.00000E+00
         0.00000E+00
         0.00000E+00
         0.00000E+00
         0.00000E+00
         0.00000E+00
         0.00000E+00
         0.00000E+00
         0.00000E+00
         0.00000E+00
         0.00000E+00
         0.00000E+00
         0.00000E+00
         0.00000E+00
         0.00000E+00
         0.00000E+00
         0.00000E+00
         0.00000E+00
         0.00000E+00
         0.00000E+00
         0.00000E+00
         0.00000E+00
         0.00000E+00
         0.00000E+00
         0.00000E+00
         0.00000E+00
         0.00000E+00
         0.00000E+00
         0.00000E+00
         0.00000E+00
         0.00000E+00
         0.00000E+00
         0.00000E+00
         0.00000E+00
         0.00000E+00
         0.00000E+00
         0.00000E+00
         0.00000E+00
         0.00000E+00
         0.00000E+00
         0.00000E+00
         0.00000E+00
         0.00000E+00
         0.00000E+00
         0.00000E+00
         0.00000E+00
         0.00000E+00
         0.00000E+00
         0.00000E+00
         0.00000E+00
         0.00000E+00
         0.00000E+00
         0.00000E+00
         0.00000E+00
         0.00000E+00
         0.00000E+00
         0.00000E+00
         0.00000E+00
         0.00000E+00
         0.00000E+00
         0.00000E+00
         0.00000E+00
         0.00000E+00
         0.00000E+00
         0.00000E+00
         0.00000E+00
         0.00000E+00
         0.00000E+00
         0.00000E+00
         0.00000E+00
         0.00000E+00
         0.00000E+00
         0.00000E+00
         0.00000E+00
         0.00000E+00
         0.00000E+00
         0.00000E+00
         0.00000E+00
         0.00000E+00
         0.00000E+00
         0.00000E+00
         0.00000E+00
         0.00000E+00
         0.00000E+00
         0.00000E+00
         0.00000E+00
         0.00000E+00
         0.00000E+00
         0.00000E+00
         0.00000E+00
         0.00000E+00
         0.00000E+00
         0.00000E+00
         0.00000E+00
         0.00000E+00
         0.00000E+00
         0.00000E+00
         0.00000E+00
         0.00000E+00
         0.00000E+00
         0.00000E+00
         0.00000E+00
         0.00000E+00
         0.00000E+00
         0.00000E+00
         0.00000E+00
         0.00000E+00
         0.00000E+00
         0.00000E+00
         0.00000E+00
         0.00000E+00
         0.00000E+00
         0.00000E+00
         0.00000E+00
         0.00000E+00
         0.00000E+00
         0.00000E+00
         0.00000E+00
         0.00000E+00
         0.00000E+00
         0.00000E+00
         0.00000E+00
         0.00000E+00
         0.00000E+00
         0.00000E+00
         0.00000E+00
         0.00000E+00
         0.00000E+00
         0.00000E+00
         0.00000E+00
         0.00000E+00
         0.00000E+00
         0.00000E+00
         0.00000E+00
         0.00000E+00
         0.00000E+00
         0.00000E+00
         0.00000E+00
         0.00000E+00
         0.00000E+00
         0.00000E+00
         0.00000E+00
         0.00000E+00
         0.00000E+00
         0.00000E+00
         0.00000E+00
         0.00000E+00
         0.00000E+00
         0.00000E+00
         0.00000E+00
         0.00000E+00
         0.00000E+00
         0.00000E+00
         0.00000E+00
         0.00000E+00
         0.00000E+00
         0.00000E+00
         0.00000E+00
         0.00000E+00
         0.00000E+00
         0.00000E+00
         0.00000E+00
         0.00000E+00
         0.00000E+00
         0.00000E+00
         0.00000E+00
         0.00000E+00
         0.00000E+00
         0.00000E+00
         0.00000E+00
         0.00000E+00
         0.00000E+00
         0.00000E+00
         0.00000E+00
         0.00000E+00
         0.00000E+00
         0.00000E+00
         0.00000E+00
         0.00000E+00
         0.00000E+00
         0.00000E+00
         0.00000E+00
         0.00000E+00
         0.00000E+00
         0.00000E+00
         0.00000E+00
         0.00000E+00
         0.00000E+00
         0.00000E+00
         0.00000E+00
         0.00000E+00
         0.00000E+00
         0.00000E+00
         0.00000E+00
         0.00000E+00
         0.00000E+00
         0.00000E+00
         0.00000E+00
         0.00000E+00
         0.00000E+00
         0.00000E+00
         0.00000E+00
         0.00000E+00
         0.00000E+00
         0.00000E+00
         0.00000E+00
         0.00000E+00
         0.00000E+00
         0.00000E+00
         0.00000E+00
         0.00000E+00
         0.00000E+00
         0.00000E+00
         0.00000E+00
         0.00000E+00
         0.00000E+00
         0.00000E+00
         0.00000E+00
         0.00000E+00
         0.00000E+00
         0.00000E+00
         0.00000E+00
         0.00000E+00
         0.00000E+00
         0.00000E+00
         0.00000E+00
         0.00000E+00
         0.00000E+00
         0.00000E+00
         0.00000E+00
         0.00000E+00
         0.00000E+00
         0.00000E+00
         0.00000E+00
         0.00000E+00
         0.00000E+00
         0.00000E+00
         0.00000E+00
         0.00000E+00
         0.00000E+00
         0.00000E+00
         0.00000E+00
         0.00000E+00
         0.00000E+00
         0.00000E+00
         0.00000E+00
         0.00000E+00
         0.00000E+00
         0.00000E+00
         0.00000E+00
         0.00000E+00
         0.00000E+00
         0.00000E+00
         0.00000E+00
         0.00000E+00
         0.00000E+00
         0.00000E+00
         0.00000E+00
         0.00000E+00
         0.00000E+00
         0.00000E+00
         0.00000E+00
         0.00000E+00
         0.00000E+00
         0.00000E+00
         0.00000E+00
         0.00000E+00
         0.00000E+00
         0.00000E+00
         0.00000E+00
         0.00000E+00
         0.00000E+00
         0.00000E+00
         0.00000E+00
         0.00000E+00
         0.00000E+00
         0.00000E+00
         0.00000E+00
         0.00000E+00
         0.00000E+00
         0.00000E+00
         0.00000E+00
         0.00000E+00
         0.00000E+00
         0.00000E+00
         0.00000E+00
         0.00000E+00
         0.00000E+00
         0.00000E+00
         0.00000E+00
         0.00000E+00
         0.00000E+00
         0.00000E+00
         0.00000E+00
         0.00000E+00
         0.00000E+00
         0.00000E+00
         0.00000E+00
         0.00000E+00
         0.00000E+00
         0.00000E+00
         0.00000E+00
         0.00000E+00
         0.00000E+00
         0.00000E+00
         0.00000E+00
         0.00000E+00
         0.00000E+00
         0.00000E+00
         0.00000E+00
         0.00000E+00
         0.00000E+00
         0.00000E+00
         0.00000E+00
         0.00000E+00
         0.00000E+00
         0.00000E+00
         0.00000E+00
         0.00000E+00
         0.00000E+00
         0.00000E+00
         0.00000E+00
         0.00000E+00
         0.00000E+00
         0.00000E+00
         0.00000E+00
         0.00000E+00
         0.00000E+00
         0.00000E+00
         0.00000E+00
         0.00000E+00
         0.00000E+00
         0.00000E+00
         0.00000E+00
         0.00000E+00
         0.00000E+00
         0.00000E+00
         0.00000E+00
         0.00000E+00
         0.00000E+00
         0.00000E+00
         0.00000E+00
         0.00000E+00
         0.00000E+00
         0.00000E+00
         0.00000E+00
         0.00000E+00
         0.00000E+00
         0.00000E+00
         0.00000E+00
         0.00000E+00
         0.00000E+00
         0.00000E+00
         0.00000E+00
         0.00000E+00
         0.00000E+00
         0.00000E+00
         0.00000E+00
         0.00000E+00
         0.00000E+00
         0.00000E+00
         0.00000E+00
         0.00000E+00
         0.00000E+00
         0.00000E+00
         0.00000E+00
         0.00000E+00
         0.00000E+00
         0.00000E+00
         0.00000E+00
         0.00000E+00
         0.00000E+00
         0.00000E+00
         0.00000E+00
         0.00000E+00
         0.00000E+00
         0.00000E+00
         0.00000E+00
         0.00000E+00
         0.00000E+00
         0.00000E+00
         0.00000E+00
         0.00000E+00
         0.00000E+00
         0.00000E+00
         0.00000E+00
         0.00000E+00
         0.00000E+00
         0.00000E+00
         0.00000E+00
         0.00000E+00
         0.00000E+00
         0.00000E+00
         0.00000E+00
         0.00000E+00
         0.00000E+00
         0.00000E+00
         0.00000E+00
         0.00000E+00
         0.00000E+00
         0.00000E+00
         0.00000E+00
         0.00000E+00
         0.00000E+00
         0.00000E+00
         0.00000E+00
         0.00000E+00
         0.00000E+00
         0.00000E+00
         0.00000E+00
         0.00000E+00
         0.00000E+00
         0.00000E+00
         0.00000E+00
         0.00000E+00
         0.00000E+00
         0.00000E+00
         0.00000E+00
         0.00000E+00
         0.00000E+00
         0.00000E+00
         0.00000E+00
         0.00000E+00
         0.00000E+00
         0.00000E+00
         0.00000E+00
         0.00000E+00
         0.00000E+00
         0.00000E+00
         0.00000E+00
         0.00000E+00
         0.00000E+00
         0.00000E+00
         0.00000E+00
         0.00000E+00
         0.00000E+00
         0.00000E+00
         0.00000E+00
         0.00000E+00
         0.00000E+00
         0.00000E+00
         0.00000E+00
         0.00000E+00
         0.00000E+00
         0.00000E+00
         0.00000E+00
         0.00000E+00
         0.00000E+00
         0.00000E+00
         0.00000E+00
         0.00000E+00
         0.00000E+00
         0.00000E+00
         0.00000E+00
         0.00000E+00
         0.00000E+00
         0.00000E+00
         0.00000E+00
         0.00000E+00
         0.00000E+00
         0.00000E+00
         0.00000E+00
         0.00000E+00
         0.00000E+00
         0.00000E+00
         0.00000E+00
         0.00000E+00
         0.00000E+00
         0.00000E+00
         0.00000E+00
         0.00000E+00
         0.00000E+00
         0.00000E+00
         0.00000E+00
         0.00000E+00
         0.00000E+00
         0.00000E+00
         0.00000E+00
         0.00000E+00
         0.00000E+00
         0.00000E+00
         0.00000E+00
         0.00000E+00
         0.00000E+00
         0.00000E+00
         0.00000E+00
         0.00000E+00
         0.00000E+00
         0.00000E+00
         0.00000E+00
         0.00000E+00
         0.00000E+00
         0.00000E+00
         0.00000E+00
         0.00000E+00
         0.00000E+00
         0.00000E+00
         0.00000E+00
         0.00000E+00
         0.00000E+00
         0.00000E+00
         0.00000E+00
         0.00000E+00
         0.00000E+00
         0.00000E+00
         0.00000E+00
         0.00000E+00
         0.00000E+00
         0.00000E+00
         0.00000E+00
         0.00000E+00
         0.00000E+00
         0.00000E+00
         0.00000E+00
         0.00000E+00
         0.00000E+00
         0.00000E+00
         0.00000E+00
         0.00000E+00
         0.00000E+00
         0.00000E+00
         0.00000E+00
         0.00000E+00
         0.00000E+00
         0.00000E+00
         0.00000E+00
         0.00000E+00
         0.00000E+00
         0.00000E+00
         0.00000E+00
         0.00000E+00
         0.00000E+00
         0.00000E+00
         0.00000E+00
         0.00000E+00
         0.00000E+00
         0.00000E+00
         0.00000E+00
         0.00000E+00
         0.00000E+00
         0.00000E+00
         0.00000E+00
         0.00000E+00
         0.00000E+00
         0.00000E+00
         0.00000E+00
         0.00000E+00
         0.00000E+00
         0.00000E+00
         0.00000E+00
         0.00000E+00
         0.00000E+00
         0.00000E+00
         0.00000E+00
         0.00000E+00
         0.00000E+00
         0.00000E+00
         0.00000E+00
         0.00000E+00
         0.00000E+00
         0.00000E+00
         0.00000E+00
         0.00000E+00
         0.00000E+00
         0.00000E+00
         0.00000E+00
         0.00000E+00
         0.00000E+00
         0.00000E+00
         0.00000E+00
         0.00000E+00
         0.00000E+00
         0.00000E+00
         0.00000E+00
         0.00000E+00
         0.00000E+00
         0.00000E+00
         0.00000E+00
         0.00000E+00
         0.00000E+00
         0.00000E+00
         0.00000E+00
         0.00000E+00
         0.00000E+00
         0.00000E+00
         0.00000E+00
         0.00000E+00
         0.00000E+00
         0.00000E+00
         0.00000E+00
         0.00000E+00
         0.00000E+00
         0.00000E+00
         0.00000E+00
         0.00000E+00
         0.00000E+00
         0.00000E+00
         0.00000E+00
         0.00000E+00
         0.00000E+00
         0.00000E+00
         0.00000E+00
         0.00000E+00
         0.00000E+00
         0.00000E+00
         0.00000E+00
         0.00000E+00
         0.00000E+00
         0.00000E+00
         0.00000E+00
         0.00000E+00
         0.00000E+00
         0.00000E+00
         0.00000E+00
         0.00000E+00
         0.00000E+00
         0.00000E+00
         0.00000E+00
         0.00000E+00
         0.00000E+00
         0.00000E+00
         0.00000E+00
         0.00000E+00
         0.00000E+00
         0.00000E+00
         0.00000E+00
         0.00000E+00
         0.00000E+00
         0.00000E+00
         0.00000E+00
         0.00000E+00
         0.00000E+00
         0.00000E+00
         0.00000E+00
         0.00000E+00
         0.00000E+00
         0.00000E+00
         0.00000E+00
         0.00000E+00
         0.00000E+00
         0.00000E+00
         0.00000E+00
         0.00000E+00
         0.00000E+00
         0.00000E+00
         0.00000E+00
         0.00000E+00
         0.00000E+00
         0.00000E+00
         0.00000E+00
         0.00000E+00
         0.00000E+00
         0.00000E+00
         0.00000E+00
         0.00000E+00
         0.00000E+00
         0.00000E+00
         0.00000E+00
         0.00000E+00
         0.00000E+00
         0.00000E+00
         0.00000E+00
         0.00000E+00
         0.00000E+00
         0.00000E+00
         0.00000E+00
         0.00000E+00
         0.00000E+00
         0.00000E+00
         0.00000E+00
         0.00000E+00
         0.00000E+00
         0.00000E+00
         0.00000E+00
         0.00000E+00
         0.00000E+00
         0.00000E+00
         0.00000E+00
         0.00000E+00
         0.00000E+00
         0.00000E+00
         0.00000E+00
         0.00000E+00
         0.00000E+00
         0.00000E+00
         0.00000E+00
         0.00000E+00
         0.00000E+00
         0.00000E+00
         0.00000E+00
         0.00000E+00
         0.00000E+00
         0.00000E+00
         0.00000E+00
         0.00000E+00
         0.00000E+00
         0.00000E+00
         0.00000E+00
         0.00000E+00
         0.00000E+00
         0.00000E+00
         0.00000E+00
         0.00000E+00
         0.00000E+00
         0.00000E+00
         0.00000E+00
         0.00000E+00
         0.00000E+00
         0.00000E+00
         0.00000E+00
         0.00000E+00
         0.00000E+00
         0.00000E+00
         0.00000E+00
         0.00000E+00
         0.00000E+00
         0.00000E+00
         0.00000E+00
         0.00000E+00
         0.00000E+00
         0.00000E+00
         0.00000E+00
         0.00000E+00
         0.00000E+00
         0.00000E+00
         0.00000E+00
         0.00000E+00
         0.00000E+00
         0.00000E+00
         0.00000E+00
         0.00000E+00
         0.00000E+00
         0.00000E+00
         0.00000E+00
         0.00000E+00
         0.00000E+00
         0.00000E+00
         0.00000E+00
         0.00000E+00
         0.00000E+00
         0.00000E+00
         0.00000E+00
         0.00000E+00
         0.00000E+00
         0.00000E+00
         0.00000E+00
         0.00000E+00
         0.00000E+00
         0.00000E+00
         0.00000E+00
         0.00000E+00
         0.00000E+00
         0.00000E+00
         0.00000E+00
         0.00000E+00
         0.00000E+00
         0.00000E+00
         0.00000E+00
         0.00000E+00
         0.00000E+00
         0.00000E+00
         0.00000E+00
         0.00000E+00
         0.00000E+00
         0.00000E+00
         0.00000E+00
         0.00000E+00
         0.00000E+00
         0.00000E+00
         0.00000E+00
         0.00000E+00
         0.00000E+00
         0.00000E+00
         0.00000E+00
         0.00000E+00
         0.00000E+00
         0.00000E+00
         0.00000E+00
         0.00000E+00
         0.00000E+00
         0.00000E+00
         0.00000E+00
         0.00000E+00
         0.00000E+00
         0.00000E+00
         0.00000E+00
         0.00000E+00
         0.00000E+00
         0.00000E+00
         0.00000E+00
         0.00000E+00
         0.00000E+00
         0.00000E+00
         0.00000E+00
         0.00000E+00
         0.00000E+00
         0.00000E+00
         0.00000E+00
         0.00000E+00
         0.00000E+00
         0.00000E+00
         0.00000E+00
         0.00000E+00
         0.00000E+00
         0.00000E+00
         0.00000E+00
         0.00000E+00
         0.00000E+00
         0.00000E+00
         0.00000E+00
         0.00000E+00
         0.00000E+00
         0.00000E+00
         0.00000E+00
         0.00000E+00
         0.00000E+00
         0.00000E+00
         0.00000E+00
         0.00000E+00
         0.00000E+00
         0.00000E+00
         0.00000E+00
         0.00000E+00
         0.00000E+00
         0.00000E+00
         0.00000E+00
         0.00000E+00
         0.00000E+00
         0.00000E+00
         0.00000E+00
         0.00000E+00
         0.00000E+00
         0.00000E+00
         0.00000E+00
         0.00000E+00
         0.00000E+00
         0.00000E+00
         0.00000E+00
         0.00000E+00
         0.00000E+00
         0.00000E+00
         0.00000E+00
         0.00000E+00
         0.00000E+00
         0.00000E+00
         0.00000E+00
         0.00000E+00
         0.00000E+00
         0.00000E+00
         0.00000E+00
         0.00000E+00
         0.00000E+00
         0.00000E+00
         0.00000E+00
         0.00000E+00
         0.00000E+00
         0.00000E+00
         0.00000E+00
         0.00000E+00
         0.00000E+00
         0.00000E+00
         0.00000E+00
         0.00000E+00
         0.00000E+00
         0.00000E+00
         0.00000E+00
         0.00000E+00
         0.00000E+00
         0.00000E+00
         0.00000E+00
         0.00000E+00
         0.00000E+00
         0.00000E+00
         0.00000E+00
         0.00000E+00
         0.00000E+00
         0.00000E+00
         0.00000E+00
         0.00000E+00
         0.00000E+00
         0.00000E+00
         0.00000E+00
         0.00000E+00
         0.00000E+00
         0.00000E+00
         0.00000E+00
         0.00000E+00
         0.00000E+00
         0.00000E+00
         0.00000E+00
         0.00000E+00
         0.00000E+00
         0.00000E+00
         0.00000E+00
         0.00000E+00
         0.00000E+00
         0.00000E+00
         0.00000E+00
         0.00000E+00
         0.00000E+00
         0.00000E+00
         0.00000E+00
         0.00000E+00
         0.00000E+00
         0.00000E+00
         0.00000E+00
         0.00000E+00
         0.00000E+00
         0.00000E+00
         0.00000E+00
         0.00000E+00
         0.00000E+00
         0.00000E+00
         0.00000E+00
         0.00000E+00
         0.00000E+00
         0.00000E+00
         0.00000E+00
         0.00000E+00
         0.00000E+00
         0.00000E+00
         0.00000E+00
         0.00000E+00
         0.00000E+00
         0.00000E+00
         0.00000E+00
         0.00000E+00
         0.00000E+00
         0.00000E+00
         0.00000E+00
         0.00000E+00
         0.00000E+00
         0.00000E+00
         0.00000E+00
         0.00000E+00
         0.00000E+00
         0.00000E+00
         0.00000E+00
         0.00000E+00
         0.00000E+00
         0.00000E+00
         0.00000E+00
         0.00000E+00
         0.00000E+00
         0.00000E+00
         0.00000E+00
         0.00000E+00
         0.00000E+00
         0.00000E+00
         0.00000E+00
         0.00000E+00
         0.00000E+00
         0.00000E+00
         0.00000E+00
         0.00000E+00
         0.00000E+00
         0.00000E+00
         0.00000E+00
         0.00000E+00
         0.00000E+00
         0.00000E+00
         0.00000E+00
         0.00000E+00
         0.00000E+00
         0.00000E+00
         0.00000E+00
         0.00000E+00
         0.00000E+00
         0.00000E+00
         0.00000E+00
         0.00000E+00
         0.00000E+00
         0.00000E+00
         0.00000E+00
         0.00000E+00
         0.00000E+00
         0.00000E+00
         0.00000E+00
         0.00000E+00
         0.00000E+00
         0.00000E+00
         0.00000E+00
         0.00000E+00
         0.00000E+00
         0.00000E+00
         0.00000E+00
         0.00000E+00
         0.00000E+00
         0.00000E+00
         0.00000E+00
         0.00000E+00
         0.00000E+00
         0.00000E+00
         0.00000E+00
         0.00000E+00
         0.00000E+00
         0.00000E+00
         0.00000E+00
         0.00000E+00
         0.00000E+00
         0.00000E+00
         0.00000E+00
         0.00000E+00
         0.00000E+00
         0.00000E+00
         0.00000E+00
         0.00000E+00
         0.00000E+00
         0.00000E+00
         0.00000E+00
         0.00000E+00
         0.00000E+00
         0.00000E+00
         0.00000E+00
         0.00000E+00
         0.00000E+00
         0.00000E+00
         0.00000E+00
         0.00000E+00
         0.00000E+00
         0.00000E+00
         0.00000E+00
         0.00000E+00
         0.00000E+00
         0.00000E+00
         0.00000E+00
         0.00000E+00
         0.00000E+00
         0.00000E+00
         0.00000E+00
         0.00000E+00
         0.00000E+00
         0.00000E+00
         0.00000E+00
         0.00000E+00
         0.00000E+00
         0.00000E+00
         0.00000E+00
         0.00000E+00
         0.00000E+00
         0.00000E+00
         0.00000E+00
         0.00000E+00
         0.00000E+00
         0.00000E+00
         0.00000E+00
         0.00000E+00
         0.00000E+00
         0.00000E+00
         0.00000E+00
         0.00000E+00
         0.00000E+00
         0.00000E+00
         0.00000E+00
         0.00000E+00
         0.00000E+00
         0.00000E+00
         0.00000E+00
         0.00000E+00
         0.00000E+00
         0.00000E+00
         0.00000E+00
         0.00000E+00
         0.00000E+00
         0.00000E+00
         0.00000E+00
         0.00000E+00
         0.00000E+00
         0.00000E+00
         0.00000E+00
         0.00000E+00
         0.00000E+00
         0.00000E+00
         0.00000E+00
         0.00000E+00
         0.00000E+00
         0.00000E+00
         0.00000E+00
         0.00000E+00
         0.00000E+00
         0.00000E+00
         0.00000E+00
         0.00000E+00
         0.00000E+00
         0.00000E+00
         0.00000E+00
         0.00000E+00
         0.00000E+00
         0.00000E+00
         0.00000E+00
         0.00000E+00
         0.00000E+00
         0.00000E+00
         0.00000E+00
         0.00000E+00
         0.00000E+00
         0.00000E+00
         0.00000E+00
         0.00000E+00
         0.00000E+00
         0.00000E+00
         0.00000E+00
         0.00000E+00
         0.00000E+00
         0.00000E+00
         0.00000E+00
         0.00000E+00
         0.00000E+00
         0.00000E+00
         0.00000E+00
         0.00000E+00
         0.00000E+00
         0.00000E+00
         0.00000E+00
         0.00000E+00
         0.00000E+00
         0.00000E+00
         0.00000E+00
         0.00000E+00
         0.00000E+00
         0.00000E+00
         0.00000E+00
         0.00000E+00
         0.00000E+00
         0.00000E+00
         0.00000E+00
         0.00000E+00
         0.00000E+00
         0.00000E+00
         0.00000E+00
         0.00000E+00
         0.00000E+00
         0.00000E+00
         0.00000E+00
         0.00000E+00
         0.00000E+00
         0.00000E+00
         0.00000E+00
         0.00000E+00
         0.00000E+00
         0.00000E+00
         0.00000E+00
         0.00000E+00
         0.00000E+00
         0.00000E+00
         0.00000E+00
         0.00000E+00
         0.00000E+00
         0.00000E+00
         0.00000E+00
         0.00000E+00
         0.00000E+00
         0.00000E+00
         0.00000E+00
         0.00000E+00
         0.00000E+00
         0.00000E+00
         0.00000E+00
         0.00000E+00
         0.00000E+00
         0.00000E+00
         0.00000E+00
         0.00000E+00
         0.00000E+00
         0.00000E+00
         0.00000E+00
         0.00000E+00
         0.00000E+00
         0.00000E+00
         0.00000E+00
         0.00000E+00
         0.00000E+00
         0.00000E+00
         0.00000E+00
         0.00000E+00
         0.00000E+00
         0.00000E+00
         0.00000E+00
         0.00000E+00
         0.00000E+00
         0.00000E+00
         0.00000E+00
         0.00000E+00
         0.00000E+00
         0.00000E+00
         0.00000E+00
         0.00000E+00
         0.00000E+00
         0.00000E+00
         0.00000E+00
         0.00000E+00
         0.00000E+00
         0.00000E+00
         0.00000E+00
         0.00000E+00
         0.00000E+00
         0.00000E+00
         0.00000E+00
         0.00000E+00
         0.00000E+00
         0.00000E+00
         0.00000E+00
         0.00000E+00
         0.00000E+00
         0.00000E+00
         0.00000E+00
         0.00000E+00
         0.00000E+00
         0.00000E+00
         0.00000E+00
         0.00000E+00
         0.00000E+00
         0.00000E+00
         0.00000E+00
         0.00000E+00
         0.00000E+00
         0.00000E+00
         0.00000E+00
         0.00000E+00
         0.00000E+00
         0.00000E+00
         0.00000E+00
         0.00000E+00
         0.00000E+00
         0.00000E+00
         0.00000E+00
         0.00000E+00
         0.00000E+00
         0.00000E+00
         0.00000E+00
         0.00000E+00
         0.00000E+00
         0.00000E+00
         0.00000E+00
         0.00000E+00
         0.00000E+00
         0.00000E+00
         0.00000E+00
         0.00000E+00
         0.00000E+00
         0.00000E+00
         0.00000E+00
         0.00000E+00
         0.00000E+00
         0.00000E+00
         0.00000E+00
         0.00000E+00
         0.00000E+00
         0.00000E+00
         0.00000E+00
         0.00000E+00
         0.00000E+00
         0.00000E+00
         0.00000E+00
         0.00000E+00
         0.00000E+00
         0.00000E+00
         0.00000E+00
         0.00000E+00
         0.00000E+00
         0.00000E+00
         0.00000E+00
         0.00000E+00
         0.00000E+00
         0.00000E+00
         0.00000E+00
         0.00000E+00
         0.00000E+00
         0.00000E+00
         0.00000E+00
         0.00000E+00
         0.00000E+00
         0.00000E+00
         0.00000E+00
         0.00000E+00
         0.00000E+00
         0.00000E+00
         0.00000E+00
         0.00000E+00
         0.00000E+00
         0.00000E+00
         0.00000E+00
         0.00000E+00
         0.00000E+00
         0.00000E+00
         0.00000E+00
         0.00000E+00
         0.00000E+00
         0.00000E+00
         0.00000E+00
         0.00000E+00
         0.00000E+00
         0.00000E+00
         0.00000E+00
         0.00000E+00
         0.00000E+00
         0.00000E+00
         0.00000E+00
         0.00000E+00
         0.00000E+00
         0.00000E+00
         0.00000E+00
         0.00000E+00
         0.00000E+00
         0.00000E+00
         0.00000E+00
         0.00000E+00
         0.00000E+00
         0.00000E+00
         0.00000E+00
         0.00000E+00
         0.00000E+00
         0.00000E+00
         0.00000E+00
         0.00000E+00
         0.00000E+00
         0.00000E+00
         0.00000E+00
         0.00000E+00
         0.00000E+00
         0.00000E+00
         0.00000E+00
         0.00000E+00
         0.00000E+00
         0.00000E+00
         0.00000E+00
         0.00000E+00
         0.00000E+00
         0.00000E+00
         0.00000E+00
         0.00000E+00
         0.00000E+00
         0.00000E+00
         0.00000E+00
         0.00000E+00
         0.00000E+00
         0.00000E+00
         0.00000E+00
         0.00000E+00
         0.00000E+00
         0.00000E+00
         0.00000E+00
         0.00000E+00
         0.00000E+00
         0.00000E+00
         0.00000E+00
         0.00000E+00
         0.00000E+00
         0.00000E+00
         0.00000E+00
         0.00000E+00
         0.00000E+00
         0.00000E+00
         0.00000E+00
         0.00000E+00
         0.00000E+00
         0.00000E+00
         0.00000E+00
         0.00000E+00
         0.00000E+00
         0.00000E+00
         0.00000E+00
         0.00000E+00
         0.00000E+00
         0.00000E+00
         0.00000E+00
         0.00000E+00
         0.00000E+00
         0.00000E+00
         0.00000E+00
         0.00000E+00
         0.00000E+00
         0.00000E+00
         0.00000E+00
         0.00000E+00
         0.00000E+00
         0.00000E+00
         0.00000E+00
         0.00000E+00
         0.00000E+00
         0.00000E+00
         0.00000E+00
         0.00000E+00
         0.00000E+00
         0.00000E+00
         0.00000E+00
         0.00000E+00
         0.00000E+00
         0.00000E+00
         0.00000E+00
         0.00000E+00
         0.00000E+00
         0.00000E+00
         0.00000E+00
         0.00000E+00
         0.00000E+00
         0.00000E+00
         0.00000E+00
         0.00000E+00
         0.00000E+00
         0.00000E+00
         0.00000E+00
         0.00000E+00
         0.00000E+00
         0.00000E+00
         0.00000E+00
         0.00000E+00
         0.00000E+00
         0.00000E+00
         0.00000E+00
         0.00000E+00
         0.00000E+00
         0.00000E+00
         0.00000E+00
         0.00000E+00
         0.00000E+00
         0.00000E+00
         0.00000E+00
         0.00000E+00
         0.00000E+00
         0.00000E+00
         0.00000E+00
         0.00000E+00
         0.00000E+00
         0.00000E+00
         0.00000E+00
         0.00000E+00
         0.00000E+00
         0.00000E+00
         0.00000E+00
         0.00000E+00
         0.00000E+00
         0.00000E+00
         0.00000E+00
         0.00000E+00
         0.00000E+00
         0.00000E+00
         0.00000E+00
         0.00000E+00
         0.00000E+00
         0.00000E+00
         0.00000E+00
         0.00000E+00
         0.00000E+00
         0.00000E+00
         0.00000E+00
         0.00000E+00
         0.00000E+00
         0.00000E+00
         0.00000E+00
         0.00000E+00
         0.00000E+00
         0.00000E+00
         0.00000E+00
         0.00000E+00
         0.00000E+00
         0.00000E+00
         0.00000E+00
         0.00000E+00
         0.00000E+00
         0.00000E+00
         0.00000E+00
         0.00000E+00
         0.00000E+00
         0.00000E+00
         0.00000E+00
         0.00000E+00
         0.00000E+00
         0.00000E+00
         0.00000E+00
         0.00000E+00
         0.00000E+00
         0.00000E+00
         0.00000E+00
         0.00000E+00
         0.00000E+00
         0.00000E+00
         0.00000E+00
         0.00000E+00
         0.00000E+00
         0.00000E+00
         0.00000E+00
         0.00000E+00
         0.00000E+00
         0.00000E+00
         0.00000E+00
         0.00000E+00
         0.00000E+00
         0.00000E+00
         0.00000E+00
         0.00000E+00
         0.00000E+00
         0.00000E+00
         0.00000E+00
         0.00000E+00
         0.00000E+00
         0.00000E+00
         0.00000E+00
         0.00000E+00
         0.00000E+00
         0.00000E+00
         0.00000E+00
         0.00000E+00
         0.00000E+00
         0.00000E+00
         0.00000E+00
         0.00000E+00
         0.00000E+00
         0.00000E+00
         0.00000E+00
         0.00000E+00
         0.00000E+00
         0.00000E+00
         0.00000E+00
         0.00000E+00
         0.00000E+00
         0.00000E+00
         0.00000E+00
         0.00000E+00
         0.00000E+00
         0.00000E+00
         0.00000E+00
         0.00000E+00
         0.00000E+00
         0.00000E+00
         0.00000E+00
         0.00000E+00
         0.00000E+00
         0.00000E+00
         0.00000E+00
         0.00000E+00
         0.00000E+00
         0.00000E+00
         0.00000E+00
         0.00000E+00
         0.00000E+00
         0.00000E+00
         0.00000E+00
         0.00000E+00
         0.00000E+00
         0.00000E+00
         0.00000E+00
         0.00000E+00
         0.00000E+00
         0.00000E+00
         0.00000E+00
         0.00000E+00
         0.00000E+00
         0.00000E+00
         0.00000E+00
         0.00000E+00
         0.00000E+00
         0.00000E+00
         0.00000E+00
         0.00000E+00
         0.00000E+00
         0.00000E+00
         0.00000E+00
         0.00000E+00
         0.00000E+00
         0.00000E+00
         0.00000E+00
         0.00000E+00
         0.00000E+00
         0.00000E+00
         0.00000E+00
         0.00000E+00
         0.00000E+00
         0.00000E+00
         0.00000E+00
         0.00000E+00
         0.00000E+00
         0.00000E+00
         0.00000E+00
         0.00000E+00
         0.00000E+00
         0.00000E+00
         0.00000E+00
         0.00000E+00
         0.00000E+00
         0.00000E+00
         0.00000E+00
         0.00000E+00
         0.00000E+00
         0.00000E+00
         0.00000E+00
         0.00000E+00
         0.00000E+00
         0.00000E+00
         0.00000E+00
         0.00000E+00
         0.00000E+00
         0.00000E+00
         0.00000E+00
         0.00000E+00
         0.00000E+00
         0.00000E+00
         0.00000E+00
         0.00000E+00
         0.00000E+00
         0.00000E+00
         0.00000E+00
         0.00000E+00
         0.00000E+00
         0.00000E+00
         0.00000E+00
         0.00000E+00
         0.00000E+00
         0.00000E+00
         0.00000E+00
         0.00000E+00
         0.00000E+00
         0.00000E+00
         0.00000E+00
         0.00000E+00
         0.00000E+00
         0.00000E+00
         0.00000E+00
         0.00000E+00
         0.00000E+00
         0.00000E+00
         0.00000E+00
         0.00000E+00
         0.00000E+00
         0.00000E+00
         0.00000E+00
         0.00000E+00
         0.00000E+00
         0.00000E+00
         0.00000E+00
         0.00000E+00
         0.00000E+00
         0.00000E+00
         0.00000E+00
         0.00000E+00
         0.00000E+00
         0.00000E+00
         0.00000E+00
         0.00000E+00
         0.00000E+00
         0.00000E+00
         0.00000E+00
         0.00000E+00
         0.00000E+00
         0.00000E+00
         0.00000E+00
         0.00000E+00
         0.00000E+00
         0.00000E+00
         0.00000E+00
         0.00000E+00
         0.00000E+00
         0.00000E+00
         0.00000E+00
         0.00000E+00
         0.00000E+00
         0.00000E+00
         0.00000E+00
         0.00000E+00
         0.00000E+00
         0.00000E+00
         0.00000E+00
         0.00000E+00
         0.00000E+00
         0.00000E+00
         0.00000E+00
         0.00000E+00
         0.00000E+00
         0.00000E+00
         0.00000E+00
         0.00000E+00
         0.00000E+00
         0.00000E+00
         0.00000E+00
         0.00000E+00
         0.00000E+00
         0.00000E+00
         0.00000E+00
         0.00000E+00
         0.00000E+00
         0.00000E+00
         0.00000E+00
         0.00000E+00
         0.00000E+00
         0.00000E+00
         0.00000E+00
         0.00000E+00
         0.00000E+00
         0.00000E+00
         0.00000E+00
         0.00000E+00
         0.00000E+00
         0.00000E+00
         0.00000E+00
         0.00000E+00
         0.00000E+00
         0.00000E+00
         0.00000E+00
         0.00000E+00
         0.00000E+00
         0.00000E+00
         0.00000E+00
         0.00000E+00
         0.00000E+00
         0.00000E+00
         0.00000E+00
         0.00000E+00
         0.00000E+00
         0.00000E+00
         0.00000E+00
         0.00000E+00
         0.00000E+00
         0.00000E+00
         0.00000E+00
         0.00000E+00
         0.00000E+00
         0.00000E+00
         0.00000E+00
         0.00000E+00
         0.00000E+00
         0.00000E+00
         0.00000E+00
         0.00000E+00
         0.00000E+00
         0.00000E+00
         0.00000E+00
         0.00000E+00
         0.00000E+00
         0.00000E+00
         0.00000E+00
         0.00000E+00
         0.00000E+00
         0.00000E+00
         0.00000E+00
         0.00000E+00
         0.00000E+00
         0.00000E+00
         0.00000E+00
         0.00000E+00
         0.00000E+00
         0.00000E+00
         0.00000E+00
         0.00000E+00
         0.00000E+00
         0.00000E+00
         0.00000E+00
         0.00000E+00
         0.00000E+00
         0.00000E+00
         0.00000E+00
         0.00000E+00
         0.00000E+00
         0.00000E+00
         0.00000E+00
         0.00000E+00
  
SCALARS                         fint_x  double 1
LOOKUP_TABLE default
         0.00000E+00
         0.00000E+00
         0.00000E+00
         0.00000E+00
         0.00000E+00
         0.00000E+00
         0.00000E+00
         0.00000E+00
         0.00000E+00
         0.00000E+00
         0.00000E+00
         0.00000E+00
         0.00000E+00
         0.00000E+00
         0.00000E+00
         0.00000E+00
         0.00000E+00
         0.00000E+00
         0.00000E+00
         0.00000E+00
         0.00000E+00
         0.00000E+00
         0.00000E+00
         0.00000E+00
         0.00000E+00
         0.00000E+00
         0.00000E+00
         0.00000E+00
         0.00000E+00
         0.00000E+00
         0.00000E+00
         0.00000E+00
         0.00000E+00
         0.00000E+00
         0.00000E+00
         0.00000E+00
         0.00000E+00
         0.00000E+00
         0.00000E+00
         0.00000E+00
         0.00000E+00
         0.00000E+00
         0.00000E+00
         0.00000E+00
         0.00000E+00
         0.00000E+00
         0.00000E+00
         0.00000E+00
         0.00000E+00
         0.00000E+00
         0.00000E+00
         0.00000E+00
         0.00000E+00
         0.00000E+00
         0.00000E+00
         0.00000E+00
         0.00000E+00
         0.00000E+00
         0.00000E+00
         0.00000E+00
         0.00000E+00
         0.00000E+00
         0.00000E+00
         0.00000E+00
         0.00000E+00
         0.00000E+00
         0.00000E+00
         0.00000E+00
         0.00000E+00
         0.00000E+00
         0.00000E+00
         0.00000E+00
         0.00000E+00
         0.00000E+00
         0.00000E+00
         0.00000E+00
         0.00000E+00
         0.00000E+00
         0.00000E+00
         0.00000E+00
         0.00000E+00
         0.00000E+00
         0.00000E+00
         0.00000E+00
         0.00000E+00
         0.00000E+00
         0.00000E+00
         0.00000E+00
         0.00000E+00
         0.00000E+00
         0.00000E+00
         0.00000E+00
         0.00000E+00
         0.00000E+00
         0.00000E+00
         0.00000E+00
         0.00000E+00
         0.00000E+00
         0.00000E+00
         0.00000E+00
         0.00000E+00
         0.00000E+00
         0.00000E+00
         0.00000E+00
         0.00000E+00
         0.00000E+00
         0.00000E+00
         0.00000E+00
         0.00000E+00
         0.00000E+00
         0.00000E+00
         0.00000E+00
         0.00000E+00
         0.00000E+00
         0.00000E+00
         0.00000E+00
         0.00000E+00
         0.00000E+00
         0.00000E+00
         0.00000E+00
         0.00000E+00
         0.00000E+00
         0.00000E+00
         0.00000E+00
         0.00000E+00
         0.00000E+00
         0.00000E+00
         0.00000E+00
         0.00000E+00
         0.00000E+00
         0.00000E+00
         0.00000E+00
         0.00000E+00
         0.00000E+00
         0.00000E+00
         0.00000E+00
         0.00000E+00
         0.00000E+00
         0.00000E+00
         0.00000E+00
         0.00000E+00
         0.00000E+00
         0.00000E+00
         0.00000E+00
         0.00000E+00
         0.00000E+00
         0.00000E+00
         0.00000E+00
         0.00000E+00
         0.00000E+00
         0.00000E+00
         0.00000E+00
         0.00000E+00
         0.00000E+00
         0.00000E+00
         0.00000E+00
         0.00000E+00
         0.00000E+00
         0.00000E+00
         0.00000E+00
         0.00000E+00
         0.00000E+00
         0.00000E+00
         0.00000E+00
         0.00000E+00
         0.00000E+00
         0.00000E+00
         0.00000E+00
         0.00000E+00
         0.00000E+00
         0.00000E+00
         0.00000E+00
         0.00000E+00
         0.00000E+00
         0.00000E+00
         0.00000E+00
         0.00000E+00
         0.00000E+00
         0.00000E+00
         0.00000E+00
         0.00000E+00
         0.00000E+00
         0.00000E+00
         0.00000E+00
         0.00000E+00
         0.00000E+00
         0.00000E+00
         0.00000E+00
         0.00000E+00
         0.00000E+00
         0.00000E+00
         0.00000E+00
         0.00000E+00
         0.00000E+00
         0.00000E+00
         0.00000E+00
         0.00000E+00
         0.00000E+00
         0.00000E+00
         0.00000E+00
         0.00000E+00
         0.00000E+00
         0.00000E+00
         0.00000E+00
         0.00000E+00
         0.00000E+00
         0.00000E+00
         0.00000E+00
         0.00000E+00
         0.00000E+00
         0.00000E+00
         0.00000E+00
         0.00000E+00
         0.00000E+00
         0.00000E+00
         0.00000E+00
         0.00000E+00
         0.00000E+00
         0.00000E+00
         0.00000E+00
         0.00000E+00
         0.00000E+00
         0.00000E+00
         0.00000E+00
         0.00000E+00
         0.00000E+00
         0.00000E+00
         0.00000E+00
         0.00000E+00
         0.00000E+00
         0.00000E+00
         0.00000E+00
         0.00000E+00
         0.00000E+00
         0.00000E+00
         0.00000E+00
         0.00000E+00
         0.00000E+00
         0.00000E+00
         0.00000E+00
         0.00000E+00
         0.00000E+00
         0.00000E+00
         0.00000E+00
         0.00000E+00
         0.00000E+00
         0.00000E+00
         0.00000E+00
         0.00000E+00
         0.00000E+00
         0.00000E+00
         0.00000E+00
         0.00000E+00
         0.00000E+00
         0.00000E+00
         0.00000E+00
         0.00000E+00
         0.00000E+00
         0.00000E+00
         0.00000E+00
         0.00000E+00
         0.00000E+00
         0.00000E+00
         0.00000E+00
         0.00000E+00
         0.00000E+00
         0.00000E+00
         0.00000E+00
         0.00000E+00
         0.00000E+00
         0.00000E+00
         0.00000E+00
         0.00000E+00
         0.00000E+00
         0.00000E+00
         0.00000E+00
         0.00000E+00
         0.00000E+00
         0.00000E+00
         0.00000E+00
         0.00000E+00
         0.00000E+00
         0.00000E+00
         0.00000E+00
         0.00000E+00
         0.00000E+00
         0.00000E+00
         0.00000E+00
         0.00000E+00
         0.00000E+00
         0.00000E+00
         0.00000E+00
         0.00000E+00
         0.00000E+00
         0.00000E+00
         0.00000E+00
         0.00000E+00
         0.00000E+00
         0.00000E+00
         0.00000E+00
         0.00000E+00
         0.00000E+00
         0.00000E+00
         0.00000E+00
         0.00000E+00
         0.00000E+00
         0.00000E+00
         0.00000E+00
         0.00000E+00
         0.00000E+00
         0.00000E+00
         0.00000E+00
         0.00000E+00
         0.00000E+00
         0.00000E+00
         0.00000E+00
         0.00000E+00
         0.00000E+00
         0.00000E+00
         0.00000E+00
         0.00000E+00
         0.00000E+00
         0.00000E+00
         0.00000E+00
         0.00000E+00
         0.00000E+00
         0.00000E+00
         0.00000E+00
         0.00000E+00
         0.00000E+00
         0.00000E+00
         0.00000E+00
         0.00000E+00
         0.00000E+00
         0.00000E+00
         0.00000E+00
         0.00000E+00
         0.00000E+00
         0.00000E+00
         0.00000E+00
         0.00000E+00
         0.00000E+00
         0.00000E+00
         0.00000E+00
         0.00000E+00
         0.00000E+00
         0.00000E+00
         0.00000E+00
         0.00000E+00
         0.00000E+00
         0.00000E+00
         0.00000E+00
         0.00000E+00
         0.00000E+00
         0.00000E+00
         0.00000E+00
         0.00000E+00
         0.00000E+00
         0.00000E+00
         0.00000E+00
         0.00000E+00
         0.00000E+00
         0.00000E+00
         0.00000E+00
         0.00000E+00
         0.00000E+00
         0.00000E+00
         0.00000E+00
         0.00000E+00
         0.00000E+00
         0.00000E+00
         0.00000E+00
         0.00000E+00
         0.00000E+00
         0.00000E+00
         0.00000E+00
         0.00000E+00
         0.00000E+00
         0.00000E+00
         0.00000E+00
         0.00000E+00
         0.00000E+00
         0.00000E+00
         0.00000E+00
         0.00000E+00
         0.00000E+00
         0.00000E+00
         0.00000E+00
         0.00000E+00
         0.00000E+00
         0.00000E+00
         0.00000E+00
         0.00000E+00
         0.00000E+00
         0.00000E+00
         0.00000E+00
         0.00000E+00
         0.00000E+00
         0.00000E+00
         0.00000E+00
         0.00000E+00
         0.00000E+00
         0.00000E+00
         0.00000E+00
         0.00000E+00
         0.00000E+00
         0.00000E+00
         0.00000E+00
         0.00000E+00
         0.00000E+00
         0.00000E+00
         0.00000E+00
         0.00000E+00
         0.00000E+00
         0.00000E+00
         0.00000E+00
         0.00000E+00
         0.00000E+00
         0.00000E+00
         0.00000E+00
         0.00000E+00
         0.00000E+00
         0.00000E+00
         0.00000E+00
         0.00000E+00
         0.00000E+00
         0.00000E+00
         0.00000E+00
         0.00000E+00
         0.00000E+00
         0.00000E+00
         0.00000E+00
         0.00000E+00
         0.00000E+00
         0.00000E+00
         0.00000E+00
         0.00000E+00
         0.00000E+00
         0.00000E+00
         0.00000E+00
         0.00000E+00
         0.00000E+00
         0.00000E+00
         0.00000E+00
         0.00000E+00
         0.00000E+00
         0.00000E+00
         0.00000E+00
         0.00000E+00
         0.00000E+00
         0.00000E+00
         0.00000E+00
         0.00000E+00
         0.00000E+00
         0.00000E+00
         0.00000E+00
         0.00000E+00
         0.00000E+00
         0.00000E+00
         0.00000E+00
         0.00000E+00
         0.00000E+00
         0.00000E+00
         0.00000E+00
         0.00000E+00
         0.00000E+00
         0.00000E+00
         0.00000E+00
         0.00000E+00
         0.00000E+00
         0.00000E+00
         0.00000E+00
         0.00000E+00
         0.00000E+00
         0.00000E+00
         0.00000E+00
         0.00000E+00
         0.00000E+00
         0.00000E+00
         0.00000E+00
         0.00000E+00
         0.00000E+00
         0.00000E+00
         0.00000E+00
         0.00000E+00
         0.00000E+00
         0.00000E+00
         0.00000E+00
         0.00000E+00
         0.00000E+00
         0.00000E+00
         0.00000E+00
         0.00000E+00
         0.00000E+00
         0.00000E+00
         0.00000E+00
         0.00000E+00
         0.00000E+00
         0.00000E+00
         0.00000E+00
         0.00000E+00
         0.00000E+00
         0.00000E+00
         0.00000E+00
         0.00000E+00
         0.00000E+00
         0.00000E+00
         0.00000E+00
         0.00000E+00
         0.00000E+00
         0.00000E+00
         0.00000E+00
         0.00000E+00
         0.00000E+00
         0.00000E+00
         0.00000E+00
         0.00000E+00
         0.00000E+00
         0.00000E+00
         0.00000E+00
         0.00000E+00
         0.00000E+00
         0.00000E+00
         0.00000E+00
         0.00000E+00
         0.00000E+00
         0.00000E+00
         0.00000E+00
         0.00000E+00
         0.00000E+00
         0.00000E+00
         0.00000E+00
         0.00000E+00
         0.00000E+00
         0.00000E+00
         0.00000E+00
         0.00000E+00
         0.00000E+00
         0.00000E+00
         0.00000E+00
         0.00000E+00
         0.00000E+00
         0.00000E+00
         0.00000E+00
         0.00000E+00
         0.00000E+00
         0.00000E+00
         0.00000E+00
         0.00000E+00
         0.00000E+00
         0.00000E+00
         0.00000E+00
         0.00000E+00
         0.00000E+00
         0.00000E+00
         0.00000E+00
         0.00000E+00
         0.00000E+00
         0.00000E+00
         0.00000E+00
         0.00000E+00
         0.00000E+00
         0.00000E+00
         0.00000E+00
         0.00000E+00
         0.00000E+00
         0.00000E+00
         0.00000E+00
         0.00000E+00
         0.00000E+00
         0.00000E+00
         0.00000E+00
         0.00000E+00
         0.00000E+00
         0.00000E+00
         0.00000E+00
         0.00000E+00
         0.00000E+00
         0.00000E+00
         0.00000E+00
         0.00000E+00
         0.00000E+00
         0.00000E+00
         0.00000E+00
         0.00000E+00
         0.00000E+00
         0.00000E+00
         0.00000E+00
         0.00000E+00
         0.00000E+00
         0.00000E+00
         0.00000E+00
         0.00000E+00
         0.00000E+00
         0.00000E+00
         0.00000E+00
         0.00000E+00
         0.00000E+00
         0.00000E+00
         0.00000E+00
         0.00000E+00
         0.00000E+00
         0.00000E+00
         0.00000E+00
         0.00000E+00
         0.00000E+00
         0.00000E+00
         0.00000E+00
         0.00000E+00
         0.00000E+00
         0.00000E+00
         0.00000E+00
         0.00000E+00
         0.00000E+00
         0.00000E+00
         0.00000E+00
         0.00000E+00
         0.00000E+00
         0.00000E+00
         0.00000E+00
         0.00000E+00
         0.00000E+00
         0.00000E+00
         0.00000E+00
         0.00000E+00
         0.00000E+00
         0.00000E+00
         0.00000E+00
         0.00000E+00
         0.00000E+00
         0.00000E+00
         0.00000E+00
         0.00000E+00
         0.00000E+00
         0.00000E+00
         0.00000E+00
         0.00000E+00
         0.00000E+00
         0.00000E+00
         0.00000E+00
         0.00000E+00
         0.00000E+00
         0.00000E+00
         0.00000E+00
         0.00000E+00
         0.00000E+00
         0.00000E+00
         0.00000E+00
         0.00000E+00
         0.00000E+00
         0.00000E+00
         0.00000E+00
         0.00000E+00
         0.00000E+00
         0.00000E+00
         0.00000E+00
         0.00000E+00
         0.00000E+00
         0.00000E+00
         0.00000E+00
         0.00000E+00
         0.00000E+00
         0.00000E+00
         0.00000E+00
         0.00000E+00
         0.00000E+00
         0.00000E+00
         0.00000E+00
         0.00000E+00
         0.00000E+00
         0.00000E+00
         0.00000E+00
         0.00000E+00
         0.00000E+00
         0.00000E+00
         0.00000E+00
         0.00000E+00
         0.00000E+00
         0.00000E+00
         0.00000E+00
         0.00000E+00
         0.00000E+00
         0.00000E+00
         0.00000E+00
         0.00000E+00
         0.00000E+00
         0.00000E+00
         0.00000E+00
         0.00000E+00
         0.00000E+00
         0.00000E+00
         0.00000E+00
         0.00000E+00
         0.00000E+00
         0.00000E+00
         0.00000E+00
         0.00000E+00
         0.00000E+00
         0.00000E+00
         0.00000E+00
         0.00000E+00
         0.00000E+00
         0.00000E+00
         0.00000E+00
         0.00000E+00
         0.00000E+00
         0.00000E+00
         0.00000E+00
         0.00000E+00
         0.00000E+00
         0.00000E+00
         0.00000E+00
         0.00000E+00
         0.00000E+00
         0.00000E+00
         0.00000E+00
         0.00000E+00
         0.00000E+00
         0.00000E+00
         0.00000E+00
         0.00000E+00
         0.00000E+00
         0.00000E+00
         0.00000E+00
         0.00000E+00
         0.00000E+00
         0.00000E+00
         0.00000E+00
         0.00000E+00
         0.00000E+00
         0.00000E+00
         0.00000E+00
         0.00000E+00
         0.00000E+00
         0.00000E+00
         0.00000E+00
         0.00000E+00
         0.00000E+00
         0.00000E+00
         0.00000E+00
         0.00000E+00
         0.00000E+00
         0.00000E+00
         0.00000E+00
         0.00000E+00
         0.00000E+00
         0.00000E+00
         0.00000E+00
         0.00000E+00
         0.00000E+00
         0.00000E+00
         0.00000E+00
         0.00000E+00
         0.00000E+00
         0.00000E+00
         0.00000E+00
         0.00000E+00
         0.00000E+00
         0.00000E+00
         0.00000E+00
         0.00000E+00
         0.00000E+00
         0.00000E+00
         0.00000E+00
         0.00000E+00
         0.00000E+00
         0.00000E+00
         0.00000E+00
         0.00000E+00
         0.00000E+00
         0.00000E+00
         0.00000E+00
         0.00000E+00
         0.00000E+00
         0.00000E+00
         0.00000E+00
         0.00000E+00
         0.00000E+00
         0.00000E+00
         0.00000E+00
         0.00000E+00
         0.00000E+00
         0.00000E+00
         0.00000E+00
         0.00000E+00
         0.00000E+00
         0.00000E+00
         0.00000E+00
         0.00000E+00
         0.00000E+00
         0.00000E+00
         0.00000E+00
         0.00000E+00
         0.00000E+00
         0.00000E+00
         0.00000E+00
         0.00000E+00
         0.00000E+00
         0.00000E+00
         0.00000E+00
         0.00000E+00
         0.00000E+00
         0.00000E+00
         0.00000E+00
         0.00000E+00
         0.00000E+00
         0.00000E+00
         0.00000E+00
         0.00000E+00
         0.00000E+00
         0.00000E+00
         0.00000E+00
         0.00000E+00
         0.00000E+00
         0.00000E+00
         0.00000E+00
         0.00000E+00
         0.00000E+00
         0.00000E+00
         0.00000E+00
         0.00000E+00
         0.00000E+00
         0.00000E+00
         0.00000E+00
         0.00000E+00
         0.00000E+00
         0.00000E+00
         0.00000E+00
         0.00000E+00
         0.00000E+00
         0.00000E+00
         0.00000E+00
         0.00000E+00
         0.00000E+00
         0.00000E+00
         0.00000E+00
         0.00000E+00
         0.00000E+00
         0.00000E+00
         0.00000E+00
         0.00000E+00
         0.00000E+00
         0.00000E+00
         0.00000E+00
         0.00000E+00
         0.00000E+00
         0.00000E+00
         0.00000E+00
         0.00000E+00
         0.00000E+00
         0.00000E+00
         0.00000E+00
         0.00000E+00
         0.00000E+00
         0.00000E+00
         0.00000E+00
         0.00000E+00
         0.00000E+00
         0.00000E+00
         0.00000E+00
         0.00000E+00
         0.00000E+00
         0.00000E+00
         0.00000E+00
         0.00000E+00
         0.00000E+00
         0.00000E+00
         0.00000E+00
         0.00000E+00
         0.00000E+00
         0.00000E+00
         0.00000E+00
         0.00000E+00
         0.00000E+00
         0.00000E+00
         0.00000E+00
         0.00000E+00
         0.00000E+00
         0.00000E+00
         0.00000E+00
         0.00000E+00
         0.00000E+00
         0.00000E+00
         0.00000E+00
         0.00000E+00
         0.00000E+00
         0.00000E+00
         0.00000E+00
         0.00000E+00
         0.00000E+00
         0.00000E+00
         0.00000E+00
         0.00000E+00
         0.00000E+00
         0.00000E+00
         0.00000E+00
         0.00000E+00
         0.00000E+00
         0.00000E+00
         0.00000E+00
         0.00000E+00
         0.00000E+00
         0.00000E+00
         0.00000E+00
         0.00000E+00
         0.00000E+00
         0.00000E+00
         0.00000E+00
         0.00000E+00
         0.00000E+00
         0.00000E+00
         0.00000E+00
         0.00000E+00
         0.00000E+00
         0.00000E+00
         0.00000E+00
         0.00000E+00
         0.00000E+00
         0.00000E+00
         0.00000E+00
         0.00000E+00
         0.00000E+00
         0.00000E+00
         0.00000E+00
         0.00000E+00
         0.00000E+00
         0.00000E+00
         0.00000E+00
         0.00000E+00
         0.00000E+00
         0.00000E+00
         0.00000E+00
         0.00000E+00
         0.00000E+00
         0.00000E+00
         0.00000E+00
         0.00000E+00
         0.00000E+00
         0.00000E+00
         0.00000E+00
         0.00000E+00
         0.00000E+00
         0.00000E+00
         0.00000E+00
         0.00000E+00
         0.00000E+00
         0.00000E+00
         0.00000E+00
         0.00000E+00
         0.00000E+00
         0.00000E+00
         0.00000E+00
         0.00000E+00
         0.00000E+00
         0.00000E+00
         0.00000E+00
         0.00000E+00
         0.00000E+00
         0.00000E+00
         0.00000E+00
         0.00000E+00
         0.00000E+00
         0.00000E+00
         0.00000E+00
         0.00000E+00
         0.00000E+00
         0.00000E+00
         0.00000E+00
         0.00000E+00
         0.00000E+00
         0.00000E+00
         0.00000E+00
         0.00000E+00
         0.00000E+00
         0.00000E+00
         0.00000E+00
         0.00000E+00
         0.00000E+00
         0.00000E+00
         0.00000E+00
         0.00000E+00
         0.00000E+00
         0.00000E+00
         0.00000E+00
         0.00000E+00
         0.00000E+00
         0.00000E+00
         0.00000E+00
         0.00000E+00
         0.00000E+00
         0.00000E+00
         0.00000E+00
         0.00000E+00
         0.00000E+00
         0.00000E+00
         0.00000E+00
         0.00000E+00
         0.00000E+00
         0.00000E+00
         0.00000E+00
         0.00000E+00
         0.00000E+00
         0.00000E+00
         0.00000E+00
         0.00000E+00
         0.00000E+00
         0.00000E+00
         0.00000E+00
         0.00000E+00
         0.00000E+00
         0.00000E+00
         0.00000E+00
         0.00000E+00
         0.00000E+00
         0.00000E+00
         0.00000E+00
         0.00000E+00
         0.00000E+00
         0.00000E+00
         0.00000E+00
         0.00000E+00
         0.00000E+00
         0.00000E+00
         0.00000E+00
         0.00000E+00
         0.00000E+00
         0.00000E+00
         0.00000E+00
         0.00000E+00
         0.00000E+00
         0.00000E+00
         0.00000E+00
         0.00000E+00
         0.00000E+00
         0.00000E+00
         0.00000E+00
         0.00000E+00
         0.00000E+00
         0.00000E+00
         0.00000E+00
         0.00000E+00
         0.00000E+00
         0.00000E+00
         0.00000E+00
         0.00000E+00
         0.00000E+00
         0.00000E+00
         0.00000E+00
         0.00000E+00
         0.00000E+00
         0.00000E+00
         0.00000E+00
         0.00000E+00
         0.00000E+00
         0.00000E+00
         0.00000E+00
         0.00000E+00
         0.00000E+00
         0.00000E+00
         0.00000E+00
         0.00000E+00
         0.00000E+00
         0.00000E+00
         0.00000E+00
         0.00000E+00
         0.00000E+00
         0.00000E+00
         0.00000E+00
         0.00000E+00
         0.00000E+00
         0.00000E+00
         0.00000E+00
         0.00000E+00
         0.00000E+00
         0.00000E+00
         0.00000E+00
         0.00000E+00
         0.00000E+00
         0.00000E+00
         0.00000E+00
         0.00000E+00
         0.00000E+00
         0.00000E+00
         0.00000E+00
         0.00000E+00
         0.00000E+00
         0.00000E+00
         0.00000E+00
         0.00000E+00
         0.00000E+00
         0.00000E+00
         0.00000E+00
         0.00000E+00
         0.00000E+00
         0.00000E+00
         0.00000E+00
         0.00000E+00
         0.00000E+00
         0.00000E+00
         0.00000E+00
         0.00000E+00
         0.00000E+00
         0.00000E+00
         0.00000E+00
         0.00000E+00
         0.00000E+00
         0.00000E+00
         0.00000E+00
         0.00000E+00
         0.00000E+00
         0.00000E+00
         0.00000E+00
         0.00000E+00
         0.00000E+00
         0.00000E+00
         0.00000E+00
         0.00000E+00
         0.00000E+00
         0.00000E+00
         0.00000E+00
         0.00000E+00
         0.00000E+00
         0.00000E+00
         0.00000E+00
         0.00000E+00
         0.00000E+00
         0.00000E+00
         0.00000E+00
         0.00000E+00
         0.00000E+00
         0.00000E+00
         0.00000E+00
         0.00000E+00
         0.00000E+00
         0.00000E+00
         0.00000E+00
         0.00000E+00
         0.00000E+00
         0.00000E+00
         0.00000E+00
         0.00000E+00
         0.00000E+00
         0.00000E+00
         0.00000E+00
         0.00000E+00
         0.00000E+00
         0.00000E+00
         0.00000E+00
         0.00000E+00
         0.00000E+00
         0.00000E+00
         0.00000E+00
         0.00000E+00
         0.00000E+00
         0.00000E+00
         0.00000E+00
         0.00000E+00
         0.00000E+00
         0.00000E+00
         0.00000E+00
         0.00000E+00
         0.00000E+00
         0.00000E+00
         0.00000E+00
         0.00000E+00
         0.00000E+00
         0.00000E+00
         0.00000E+00
         0.00000E+00
         0.00000E+00
         0.00000E+00
         0.00000E+00
         0.00000E+00
         0.00000E+00
         0.00000E+00
         0.00000E+00
         0.00000E+00
         0.00000E+00
         0.00000E+00
         0.00000E+00
         0.00000E+00
         0.00000E+00
         0.00000E+00
         0.00000E+00
         0.00000E+00
         0.00000E+00
         0.00000E+00
         0.00000E+00
         0.00000E+00
         0.00000E+00
         0.00000E+00
         0.00000E+00
         0.00000E+00
         0.00000E+00
         0.00000E+00
         0.00000E+00
         0.00000E+00
         0.00000E+00
         0.00000E+00
         0.00000E+00
         0.00000E+00
         0.00000E+00
         0.00000E+00
         0.00000E+00
         0.00000E+00
         0.00000E+00
         0.00000E+00
         0.00000E+00
         0.00000E+00
         0.00000E+00
         0.00000E+00
         0.00000E+00
         0.00000E+00
         0.00000E+00
         0.00000E+00
         0.00000E+00
         0.00000E+00
         0.00000E+00
         0.00000E+00
         0.00000E+00
         0.00000E+00
         0.00000E+00
         0.00000E+00
         0.00000E+00
         0.00000E+00
         0.00000E+00
         0.00000E+00
         0.00000E+00
         0.00000E+00
         0.00000E+00
         0.00000E+00
         0.00000E+00
         0.00000E+00
         0.00000E+00
         0.00000E+00
         0.00000E+00
         0.00000E+00
         0.00000E+00
         0.00000E+00
         0.00000E+00
         0.00000E+00
         0.00000E+00
         0.00000E+00
         0.00000E+00
         0.00000E+00
         0.00000E+00
         0.00000E+00
         0.00000E+00
         0.00000E+00
         0.00000E+00
         0.00000E+00
         0.00000E+00
         0.00000E+00
         0.00000E+00
         0.00000E+00
         0.00000E+00
         0.00000E+00
         0.00000E+00
         0.00000E+00
         0.00000E+00
         0.00000E+00
         0.00000E+00
         0.00000E+00
         0.00000E+00
         0.00000E+00
         0.00000E+00
         0.00000E+00
         0.00000E+00
         0.00000E+00
         0.00000E+00
         0.00000E+00
         0.00000E+00
         0.00000E+00
         0.00000E+00
         0.00000E+00
         0.00000E+00
         0.00000E+00
         0.00000E+00
         0.00000E+00
         0.00000E+00
         0.00000E+00
         0.00000E+00
         0.00000E+00
         0.00000E+00
         0.00000E+00
         0.00000E+00
         0.00000E+00
         0.00000E+00
         0.00000E+00
         0.00000E+00
         0.00000E+00
         0.00000E+00
         0.00000E+00
         0.00000E+00
         0.00000E+00
         0.00000E+00
         0.00000E+00
         0.00000E+00
         0.00000E+00
         0.00000E+00
         0.00000E+00
         0.00000E+00
         0.00000E+00
         0.00000E+00
         0.00000E+00
         0.00000E+00
         0.00000E+00
         0.00000E+00
         0.00000E+00
         0.00000E+00
         0.00000E+00
         0.00000E+00
         0.00000E+00
         0.00000E+00
         0.00000E+00
         0.00000E+00
         0.00000E+00
         0.00000E+00
         0.00000E+00
         0.00000E+00
         0.00000E+00
         0.00000E+00
         0.00000E+00
         0.00000E+00
         0.00000E+00
         0.00000E+00
         0.00000E+00
         0.00000E+00
         0.00000E+00
         0.00000E+00
         0.00000E+00
         0.00000E+00
         0.00000E+00
         0.00000E+00
         0.00000E+00
         0.00000E+00
         0.00000E+00
         0.00000E+00
         0.00000E+00
         0.00000E+00
         0.00000E+00
         0.00000E+00
         0.00000E+00
         0.00000E+00
         0.00000E+00
         0.00000E+00
         0.00000E+00
         0.00000E+00
         0.00000E+00
         0.00000E+00
         0.00000E+00
         0.00000E+00
         0.00000E+00
         0.00000E+00
         0.00000E+00
         0.00000E+00
         0.00000E+00
         0.00000E+00
         0.00000E+00
         0.00000E+00
         0.00000E+00
         0.00000E+00
         0.00000E+00
         0.00000E+00
         0.00000E+00
         0.00000E+00
         0.00000E+00
         0.00000E+00
         0.00000E+00
         0.00000E+00
         0.00000E+00
         0.00000E+00
         0.00000E+00
         0.00000E+00
         0.00000E+00
         0.00000E+00
         0.00000E+00
         0.00000E+00
         0.00000E+00
         0.00000E+00
         0.00000E+00
         0.00000E+00
         0.00000E+00
         0.00000E+00
         0.00000E+00
         0.00000E+00
         0.00000E+00
         0.00000E+00
         0.00000E+00
         0.00000E+00
         0.00000E+00
         0.00000E+00
         0.00000E+00
         0.00000E+00
         0.00000E+00
         0.00000E+00
         0.00000E+00
         0.00000E+00
         0.00000E+00
         0.00000E+00
         0.00000E+00
         0.00000E+00
         0.00000E+00
         0.00000E+00
         0.00000E+00
         0.00000E+00
         0.00000E+00
         0.00000E+00
         0.00000E+00
         0.00000E+00
         0.00000E+00
         0.00000E+00
         0.00000E+00
         0.00000E+00
         0.00000E+00
         0.00000E+00
         0.00000E+00
         0.00000E+00
         0.00000E+00
         0.00000E+00
         0.00000E+00
         0.00000E+00
         0.00000E+00
         0.00000E+00
         0.00000E+00
         0.00000E+00
         0.00000E+00
         0.00000E+00
         0.00000E+00
         0.00000E+00
         0.00000E+00
         0.00000E+00
         0.00000E+00
         0.00000E+00
         0.00000E+00
         0.00000E+00
         0.00000E+00
         0.00000E+00
         0.00000E+00
         0.00000E+00
         0.00000E+00
         0.00000E+00
         0.00000E+00
         0.00000E+00
         0.00000E+00
         0.00000E+00
         0.00000E+00
         0.00000E+00
         0.00000E+00
         0.00000E+00
         0.00000E+00
         0.00000E+00
         0.00000E+00
         0.00000E+00
         0.00000E+00
         0.00000E+00
         0.00000E+00
         0.00000E+00
         0.00000E+00
         0.00000E+00
         0.00000E+00
         0.00000E+00
         0.00000E+00
         0.00000E+00
         0.00000E+00
         0.00000E+00
         0.00000E+00
         0.00000E+00
         0.00000E+00
         0.00000E+00
         0.00000E+00
         0.00000E+00
         0.00000E+00
         0.00000E+00
         0.00000E+00
         0.00000E+00
         0.00000E+00
         0.00000E+00
         0.00000E+00
         0.00000E+00
         0.00000E+00
         0.00000E+00
         0.00000E+00
         0.00000E+00
         0.00000E+00
         0.00000E+00
         0.00000E+00
         0.00000E+00
         0.00000E+00
         0.00000E+00
         0.00000E+00
         0.00000E+00
         0.00000E+00
         0.00000E+00
         0.00000E+00
         0.00000E+00
         0.00000E+00
         0.00000E+00
         0.00000E+00
         0.00000E+00
         0.00000E+00
         0.00000E+00
         0.00000E+00
         0.00000E+00
         0.00000E+00
         0.00000E+00
         0.00000E+00
         0.00000E+00
         0.00000E+00
         0.00000E+00
         0.00000E+00
         0.00000E+00
         0.00000E+00
         0.00000E+00
         0.00000E+00
         0.00000E+00
         0.00000E+00
         0.00000E+00
         0.00000E+00
         0.00000E+00
         0.00000E+00
         0.00000E+00
         0.00000E+00
         0.00000E+00
         0.00000E+00
         0.00000E+00
         0.00000E+00
         0.00000E+00
         0.00000E+00
         0.00000E+00
         0.00000E+00
         0.00000E+00
         0.00000E+00
         0.00000E+00
         0.00000E+00
         0.00000E+00
         0.00000E+00
         0.00000E+00
         0.00000E+00
         0.00000E+00
         0.00000E+00
         0.00000E+00
         0.00000E+00
         0.00000E+00
         0.00000E+00
         0.00000E+00
         0.00000E+00
         0.00000E+00
         0.00000E+00
         0.00000E+00
         0.00000E+00
         0.00000E+00
         0.00000E+00
         0.00000E+00
         0.00000E+00
         0.00000E+00
         0.00000E+00
         0.00000E+00
         0.00000E+00
         0.00000E+00
         0.00000E+00
         0.00000E+00
         0.00000E+00
         0.00000E+00
         0.00000E+00
         0.00000E+00
         0.00000E+00
         0.00000E+00
         0.00000E+00
         0.00000E+00
         0.00000E+00
         0.00000E+00
         0.00000E+00
         0.00000E+00
         0.00000E+00
         0.00000E+00
         0.00000E+00
         0.00000E+00
         0.00000E+00
         0.00000E+00
         0.00000E+00
         0.00000E+00
         0.00000E+00
         0.00000E+00
         0.00000E+00
         0.00000E+00
         0.00000E+00
         0.00000E+00
         0.00000E+00
         0.00000E+00
         0.00000E+00
         0.00000E+00
         0.00000E+00
         0.00000E+00
         0.00000E+00
         0.00000E+00
         0.00000E+00
         0.00000E+00
         0.00000E+00
         0.00000E+00
         0.00000E+00
         0.00000E+00
         0.00000E+00
         0.00000E+00
         0.00000E+00
         0.00000E+00
         0.00000E+00
         0.00000E+00
         0.00000E+00
         0.00000E+00
         0.00000E+00
         0.00000E+00
         0.00000E+00
         0.00000E+00
         0.00000E+00
         0.00000E+00
         0.00000E+00
         0.00000E+00
         0.00000E+00
         0.00000E+00
         0.00000E+00
         0.00000E+00
         0.00000E+00
         0.00000E+00
         0.00000E+00
         0.00000E+00
         0.00000E+00
         0.00000E+00
         0.00000E+00
         0.00000E+00
         0.00000E+00
         0.00000E+00
         0.00000E+00
         0.00000E+00
         0.00000E+00
         0.00000E+00
         0.00000E+00
         0.00000E+00
         0.00000E+00
         0.00000E+00
         0.00000E+00
         0.00000E+00
         0.00000E+00
         0.00000E+00
         0.00000E+00
         0.00000E+00
         0.00000E+00
         0.00000E+00
         0.00000E+00
         0.00000E+00
         0.00000E+00
         0.00000E+00
         0.00000E+00
         0.00000E+00
         0.00000E+00
         0.00000E+00
         0.00000E+00
         0.00000E+00
         0.00000E+00
         0.00000E+00
         0.00000E+00
         0.00000E+00
         0.00000E+00
         0.00000E+00
         0.00000E+00
         0.00000E+00
         0.00000E+00
         0.00000E+00
         0.00000E+00
         0.00000E+00
         0.00000E+00
         0.00000E+00
         0.00000E+00
         0.00000E+00
         0.00000E+00
         0.00000E+00
         0.00000E+00
         0.00000E+00
         0.00000E+00
         0.00000E+00
         0.00000E+00
         0.00000E+00
         0.00000E+00
         0.00000E+00
         0.00000E+00
         0.00000E+00
         0.00000E+00
         0.00000E+00
         0.00000E+00
         0.00000E+00
         0.00000E+00
         0.00000E+00
         0.00000E+00
         0.00000E+00
         0.00000E+00
         0.00000E+00
         0.00000E+00
         0.00000E+00
         0.00000E+00
         0.00000E+00
         0.00000E+00
         0.00000E+00
         0.00000E+00
         0.00000E+00
         0.00000E+00
         0.00000E+00
         0.00000E+00
         0.00000E+00
         0.00000E+00
         0.00000E+00
         0.00000E+00
         0.00000E+00
         0.00000E+00
         0.00000E+00
         0.00000E+00
         0.00000E+00
         0.00000E+00
         0.00000E+00
         0.00000E+00
         0.00000E+00
         0.00000E+00
         0.00000E+00
         0.00000E+00
         0.00000E+00
         0.00000E+00
         0.00000E+00
         0.00000E+00
         0.00000E+00
         0.00000E+00
         0.00000E+00
         0.00000E+00
         0.00000E+00
         0.00000E+00
         0.00000E+00
         0.00000E+00
         0.00000E+00
         0.00000E+00
         0.00000E+00
         0.00000E+00
         0.00000E+00
         0.00000E+00
         0.00000E+00
         0.00000E+00
         0.00000E+00
         0.00000E+00
         0.00000E+00
         0.00000E+00
         0.00000E+00
         0.00000E+00
         0.00000E+00
         0.00000E+00
         0.00000E+00
         0.00000E+00
         0.00000E+00
         0.00000E+00
         0.00000E+00
         0.00000E+00
         0.00000E+00
         0.00000E+00
         0.00000E+00
         0.00000E+00
         0.00000E+00
         0.00000E+00
         0.00000E+00
         0.00000E+00
         0.00000E+00
         0.00000E+00
         0.00000E+00
         0.00000E+00
         0.00000E+00
         0.00000E+00
         0.00000E+00
         0.00000E+00
         0.00000E+00
         0.00000E+00
         0.00000E+00
         0.00000E+00
         0.00000E+00
         0.00000E+00
         0.00000E+00
         0.00000E+00
         0.00000E+00
         0.00000E+00
         0.00000E+00
         0.00000E+00
         0.00000E+00
         0.00000E+00
         0.00000E+00
         0.00000E+00
         0.00000E+00
         0.00000E+00
         0.00000E+00
         0.00000E+00
         0.00000E+00
         0.00000E+00
         0.00000E+00
         0.00000E+00
         0.00000E+00
         0.00000E+00
         0.00000E+00
         0.00000E+00
         0.00000E+00
         0.00000E+00
         0.00000E+00
         0.00000E+00
         0.00000E+00
         0.00000E+00
         0.00000E+00
         0.00000E+00
         0.00000E+00
         0.00000E+00
         0.00000E+00
         0.00000E+00
         0.00000E+00
         0.00000E+00
         0.00000E+00
         0.00000E+00
         0.00000E+00
         0.00000E+00
         0.00000E+00
         0.00000E+00
         0.00000E+00
         0.00000E+00
         0.00000E+00
         0.00000E+00
         0.00000E+00
         0.00000E+00
         0.00000E+00
         0.00000E+00
         0.00000E+00
         0.00000E+00
         0.00000E+00
         0.00000E+00
         0.00000E+00
         0.00000E+00
         0.00000E+00
         0.00000E+00
         0.00000E+00
         0.00000E+00
         0.00000E+00
         0.00000E+00
         0.00000E+00
         0.00000E+00
         0.00000E+00
         0.00000E+00
         0.00000E+00
         0.00000E+00
         0.00000E+00
         0.00000E+00
         0.00000E+00
         0.00000E+00
         0.00000E+00
         0.00000E+00
         0.00000E+00
         0.00000E+00
         0.00000E+00
         0.00000E+00
         0.00000E+00
         0.00000E+00
         0.00000E+00
         0.00000E+00
         0.00000E+00
         0.00000E+00
         0.00000E+00
         0.00000E+00
         0.00000E+00
         0.00000E+00
         0.00000E+00
         0.00000E+00
         0.00000E+00
         0.00000E+00
         0.00000E+00
         0.00000E+00
         0.00000E+00
         0.00000E+00
         0.00000E+00
         0.00000E+00
         0.00000E+00
         0.00000E+00
         0.00000E+00
         0.00000E+00
         0.00000E+00
         0.00000E+00
         0.00000E+00
         0.00000E+00
         0.00000E+00
         0.00000E+00
         0.00000E+00
         0.00000E+00
         0.00000E+00
         0.00000E+00
         0.00000E+00
         0.00000E+00
         0.00000E+00
         0.00000E+00
         0.00000E+00
         0.00000E+00
         0.00000E+00
         0.00000E+00
         0.00000E+00
         0.00000E+00
         0.00000E+00
         0.00000E+00
         0.00000E+00
         0.00000E+00
         0.00000E+00
         0.00000E+00
         0.00000E+00
         0.00000E+00
         0.00000E+00
         0.00000E+00
         0.00000E+00
         0.00000E+00
         0.00000E+00
         0.00000E+00
         0.00000E+00
         0.00000E+00
         0.00000E+00
         0.00000E+00
         0.00000E+00
         0.00000E+00
         0.00000E+00
         0.00000E+00
         0.00000E+00
         0.00000E+00
         0.00000E+00
         0.00000E+00
         0.00000E+00
         0.00000E+00
         0.00000E+00
         0.00000E+00
         0.00000E+00
         0.00000E+00
         0.00000E+00
         0.00000E+00
         0.00000E+00
         0.00000E+00
         0.00000E+00
         0.00000E+00
         0.00000E+00
         0.00000E+00
         0.00000E+00
         0.00000E+00
         0.00000E+00
         0.00000E+00
         0.00000E+00
         0.00000E+00
         0.00000E+00
         0.00000E+00
         0.00000E+00
  
SCALARS                         fint_y  double 1
LOOKUP_TABLE default
         0.00000E+00
         0.00000E+00
         0.00000E+00
         0.00000E+00
         0.00000E+00
         0.00000E+00
         0.00000E+00
         0.00000E+00
         0.00000E+00
         0.00000E+00
         0.00000E+00
         0.00000E+00
         0.00000E+00
         0.00000E+00
         0.00000E+00
         0.00000E+00
         0.00000E+00
         0.00000E+00
         0.00000E+00
         0.00000E+00
         0.00000E+00
         0.00000E+00
         0.00000E+00
         0.00000E+00
         0.00000E+00
         0.00000E+00
         0.00000E+00
         0.00000E+00
         0.00000E+00
         0.00000E+00
         0.00000E+00
         0.00000E+00
         0.00000E+00
         0.00000E+00
         0.00000E+00
         0.00000E+00
         0.00000E+00
         0.00000E+00
         0.00000E+00
         0.00000E+00
         0.00000E+00
         0.00000E+00
         0.00000E+00
         0.00000E+00
         0.00000E+00
         0.00000E+00
         0.00000E+00
         0.00000E+00
         0.00000E+00
         0.00000E+00
         0.00000E+00
         0.00000E+00
         0.00000E+00
         0.00000E+00
         0.00000E+00
         0.00000E+00
         0.00000E+00
         0.00000E+00
         0.00000E+00
         0.00000E+00
         0.00000E+00
         0.00000E+00
         0.00000E+00
         0.00000E+00
         0.00000E+00
         0.00000E+00
         0.00000E+00
         0.00000E+00
         0.00000E+00
         0.00000E+00
         0.00000E+00
         0.00000E+00
         0.00000E+00
         0.00000E+00
         0.00000E+00
         0.00000E+00
         0.00000E+00
         0.00000E+00
         0.00000E+00
         0.00000E+00
         0.00000E+00
         0.00000E+00
         0.00000E+00
         0.00000E+00
         0.00000E+00
         0.00000E+00
         0.00000E+00
         0.00000E+00
         0.00000E+00
         0.00000E+00
         0.00000E+00
         0.00000E+00
         0.00000E+00
         0.00000E+00
         0.00000E+00
         0.00000E+00
         0.00000E+00
         0.00000E+00
         0.00000E+00
         0.00000E+00
         0.00000E+00
         0.00000E+00
         0.00000E+00
         0.00000E+00
         0.00000E+00
         0.00000E+00
         0.00000E+00
         0.00000E+00
         0.00000E+00
         0.00000E+00
         0.00000E+00
         0.00000E+00
         0.00000E+00
         0.00000E+00
         0.00000E+00
         0.00000E+00
         0.00000E+00
         0.00000E+00
         0.00000E+00
         0.00000E+00
         0.00000E+00
         0.00000E+00
         0.00000E+00
         0.00000E+00
         0.00000E+00
         0.00000E+00
         0.00000E+00
         0.00000E+00
         0.00000E+00
         0.00000E+00
         0.00000E+00
         0.00000E+00
         0.00000E+00
         0.00000E+00
         0.00000E+00
         0.00000E+00
         0.00000E+00
         0.00000E+00
         0.00000E+00
         0.00000E+00
         0.00000E+00
         0.00000E+00
         0.00000E+00
         0.00000E+00
         0.00000E+00
         0.00000E+00
         0.00000E+00
         0.00000E+00
         0.00000E+00
         0.00000E+00
         0.00000E+00
         0.00000E+00
         0.00000E+00
         0.00000E+00
         0.00000E+00
         0.00000E+00
         0.00000E+00
         0.00000E+00
         0.00000E+00
         0.00000E+00
         0.00000E+00
         0.00000E+00
         0.00000E+00
         0.00000E+00
         0.00000E+00
         0.00000E+00
         0.00000E+00
         0.00000E+00
         0.00000E+00
         0.00000E+00
         0.00000E+00
         0.00000E+00
         0.00000E+00
         0.00000E+00
         0.00000E+00
         0.00000E+00
         0.00000E+00
         0.00000E+00
         0.00000E+00
         0.00000E+00
         0.00000E+00
         0.00000E+00
         0.00000E+00
         0.00000E+00
         0.00000E+00
         0.00000E+00
         0.00000E+00
         0.00000E+00
         0.00000E+00
         0.00000E+00
         0.00000E+00
         0.00000E+00
         0.00000E+00
         0.00000E+00
         0.00000E+00
         0.00000E+00
         0.00000E+00
         0.00000E+00
         0.00000E+00
         0.00000E+00
         0.00000E+00
         0.00000E+00
         0.00000E+00
         0.00000E+00
         0.00000E+00
         0.00000E+00
         0.00000E+00
         0.00000E+00
         0.00000E+00
         0.00000E+00
         0.00000E+00
         0.00000E+00
         0.00000E+00
         0.00000E+00
         0.00000E+00
         0.00000E+00
         0.00000E+00
         0.00000E+00
         0.00000E+00
         0.00000E+00
         0.00000E+00
         0.00000E+00
         0.00000E+00
         0.00000E+00
         0.00000E+00
         0.00000E+00
         0.00000E+00
         0.00000E+00
         0.00000E+00
         0.00000E+00
         0.00000E+00
         0.00000E+00
         0.00000E+00
         0.00000E+00
         0.00000E+00
         0.00000E+00
         0.00000E+00
         0.00000E+00
         0.00000E+00
         0.00000E+00
         0.00000E+00
         0.00000E+00
         0.00000E+00
         0.00000E+00
         0.00000E+00
         0.00000E+00
         0.00000E+00
         0.00000E+00
         0.00000E+00
         0.00000E+00
         0.00000E+00
         0.00000E+00
         0.00000E+00
         0.00000E+00
         0.00000E+00
         0.00000E+00
         0.00000E+00
         0.00000E+00
         0.00000E+00
         0.00000E+00
         0.00000E+00
         0.00000E+00
         0.00000E+00
         0.00000E+00
         0.00000E+00
         0.00000E+00
         0.00000E+00
         0.00000E+00
         0.00000E+00
         0.00000E+00
         0.00000E+00
         0.00000E+00
         0.00000E+00
         0.00000E+00
         0.00000E+00
         0.00000E+00
         0.00000E+00
         0.00000E+00
         0.00000E+00
         0.00000E+00
         0.00000E+00
         0.00000E+00
         0.00000E+00
         0.00000E+00
         0.00000E+00
         0.00000E+00
         0.00000E+00
         0.00000E+00
         0.00000E+00
         0.00000E+00
         0.00000E+00
         0.00000E+00
         0.00000E+00
         0.00000E+00
         0.00000E+00
         0.00000E+00
         0.00000E+00
         0.00000E+00
         0.00000E+00
         0.00000E+00
         0.00000E+00
         0.00000E+00
         0.00000E+00
         0.00000E+00
         0.00000E+00
         0.00000E+00
         0.00000E+00
         0.00000E+00
         0.00000E+00
         0.00000E+00
         0.00000E+00
         0.00000E+00
         0.00000E+00
         0.00000E+00
         0.00000E+00
         0.00000E+00
         0.00000E+00
         0.00000E+00
         0.00000E+00
         0.00000E+00
         0.00000E+00
         0.00000E+00
         0.00000E+00
         0.00000E+00
         0.00000E+00
         0.00000E+00
         0.00000E+00
         0.00000E+00
         0.00000E+00
         0.00000E+00
         0.00000E+00
         0.00000E+00
         0.00000E+00
         0.00000E+00
         0.00000E+00
         0.00000E+00
         0.00000E+00
         0.00000E+00
         0.00000E+00
         0.00000E+00
         0.00000E+00
         0.00000E+00
         0.00000E+00
         0.00000E+00
         0.00000E+00
         0.00000E+00
         0.00000E+00
         0.00000E+00
         0.00000E+00
         0.00000E+00
         0.00000E+00
         0.00000E+00
         0.00000E+00
         0.00000E+00
         0.00000E+00
         0.00000E+00
         0.00000E+00
         0.00000E+00
         0.00000E+00
         0.00000E+00
         0.00000E+00
         0.00000E+00
         0.00000E+00
         0.00000E+00
         0.00000E+00
         0.00000E+00
         0.00000E+00
         0.00000E+00
         0.00000E+00
         0.00000E+00
         0.00000E+00
         0.00000E+00
         0.00000E+00
         0.00000E+00
         0.00000E+00
         0.00000E+00
         0.00000E+00
         0.00000E+00
         0.00000E+00
         0.00000E+00
         0.00000E+00
         0.00000E+00
         0.00000E+00
         0.00000E+00
         0.00000E+00
         0.00000E+00
         0.00000E+00
         0.00000E+00
         0.00000E+00
         0.00000E+00
         0.00000E+00
         0.00000E+00
         0.00000E+00
         0.00000E+00
         0.00000E+00
         0.00000E+00
         0.00000E+00
         0.00000E+00
         0.00000E+00
         0.00000E+00
         0.00000E+00
         0.00000E+00
         0.00000E+00
         0.00000E+00
         0.00000E+00
         0.00000E+00
         0.00000E+00
         0.00000E+00
         0.00000E+00
         0.00000E+00
         0.00000E+00
         0.00000E+00
         0.00000E+00
         0.00000E+00
         0.00000E+00
         0.00000E+00
         0.00000E+00
         0.00000E+00
         0.00000E+00
         0.00000E+00
         0.00000E+00
         0.00000E+00
         0.00000E+00
         0.00000E+00
         0.00000E+00
         0.00000E+00
         0.00000E+00
         0.00000E+00
         0.00000E+00
         0.00000E+00
         0.00000E+00
         0.00000E+00
         0.00000E+00
         0.00000E+00
         0.00000E+00
         0.00000E+00
         0.00000E+00
         0.00000E+00
         0.00000E+00
         0.00000E+00
         0.00000E+00
         0.00000E+00
         0.00000E+00
         0.00000E+00
         0.00000E+00
         0.00000E+00
         0.00000E+00
         0.00000E+00
         0.00000E+00
         0.00000E+00
         0.00000E+00
         0.00000E+00
         0.00000E+00
         0.00000E+00
         0.00000E+00
         0.00000E+00
         0.00000E+00
         0.00000E+00
         0.00000E+00
         0.00000E+00
         0.00000E+00
         0.00000E+00
         0.00000E+00
         0.00000E+00
         0.00000E+00
         0.00000E+00
         0.00000E+00
         0.00000E+00
         0.00000E+00
         0.00000E+00
         0.00000E+00
         0.00000E+00
         0.00000E+00
         0.00000E+00
         0.00000E+00
         0.00000E+00
         0.00000E+00
         0.00000E+00
         0.00000E+00
         0.00000E+00
         0.00000E+00
         0.00000E+00
         0.00000E+00
         0.00000E+00
         0.00000E+00
         0.00000E+00
         0.00000E+00
         0.00000E+00
         0.00000E+00
         0.00000E+00
         0.00000E+00
         0.00000E+00
         0.00000E+00
         0.00000E+00
         0.00000E+00
         0.00000E+00
         0.00000E+00
         0.00000E+00
         0.00000E+00
         0.00000E+00
         0.00000E+00
         0.00000E+00
         0.00000E+00
         0.00000E+00
         0.00000E+00
         0.00000E+00
         0.00000E+00
         0.00000E+00
         0.00000E+00
         0.00000E+00
         0.00000E+00
         0.00000E+00
         0.00000E+00
         0.00000E+00
         0.00000E+00
         0.00000E+00
         0.00000E+00
         0.00000E+00
         0.00000E+00
         0.00000E+00
         0.00000E+00
         0.00000E+00
         0.00000E+00
         0.00000E+00
         0.00000E+00
         0.00000E+00
         0.00000E+00
         0.00000E+00
         0.00000E+00
         0.00000E+00
         0.00000E+00
         0.00000E+00
         0.00000E+00
         0.00000E+00
         0.00000E+00
         0.00000E+00
         0.00000E+00
         0.00000E+00
         0.00000E+00
         0.00000E+00
         0.00000E+00
         0.00000E+00
         0.00000E+00
         0.00000E+00
         0.00000E+00
         0.00000E+00
         0.00000E+00
         0.00000E+00
         0.00000E+00
         0.00000E+00
         0.00000E+00
         0.00000E+00
         0.00000E+00
         0.00000E+00
         0.00000E+00
         0.00000E+00
         0.00000E+00
         0.00000E+00
         0.00000E+00
         0.00000E+00
         0.00000E+00
         0.00000E+00
         0.00000E+00
         0.00000E+00
         0.00000E+00
         0.00000E+00
         0.00000E+00
         0.00000E+00
         0.00000E+00
         0.00000E+00
         0.00000E+00
         0.00000E+00
         0.00000E+00
         0.00000E+00
         0.00000E+00
         0.00000E+00
         0.00000E+00
         0.00000E+00
         0.00000E+00
         0.00000E+00
         0.00000E+00
         0.00000E+00
         0.00000E+00
         0.00000E+00
         0.00000E+00
         0.00000E+00
         0.00000E+00
         0.00000E+00
         0.00000E+00
         0.00000E+00
         0.00000E+00
         0.00000E+00
         0.00000E+00
         0.00000E+00
         0.00000E+00
         0.00000E+00
         0.00000E+00
         0.00000E+00
         0.00000E+00
         0.00000E+00
         0.00000E+00
         0.00000E+00
         0.00000E+00
         0.00000E+00
         0.00000E+00
         0.00000E+00
         0.00000E+00
         0.00000E+00
         0.00000E+00
         0.00000E+00
         0.00000E+00
         0.00000E+00
         0.00000E+00
         0.00000E+00
         0.00000E+00
         0.00000E+00
         0.00000E+00
         0.00000E+00
         0.00000E+00
         0.00000E+00
         0.00000E+00
         0.00000E+00
         0.00000E+00
         0.00000E+00
         0.00000E+00
         0.00000E+00
         0.00000E+00
         0.00000E+00
         0.00000E+00
         0.00000E+00
         0.00000E+00
         0.00000E+00
         0.00000E+00
         0.00000E+00
         0.00000E+00
         0.00000E+00
         0.00000E+00
         0.00000E+00
         0.00000E+00
         0.00000E+00
         0.00000E+00
         0.00000E+00
         0.00000E+00
         0.00000E+00
         0.00000E+00
         0.00000E+00
         0.00000E+00
         0.00000E+00
         0.00000E+00
         0.00000E+00
         0.00000E+00
         0.00000E+00
         0.00000E+00
         0.00000E+00
         0.00000E+00
         0.00000E+00
         0.00000E+00
         0.00000E+00
         0.00000E+00
         0.00000E+00
         0.00000E+00
         0.00000E+00
         0.00000E+00
         0.00000E+00
         0.00000E+00
         0.00000E+00
         0.00000E+00
         0.00000E+00
         0.00000E+00
         0.00000E+00
         0.00000E+00
         0.00000E+00
         0.00000E+00
         0.00000E+00
         0.00000E+00
         0.00000E+00
         0.00000E+00
         0.00000E+00
         0.00000E+00
         0.00000E+00
         0.00000E+00
         0.00000E+00
         0.00000E+00
         0.00000E+00
         0.00000E+00
         0.00000E+00
         0.00000E+00
         0.00000E+00
         0.00000E+00
         0.00000E+00
         0.00000E+00
         0.00000E+00
         0.00000E+00
         0.00000E+00
         0.00000E+00
         0.00000E+00
         0.00000E+00
         0.00000E+00
         0.00000E+00
         0.00000E+00
         0.00000E+00
         0.00000E+00
         0.00000E+00
         0.00000E+00
         0.00000E+00
         0.00000E+00
         0.00000E+00
         0.00000E+00
         0.00000E+00
         0.00000E+00
         0.00000E+00
         0.00000E+00
         0.00000E+00
         0.00000E+00
         0.00000E+00
         0.00000E+00
         0.00000E+00
         0.00000E+00
         0.00000E+00
         0.00000E+00
         0.00000E+00
         0.00000E+00
         0.00000E+00
         0.00000E+00
         0.00000E+00
         0.00000E+00
         0.00000E+00
         0.00000E+00
         0.00000E+00
         0.00000E+00
         0.00000E+00
         0.00000E+00
         0.00000E+00
         0.00000E+00
         0.00000E+00
         0.00000E+00
         0.00000E+00
         0.00000E+00
         0.00000E+00
         0.00000E+00
         0.00000E+00
         0.00000E+00
         0.00000E+00
         0.00000E+00
         0.00000E+00
         0.00000E+00
         0.00000E+00
         0.00000E+00
         0.00000E+00
         0.00000E+00
         0.00000E+00
         0.00000E+00
         0.00000E+00
         0.00000E+00
         0.00000E+00
         0.00000E+00
         0.00000E+00
         0.00000E+00
         0.00000E+00
         0.00000E+00
         0.00000E+00
         0.00000E+00
         0.00000E+00
         0.00000E+00
         0.00000E+00
         0.00000E+00
         0.00000E+00
         0.00000E+00
         0.00000E+00
         0.00000E+00
         0.00000E+00
         0.00000E+00
         0.00000E+00
         0.00000E+00
         0.00000E+00
         0.00000E+00
         0.00000E+00
         0.00000E+00
         0.00000E+00
         0.00000E+00
         0.00000E+00
         0.00000E+00
         0.00000E+00
         0.00000E+00
         0.00000E+00
         0.00000E+00
         0.00000E+00
         0.00000E+00
         0.00000E+00
         0.00000E+00
         0.00000E+00
         0.00000E+00
         0.00000E+00
         0.00000E+00
         0.00000E+00
         0.00000E+00
         0.00000E+00
         0.00000E+00
         0.00000E+00
         0.00000E+00
         0.00000E+00
         0.00000E+00
         0.00000E+00
         0.00000E+00
         0.00000E+00
         0.00000E+00
         0.00000E+00
         0.00000E+00
         0.00000E+00
         0.00000E+00
         0.00000E+00
         0.00000E+00
         0.00000E+00
         0.00000E+00
         0.00000E+00
         0.00000E+00
         0.00000E+00
         0.00000E+00
         0.00000E+00
         0.00000E+00
         0.00000E+00
         0.00000E+00
         0.00000E+00
         0.00000E+00
         0.00000E+00
         0.00000E+00
         0.00000E+00
         0.00000E+00
         0.00000E+00
         0.00000E+00
         0.00000E+00
         0.00000E+00
         0.00000E+00
         0.00000E+00
         0.00000E+00
         0.00000E+00
         0.00000E+00
         0.00000E+00
         0.00000E+00
         0.00000E+00
         0.00000E+00
         0.00000E+00
         0.00000E+00
         0.00000E+00
         0.00000E+00
         0.00000E+00
         0.00000E+00
         0.00000E+00
         0.00000E+00
         0.00000E+00
         0.00000E+00
         0.00000E+00
         0.00000E+00
         0.00000E+00
         0.00000E+00
         0.00000E+00
         0.00000E+00
         0.00000E+00
         0.00000E+00
         0.00000E+00
         0.00000E+00
         0.00000E+00
         0.00000E+00
         0.00000E+00
         0.00000E+00
         0.00000E+00
         0.00000E+00
         0.00000E+00
         0.00000E+00
         0.00000E+00
         0.00000E+00
         0.00000E+00
         0.00000E+00
         0.00000E+00
         0.00000E+00
         0.00000E+00
         0.00000E+00
         0.00000E+00
         0.00000E+00
         0.00000E+00
         0.00000E+00
         0.00000E+00
         0.00000E+00
         0.00000E+00
         0.00000E+00
         0.00000E+00
         0.00000E+00
         0.00000E+00
         0.00000E+00
         0.00000E+00
         0.00000E+00
         0.00000E+00
         0.00000E+00
         0.00000E+00
         0.00000E+00
         0.00000E+00
         0.00000E+00
         0.00000E+00
         0.00000E+00
         0.00000E+00
         0.00000E+00
         0.00000E+00
         0.00000E+00
         0.00000E+00
         0.00000E+00
         0.00000E+00
         0.00000E+00
         0.00000E+00
         0.00000E+00
         0.00000E+00
         0.00000E+00
         0.00000E+00
         0.00000E+00
         0.00000E+00
         0.00000E+00
         0.00000E+00
         0.00000E+00
         0.00000E+00
         0.00000E+00
         0.00000E+00
         0.00000E+00
         0.00000E+00
         0.00000E+00
         0.00000E+00
         0.00000E+00
         0.00000E+00
         0.00000E+00
         0.00000E+00
         0.00000E+00
         0.00000E+00
         0.00000E+00
         0.00000E+00
         0.00000E+00
         0.00000E+00
         0.00000E+00
         0.00000E+00
         0.00000E+00
         0.00000E+00
         0.00000E+00
         0.00000E+00
         0.00000E+00
         0.00000E+00
         0.00000E+00
         0.00000E+00
         0.00000E+00
         0.00000E+00
         0.00000E+00
         0.00000E+00
         0.00000E+00
         0.00000E+00
         0.00000E+00
         0.00000E+00
         0.00000E+00
         0.00000E+00
         0.00000E+00
         0.00000E+00
         0.00000E+00
         0.00000E+00
         0.00000E+00
         0.00000E+00
         0.00000E+00
         0.00000E+00
         0.00000E+00
         0.00000E+00
         0.00000E+00
         0.00000E+00
         0.00000E+00
         0.00000E+00
         0.00000E+00
         0.00000E+00
         0.00000E+00
         0.00000E+00
         0.00000E+00
         0.00000E+00
         0.00000E+00
         0.00000E+00
         0.00000E+00
         0.00000E+00
         0.00000E+00
         0.00000E+00
         0.00000E+00
         0.00000E+00
         0.00000E+00
         0.00000E+00
         0.00000E+00
         0.00000E+00
         0.00000E+00
         0.00000E+00
         0.00000E+00
         0.00000E+00
         0.00000E+00
         0.00000E+00
         0.00000E+00
         0.00000E+00
         0.00000E+00
         0.00000E+00
         0.00000E+00
         0.00000E+00
         0.00000E+00
         0.00000E+00
         0.00000E+00
         0.00000E+00
         0.00000E+00
         0.00000E+00
         0.00000E+00
         0.00000E+00
         0.00000E+00
         0.00000E+00
         0.00000E+00
         0.00000E+00
         0.00000E+00
         0.00000E+00
         0.00000E+00
         0.00000E+00
         0.00000E+00
         0.00000E+00
         0.00000E+00
         0.00000E+00
         0.00000E+00
         0.00000E+00
         0.00000E+00
         0.00000E+00
         0.00000E+00
         0.00000E+00
         0.00000E+00
         0.00000E+00
         0.00000E+00
         0.00000E+00
         0.00000E+00
         0.00000E+00
         0.00000E+00
         0.00000E+00
         0.00000E+00
         0.00000E+00
         0.00000E+00
         0.00000E+00
         0.00000E+00
         0.00000E+00
         0.00000E+00
         0.00000E+00
         0.00000E+00
         0.00000E+00
         0.00000E+00
         0.00000E+00
         0.00000E+00
         0.00000E+00
         0.00000E+00
         0.00000E+00
         0.00000E+00
         0.00000E+00
         0.00000E+00
         0.00000E+00
         0.00000E+00
         0.00000E+00
         0.00000E+00
         0.00000E+00
         0.00000E+00
         0.00000E+00
         0.00000E+00
         0.00000E+00
         0.00000E+00
         0.00000E+00
         0.00000E+00
         0.00000E+00
         0.00000E+00
         0.00000E+00
         0.00000E+00
         0.00000E+00
         0.00000E+00
         0.00000E+00
         0.00000E+00
         0.00000E+00
         0.00000E+00
         0.00000E+00
         0.00000E+00
         0.00000E+00
         0.00000E+00
         0.00000E+00
         0.00000E+00
         0.00000E+00
         0.00000E+00
         0.00000E+00
         0.00000E+00
         0.00000E+00
         0.00000E+00
         0.00000E+00
         0.00000E+00
         0.00000E+00
         0.00000E+00
         0.00000E+00
         0.00000E+00
         0.00000E+00
         0.00000E+00
         0.00000E+00
         0.00000E+00
         0.00000E+00
         0.00000E+00
         0.00000E+00
         0.00000E+00
         0.00000E+00
         0.00000E+00
         0.00000E+00
         0.00000E+00
         0.00000E+00
         0.00000E+00
         0.00000E+00
         0.00000E+00
         0.00000E+00
         0.00000E+00
         0.00000E+00
         0.00000E+00
         0.00000E+00
         0.00000E+00
         0.00000E+00
         0.00000E+00
         0.00000E+00
         0.00000E+00
         0.00000E+00
         0.00000E+00
         0.00000E+00
         0.00000E+00
         0.00000E+00
         0.00000E+00
         0.00000E+00
         0.00000E+00
         0.00000E+00
         0.00000E+00
         0.00000E+00
         0.00000E+00
         0.00000E+00
         0.00000E+00
         0.00000E+00
         0.00000E+00
         0.00000E+00
         0.00000E+00
         0.00000E+00
         0.00000E+00
         0.00000E+00
         0.00000E+00
         0.00000E+00
         0.00000E+00
         0.00000E+00
         0.00000E+00
         0.00000E+00
         0.00000E+00
         0.00000E+00
         0.00000E+00
         0.00000E+00
         0.00000E+00
         0.00000E+00
         0.00000E+00
         0.00000E+00
         0.00000E+00
         0.00000E+00
         0.00000E+00
         0.00000E+00
         0.00000E+00
         0.00000E+00
         0.00000E+00
         0.00000E+00
         0.00000E+00
         0.00000E+00
         0.00000E+00
         0.00000E+00
         0.00000E+00
         0.00000E+00
         0.00000E+00
         0.00000E+00
         0.00000E+00
         0.00000E+00
         0.00000E+00
         0.00000E+00
         0.00000E+00
         0.00000E+00
         0.00000E+00
         0.00000E+00
         0.00000E+00
         0.00000E+00
         0.00000E+00
         0.00000E+00
         0.00000E+00
         0.00000E+00
         0.00000E+00
         0.00000E+00
         0.00000E+00
         0.00000E+00
         0.00000E+00
         0.00000E+00
         0.00000E+00
         0.00000E+00
         0.00000E+00
         0.00000E+00
         0.00000E+00
         0.00000E+00
         0.00000E+00
         0.00000E+00
         0.00000E+00
         0.00000E+00
         0.00000E+00
         0.00000E+00
         0.00000E+00
         0.00000E+00
         0.00000E+00
         0.00000E+00
         0.00000E+00
         0.00000E+00
         0.00000E+00
         0.00000E+00
         0.00000E+00
         0.00000E+00
         0.00000E+00
         0.00000E+00
         0.00000E+00
         0.00000E+00
         0.00000E+00
         0.00000E+00
         0.00000E+00
         0.00000E+00
         0.00000E+00
         0.00000E+00
         0.00000E+00
         0.00000E+00
         0.00000E+00
         0.00000E+00
         0.00000E+00
         0.00000E+00
         0.00000E+00
         0.00000E+00
         0.00000E+00
         0.00000E+00
         0.00000E+00
         0.00000E+00
         0.00000E+00
         0.00000E+00
         0.00000E+00
         0.00000E+00
         0.00000E+00
         0.00000E+00
         0.00000E+00
         0.00000E+00
         0.00000E+00
         0.00000E+00
         0.00000E+00
         0.00000E+00
         0.00000E+00
         0.00000E+00
         0.00000E+00
         0.00000E+00
         0.00000E+00
         0.00000E+00
         0.00000E+00
         0.00000E+00
         0.00000E+00
         0.00000E+00
         0.00000E+00
         0.00000E+00
         0.00000E+00
         0.00000E+00
         0.00000E+00
         0.00000E+00
         0.00000E+00
         0.00000E+00
         0.00000E+00
         0.00000E+00
         0.00000E+00
         0.00000E+00
         0.00000E+00
         0.00000E+00
         0.00000E+00
         0.00000E+00
         0.00000E+00
         0.00000E+00
         0.00000E+00
         0.00000E+00
         0.00000E+00
         0.00000E+00
         0.00000E+00
         0.00000E+00
         0.00000E+00
         0.00000E+00
         0.00000E+00
         0.00000E+00
         0.00000E+00
         0.00000E+00
         0.00000E+00
         0.00000E+00
         0.00000E+00
         0.00000E+00
         0.00000E+00
         0.00000E+00
         0.00000E+00
         0.00000E+00
         0.00000E+00
         0.00000E+00
         0.00000E+00
         0.00000E+00
         0.00000E+00
         0.00000E+00
         0.00000E+00
         0.00000E+00
         0.00000E+00
         0.00000E+00
         0.00000E+00
         0.00000E+00
         0.00000E+00
         0.00000E+00
         0.00000E+00
         0.00000E+00
         0.00000E+00
         0.00000E+00
         0.00000E+00
         0.00000E+00
         0.00000E+00
         0.00000E+00
         0.00000E+00
         0.00000E+00
         0.00000E+00
         0.00000E+00
         0.00000E+00
         0.00000E+00
         0.00000E+00
         0.00000E+00
         0.00000E+00
         0.00000E+00
         0.00000E+00
         0.00000E+00
         0.00000E+00
         0.00000E+00
         0.00000E+00
         0.00000E+00
         0.00000E+00
         0.00000E+00
         0.00000E+00
         0.00000E+00
         0.00000E+00
         0.00000E+00
         0.00000E+00
         0.00000E+00
         0.00000E+00
         0.00000E+00
         0.00000E+00
         0.00000E+00
         0.00000E+00
         0.00000E+00
         0.00000E+00
         0.00000E+00
         0.00000E+00
         0.00000E+00
         0.00000E+00
         0.00000E+00
         0.00000E+00
         0.00000E+00
         0.00000E+00
         0.00000E+00
         0.00000E+00
         0.00000E+00
         0.00000E+00
         0.00000E+00
         0.00000E+00
         0.00000E+00
         0.00000E+00
         0.00000E+00
         0.00000E+00
         0.00000E+00
         0.00000E+00
         0.00000E+00
         0.00000E+00
         0.00000E+00
         0.00000E+00
         0.00000E+00
         0.00000E+00
         0.00000E+00
         0.00000E+00
         0.00000E+00
         0.00000E+00
         0.00000E+00
         0.00000E+00
         0.00000E+00
         0.00000E+00
         0.00000E+00
         0.00000E+00
         0.00000E+00
         0.00000E+00
         0.00000E+00
         0.00000E+00
         0.00000E+00
         0.00000E+00
         0.00000E+00
         0.00000E+00
         0.00000E+00
         0.00000E+00
         0.00000E+00
         0.00000E+00
         0.00000E+00
         0.00000E+00
         0.00000E+00
         0.00000E+00
         0.00000E+00
         0.00000E+00
         0.00000E+00
         0.00000E+00
         0.00000E+00
         0.00000E+00
         0.00000E+00
         0.00000E+00
         0.00000E+00
         0.00000E+00
         0.00000E+00
         0.00000E+00
         0.00000E+00
         0.00000E+00
         0.00000E+00
         0.00000E+00
         0.00000E+00
         0.00000E+00
         0.00000E+00
         0.00000E+00
         0.00000E+00
         0.00000E+00
         0.00000E+00
         0.00000E+00
         0.00000E+00
         0.00000E+00
         0.00000E+00
         0.00000E+00
         0.00000E+00
         0.00000E+00
         0.00000E+00
         0.00000E+00
         0.00000E+00
         0.00000E+00
         0.00000E+00
         0.00000E+00
         0.00000E+00
         0.00000E+00
         0.00000E+00
         0.00000E+00
         0.00000E+00
         0.00000E+00
         0.00000E+00
         0.00000E+00
         0.00000E+00
         0.00000E+00
         0.00000E+00
         0.00000E+00
         0.00000E+00
         0.00000E+00
         0.00000E+00
         0.00000E+00
         0.00000E+00
         0.00000E+00
         0.00000E+00
         0.00000E+00
         0.00000E+00
         0.00000E+00
         0.00000E+00
         0.00000E+00
         0.00000E+00
         0.00000E+00
         0.00000E+00
         0.00000E+00
         0.00000E+00
         0.00000E+00
         0.00000E+00
         0.00000E+00
         0.00000E+00
         0.00000E+00
         0.00000E+00
         0.00000E+00
         0.00000E+00
         0.00000E+00
         0.00000E+00
         0.00000E+00
         0.00000E+00
         0.00000E+00
         0.00000E+00
         0.00000E+00
         0.00000E+00
         0.00000E+00
         0.00000E+00
         0.00000E+00
         0.00000E+00
         0.00000E+00
         0.00000E+00
         0.00000E+00
         0.00000E+00
         0.00000E+00
         0.00000E+00
         0.00000E+00
         0.00000E+00
         0.00000E+00
         0.00000E+00
         0.00000E+00
         0.00000E+00
         0.00000E+00
         0.00000E+00
         0.00000E+00
         0.00000E+00
         0.00000E+00
         0.00000E+00
         0.00000E+00
         0.00000E+00
         0.00000E+00
         0.00000E+00
         0.00000E+00
         0.00000E+00
         0.00000E+00
         0.00000E+00
         0.00000E+00
         0.00000E+00
         0.00000E+00
         0.00000E+00
         0.00000E+00
         0.00000E+00
         0.00000E+00
         0.00000E+00
         0.00000E+00
         0.00000E+00
         0.00000E+00
         0.00000E+00
         0.00000E+00
         0.00000E+00
         0.00000E+00
         0.00000E+00
         0.00000E+00
         0.00000E+00
         0.00000E+00
         0.00000E+00
         0.00000E+00
         0.00000E+00
         0.00000E+00
         0.00000E+00
         0.00000E+00
         0.00000E+00
         0.00000E+00
         0.00000E+00
         0.00000E+00
         0.00000E+00
         0.00000E+00
         0.00000E+00
         0.00000E+00
         0.00000E+00
         0.00000E+00
         0.00000E+00
         0.00000E+00
         0.00000E+00
         0.00000E+00
         0.00000E+00
         0.00000E+00
         0.00000E+00
         0.00000E+00
         0.00000E+00
         0.00000E+00
         0.00000E+00
         0.00000E+00
         0.00000E+00
         0.00000E+00
         0.00000E+00
         0.00000E+00
         0.00000E+00
         0.00000E+00
         0.00000E+00
         0.00000E+00
         0.00000E+00
         0.00000E+00
         0.00000E+00
         0.00000E+00
         0.00000E+00
         0.00000E+00
         0.00000E+00
         0.00000E+00
         0.00000E+00
         0.00000E+00
         0.00000E+00
         0.00000E+00
         0.00000E+00
         0.00000E+00
         0.00000E+00
         0.00000E+00
         0.00000E+00
         0.00000E+00
         0.00000E+00
         0.00000E+00
         0.00000E+00
         0.00000E+00
         0.00000E+00
         0.00000E+00
         0.00000E+00
         0.00000E+00
         0.00000E+00
         0.00000E+00
         0.00000E+00
         0.00000E+00
         0.00000E+00
         0.00000E+00
         0.00000E+00
         0.00000E+00
         0.00000E+00
         0.00000E+00
         0.00000E+00
         0.00000E+00
         0.00000E+00
         0.00000E+00
         0.00000E+00
         0.00000E+00
         0.00000E+00
         0.00000E+00
         0.00000E+00
         0.00000E+00
         0.00000E+00
         0.00000E+00
         0.00000E+00
         0.00000E+00
         0.00000E+00
         0.00000E+00
         0.00000E+00
         0.00000E+00
         0.00000E+00
         0.00000E+00
         0.00000E+00
         0.00000E+00
         0.00000E+00
         0.00000E+00
         0.00000E+00
         0.00000E+00
         0.00000E+00
         0.00000E+00
         0.00000E+00
         0.00000E+00
         0.00000E+00
         0.00000E+00
         0.00000E+00
         0.00000E+00
         0.00000E+00
         0.00000E+00
         0.00000E+00
         0.00000E+00
         0.00000E+00
         0.00000E+00
         0.00000E+00
         0.00000E+00
         0.00000E+00
         0.00000E+00
         0.00000E+00
         0.00000E+00
         0.00000E+00
         0.00000E+00
         0.00000E+00
         0.00000E+00
         0.00000E+00
         0.00000E+00
         0.00000E+00
         0.00000E+00
         0.00000E+00
         0.00000E+00
         0.00000E+00
         0.00000E+00
         0.00000E+00
         0.00000E+00
         0.00000E+00
         0.00000E+00
         0.00000E+00
         0.00000E+00
         0.00000E+00
         0.00000E+00
         0.00000E+00
         0.00000E+00
         0.00000E+00
         0.00000E+00
         0.00000E+00
         0.00000E+00
         0.00000E+00
         0.00000E+00
         0.00000E+00
         0.00000E+00
         0.00000E+00
         0.00000E+00
         0.00000E+00
         0.00000E+00
         0.00000E+00
         0.00000E+00
         0.00000E+00
         0.00000E+00
         0.00000E+00
         0.00000E+00
         0.00000E+00
         0.00000E+00
         0.00000E+00
         0.00000E+00
         0.00000E+00
         0.00000E+00
         0.00000E+00
         0.00000E+00
         0.00000E+00
         0.00000E+00
         0.00000E+00
         0.00000E+00
         0.00000E+00
         0.00000E+00
         0.00000E+00
         0.00000E+00
         0.00000E+00
         0.00000E+00
         0.00000E+00
         0.00000E+00
         0.00000E+00
         0.00000E+00
         0.00000E+00
         0.00000E+00
         0.00000E+00
         0.00000E+00
         0.00000E+00
         0.00000E+00
         0.00000E+00
         0.00000E+00
         0.00000E+00
         0.00000E+00
         0.00000E+00
         0.00000E+00
         0.00000E+00
         0.00000E+00
         0.00000E+00
         0.00000E+00
         0.00000E+00
         0.00000E+00
         0.00000E+00
         0.00000E+00
         0.00000E+00
         0.00000E+00
         0.00000E+00
         0.00000E+00
         0.00000E+00
         0.00000E+00
         0.00000E+00
         0.00000E+00
         0.00000E+00
         0.00000E+00
         0.00000E+00
         0.00000E+00
         0.00000E+00
         0.00000E+00
         0.00000E+00
         0.00000E+00
         0.00000E+00
         0.00000E+00
         0.00000E+00
         0.00000E+00
         0.00000E+00
         0.00000E+00
         0.00000E+00
         0.00000E+00
         0.00000E+00
         0.00000E+00
         0.00000E+00
         0.00000E+00
         0.00000E+00
         0.00000E+00
         0.00000E+00
         0.00000E+00
         0.00000E+00
         0.00000E+00
         0.00000E+00
         0.00000E+00
         0.00000E+00
         0.00000E+00
         0.00000E+00
         0.00000E+00
         0.00000E+00
         0.00000E+00
         0.00000E+00
         0.00000E+00
         0.00000E+00
         0.00000E+00
         0.00000E+00
         0.00000E+00
         0.00000E+00
         0.00000E+00
         0.00000E+00
         0.00000E+00
         0.00000E+00
         0.00000E+00
         0.00000E+00
         0.00000E+00
         0.00000E+00
         0.00000E+00
         0.00000E+00
         0.00000E+00
         0.00000E+00
         0.00000E+00
         0.00000E+00
         0.00000E+00
         0.00000E+00
         0.00000E+00
         0.00000E+00
         0.00000E+00
         0.00000E+00
         0.00000E+00
         0.00000E+00
         0.00000E+00
         0.00000E+00
         0.00000E+00
         0.00000E+00
         0.00000E+00
         0.00000E+00
         0.00000E+00
         0.00000E+00
         0.00000E+00
         0.00000E+00
         0.00000E+00
         0.00000E+00
         0.00000E+00
         0.00000E+00
         0.00000E+00
         0.00000E+00
         0.00000E+00
         0.00000E+00
         0.00000E+00
         0.00000E+00
         0.00000E+00
         0.00000E+00
         0.00000E+00
         0.00000E+00
         0.00000E+00
         0.00000E+00
         0.00000E+00
         0.00000E+00
         0.00000E+00
         0.00000E+00
         0.00000E+00
         0.00000E+00
         0.00000E+00
         0.00000E+00
         0.00000E+00
         0.00000E+00
         0.00000E+00
         0.00000E+00
         0.00000E+00
         0.00000E+00
         0.00000E+00
         0.00000E+00
         0.00000E+00
         0.00000E+00
         0.00000E+00
         0.00000E+00
         0.00000E+00
         0.00000E+00
         0.00000E+00
         0.00000E+00
         0.00000E+00
         0.00000E+00
         0.00000E+00
         0.00000E+00
         0.00000E+00
         0.00000E+00
         0.00000E+00
         0.00000E+00
         0.00000E+00
         0.00000E+00
         0.00000E+00
         0.00000E+00
         0.00000E+00
         0.00000E+00
         0.00000E+00
         0.00000E+00
         0.00000E+00
         0.00000E+00
         0.00000E+00
         0.00000E+00
         0.00000E+00
         0.00000E+00
         0.00000E+00
         0.00000E+00
         0.00000E+00
         0.00000E+00
         0.00000E+00
         0.00000E+00
         0.00000E+00
         0.00000E+00
         0.00000E+00
         0.00000E+00
         0.00000E+00
         0.00000E+00
         0.00000E+00
         0.00000E+00
         0.00000E+00
         0.00000E+00
         0.00000E+00
         0.00000E+00
         0.00000E+00
         0.00000E+00
         0.00000E+00
         0.00000E+00
         0.00000E+00
         0.00000E+00
         0.00000E+00
         0.00000E+00
         0.00000E+00
         0.00000E+00
         0.00000E+00
         0.00000E+00
         0.00000E+00
         0.00000E+00
         0.00000E+00
         0.00000E+00
         0.00000E+00
         0.00000E+00
         0.00000E+00
         0.00000E+00
         0.00000E+00
         0.00000E+00
         0.00000E+00
         0.00000E+00
         0.00000E+00
         0.00000E+00
         0.00000E+00
         0.00000E+00
         0.00000E+00
         0.00000E+00
         0.00000E+00
         0.00000E+00
         0.00000E+00
         0.00000E+00
         0.00000E+00
         0.00000E+00
         0.00000E+00
         0.00000E+00
         0.00000E+00
         0.00000E+00
         0.00000E+00
         0.00000E+00
         0.00000E+00
         0.00000E+00
         0.00000E+00
         0.00000E+00
         0.00000E+00
         0.00000E+00
         0.00000E+00
         0.00000E+00
         0.00000E+00
         0.00000E+00
         0.00000E+00
         0.00000E+00
         0.00000E+00
         0.00000E+00
         0.00000E+00
         0.00000E+00
         0.00000E+00
         0.00000E+00
         0.00000E+00
         0.00000E+00
  
SCALARS                         fint_z  double 1
LOOKUP_TABLE default
         0.00000E+00
         0.00000E+00
         0.00000E+00
         0.00000E+00
         0.00000E+00
         0.00000E+00
         0.00000E+00
         0.00000E+00
         0.00000E+00
         0.00000E+00
         0.00000E+00
         0.00000E+00
         0.00000E+00
         0.00000E+00
         0.00000E+00
         0.00000E+00
         0.00000E+00
         0.00000E+00
         0.00000E+00
         0.00000E+00
         0.00000E+00
         0.00000E+00
         0.00000E+00
         0.00000E+00
         0.00000E+00
         0.00000E+00
         0.00000E+00
         0.00000E+00
         0.00000E+00
         0.00000E+00
         0.00000E+00
         0.00000E+00
         0.00000E+00
         0.00000E+00
         0.00000E+00
         0.00000E+00
         0.00000E+00
         0.00000E+00
         0.00000E+00
         0.00000E+00
         0.00000E+00
         0.00000E+00
         0.00000E+00
         0.00000E+00
         0.00000E+00
         0.00000E+00
         0.00000E+00
         0.00000E+00
         0.00000E+00
         0.00000E+00
         0.00000E+00
         0.00000E+00
         0.00000E+00
         0.00000E+00
         0.00000E+00
         0.00000E+00
         0.00000E+00
         0.00000E+00
         0.00000E+00
         0.00000E+00
         0.00000E+00
         0.00000E+00
         0.00000E+00
         0.00000E+00
         0.00000E+00
         0.00000E+00
         0.00000E+00
         0.00000E+00
         0.00000E+00
         0.00000E+00
         0.00000E+00
         0.00000E+00
         0.00000E+00
         0.00000E+00
         0.00000E+00
         0.00000E+00
         0.00000E+00
         0.00000E+00
         0.00000E+00
         0.00000E+00
         0.00000E+00
         0.00000E+00
         0.00000E+00
         0.00000E+00
         0.00000E+00
         0.00000E+00
         0.00000E+00
         0.00000E+00
         0.00000E+00
         0.00000E+00
         0.00000E+00
         0.00000E+00
         0.00000E+00
         0.00000E+00
         0.00000E+00
         0.00000E+00
         0.00000E+00
         0.00000E+00
         0.00000E+00
         0.00000E+00
         0.00000E+00
         0.00000E+00
         0.00000E+00
         0.00000E+00
         0.00000E+00
         0.00000E+00
         0.00000E+00
         0.00000E+00
         0.00000E+00
         0.00000E+00
         0.00000E+00
         0.00000E+00
         0.00000E+00
         0.00000E+00
         0.00000E+00
         0.00000E+00
         0.00000E+00
         0.00000E+00
         0.00000E+00
         0.00000E+00
         0.00000E+00
         0.00000E+00
         0.00000E+00
         0.00000E+00
         0.00000E+00
         0.00000E+00
         0.00000E+00
         0.00000E+00
         0.00000E+00
         0.00000E+00
         0.00000E+00
         0.00000E+00
         0.00000E+00
         0.00000E+00
         0.00000E+00
         0.00000E+00
         0.00000E+00
         0.00000E+00
         0.00000E+00
         0.00000E+00
         0.00000E+00
         0.00000E+00
         0.00000E+00
         0.00000E+00
         0.00000E+00
         0.00000E+00
         0.00000E+00
         0.00000E+00
         0.00000E+00
         0.00000E+00
         0.00000E+00
         0.00000E+00
         0.00000E+00
         0.00000E+00
         0.00000E+00
         0.00000E+00
         0.00000E+00
         0.00000E+00
         0.00000E+00
         0.00000E+00
         0.00000E+00
         0.00000E+00
         0.00000E+00
         0.00000E+00
         0.00000E+00
         0.00000E+00
         0.00000E+00
         0.00000E+00
         0.00000E+00
         0.00000E+00
         0.00000E+00
         0.00000E+00
         0.00000E+00
         0.00000E+00
         0.00000E+00
         0.00000E+00
         0.00000E+00
         0.00000E+00
         0.00000E+00
         0.00000E+00
         0.00000E+00
         0.00000E+00
         0.00000E+00
         0.00000E+00
         0.00000E+00
         0.00000E+00
         0.00000E+00
         0.00000E+00
         0.00000E+00
         0.00000E+00
         0.00000E+00
         0.00000E+00
         0.00000E+00
         0.00000E+00
         0.00000E+00
         0.00000E+00
         0.00000E+00
         0.00000E+00
         0.00000E+00
         0.00000E+00
         0.00000E+00
         0.00000E+00
         0.00000E+00
         0.00000E+00
         0.00000E+00
         0.00000E+00
         0.00000E+00
         0.00000E+00
         0.00000E+00
         0.00000E+00
         0.00000E+00
         0.00000E+00
         0.00000E+00
         0.00000E+00
         0.00000E+00
         0.00000E+00
         0.00000E+00
         0.00000E+00
         0.00000E+00
         0.00000E+00
         0.00000E+00
         0.00000E+00
         0.00000E+00
         0.00000E+00
         0.00000E+00
         0.00000E+00
         0.00000E+00
         0.00000E+00
         0.00000E+00
         0.00000E+00
         0.00000E+00
         0.00000E+00
         0.00000E+00
         0.00000E+00
         0.00000E+00
         0.00000E+00
         0.00000E+00
         0.00000E+00
         0.00000E+00
         0.00000E+00
         0.00000E+00
         0.00000E+00
         0.00000E+00
         0.00000E+00
         0.00000E+00
         0.00000E+00
         0.00000E+00
         0.00000E+00
         0.00000E+00
         0.00000E+00
         0.00000E+00
         0.00000E+00
         0.00000E+00
         0.00000E+00
         0.00000E+00
         0.00000E+00
         0.00000E+00
         0.00000E+00
         0.00000E+00
         0.00000E+00
         0.00000E+00
         0.00000E+00
         0.00000E+00
         0.00000E+00
         0.00000E+00
         0.00000E+00
         0.00000E+00
         0.00000E+00
         0.00000E+00
         0.00000E+00
         0.00000E+00
         0.00000E+00
         0.00000E+00
         0.00000E+00
         0.00000E+00
         0.00000E+00
         0.00000E+00
         0.00000E+00
         0.00000E+00
         0.00000E+00
         0.00000E+00
         0.00000E+00
         0.00000E+00
         0.00000E+00
         0.00000E+00
         0.00000E+00
         0.00000E+00
         0.00000E+00
         0.00000E+00
         0.00000E+00
         0.00000E+00
         0.00000E+00
         0.00000E+00
         0.00000E+00
         0.00000E+00
         0.00000E+00
         0.00000E+00
         0.00000E+00
         0.00000E+00
         0.00000E+00
         0.00000E+00
         0.00000E+00
         0.00000E+00
         0.00000E+00
         0.00000E+00
         0.00000E+00
         0.00000E+00
         0.00000E+00
         0.00000E+00
         0.00000E+00
         0.00000E+00
         0.00000E+00
         0.00000E+00
         0.00000E+00
         0.00000E+00
         0.00000E+00
         0.00000E+00
         0.00000E+00
         0.00000E+00
         0.00000E+00
         0.00000E+00
         0.00000E+00
         0.00000E+00
         0.00000E+00
         0.00000E+00
         0.00000E+00
         0.00000E+00
         0.00000E+00
         0.00000E+00
         0.00000E+00
         0.00000E+00
         0.00000E+00
         0.00000E+00
         0.00000E+00
         0.00000E+00
         0.00000E+00
         0.00000E+00
         0.00000E+00
         0.00000E+00
         0.00000E+00
         0.00000E+00
         0.00000E+00
         0.00000E+00
         0.00000E+00
         0.00000E+00
         0.00000E+00
         0.00000E+00
         0.00000E+00
         0.00000E+00
         0.00000E+00
         0.00000E+00
         0.00000E+00
         0.00000E+00
         0.00000E+00
         0.00000E+00
         0.00000E+00
         0.00000E+00
         0.00000E+00
         0.00000E+00
         0.00000E+00
         0.00000E+00
         0.00000E+00
         0.00000E+00
         0.00000E+00
         0.00000E+00
         0.00000E+00
         0.00000E+00
         0.00000E+00
         0.00000E+00
         0.00000E+00
         0.00000E+00
         0.00000E+00
         0.00000E+00
         0.00000E+00
         0.00000E+00
         0.00000E+00
         0.00000E+00
         0.00000E+00
         0.00000E+00
         0.00000E+00
         0.00000E+00
         0.00000E+00
         0.00000E+00
         0.00000E+00
         0.00000E+00
         0.00000E+00
         0.00000E+00
         0.00000E+00
         0.00000E+00
         0.00000E+00
         0.00000E+00
         0.00000E+00
         0.00000E+00
         0.00000E+00
         0.00000E+00
         0.00000E+00
         0.00000E+00
         0.00000E+00
         0.00000E+00
         0.00000E+00
         0.00000E+00
         0.00000E+00
         0.00000E+00
         0.00000E+00
         0.00000E+00
         0.00000E+00
         0.00000E+00
         0.00000E+00
         0.00000E+00
         0.00000E+00
         0.00000E+00
         0.00000E+00
         0.00000E+00
         0.00000E+00
         0.00000E+00
         0.00000E+00
         0.00000E+00
         0.00000E+00
         0.00000E+00
         0.00000E+00
         0.00000E+00
         0.00000E+00
         0.00000E+00
         0.00000E+00
         0.00000E+00
         0.00000E+00
         0.00000E+00
         0.00000E+00
         0.00000E+00
         0.00000E+00
         0.00000E+00
         0.00000E+00
         0.00000E+00
         0.00000E+00
         0.00000E+00
         0.00000E+00
         0.00000E+00
         0.00000E+00
         0.00000E+00
         0.00000E+00
         0.00000E+00
         0.00000E+00
         0.00000E+00
         0.00000E+00
         0.00000E+00
         0.00000E+00
         0.00000E+00
         0.00000E+00
         0.00000E+00
         0.00000E+00
         0.00000E+00
         0.00000E+00
         0.00000E+00
         0.00000E+00
         0.00000E+00
         0.00000E+00
         0.00000E+00
         0.00000E+00
         0.00000E+00
         0.00000E+00
         0.00000E+00
         0.00000E+00
         0.00000E+00
         0.00000E+00
         0.00000E+00
         0.00000E+00
         0.00000E+00
         0.00000E+00
         0.00000E+00
         0.00000E+00
         0.00000E+00
         0.00000E+00
         0.00000E+00
         0.00000E+00
         0.00000E+00
         0.00000E+00
         0.00000E+00
         0.00000E+00
         0.00000E+00
         0.00000E+00
         0.00000E+00
         0.00000E+00
         0.00000E+00
         0.00000E+00
         0.00000E+00
         0.00000E+00
         0.00000E+00
         0.00000E+00
         0.00000E+00
         0.00000E+00
         0.00000E+00
         0.00000E+00
         0.00000E+00
         0.00000E+00
         0.00000E+00
         0.00000E+00
         0.00000E+00
         0.00000E+00
         0.00000E+00
         0.00000E+00
         0.00000E+00
         0.00000E+00
         0.00000E+00
         0.00000E+00
         0.00000E+00
         0.00000E+00
         0.00000E+00
         0.00000E+00
         0.00000E+00
         0.00000E+00
         0.00000E+00
         0.00000E+00
         0.00000E+00
         0.00000E+00
         0.00000E+00
         0.00000E+00
         0.00000E+00
         0.00000E+00
         0.00000E+00
         0.00000E+00
         0.00000E+00
         0.00000E+00
         0.00000E+00
         0.00000E+00
         0.00000E+00
         0.00000E+00
         0.00000E+00
         0.00000E+00
         0.00000E+00
         0.00000E+00
         0.00000E+00
         0.00000E+00
         0.00000E+00
         0.00000E+00
         0.00000E+00
         0.00000E+00
         0.00000E+00
         0.00000E+00
         0.00000E+00
         0.00000E+00
         0.00000E+00
         0.00000E+00
         0.00000E+00
         0.00000E+00
         0.00000E+00
         0.00000E+00
         0.00000E+00
         0.00000E+00
         0.00000E+00
         0.00000E+00
         0.00000E+00
         0.00000E+00
         0.00000E+00
         0.00000E+00
         0.00000E+00
         0.00000E+00
         0.00000E+00
         0.00000E+00
         0.00000E+00
         0.00000E+00
         0.00000E+00
         0.00000E+00
         0.00000E+00
         0.00000E+00
         0.00000E+00
         0.00000E+00
         0.00000E+00
         0.00000E+00
         0.00000E+00
         0.00000E+00
         0.00000E+00
         0.00000E+00
         0.00000E+00
         0.00000E+00
         0.00000E+00
         0.00000E+00
         0.00000E+00
         0.00000E+00
         0.00000E+00
         0.00000E+00
         0.00000E+00
         0.00000E+00
         0.00000E+00
         0.00000E+00
         0.00000E+00
         0.00000E+00
         0.00000E+00
         0.00000E+00
         0.00000E+00
         0.00000E+00
         0.00000E+00
         0.00000E+00
         0.00000E+00
         0.00000E+00
         0.00000E+00
         0.00000E+00
         0.00000E+00
         0.00000E+00
         0.00000E+00
         0.00000E+00
         0.00000E+00
         0.00000E+00
         0.00000E+00
         0.00000E+00
         0.00000E+00
         0.00000E+00
         0.00000E+00
         0.00000E+00
         0.00000E+00
         0.00000E+00
         0.00000E+00
         0.00000E+00
         0.00000E+00
         0.00000E+00
         0.00000E+00
         0.00000E+00
         0.00000E+00
         0.00000E+00
         0.00000E+00
         0.00000E+00
         0.00000E+00
         0.00000E+00
         0.00000E+00
         0.00000E+00
         0.00000E+00
         0.00000E+00
         0.00000E+00
         0.00000E+00
         0.00000E+00
         0.00000E+00
         0.00000E+00
         0.00000E+00
         0.00000E+00
         0.00000E+00
         0.00000E+00
         0.00000E+00
         0.00000E+00
         0.00000E+00
         0.00000E+00
         0.00000E+00
         0.00000E+00
         0.00000E+00
         0.00000E+00
         0.00000E+00
         0.00000E+00
         0.00000E+00
         0.00000E+00
         0.00000E+00
         0.00000E+00
         0.00000E+00
         0.00000E+00
         0.00000E+00
         0.00000E+00
         0.00000E+00
         0.00000E+00
         0.00000E+00
         0.00000E+00
         0.00000E+00
         0.00000E+00
         0.00000E+00
         0.00000E+00
         0.00000E+00
         0.00000E+00
         0.00000E+00
         0.00000E+00
         0.00000E+00
         0.00000E+00
         0.00000E+00
         0.00000E+00
         0.00000E+00
         0.00000E+00
         0.00000E+00
         0.00000E+00
         0.00000E+00
         0.00000E+00
         0.00000E+00
         0.00000E+00
         0.00000E+00
         0.00000E+00
         0.00000E+00
         0.00000E+00
         0.00000E+00
         0.00000E+00
         0.00000E+00
         0.00000E+00
         0.00000E+00
         0.00000E+00
         0.00000E+00
         0.00000E+00
         0.00000E+00
         0.00000E+00
         0.00000E+00
         0.00000E+00
         0.00000E+00
         0.00000E+00
         0.00000E+00
         0.00000E+00
         0.00000E+00
         0.00000E+00
         0.00000E+00
         0.00000E+00
         0.00000E+00
         0.00000E+00
         0.00000E+00
         0.00000E+00
         0.00000E+00
         0.00000E+00
         0.00000E+00
         0.00000E+00
         0.00000E+00
         0.00000E+00
         0.00000E+00
         0.00000E+00
         0.00000E+00
         0.00000E+00
         0.00000E+00
         0.00000E+00
         0.00000E+00
         0.00000E+00
         0.00000E+00
         0.00000E+00
         0.00000E+00
         0.00000E+00
         0.00000E+00
         0.00000E+00
         0.00000E+00
         0.00000E+00
         0.00000E+00
         0.00000E+00
         0.00000E+00
         0.00000E+00
         0.00000E+00
         0.00000E+00
         0.00000E+00
         0.00000E+00
         0.00000E+00
         0.00000E+00
         0.00000E+00
         0.00000E+00
         0.00000E+00
         0.00000E+00
         0.00000E+00
         0.00000E+00
         0.00000E+00
         0.00000E+00
         0.00000E+00
         0.00000E+00
         0.00000E+00
         0.00000E+00
         0.00000E+00
         0.00000E+00
         0.00000E+00
         0.00000E+00
         0.00000E+00
         0.00000E+00
         0.00000E+00
         0.00000E+00
         0.00000E+00
         0.00000E+00
         0.00000E+00
         0.00000E+00
         0.00000E+00
         0.00000E+00
         0.00000E+00
         0.00000E+00
         0.00000E+00
         0.00000E+00
         0.00000E+00
         0.00000E+00
         0.00000E+00
         0.00000E+00
         0.00000E+00
         0.00000E+00
         0.00000E+00
         0.00000E+00
         0.00000E+00
         0.00000E+00
         0.00000E+00
         0.00000E+00
         0.00000E+00
         0.00000E+00
         0.00000E+00
         0.00000E+00
         0.00000E+00
         0.00000E+00
         0.00000E+00
         0.00000E+00
         0.00000E+00
         0.00000E+00
         0.00000E+00
         0.00000E+00
         0.00000E+00
         0.00000E+00
         0.00000E+00
         0.00000E+00
         0.00000E+00
         0.00000E+00
         0.00000E+00
         0.00000E+00
         0.00000E+00
         0.00000E+00
         0.00000E+00
         0.00000E+00
         0.00000E+00
         0.00000E+00
         0.00000E+00
         0.00000E+00
         0.00000E+00
         0.00000E+00
         0.00000E+00
         0.00000E+00
         0.00000E+00
         0.00000E+00
         0.00000E+00
         0.00000E+00
         0.00000E+00
         0.00000E+00
         0.00000E+00
         0.00000E+00
         0.00000E+00
         0.00000E+00
         0.00000E+00
         0.00000E+00
         0.00000E+00
         0.00000E+00
         0.00000E+00
         0.00000E+00
         0.00000E+00
         0.00000E+00
         0.00000E+00
         0.00000E+00
         0.00000E+00
         0.00000E+00
         0.00000E+00
         0.00000E+00
         0.00000E+00
         0.00000E+00
         0.00000E+00
         0.00000E+00
         0.00000E+00
         0.00000E+00
         0.00000E+00
         0.00000E+00
         0.00000E+00
         0.00000E+00
         0.00000E+00
         0.00000E+00
         0.00000E+00
         0.00000E+00
         0.00000E+00
         0.00000E+00
         0.00000E+00
         0.00000E+00
         0.00000E+00
         0.00000E+00
         0.00000E+00
         0.00000E+00
         0.00000E+00
         0.00000E+00
         0.00000E+00
         0.00000E+00
         0.00000E+00
         0.00000E+00
         0.00000E+00
         0.00000E+00
         0.00000E+00
         0.00000E+00
         0.00000E+00
         0.00000E+00
         0.00000E+00
         0.00000E+00
         0.00000E+00
         0.00000E+00
         0.00000E+00
         0.00000E+00
         0.00000E+00
         0.00000E+00
         0.00000E+00
         0.00000E+00
         0.00000E+00
         0.00000E+00
         0.00000E+00
         0.00000E+00
         0.00000E+00
         0.00000E+00
         0.00000E+00
         0.00000E+00
         0.00000E+00
         0.00000E+00
         0.00000E+00
         0.00000E+00
         0.00000E+00
         0.00000E+00
         0.00000E+00
         0.00000E+00
         0.00000E+00
         0.00000E+00
         0.00000E+00
         0.00000E+00
         0.00000E+00
         0.00000E+00
         0.00000E+00
         0.00000E+00
         0.00000E+00
         0.00000E+00
         0.00000E+00
         0.00000E+00
         0.00000E+00
         0.00000E+00
         0.00000E+00
         0.00000E+00
         0.00000E+00
         0.00000E+00
         0.00000E+00
         0.00000E+00
         0.00000E+00
         0.00000E+00
         0.00000E+00
         0.00000E+00
         0.00000E+00
         0.00000E+00
         0.00000E+00
         0.00000E+00
         0.00000E+00
         0.00000E+00
         0.00000E+00
         0.00000E+00
         0.00000E+00
         0.00000E+00
         0.00000E+00
         0.00000E+00
         0.00000E+00
         0.00000E+00
         0.00000E+00
         0.00000E+00
         0.00000E+00
         0.00000E+00
         0.00000E+00
         0.00000E+00
         0.00000E+00
         0.00000E+00
         0.00000E+00
         0.00000E+00
         0.00000E+00
         0.00000E+00
         0.00000E+00
         0.00000E+00
         0.00000E+00
         0.00000E+00
         0.00000E+00
         0.00000E+00
         0.00000E+00
         0.00000E+00
         0.00000E+00
         0.00000E+00
         0.00000E+00
         0.00000E+00
         0.00000E+00
         0.00000E+00
         0.00000E+00
         0.00000E+00
         0.00000E+00
         0.00000E+00
         0.00000E+00
         0.00000E+00
         0.00000E+00
         0.00000E+00
         0.00000E+00
         0.00000E+00
         0.00000E+00
         0.00000E+00
         0.00000E+00
         0.00000E+00
         0.00000E+00
         0.00000E+00
         0.00000E+00
         0.00000E+00
         0.00000E+00
         0.00000E+00
         0.00000E+00
         0.00000E+00
         0.00000E+00
         0.00000E+00
         0.00000E+00
         0.00000E+00
         0.00000E+00
         0.00000E+00
         0.00000E+00
         0.00000E+00
         0.00000E+00
         0.00000E+00
         0.00000E+00
         0.00000E+00
         0.00000E+00
         0.00000E+00
         0.00000E+00
         0.00000E+00
         0.00000E+00
         0.00000E+00
         0.00000E+00
         0.00000E+00
         0.00000E+00
         0.00000E+00
         0.00000E+00
         0.00000E+00
         0.00000E+00
         0.00000E+00
         0.00000E+00
         0.00000E+00
         0.00000E+00
         0.00000E+00
         0.00000E+00
         0.00000E+00
         0.00000E+00
         0.00000E+00
         0.00000E+00
         0.00000E+00
         0.00000E+00
         0.00000E+00
         0.00000E+00
         0.00000E+00
         0.00000E+00
         0.00000E+00
         0.00000E+00
         0.00000E+00
         0.00000E+00
         0.00000E+00
         0.00000E+00
         0.00000E+00
         0.00000E+00
         0.00000E+00
         0.00000E+00
         0.00000E+00
         0.00000E+00
         0.00000E+00
         0.00000E+00
         0.00000E+00
         0.00000E+00
         0.00000E+00
         0.00000E+00
         0.00000E+00
         0.00000E+00
         0.00000E+00
         0.00000E+00
         0.00000E+00
         0.00000E+00
         0.00000E+00
         0.00000E+00
         0.00000E+00
         0.00000E+00
         0.00000E+00
         0.00000E+00
         0.00000E+00
         0.00000E+00
         0.00000E+00
         0.00000E+00
         0.00000E+00
         0.00000E+00
         0.00000E+00
         0.00000E+00
         0.00000E+00
         0.00000E+00
         0.00000E+00
         0.00000E+00
         0.00000E+00
         0.00000E+00
         0.00000E+00
         0.00000E+00
         0.00000E+00
         0.00000E+00
         0.00000E+00
         0.00000E+00
         0.00000E+00
         0.00000E+00
         0.00000E+00
         0.00000E+00
         0.00000E+00
         0.00000E+00
         0.00000E+00
         0.00000E+00
         0.00000E+00
         0.00000E+00
         0.00000E+00
         0.00000E+00
         0.00000E+00
         0.00000E+00
         0.00000E+00
         0.00000E+00
         0.00000E+00
         0.00000E+00
         0.00000E+00
         0.00000E+00
         0.00000E+00
         0.00000E+00
         0.00000E+00
         0.00000E+00
         0.00000E+00
         0.00000E+00
         0.00000E+00
         0.00000E+00
         0.00000E+00
         0.00000E+00
         0.00000E+00
         0.00000E+00
         0.00000E+00
         0.00000E+00
         0.00000E+00
         0.00000E+00
         0.00000E+00
         0.00000E+00
         0.00000E+00
         0.00000E+00
         0.00000E+00
         0.00000E+00
         0.00000E+00
         0.00000E+00
         0.00000E+00
         0.00000E+00
         0.00000E+00
         0.00000E+00
         0.00000E+00
         0.00000E+00
         0.00000E+00
         0.00000E+00
         0.00000E+00
         0.00000E+00
         0.00000E+00
         0.00000E+00
         0.00000E+00
         0.00000E+00
         0.00000E+00
         0.00000E+00
         0.00000E+00
         0.00000E+00
         0.00000E+00
         0.00000E+00
         0.00000E+00
         0.00000E+00
         0.00000E+00
         0.00000E+00
         0.00000E+00
         0.00000E+00
         0.00000E+00
         0.00000E+00
         0.00000E+00
         0.00000E+00
         0.00000E+00
         0.00000E+00
         0.00000E+00
         0.00000E+00
         0.00000E+00
         0.00000E+00
         0.00000E+00
         0.00000E+00
         0.00000E+00
         0.00000E+00
         0.00000E+00
         0.00000E+00
         0.00000E+00
         0.00000E+00
         0.00000E+00
         0.00000E+00
         0.00000E+00
         0.00000E+00
         0.00000E+00
         0.00000E+00
         0.00000E+00
         0.00000E+00
         0.00000E+00
         0.00000E+00
         0.00000E+00
         0.00000E+00
         0.00000E+00
         0.00000E+00
         0.00000E+00
         0.00000E+00
         0.00000E+00
         0.00000E+00
         0.00000E+00
         0.00000E+00
         0.00000E+00
         0.00000E+00
         0.00000E+00
         0.00000E+00
         0.00000E+00
         0.00000E+00
         0.00000E+00
         0.00000E+00
         0.00000E+00
         0.00000E+00
         0.00000E+00
         0.00000E+00
         0.00000E+00
         0.00000E+00
         0.00000E+00
         0.00000E+00
         0.00000E+00
         0.00000E+00
         0.00000E+00
         0.00000E+00
         0.00000E+00
         0.00000E+00
         0.00000E+00
         0.00000E+00
         0.00000E+00
         0.00000E+00
         0.00000E+00
         0.00000E+00
         0.00000E+00
         0.00000E+00
         0.00000E+00
         0.00000E+00
         0.00000E+00
         0.00000E+00
         0.00000E+00
         0.00000E+00
         0.00000E+00
         0.00000E+00
         0.00000E+00
         0.00000E+00
         0.00000E+00
         0.00000E+00
         0.00000E+00
         0.00000E+00
         0.00000E+00
         0.00000E+00
         0.00000E+00
         0.00000E+00
         0.00000E+00
         0.00000E+00
         0.00000E+00
         0.00000E+00
         0.00000E+00
         0.00000E+00
         0.00000E+00
         0.00000E+00
         0.00000E+00
         0.00000E+00
         0.00000E+00
         0.00000E+00
         0.00000E+00
         0.00000E+00
         0.00000E+00
         0.00000E+00
         0.00000E+00
         0.00000E+00
         0.00000E+00
         0.00000E+00
         0.00000E+00
         0.00000E+00
         0.00000E+00
         0.00000E+00
         0.00000E+00
         0.00000E+00
         0.00000E+00
         0.00000E+00
         0.00000E+00
         0.00000E+00
         0.00000E+00
         0.00000E+00
         0.00000E+00
         0.00000E+00
         0.00000E+00
         0.00000E+00
         0.00000E+00
         0.00000E+00
         0.00000E+00
         0.00000E+00
         0.00000E+00
         0.00000E+00
         0.00000E+00
         0.00000E+00
         0.00000E+00
         0.00000E+00
         0.00000E+00
         0.00000E+00
         0.00000E+00
         0.00000E+00
         0.00000E+00
         0.00000E+00
         0.00000E+00
         0.00000E+00
         0.00000E+00
         0.00000E+00
         0.00000E+00
         0.00000E+00
         0.00000E+00
         0.00000E+00
         0.00000E+00
         0.00000E+00
         0.00000E+00
         0.00000E+00
         0.00000E+00
         0.00000E+00
         0.00000E+00
         0.00000E+00
         0.00000E+00
         0.00000E+00
         0.00000E+00
         0.00000E+00
         0.00000E+00
         0.00000E+00
         0.00000E+00
         0.00000E+00
         0.00000E+00
         0.00000E+00
         0.00000E+00
         0.00000E+00
         0.00000E+00
         0.00000E+00
         0.00000E+00
         0.00000E+00
         0.00000E+00
         0.00000E+00
         0.00000E+00
         0.00000E+00
         0.00000E+00
         0.00000E+00
         0.00000E+00
         0.00000E+00
         0.00000E+00
         0.00000E+00
         0.00000E+00
         0.00000E+00
         0.00000E+00
         0.00000E+00
         0.00000E+00
         0.00000E+00
         0.00000E+00
         0.00000E+00
         0.00000E+00
         0.00000E+00
         0.00000E+00
         0.00000E+00
         0.00000E+00
         0.00000E+00
         0.00000E+00
         0.00000E+00
         0.00000E+00
         0.00000E+00
         0.00000E+00
         0.00000E+00
         0.00000E+00
         0.00000E+00
         0.00000E+00
         0.00000E+00
         0.00000E+00
         0.00000E+00
         0.00000E+00
         0.00000E+00
         0.00000E+00
         0.00000E+00
         0.00000E+00
         0.00000E+00
         0.00000E+00
         0.00000E+00
         0.00000E+00
         0.00000E+00
         0.00000E+00
         0.00000E+00
         0.00000E+00
         0.00000E+00
         0.00000E+00
         0.00000E+00
         0.00000E+00
         0.00000E+00
         0.00000E+00
         0.00000E+00
         0.00000E+00
         0.00000E+00
         0.00000E+00
         0.00000E+00
         0.00000E+00
         0.00000E+00
         0.00000E+00
         0.00000E+00
         0.00000E+00
         0.00000E+00
         0.00000E+00
         0.00000E+00
         0.00000E+00
         0.00000E+00
         0.00000E+00
         0.00000E+00
         0.00000E+00
         0.00000E+00
         0.00000E+00
         0.00000E+00
         0.00000E+00
         0.00000E+00
         0.00000E+00
         0.00000E+00
         0.00000E+00
         0.00000E+00
         0.00000E+00
         0.00000E+00
         0.00000E+00
         0.00000E+00
         0.00000E+00
         0.00000E+00
         0.00000E+00
         0.00000E+00
         0.00000E+00
         0.00000E+00
         0.00000E+00
         0.00000E+00
         0.00000E+00
         0.00000E+00
         0.00000E+00
         0.00000E+00
         0.00000E+00
         0.00000E+00
         0.00000E+00
         0.00000E+00
         0.00000E+00
         0.00000E+00
         0.00000E+00
         0.00000E+00
         0.00000E+00
         0.00000E+00
         0.00000E+00
         0.00000E+00
         0.00000E+00
         0.00000E+00
         0.00000E+00
         0.00000E+00
         0.00000E+00
         0.00000E+00
         0.00000E+00
         0.00000E+00
         0.00000E+00
         0.00000E+00
         0.00000E+00
         0.00000E+00
         0.00000E+00
         0.00000E+00
         0.00000E+00
         0.00000E+00
         0.00000E+00
         0.00000E+00
         0.00000E+00
         0.00000E+00
         0.00000E+00
         0.00000E+00
         0.00000E+00
         0.00000E+00
         0.00000E+00
         0.00000E+00
         0.00000E+00
         0.00000E+00
         0.00000E+00
         0.00000E+00
         0.00000E+00
         0.00000E+00
         0.00000E+00
         0.00000E+00
         0.00000E+00
         0.00000E+00
         0.00000E+00
         0.00000E+00
         0.00000E+00
         0.00000E+00
         0.00000E+00
         0.00000E+00
         0.00000E+00
         0.00000E+00
         0.00000E+00
         0.00000E+00
         0.00000E+00
         0.00000E+00
         0.00000E+00
         0.00000E+00
         0.00000E+00
         0.00000E+00
         0.00000E+00
         0.00000E+00
         0.00000E+00
         0.00000E+00
         0.00000E+00
         0.00000E+00
         0.00000E+00
         0.00000E+00
         0.00000E+00
         0.00000E+00
         0.00000E+00
         0.00000E+00
         0.00000E+00
         0.00000E+00
         0.00000E+00
         0.00000E+00
         0.00000E+00
         0.00000E+00
         0.00000E+00
         0.00000E+00
         0.00000E+00
         0.00000E+00
         0.00000E+00
         0.00000E+00
         0.00000E+00
         0.00000E+00
         0.00000E+00
         0.00000E+00
         0.00000E+00
         0.00000E+00
         0.00000E+00
         0.00000E+00
         0.00000E+00
         0.00000E+00
         0.00000E+00
         0.00000E+00
         0.00000E+00
         0.00000E+00
         0.00000E+00
         0.00000E+00
         0.00000E+00
         0.00000E+00
         0.00000E+00
         0.00000E+00
         0.00000E+00
         0.00000E+00
         0.00000E+00
         0.00000E+00
         0.00000E+00
         0.00000E+00
         0.00000E+00
         0.00000E+00
         0.00000E+00
         0.00000E+00
         0.00000E+00
         0.00000E+00
         0.00000E+00
         0.00000E+00
         0.00000E+00
         0.00000E+00
         0.00000E+00
         0.00000E+00
         0.00000E+00
         0.00000E+00
         0.00000E+00
         0.00000E+00
         0.00000E+00
         0.00000E+00
         0.00000E+00
         0.00000E+00
         0.00000E+00
         0.00000E+00
         0.00000E+00
         0.00000E+00
         0.00000E+00
         0.00000E+00
         0.00000E+00
         0.00000E+00
         0.00000E+00
         0.00000E+00
         0.00000E+00
         0.00000E+00
         0.00000E+00
         0.00000E+00
         0.00000E+00
         0.00000E+00
         0.00000E+00
         0.00000E+00
         0.00000E+00
         0.00000E+00
         0.00000E+00
         0.00000E+00
         0.00000E+00
         0.00000E+00
         0.00000E+00
         0.00000E+00
         0.00000E+00
         0.00000E+00
         0.00000E+00
         0.00000E+00
         0.00000E+00
         0.00000E+00
         0.00000E+00
         0.00000E+00
         0.00000E+00
         0.00000E+00
         0.00000E+00
         0.00000E+00
         0.00000E+00
         0.00000E+00
         0.00000E+00
         0.00000E+00
         0.00000E+00
         0.00000E+00
         0.00000E+00
         0.00000E+00
         0.00000E+00
         0.00000E+00
         0.00000E+00
         0.00000E+00
         0.00000E+00
         0.00000E+00
         0.00000E+00
         0.00000E+00
         0.00000E+00
         0.00000E+00
         0.00000E+00
         0.00000E+00
         0.00000E+00
         0.00000E+00
         0.00000E+00
         0.00000E+00
         0.00000E+00
         0.00000E+00
         0.00000E+00
         0.00000E+00
         0.00000E+00
         0.00000E+00
         0.00000E+00
         0.00000E+00
         0.00000E+00
         0.00000E+00
         0.00000E+00
         0.00000E+00
         0.00000E+00
         0.00000E+00
         0.00000E+00
         0.00000E+00
         0.00000E+00
         0.00000E+00
         0.00000E+00
         0.00000E+00
         0.00000E+00
         0.00000E+00
         0.00000E+00
         0.00000E+00
         0.00000E+00
         0.00000E+00
         0.00000E+00
         0.00000E+00
         0.00000E+00
         0.00000E+00
         0.00000E+00
         0.00000E+00
         0.00000E+00
         0.00000E+00
         0.00000E+00
         0.00000E+00
         0.00000E+00
         0.00000E+00
         0.00000E+00
         0.00000E+00
         0.00000E+00
         0.00000E+00
         0.00000E+00
         0.00000E+00
         0.00000E+00
         0.00000E+00
         0.00000E+00
         0.00000E+00
         0.00000E+00
         0.00000E+00
         0.00000E+00
         0.00000E+00
         0.00000E+00
         0.00000E+00
         0.00000E+00
         0.00000E+00
         0.00000E+00
         0.00000E+00
         0.00000E+00
         0.00000E+00
         0.00000E+00
         0.00000E+00
         0.00000E+00
         0.00000E+00
         0.00000E+00
         0.00000E+00
         0.00000E+00
         0.00000E+00
         0.00000E+00
         0.00000E+00
         0.00000E+00
         0.00000E+00
         0.00000E+00
         0.00000E+00
         0.00000E+00
         0.00000E+00
         0.00000E+00
         0.00000E+00
         0.00000E+00
         0.00000E+00
         0.00000E+00
         0.00000E+00
         0.00000E+00
         0.00000E+00
         0.00000E+00
         0.00000E+00
         0.00000E+00
         0.00000E+00
         0.00000E+00
         0.00000E+00
         0.00000E+00
         0.00000E+00
         0.00000E+00
         0.00000E+00
         0.00000E+00
         0.00000E+00
         0.00000E+00
         0.00000E+00
         0.00000E+00
         0.00000E+00
         0.00000E+00
         0.00000E+00
         0.00000E+00
         0.00000E+00
         0.00000E+00
         0.00000E+00
         0.00000E+00
         0.00000E+00
         0.00000E+00
         0.00000E+00
         0.00000E+00
         0.00000E+00
         0.00000E+00
         0.00000E+00
         0.00000E+00
         0.00000E+00
         0.00000E+00
         0.00000E+00
         0.00000E+00
         0.00000E+00
         0.00000E+00
         0.00000E+00
         0.00000E+00
         0.00000E+00
         0.00000E+00
         0.00000E+00
         0.00000E+00
         0.00000E+00
         0.00000E+00
         0.00000E+00
         0.00000E+00
         0.00000E+00
         0.00000E+00
         0.00000E+00
         0.00000E+00
         0.00000E+00
         0.00000E+00
         0.00000E+00
         0.00000E+00
         0.00000E+00
         0.00000E+00
         0.00000E+00
         0.00000E+00
         0.00000E+00
         0.00000E+00
         0.00000E+00
         0.00000E+00
         0.00000E+00
         0.00000E+00
         0.00000E+00
         0.00000E+00
         0.00000E+00
         0.00000E+00
         0.00000E+00
         0.00000E+00
         0.00000E+00
         0.00000E+00
         0.00000E+00
         0.00000E+00
         0.00000E+00
         0.00000E+00
         0.00000E+00
         0.00000E+00
         0.00000E+00
         0.00000E+00
         0.00000E+00
         0.00000E+00
         0.00000E+00
         0.00000E+00
         0.00000E+00
         0.00000E+00
         0.00000E+00
         0.00000E+00
         0.00000E+00
         0.00000E+00
         0.00000E+00
         0.00000E+00
         0.00000E+00
         0.00000E+00
         0.00000E+00
         0.00000E+00
         0.00000E+00
         0.00000E+00
         0.00000E+00
         0.00000E+00
         0.00000E+00
         0.00000E+00
         0.00000E+00
         0.00000E+00
         0.00000E+00
         0.00000E+00
         0.00000E+00
         0.00000E+00
         0.00000E+00
         0.00000E+00
         0.00000E+00
         0.00000E+00
         0.00000E+00
         0.00000E+00
         0.00000E+00
         0.00000E+00
         0.00000E+00
         0.00000E+00
         0.00000E+00
         0.00000E+00
         0.00000E+00
         0.00000E+00
         0.00000E+00
         0.00000E+00
         0.00000E+00
         0.00000E+00
         0.00000E+00
         0.00000E+00
         0.00000E+00
         0.00000E+00
         0.00000E+00
         0.00000E+00
         0.00000E+00
         0.00000E+00
         0.00000E+00
         0.00000E+00
         0.00000E+00
         0.00000E+00
         0.00000E+00
         0.00000E+00
         0.00000E+00
         0.00000E+00
         0.00000E+00
         0.00000E+00
         0.00000E+00
         0.00000E+00
         0.00000E+00
         0.00000E+00
         0.00000E+00
         0.00000E+00
         0.00000E+00
         0.00000E+00
         0.00000E+00
         0.00000E+00
         0.00000E+00
         0.00000E+00
         0.00000E+00
         0.00000E+00
         0.00000E+00
         0.00000E+00
         0.00000E+00
         0.00000E+00
         0.00000E+00
         0.00000E+00
         0.00000E+00
         0.00000E+00
         0.00000E+00
         0.00000E+00
         0.00000E+00
         0.00000E+00
         0.00000E+00
         0.00000E+00
         0.00000E+00
         0.00000E+00
         0.00000E+00
         0.00000E+00
         0.00000E+00
         0.00000E+00
         0.00000E+00
         0.00000E+00
         0.00000E+00
         0.00000E+00
         0.00000E+00
         0.00000E+00
         0.00000E+00
         0.00000E+00
         0.00000E+00
         0.00000E+00
         0.00000E+00
         0.00000E+00
         0.00000E+00
         0.00000E+00
         0.00000E+00
         0.00000E+00
         0.00000E+00
         0.00000E+00
         0.00000E+00
         0.00000E+00
         0.00000E+00
         0.00000E+00
         0.00000E+00
         0.00000E+00
         0.00000E+00
         0.00000E+00
         0.00000E+00
         0.00000E+00
         0.00000E+00
         0.00000E+00
         0.00000E+00
         0.00000E+00
         0.00000E+00
         0.00000E+00
         0.00000E+00
         0.00000E+00
         0.00000E+00
         0.00000E+00
         0.00000E+00
         0.00000E+00
         0.00000E+00
         0.00000E+00
         0.00000E+00
         0.00000E+00
         0.00000E+00
         0.00000E+00
         0.00000E+00
         0.00000E+00
         0.00000E+00
         0.00000E+00
         0.00000E+00
         0.00000E+00
         0.00000E+00
         0.00000E+00
         0.00000E+00
         0.00000E+00
         0.00000E+00
         0.00000E+00
         0.00000E+00
         0.00000E+00
         0.00000E+00
         0.00000E+00
         0.00000E+00
         0.00000E+00
         0.00000E+00
         0.00000E+00
         0.00000E+00
         0.00000E+00
         0.00000E+00
         0.00000E+00
         0.00000E+00
         0.00000E+00
         0.00000E+00
         0.00000E+00
         0.00000E+00
         0.00000E+00
         0.00000E+00
         0.00000E+00
         0.00000E+00
         0.00000E+00
         0.00000E+00
  
SCALARS        characteristic_distance  double 1
LOOKUP_TABLE default
         0.00000E+00
         0.00000E+00
         0.00000E+00
         0.00000E+00
         0.00000E+00
         0.00000E+00
         0.00000E+00
         0.00000E+00
         0.00000E+00
         0.00000E+00
         0.00000E+00
         0.00000E+00
         0.00000E+00
         0.00000E+00
         0.00000E+00
         0.00000E+00
         0.00000E+00
         0.00000E+00
         0.00000E+00
         0.00000E+00
         0.00000E+00
         0.00000E+00
         0.00000E+00
         0.00000E+00
         0.00000E+00
         0.00000E+00
         0.00000E+00
         0.00000E+00
         0.00000E+00
         0.00000E+00
         0.00000E+00
         0.00000E+00
         0.00000E+00
         0.00000E+00
         0.00000E+00
         0.00000E+00
         0.00000E+00
         0.00000E+00
         0.00000E+00
         0.00000E+00
         0.00000E+00
         0.00000E+00
         0.00000E+00
         0.00000E+00
         0.00000E+00
         0.00000E+00
         0.00000E+00
         0.00000E+00
         0.00000E+00
         0.00000E+00
         0.00000E+00
         0.00000E+00
         0.00000E+00
         0.00000E+00
         0.00000E+00
         0.00000E+00
         0.00000E+00
         0.00000E+00
         0.00000E+00
         0.00000E+00
         0.00000E+00
         0.00000E+00
         0.00000E+00
         0.00000E+00
         0.00000E+00
         0.00000E+00
         0.00000E+00
         0.00000E+00
         0.00000E+00
         0.00000E+00
         0.00000E+00
         0.00000E+00
         0.00000E+00
         0.00000E+00
         0.00000E+00
         0.00000E+00
         0.00000E+00
         0.00000E+00
         0.00000E+00
         0.00000E+00
         0.00000E+00
         0.00000E+00
         0.00000E+00
         0.00000E+00
         0.00000E+00
         0.00000E+00
         0.00000E+00
         0.00000E+00
         0.00000E+00
         0.00000E+00
         0.00000E+00
         0.00000E+00
         0.00000E+00
         0.00000E+00
         0.00000E+00
         0.00000E+00
         0.00000E+00
         0.00000E+00
         0.00000E+00
         0.00000E+00
         0.00000E+00
         0.00000E+00
         0.00000E+00
         0.00000E+00
         0.00000E+00
         0.00000E+00
         0.00000E+00
         0.00000E+00
         0.00000E+00
         0.00000E+00
         0.00000E+00
         0.00000E+00
         0.00000E+00
         0.00000E+00
         0.00000E+00
         0.00000E+00
         0.00000E+00
         0.00000E+00
         0.00000E+00
         0.00000E+00
         0.00000E+00
         0.00000E+00
         0.00000E+00
         0.00000E+00
         0.00000E+00
         0.00000E+00
         0.00000E+00
         0.00000E+00
         0.00000E+00
         0.00000E+00
         0.00000E+00
         0.00000E+00
         0.00000E+00
         0.00000E+00
         0.00000E+00
         0.00000E+00
         0.00000E+00
         0.00000E+00
         0.00000E+00
         0.00000E+00
         0.00000E+00
         0.00000E+00
         0.00000E+00
         0.00000E+00
         0.00000E+00
         0.00000E+00
         0.00000E+00
         0.00000E+00
         0.00000E+00
         0.00000E+00
         0.00000E+00
         0.00000E+00
         0.00000E+00
         0.00000E+00
         0.00000E+00
         0.00000E+00
         0.00000E+00
         0.00000E+00
         0.00000E+00
         0.00000E+00
         0.00000E+00
         0.00000E+00
         0.00000E+00
         0.00000E+00
         0.00000E+00
         0.00000E+00
         0.00000E+00
         0.00000E+00
         0.00000E+00
         0.00000E+00
         0.00000E+00
         0.00000E+00
         0.00000E+00
         0.00000E+00
         0.00000E+00
         0.00000E+00
         0.00000E+00
         0.00000E+00
         0.00000E+00
         0.00000E+00
         0.00000E+00
         0.00000E+00
         0.00000E+00
         0.00000E+00
         0.00000E+00
         0.00000E+00
         0.00000E+00
         0.00000E+00
         0.00000E+00
         0.00000E+00
         0.00000E+00
         0.00000E+00
         0.00000E+00
         0.00000E+00
         0.00000E+00
         0.00000E+00
         0.00000E+00
         0.00000E+00
         0.00000E+00
         0.00000E+00
         0.00000E+00
         0.00000E+00
         0.00000E+00
         0.00000E+00
         0.00000E+00
         0.00000E+00
         0.00000E+00
         0.00000E+00
         0.00000E+00
         0.00000E+00
         0.00000E+00
         0.00000E+00
         0.00000E+00
         0.00000E+00
         0.00000E+00
         0.00000E+00
         0.00000E+00
         0.00000E+00
         0.00000E+00
         0.00000E+00
         0.00000E+00
         0.00000E+00
         0.00000E+00
         0.00000E+00
         0.00000E+00
         0.00000E+00
         0.00000E+00
         0.00000E+00
         0.00000E+00
         0.00000E+00
         0.00000E+00
         0.00000E+00
         0.00000E+00
         0.00000E+00
         0.00000E+00
         0.00000E+00
         0.00000E+00
         0.00000E+00
         0.00000E+00
         0.00000E+00
         0.00000E+00
         0.00000E+00
         0.00000E+00
         0.00000E+00
         0.00000E+00
         0.00000E+00
         0.00000E+00
         0.00000E+00
         0.00000E+00
         0.00000E+00
         0.00000E+00
         0.00000E+00
         0.00000E+00
         0.00000E+00
         0.00000E+00
         0.00000E+00
         0.00000E+00
         0.00000E+00
         0.00000E+00
         0.00000E+00
         0.00000E+00
         0.00000E+00
         0.00000E+00
         0.00000E+00
         0.00000E+00
         0.00000E+00
         0.00000E+00
         0.00000E+00
         0.00000E+00
         0.00000E+00
         0.00000E+00
         0.00000E+00
         0.00000E+00
         0.00000E+00
         0.00000E+00
         0.00000E+00
         0.00000E+00
         0.00000E+00
         0.00000E+00
         0.00000E+00
         0.00000E+00
         0.00000E+00
         0.00000E+00
         0.00000E+00
         0.00000E+00
         0.00000E+00
         0.00000E+00
         0.00000E+00
         0.00000E+00
         0.00000E+00
         0.00000E+00
         0.00000E+00
         0.00000E+00
         0.00000E+00
         0.00000E+00
         0.00000E+00
         0.00000E+00
         0.00000E+00
         0.00000E+00
         0.00000E+00
         0.00000E+00
         0.00000E+00
         0.00000E+00
         0.00000E+00
         0.00000E+00
         0.00000E+00
         0.00000E+00
         0.00000E+00
         0.00000E+00
         0.00000E+00
         0.00000E+00
         0.00000E+00
         0.00000E+00
         0.00000E+00
         0.00000E+00
         0.00000E+00
         0.00000E+00
         0.00000E+00
         0.00000E+00
         0.00000E+00
         0.00000E+00
         0.00000E+00
         0.00000E+00
         0.00000E+00
         0.00000E+00
         0.00000E+00
         0.00000E+00
         0.00000E+00
         0.00000E+00
         0.00000E+00
         0.00000E+00
         0.00000E+00
         0.00000E+00
         0.00000E+00
         0.00000E+00
         0.00000E+00
         0.00000E+00
         0.00000E+00
         0.00000E+00
         0.00000E+00
         0.00000E+00
         0.00000E+00
         0.00000E+00
         0.00000E+00
         0.00000E+00
         0.00000E+00
         0.00000E+00
         0.00000E+00
         0.00000E+00
         0.00000E+00
         0.00000E+00
         0.00000E+00
         0.00000E+00
         0.00000E+00
         0.00000E+00
         0.00000E+00
         0.00000E+00
         0.00000E+00
         0.00000E+00
         0.00000E+00
         0.00000E+00
         0.00000E+00
         0.00000E+00
         0.00000E+00
         0.00000E+00
         0.00000E+00
         0.00000E+00
         0.00000E+00
         0.00000E+00
         0.00000E+00
         0.00000E+00
         0.00000E+00
         0.00000E+00
         0.00000E+00
         0.00000E+00
         0.00000E+00
         0.00000E+00
         0.00000E+00
         0.00000E+00
         0.00000E+00
         0.00000E+00
         0.00000E+00
         0.00000E+00
         0.00000E+00
         0.00000E+00
         0.00000E+00
         0.00000E+00
         0.00000E+00
         0.00000E+00
         0.00000E+00
         0.00000E+00
         0.00000E+00
         0.00000E+00
         0.00000E+00
         0.00000E+00
         0.00000E+00
         0.00000E+00
         0.00000E+00
         0.00000E+00
         0.00000E+00
         0.00000E+00
         0.00000E+00
         0.00000E+00
         0.00000E+00
         0.00000E+00
         0.00000E+00
         0.00000E+00
         0.00000E+00
         0.00000E+00
         0.00000E+00
         0.00000E+00
         0.00000E+00
         0.00000E+00
         0.00000E+00
         0.00000E+00
         0.00000E+00
         0.00000E+00
         0.00000E+00
         0.00000E+00
         0.00000E+00
         0.00000E+00
         0.00000E+00
         0.00000E+00
         0.00000E+00
         0.00000E+00
         0.00000E+00
         0.00000E+00
         0.00000E+00
         0.00000E+00
         0.00000E+00
         0.00000E+00
         0.00000E+00
         0.00000E+00
         0.00000E+00
         0.00000E+00
         0.00000E+00
         0.00000E+00
         0.00000E+00
         0.00000E+00
         0.00000E+00
         0.00000E+00
         0.00000E+00
         0.00000E+00
         0.00000E+00
         0.00000E+00
         0.00000E+00
         0.00000E+00
         0.00000E+00
         0.00000E+00
         0.00000E+00
         0.00000E+00
         0.00000E+00
         0.00000E+00
         0.00000E+00
         0.00000E+00
         0.00000E+00
         0.00000E+00
         0.00000E+00
         0.00000E+00
         0.00000E+00
         0.00000E+00
         0.00000E+00
         0.00000E+00
         0.00000E+00
         0.00000E+00
         0.00000E+00
         0.00000E+00
         0.00000E+00
         0.00000E+00
         0.00000E+00
         0.00000E+00
         0.00000E+00
         0.00000E+00
         0.00000E+00
         0.00000E+00
         0.00000E+00
         0.00000E+00
         0.00000E+00
         0.00000E+00
         0.00000E+00
         0.00000E+00
         0.00000E+00
         0.00000E+00
         0.00000E+00
         0.00000E+00
         0.00000E+00
         0.00000E+00
         0.00000E+00
         0.00000E+00
         0.00000E+00
         0.00000E+00
         0.00000E+00
         0.00000E+00
         0.00000E+00
         0.00000E+00
         0.00000E+00
         0.00000E+00
         0.00000E+00
         0.00000E+00
         0.00000E+00
         0.00000E+00
         0.00000E+00
         0.00000E+00
         0.00000E+00
         0.00000E+00
         0.00000E+00
         0.00000E+00
         0.00000E+00
         0.00000E+00
         0.00000E+00
         0.00000E+00
         0.00000E+00
         0.00000E+00
         0.00000E+00
         0.00000E+00
         0.00000E+00
         0.00000E+00
         0.00000E+00
         0.00000E+00
         0.00000E+00
         0.00000E+00
         0.00000E+00
         0.00000E+00
         0.00000E+00
         0.00000E+00
         0.00000E+00
         0.00000E+00
         0.00000E+00
         0.00000E+00
         0.00000E+00
         0.00000E+00
         0.00000E+00
         0.00000E+00
         0.00000E+00
         0.00000E+00
         0.00000E+00
         0.00000E+00
         0.00000E+00
         0.00000E+00
         0.00000E+00
         0.00000E+00
         0.00000E+00
         0.00000E+00
         0.00000E+00
         0.00000E+00
         0.00000E+00
         0.00000E+00
         0.00000E+00
         0.00000E+00
         0.00000E+00
         0.00000E+00
         0.00000E+00
         0.00000E+00
         0.00000E+00
         0.00000E+00
         0.00000E+00
         0.00000E+00
         0.00000E+00
         0.00000E+00
         0.00000E+00
         0.00000E+00
         0.00000E+00
         0.00000E+00
         0.00000E+00
         0.00000E+00
         0.00000E+00
         0.00000E+00
         0.00000E+00
         0.00000E+00
         0.00000E+00
         0.00000E+00
         0.00000E+00
         0.00000E+00
         0.00000E+00
         0.00000E+00
         0.00000E+00
         0.00000E+00
         0.00000E+00
         0.00000E+00
         0.00000E+00
         0.00000E+00
         0.00000E+00
         0.00000E+00
         0.00000E+00
         0.00000E+00
         0.00000E+00
         0.00000E+00
         0.00000E+00
         0.00000E+00
         0.00000E+00
         0.00000E+00
         0.00000E+00
         0.00000E+00
         0.00000E+00
         0.00000E+00
         0.00000E+00
         0.00000E+00
         0.00000E+00
         0.00000E+00
         0.00000E+00
         0.00000E+00
         0.00000E+00
         0.00000E+00
         0.00000E+00
         0.00000E+00
         0.00000E+00
         0.00000E+00
         0.00000E+00
         0.00000E+00
         0.00000E+00
         0.00000E+00
         0.00000E+00
         0.00000E+00
         0.00000E+00
         0.00000E+00
         0.00000E+00
         0.00000E+00
         0.00000E+00
         0.00000E+00
         0.00000E+00
         0.00000E+00
         0.00000E+00
         0.00000E+00
         0.00000E+00
         0.00000E+00
         0.00000E+00
         0.00000E+00
         0.00000E+00
         0.00000E+00
         0.00000E+00
         0.00000E+00
         0.00000E+00
         0.00000E+00
         0.00000E+00
         0.00000E+00
         0.00000E+00
         0.00000E+00
         0.00000E+00
         0.00000E+00
         0.00000E+00
         0.00000E+00
         0.00000E+00
         0.00000E+00
         0.00000E+00
         0.00000E+00
         0.00000E+00
         0.00000E+00
         0.00000E+00
         0.00000E+00
         0.00000E+00
         0.00000E+00
         0.00000E+00
         0.00000E+00
         0.00000E+00
         0.00000E+00
         0.00000E+00
         0.00000E+00
         0.00000E+00
         0.00000E+00
         0.00000E+00
         0.00000E+00
         0.00000E+00
         0.00000E+00
         0.00000E+00
         0.00000E+00
         0.00000E+00
         0.00000E+00
         0.00000E+00
         0.00000E+00
         0.00000E+00
         0.00000E+00
         0.00000E+00
         0.00000E+00
         0.00000E+00
         0.00000E+00
         0.00000E+00
         0.00000E+00
         0.00000E+00
         0.00000E+00
         0.00000E+00
         0.00000E+00
         0.00000E+00
         0.00000E+00
         0.00000E+00
         0.00000E+00
         0.00000E+00
         0.00000E+00
         0.00000E+00
         0.00000E+00
         0.00000E+00
         0.00000E+00
         0.00000E+00
         0.00000E+00
         0.00000E+00
         0.00000E+00
         0.00000E+00
         0.00000E+00
         0.00000E+00
         0.00000E+00
         0.00000E+00
         0.00000E+00
         0.00000E+00
         0.00000E+00
         0.00000E+00
         0.00000E+00
         0.00000E+00
         0.00000E+00
         0.00000E+00
         0.00000E+00
         0.00000E+00
         0.00000E+00
         0.00000E+00
         0.00000E+00
         0.00000E+00
         0.00000E+00
         0.00000E+00
         0.00000E+00
         0.00000E+00
         0.00000E+00
         0.00000E+00
         0.00000E+00
         0.00000E+00
         0.00000E+00
         0.00000E+00
         0.00000E+00
         0.00000E+00
         0.00000E+00
         0.00000E+00
         0.00000E+00
         0.00000E+00
         0.00000E+00
         0.00000E+00
         0.00000E+00
         0.00000E+00
         0.00000E+00
         0.00000E+00
         0.00000E+00
         0.00000E+00
         0.00000E+00
         0.00000E+00
         0.00000E+00
         0.00000E+00
         0.00000E+00
         0.00000E+00
         0.00000E+00
         0.00000E+00
         0.00000E+00
         0.00000E+00
         0.00000E+00
         0.00000E+00
         0.00000E+00
         0.00000E+00
         0.00000E+00
         0.00000E+00
         0.00000E+00
         0.00000E+00
         0.00000E+00
         0.00000E+00
         0.00000E+00
         0.00000E+00
         0.00000E+00
         0.00000E+00
         0.00000E+00
         0.00000E+00
         0.00000E+00
         0.00000E+00
         0.00000E+00
         0.00000E+00
         0.00000E+00
         0.00000E+00
         0.00000E+00
         0.00000E+00
         0.00000E+00
         0.00000E+00
         0.00000E+00
         0.00000E+00
         0.00000E+00
         0.00000E+00
         0.00000E+00
         0.00000E+00
         0.00000E+00
         0.00000E+00
         0.00000E+00
         0.00000E+00
         0.00000E+00
         0.00000E+00
         0.00000E+00
         0.00000E+00
         0.00000E+00
         0.00000E+00
         0.00000E+00
         0.00000E+00
         0.00000E+00
         0.00000E+00
         0.00000E+00
         0.00000E+00
         0.00000E+00
         0.00000E+00
         0.00000E+00
         0.00000E+00
         0.00000E+00
         0.00000E+00
         0.00000E+00
         0.00000E+00
         0.00000E+00
         0.00000E+00
         0.00000E+00
         0.00000E+00
         0.00000E+00
         0.00000E+00
         0.00000E+00
         0.00000E+00
         0.00000E+00
         0.00000E+00
         0.00000E+00
         0.00000E+00
         0.00000E+00
         0.00000E+00
         0.00000E+00
         0.00000E+00
         0.00000E+00
         0.00000E+00
         0.00000E+00
         0.00000E+00
         0.00000E+00
         0.00000E+00
         0.00000E+00
         0.00000E+00
         0.00000E+00
         0.00000E+00
         0.00000E+00
         0.00000E+00
         0.00000E+00
         0.00000E+00
         0.00000E+00
         0.00000E+00
         0.00000E+00
         0.00000E+00
         0.00000E+00
         0.00000E+00
         0.00000E+00
         0.00000E+00
         0.00000E+00
         0.00000E+00
         0.00000E+00
         0.00000E+00
         0.00000E+00
         0.00000E+00
         0.00000E+00
         0.00000E+00
         0.00000E+00
         0.00000E+00
         0.00000E+00
         0.00000E+00
         0.00000E+00
         0.00000E+00
         0.00000E+00
         0.00000E+00
         0.00000E+00
         0.00000E+00
         0.00000E+00
         0.00000E+00
         0.00000E+00
         0.00000E+00
         0.00000E+00
         0.00000E+00
         0.00000E+00
         0.00000E+00
         0.00000E+00
         0.00000E+00
         0.00000E+00
         0.00000E+00
         0.00000E+00
         0.00000E+00
         0.00000E+00
         0.00000E+00
         0.00000E+00
         0.00000E+00
         0.00000E+00
         0.00000E+00
         0.00000E+00
         0.00000E+00
         0.00000E+00
         0.00000E+00
         0.00000E+00
         0.00000E+00
         0.00000E+00
         0.00000E+00
         0.00000E+00
         0.00000E+00
         0.00000E+00
         0.00000E+00
         0.00000E+00
         0.00000E+00
         0.00000E+00
         0.00000E+00
         0.00000E+00
         0.00000E+00
         0.00000E+00
         0.00000E+00
         0.00000E+00
         0.00000E+00
         0.00000E+00
         0.00000E+00
         0.00000E+00
         0.00000E+00
         0.00000E+00
         0.00000E+00
         0.00000E+00
         0.00000E+00
         0.00000E+00
         0.00000E+00
         0.00000E+00
         0.00000E+00
         0.00000E+00
         0.00000E+00
         0.00000E+00
         0.00000E+00
         0.00000E+00
         0.00000E+00
         0.00000E+00
         0.00000E+00
         0.00000E+00
         0.00000E+00
         0.00000E+00
         0.00000E+00
         0.00000E+00
         0.00000E+00
         0.00000E+00
         0.00000E+00
         0.00000E+00
         0.00000E+00
         0.00000E+00
         0.00000E+00
         0.00000E+00
         0.00000E+00
         0.00000E+00
         0.00000E+00
         0.00000E+00
         0.00000E+00
         0.00000E+00
         0.00000E+00
         0.00000E+00
         0.00000E+00
         0.00000E+00
         0.00000E+00
         0.00000E+00
         0.00000E+00
         0.00000E+00
         0.00000E+00
         0.00000E+00
         0.00000E+00
         0.00000E+00
         0.00000E+00
         0.00000E+00
         0.00000E+00
         0.00000E+00
         0.00000E+00
         0.00000E+00
         0.00000E+00
         0.00000E+00
         0.00000E+00
         0.00000E+00
         0.00000E+00
         0.00000E+00
         0.00000E+00
         0.00000E+00
         0.00000E+00
         0.00000E+00
         0.00000E+00
         0.00000E+00
         0.00000E+00
         0.00000E+00
         0.00000E+00
         0.00000E+00
         0.00000E+00
         0.00000E+00
         0.00000E+00
         0.00000E+00
         0.00000E+00
         0.00000E+00
         0.00000E+00
         0.00000E+00
         0.00000E+00
         0.00000E+00
         0.00000E+00
         0.00000E+00
         0.00000E+00
         0.00000E+00
         0.00000E+00
         0.00000E+00
         0.00000E+00
         0.00000E+00
         0.00000E+00
         0.00000E+00
         0.00000E+00
         0.00000E+00
         0.00000E+00
         0.00000E+00
         0.00000E+00
         0.00000E+00
         0.00000E+00
         0.00000E+00
         0.00000E+00
         0.00000E+00
         0.00000E+00
         0.00000E+00
         0.00000E+00
         0.00000E+00
         0.00000E+00
         0.00000E+00
         0.00000E+00
         0.00000E+00
         0.00000E+00
         0.00000E+00
         0.00000E+00
         0.00000E+00
         0.00000E+00
         0.00000E+00
         0.00000E+00
         0.00000E+00
         0.00000E+00
         0.00000E+00
         0.00000E+00
         0.00000E+00
         0.00000E+00
         0.00000E+00
         0.00000E+00
         0.00000E+00
         0.00000E+00
         0.00000E+00
         0.00000E+00
         0.00000E+00
         0.00000E+00
         0.00000E+00
         0.00000E+00
         0.00000E+00
         0.00000E+00
         0.00000E+00
         0.00000E+00
         0.00000E+00
         0.00000E+00
         0.00000E+00
         0.00000E+00
         0.00000E+00
         0.00000E+00
         0.00000E+00
         0.00000E+00
         0.00000E+00
         0.00000E+00
         0.00000E+00
         0.00000E+00
         0.00000E+00
         0.00000E+00
         0.00000E+00
         0.00000E+00
         0.00000E+00
         0.00000E+00
         0.00000E+00
         0.00000E+00
         0.00000E+00
         0.00000E+00
         0.00000E+00
         0.00000E+00
         0.00000E+00
         0.00000E+00
         0.00000E+00
         0.00000E+00
         0.00000E+00
         0.00000E+00
         0.00000E+00
         0.00000E+00
         0.00000E+00
         0.00000E+00
         0.00000E+00
         0.00000E+00
         0.00000E+00
         0.00000E+00
         0.00000E+00
         0.00000E+00
         0.00000E+00
         0.00000E+00
         0.00000E+00
         0.00000E+00
         0.00000E+00
         0.00000E+00
         0.00000E+00
         0.00000E+00
         0.00000E+00
         0.00000E+00
         0.00000E+00
         0.00000E+00
         0.00000E+00
         0.00000E+00
         0.00000E+00
         0.00000E+00
         0.00000E+00
         0.00000E+00
         0.00000E+00
         0.00000E+00
         0.00000E+00
         0.00000E+00
         0.00000E+00
         0.00000E+00
         0.00000E+00
         0.00000E+00
         0.00000E+00
         0.00000E+00
         0.00000E+00
         0.00000E+00
         0.00000E+00
         0.00000E+00
         0.00000E+00
         0.00000E+00
         0.00000E+00
         0.00000E+00
         0.00000E+00
         0.00000E+00
         0.00000E+00
         0.00000E+00
         0.00000E+00
         0.00000E+00
         0.00000E+00
         0.00000E+00
         0.00000E+00
         0.00000E+00
         0.00000E+00
         0.00000E+00
         0.00000E+00
         0.00000E+00
         0.00000E+00
         0.00000E+00
         0.00000E+00
         0.00000E+00
         0.00000E+00
         0.00000E+00
         0.00000E+00
         0.00000E+00
         0.00000E+00
         0.00000E+00
         0.00000E+00
         0.00000E+00
         0.00000E+00
         0.00000E+00
         0.00000E+00
         0.00000E+00
         0.00000E+00
         0.00000E+00
         0.00000E+00
         0.00000E+00
         0.00000E+00
         0.00000E+00
         0.00000E+00
         0.00000E+00
         0.00000E+00
         0.00000E+00
         0.00000E+00
         0.00000E+00
         0.00000E+00
         0.00000E+00
         0.00000E+00
         0.00000E+00
         0.00000E+00
         0.00000E+00
         0.00000E+00
         0.00000E+00
         0.00000E+00
         0.00000E+00
         0.00000E+00
         0.00000E+00
         0.00000E+00
         0.00000E+00
         0.00000E+00
         0.00000E+00
         0.00000E+00
         0.00000E+00
         0.00000E+00
         0.00000E+00
         0.00000E+00
         0.00000E+00
         0.00000E+00
         0.00000E+00
         0.00000E+00
         0.00000E+00
         0.00000E+00
         0.00000E+00
         0.00000E+00
         0.00000E+00
         0.00000E+00
         0.00000E+00
         0.00000E+00
         0.00000E+00
         0.00000E+00
         0.00000E+00
         0.00000E+00
         0.00000E+00
         0.00000E+00
         0.00000E+00
         0.00000E+00
         0.00000E+00
         0.00000E+00
         0.00000E+00
         0.00000E+00
         0.00000E+00
         0.00000E+00
         0.00000E+00
         0.00000E+00
         0.00000E+00
         0.00000E+00
         0.00000E+00
         0.00000E+00
         0.00000E+00
         0.00000E+00
         0.00000E+00
         0.00000E+00
         0.00000E+00
         0.00000E+00
         0.00000E+00
         0.00000E+00
         0.00000E+00
         0.00000E+00
         0.00000E+00
         0.00000E+00
         0.00000E+00
         0.00000E+00
         0.00000E+00
         0.00000E+00
         0.00000E+00
         0.00000E+00
         0.00000E+00
         0.00000E+00
         0.00000E+00
         0.00000E+00
         0.00000E+00
         0.00000E+00
         0.00000E+00
         0.00000E+00
         0.00000E+00
         0.00000E+00
         0.00000E+00
         0.00000E+00
         0.00000E+00
         0.00000E+00
         0.00000E+00
         0.00000E+00
         0.00000E+00
         0.00000E+00
         0.00000E+00
         0.00000E+00
         0.00000E+00
         0.00000E+00
         0.00000E+00
         0.00000E+00
         0.00000E+00
         0.00000E+00
         0.00000E+00
         0.00000E+00
         0.00000E+00
         0.00000E+00
         0.00000E+00
         0.00000E+00
         0.00000E+00
         0.00000E+00
         0.00000E+00
         0.00000E+00
         0.00000E+00
         0.00000E+00
         0.00000E+00
         0.00000E+00
         0.00000E+00
         0.00000E+00
         0.00000E+00
         0.00000E+00
         0.00000E+00
         0.00000E+00
         0.00000E+00
         0.00000E+00
         0.00000E+00
         0.00000E+00
         0.00000E+00
         0.00000E+00
         0.00000E+00
         0.00000E+00
         0.00000E+00
         0.00000E+00
         0.00000E+00
         0.00000E+00
         0.00000E+00
         0.00000E+00
         0.00000E+00
         0.00000E+00
         0.00000E+00
         0.00000E+00
         0.00000E+00
         0.00000E+00
         0.00000E+00
         0.00000E+00
         0.00000E+00
         0.00000E+00
         0.00000E+00
         0.00000E+00
         0.00000E+00
         0.00000E+00
         0.00000E+00
         0.00000E+00
         0.00000E+00
         0.00000E+00
         0.00000E+00
         0.00000E+00
         0.00000E+00
         0.00000E+00
         0.00000E+00
         0.00000E+00
         0.00000E+00
         0.00000E+00
         0.00000E+00
         0.00000E+00
         0.00000E+00
         0.00000E+00
         0.00000E+00
         0.00000E+00
         0.00000E+00
         0.00000E+00
         0.00000E+00
         0.00000E+00
         0.00000E+00
         0.00000E+00
         0.00000E+00
         0.00000E+00
         0.00000E+00
         0.00000E+00
         0.00000E+00
         0.00000E+00
         0.00000E+00
         0.00000E+00
         0.00000E+00
         0.00000E+00
         0.00000E+00
         0.00000E+00
         0.00000E+00
         0.00000E+00
         0.00000E+00
         0.00000E+00
         0.00000E+00
         0.00000E+00
         0.00000E+00
         0.00000E+00
         0.00000E+00
         0.00000E+00
         0.00000E+00
         0.00000E+00
         0.00000E+00
         0.00000E+00
         0.00000E+00
         0.00000E+00
         0.00000E+00
         0.00000E+00
         0.00000E+00
         0.00000E+00
         0.00000E+00
         0.00000E+00
         0.00000E+00
         0.00000E+00
         0.00000E+00
         0.00000E+00
         0.00000E+00
         0.00000E+00
         0.00000E+00
         0.00000E+00
         0.00000E+00
         0.00000E+00
         0.00000E+00
         0.00000E+00
         0.00000E+00
         0.00000E+00
         0.00000E+00
         0.00000E+00
         0.00000E+00
         0.00000E+00
         0.00000E+00
         0.00000E+00
         0.00000E+00
         0.00000E+00
         0.00000E+00
         0.00000E+00
         0.00000E+00
         0.00000E+00
         0.00000E+00
         0.00000E+00
         0.00000E+00
         0.00000E+00
         0.00000E+00
         0.00000E+00
         0.00000E+00
         0.00000E+00
         0.00000E+00
         0.00000E+00
         0.00000E+00
         0.00000E+00
         0.00000E+00
         0.00000E+00
         0.00000E+00
         0.00000E+00
         0.00000E+00
         0.00000E+00
         0.00000E+00
         0.00000E+00
         0.00000E+00
         0.00000E+00
         0.00000E+00
         0.00000E+00
         0.00000E+00
         0.00000E+00
         0.00000E+00
         0.00000E+00
         0.00000E+00
         0.00000E+00
         0.00000E+00
         0.00000E+00
         0.00000E+00
         0.00000E+00
         0.00000E+00
         0.00000E+00
         0.00000E+00
         0.00000E+00
         0.00000E+00
         0.00000E+00
         0.00000E+00
         0.00000E+00
         0.00000E+00
         0.00000E+00
         0.00000E+00
         0.00000E+00
         0.00000E+00
         0.00000E+00
         0.00000E+00
         0.00000E+00
         0.00000E+00
         0.00000E+00
         0.00000E+00
         0.00000E+00
         0.00000E+00
         0.00000E+00
         0.00000E+00
         0.00000E+00
         0.00000E+00
         0.00000E+00
         0.00000E+00
         0.00000E+00
         0.00000E+00
         0.00000E+00
         0.00000E+00
         0.00000E+00
         0.00000E+00
         0.00000E+00
         0.00000E+00
         0.00000E+00
         0.00000E+00
         0.00000E+00
         0.00000E+00
         0.00000E+00
         0.00000E+00
         0.00000E+00
         0.00000E+00
         0.00000E+00
         0.00000E+00
         0.00000E+00
         0.00000E+00
         0.00000E+00
         0.00000E+00
         0.00000E+00
         0.00000E+00
         0.00000E+00
         0.00000E+00
         0.00000E+00
         0.00000E+00
         0.00000E+00
         0.00000E+00
         0.00000E+00
         0.00000E+00
         0.00000E+00
         0.00000E+00
         0.00000E+00
         0.00000E+00
         0.00000E+00
         0.00000E+00
         0.00000E+00
         0.00000E+00
         0.00000E+00
         0.00000E+00
         0.00000E+00
         0.00000E+00
         0.00000E+00
         0.00000E+00
         0.00000E+00
         0.00000E+00
         0.00000E+00
         0.00000E+00
         0.00000E+00
         0.00000E+00
         0.00000E+00
         0.00000E+00
         0.00000E+00
         0.00000E+00
         0.00000E+00
         0.00000E+00
         0.00000E+00
         0.00000E+00
         0.00000E+00
         0.00000E+00
         0.00000E+00
         0.00000E+00
         0.00000E+00
         0.00000E+00
         0.00000E+00
         0.00000E+00
         0.00000E+00
         0.00000E+00
         0.00000E+00
         0.00000E+00
         0.00000E+00
         0.00000E+00
         0.00000E+00
         0.00000E+00
         0.00000E+00
         0.00000E+00
         0.00000E+00
         0.00000E+00
         0.00000E+00
         0.00000E+00
         0.00000E+00
         0.00000E+00
         0.00000E+00
         0.00000E+00
         0.00000E+00
         0.00000E+00
         0.00000E+00
         0.00000E+00
         0.00000E+00
         0.00000E+00
         0.00000E+00
         0.00000E+00
         0.00000E+00
         0.00000E+00
         0.00000E+00
         0.00000E+00
         0.00000E+00
         0.00000E+00
         0.00000E+00
         0.00000E+00
         0.00000E+00
         0.00000E+00
         0.00000E+00
         0.00000E+00
         0.00000E+00
         0.00000E+00
         0.00000E+00
         0.00000E+00
         0.00000E+00
         0.00000E+00
         0.00000E+00
         0.00000E+00
         0.00000E+00
         0.00000E+00
         0.00000E+00
         0.00000E+00
         0.00000E+00
         0.00000E+00
         0.00000E+00
         0.00000E+00
         0.00000E+00
         0.00000E+00
         0.00000E+00
         0.00000E+00
         0.00000E+00
         0.00000E+00
         0.00000E+00
         0.00000E+00
         0.00000E+00
         0.00000E+00
         0.00000E+00
         0.00000E+00
         0.00000E+00
         0.00000E+00
         0.00000E+00
         0.00000E+00
         0.00000E+00
         0.00000E+00
         0.00000E+00
         0.00000E+00
         0.00000E+00
         0.00000E+00
         0.00000E+00
         0.00000E+00
         0.00000E+00
         0.00000E+00
         0.00000E+00
         0.00000E+00
         0.00000E+00
         0.00000E+00
         0.00000E+00
         0.00000E+00
         0.00000E+00
         0.00000E+00
         0.00000E+00
         0.00000E+00
         0.00000E+00
         0.00000E+00
         0.00000E+00
         0.00000E+00
         0.00000E+00
         0.00000E+00
         0.00000E+00
         0.00000E+00
         0.00000E+00
         0.00000E+00
         0.00000E+00
         0.00000E+00
         0.00000E+00
         0.00000E+00
         0.00000E+00
         0.00000E+00
         0.00000E+00
         0.00000E+00
         0.00000E+00
         0.00000E+00
         0.00000E+00
         0.00000E+00
         0.00000E+00
         0.00000E+00
         0.00000E+00
         0.00000E+00
         0.00000E+00
         0.00000E+00
         0.00000E+00
         0.00000E+00
         0.00000E+00
         0.00000E+00
         0.00000E+00
         0.00000E+00
         0.00000E+00
         0.00000E+00
         0.00000E+00
         0.00000E+00
         0.00000E+00
         0.00000E+00
         0.00000E+00
         0.00000E+00
         0.00000E+00
         0.00000E+00
         0.00000E+00
         0.00000E+00
         0.00000E+00
         0.00000E+00
         0.00000E+00
         0.00000E+00
         0.00000E+00
         0.00000E+00
         0.00000E+00
         0.00000E+00
         0.00000E+00
         0.00000E+00
         0.00000E+00
         0.00000E+00
         0.00000E+00
         0.00000E+00
         0.00000E+00
         0.00000E+00
         0.00000E+00
         0.00000E+00
         0.00000E+00
         0.00000E+00
         0.00000E+00
         0.00000E+00
         0.00000E+00
         0.00000E+00
         0.00000E+00
         0.00000E+00
         0.00000E+00
         0.00000E+00
         0.00000E+00
         0.00000E+00
         0.00000E+00
         0.00000E+00
         0.00000E+00
         0.00000E+00
         0.00000E+00
         0.00000E+00
         0.00000E+00
         0.00000E+00
         0.00000E+00
         0.00000E+00
         0.00000E+00
         0.00000E+00
         0.00000E+00
         0.00000E+00
         0.00000E+00
         0.00000E+00
         0.00000E+00
         0.00000E+00
         0.00000E+00
         0.00000E+00
         0.00000E+00
         0.00000E+00
         0.00000E+00
         0.00000E+00
         0.00000E+00
         0.00000E+00
         0.00000E+00
         0.00000E+00
         0.00000E+00
         0.00000E+00
         0.00000E+00
         0.00000E+00
         0.00000E+00
         0.00000E+00
         0.00000E+00
         0.00000E+00
         0.00000E+00
         0.00000E+00
         0.00000E+00
         0.00000E+00
         0.00000E+00
         0.00000E+00
         0.00000E+00
         0.00000E+00
         0.00000E+00
         0.00000E+00
         0.00000E+00
         0.00000E+00
         0.00000E+00
         0.00000E+00
         0.00000E+00
         0.00000E+00
         0.00000E+00
         0.00000E+00
         0.00000E+00
         0.00000E+00
         0.00000E+00
         0.00000E+00
         0.00000E+00
         0.00000E+00
         0.00000E+00
         0.00000E+00
         0.00000E+00
         0.00000E+00
         0.00000E+00
         0.00000E+00
         0.00000E+00
         0.00000E+00
         0.00000E+00
         0.00000E+00
         0.00000E+00
         0.00000E+00
         0.00000E+00
         0.00000E+00
         0.00000E+00
         0.00000E+00
         0.00000E+00
         0.00000E+00
         0.00000E+00
         0.00000E+00
         0.00000E+00
         0.00000E+00
         0.00000E+00
         0.00000E+00
         0.00000E+00
         0.00000E+00
         0.00000E+00
         0.00000E+00
         0.00000E+00
         0.00000E+00
         0.00000E+00
         0.00000E+00
         0.00000E+00
         0.00000E+00
         0.00000E+00
         0.00000E+00
         0.00000E+00
         0.00000E+00
         0.00000E+00
         0.00000E+00
         0.00000E+00
         0.00000E+00
         0.00000E+00
         0.00000E+00
         0.00000E+00
         0.00000E+00
         0.00000E+00
         0.00000E+00
         0.00000E+00
         0.00000E+00
         0.00000E+00
         0.00000E+00
         0.00000E+00
         0.00000E+00
         0.00000E+00
         0.00000E+00
         0.00000E+00
         0.00000E+00
         0.00000E+00
         0.00000E+00
         0.00000E+00
         0.00000E+00
         0.00000E+00
         0.00000E+00
         0.00000E+00
         0.00000E+00
         0.00000E+00
         0.00000E+00
         0.00000E+00
         0.00000E+00
         0.00000E+00
         0.00000E+00
         0.00000E+00
         0.00000E+00
         0.00000E+00
         0.00000E+00
         0.00000E+00
         0.00000E+00
         0.00000E+00
         0.00000E+00
         0.00000E+00
         0.00000E+00
         0.00000E+00
         0.00000E+00
         0.00000E+00
         0.00000E+00
         0.00000E+00
         0.00000E+00
         0.00000E+00
         0.00000E+00
         0.00000E+00
         0.00000E+00
         0.00000E+00
         0.00000E+00
         0.00000E+00
         0.00000E+00
         0.00000E+00
         0.00000E+00
         0.00000E+00
         0.00000E+00
         0.00000E+00
         0.00000E+00
         0.00000E+00
         0.00000E+00
         0.00000E+00
         0.00000E+00
         0.00000E+00
         0.00000E+00
         0.00000E+00
         0.00000E+00
         0.00000E+00
         0.00000E+00
         0.00000E+00
         0.00000E+00
         0.00000E+00
         0.00000E+00
         0.00000E+00
         0.00000E+00
         0.00000E+00
         0.00000E+00
         0.00000E+00
         0.00000E+00
         0.00000E+00
         0.00000E+00
         0.00000E+00
         0.00000E+00
         0.00000E+00
         0.00000E+00
         0.00000E+00
         0.00000E+00
         0.00000E+00
         0.00000E+00
         0.00000E+00
         0.00000E+00
         0.00000E+00
         0.00000E+00
         0.00000E+00
         0.00000E+00
         0.00000E+00
         0.00000E+00
         0.00000E+00
         0.00000E+00
         0.00000E+00
         0.00000E+00
         0.00000E+00
         0.00000E+00
         0.00000E+00
         0.00000E+00
         0.00000E+00
         0.00000E+00
         0.00000E+00
         0.00000E+00
         0.00000E+00
         0.00000E+00
         0.00000E+00
         0.00000E+00
         0.00000E+00
         0.00000E+00
         0.00000E+00
         0.00000E+00
         0.00000E+00
         0.00000E+00
         0.00000E+00
         0.00000E+00
         0.00000E+00
         0.00000E+00
         0.00000E+00
         0.00000E+00
         0.00000E+00
         0.00000E+00
         0.00000E+00
         0.00000E+00
         0.00000E+00
         0.00000E+00
         0.00000E+00
         0.00000E+00
         0.00000E+00
         0.00000E+00
         0.00000E+00
         0.00000E+00
         0.00000E+00
         0.00000E+00
         0.00000E+00
         0.00000E+00
         0.00000E+00
         0.00000E+00
         0.00000E+00
         0.00000E+00
         0.00000E+00
         0.00000E+00
         0.00000E+00
         0.00000E+00
         0.00000E+00
         0.00000E+00
         0.00000E+00
         0.00000E+00
         0.00000E+00
         0.00000E+00
         0.00000E+00
         0.00000E+00
         0.00000E+00
         0.00000E+00
         0.00000E+00
         0.00000E+00
         0.00000E+00
         0.00000E+00
         0.00000E+00
         0.00000E+00
  
SCALARS                   max_wave_vel  double 1
LOOKUP_TABLE default
         0.00000E+00
         0.00000E+00
         0.00000E+00
         0.00000E+00
         0.00000E+00
         0.00000E+00
         0.00000E+00
         0.00000E+00
         0.00000E+00
         0.00000E+00
         0.00000E+00
         0.00000E+00
         0.00000E+00
         0.00000E+00
         0.00000E+00
         0.00000E+00
         0.00000E+00
         0.00000E+00
         0.00000E+00
         0.00000E+00
         0.00000E+00
         0.00000E+00
         0.00000E+00
         0.00000E+00
         0.00000E+00
         0.00000E+00
         0.00000E+00
         0.00000E+00
         0.00000E+00
         0.00000E+00
         0.00000E+00
         0.00000E+00
         0.00000E+00
         0.00000E+00
         0.00000E+00
         0.00000E+00
         0.00000E+00
         0.00000E+00
         0.00000E+00
         0.00000E+00
         0.00000E+00
         0.00000E+00
         0.00000E+00
         0.00000E+00
         0.00000E+00
         0.00000E+00
         0.00000E+00
         0.00000E+00
         0.00000E+00
         0.00000E+00
         0.00000E+00
         0.00000E+00
         0.00000E+00
         0.00000E+00
         0.00000E+00
         0.00000E+00
         0.00000E+00
         0.00000E+00
         0.00000E+00
         0.00000E+00
         0.00000E+00
         0.00000E+00
         0.00000E+00
         0.00000E+00
         0.00000E+00
         0.00000E+00
         0.00000E+00
         0.00000E+00
         0.00000E+00
         0.00000E+00
         0.00000E+00
         0.00000E+00
         0.00000E+00
         0.00000E+00
         0.00000E+00
         0.00000E+00
         0.00000E+00
         0.00000E+00
         0.00000E+00
         0.00000E+00
         0.00000E+00
         0.00000E+00
         0.00000E+00
         0.00000E+00
         0.00000E+00
         0.00000E+00
         0.00000E+00
         0.00000E+00
         0.00000E+00
         0.00000E+00
         0.00000E+00
         0.00000E+00
         0.00000E+00
         0.00000E+00
         0.00000E+00
         0.00000E+00
         0.00000E+00
         0.00000E+00
         0.00000E+00
         0.00000E+00
         0.00000E+00
         0.00000E+00
         0.00000E+00
         0.00000E+00
         0.00000E+00
         0.00000E+00
         0.00000E+00
         0.00000E+00
         0.00000E+00
         0.00000E+00
         0.00000E+00
         0.00000E+00
         0.00000E+00
         0.00000E+00
         0.00000E+00
         0.00000E+00
         0.00000E+00
         0.00000E+00
         0.00000E+00
         0.00000E+00
         0.00000E+00
         0.00000E+00
         0.00000E+00
         0.00000E+00
         0.00000E+00
         0.00000E+00
         0.00000E+00
         0.00000E+00
         0.00000E+00
         0.00000E+00
         0.00000E+00
         0.00000E+00
         0.00000E+00
         0.00000E+00
         0.00000E+00
         0.00000E+00
         0.00000E+00
         0.00000E+00
         0.00000E+00
         0.00000E+00
         0.00000E+00
         0.00000E+00
         0.00000E+00
         0.00000E+00
         0.00000E+00
         0.00000E+00
         0.00000E+00
         0.00000E+00
         0.00000E+00
         0.00000E+00
         0.00000E+00
         0.00000E+00
         0.00000E+00
         0.00000E+00
         0.00000E+00
         0.00000E+00
         0.00000E+00
         0.00000E+00
         0.00000E+00
         0.00000E+00
         0.00000E+00
         0.00000E+00
         0.00000E+00
         0.00000E+00
         0.00000E+00
         0.00000E+00
         0.00000E+00
         0.00000E+00
         0.00000E+00
         0.00000E+00
         0.00000E+00
         0.00000E+00
         0.00000E+00
         0.00000E+00
         0.00000E+00
         0.00000E+00
         0.00000E+00
         0.00000E+00
         0.00000E+00
         0.00000E+00
         0.00000E+00
         0.00000E+00
         0.00000E+00
         0.00000E+00
         0.00000E+00
         0.00000E+00
         0.00000E+00
         0.00000E+00
         0.00000E+00
         0.00000E+00
         0.00000E+00
         0.00000E+00
         0.00000E+00
         0.00000E+00
         0.00000E+00
         0.00000E+00
         0.00000E+00
         0.00000E+00
         0.00000E+00
         0.00000E+00
         0.00000E+00
         0.00000E+00
         0.00000E+00
         0.00000E+00
         0.00000E+00
         0.00000E+00
         0.00000E+00
         0.00000E+00
         0.00000E+00
         0.00000E+00
         0.00000E+00
         0.00000E+00
         0.00000E+00
         0.00000E+00
         0.00000E+00
         0.00000E+00
         0.00000E+00
         0.00000E+00
         0.00000E+00
         0.00000E+00
         0.00000E+00
         0.00000E+00
         0.00000E+00
         0.00000E+00
         0.00000E+00
         0.00000E+00
         0.00000E+00
         0.00000E+00
         0.00000E+00
         0.00000E+00
         0.00000E+00
         0.00000E+00
         0.00000E+00
         0.00000E+00
         0.00000E+00
         0.00000E+00
         0.00000E+00
         0.00000E+00
         0.00000E+00
         0.00000E+00
         0.00000E+00
         0.00000E+00
         0.00000E+00
         0.00000E+00
         0.00000E+00
         0.00000E+00
         0.00000E+00
         0.00000E+00
         0.00000E+00
         0.00000E+00
         0.00000E+00
         0.00000E+00
         0.00000E+00
         0.00000E+00
         0.00000E+00
         0.00000E+00
         0.00000E+00
         0.00000E+00
         0.00000E+00
         0.00000E+00
         0.00000E+00
         0.00000E+00
         0.00000E+00
         0.00000E+00
         0.00000E+00
         0.00000E+00
         0.00000E+00
         0.00000E+00
         0.00000E+00
         0.00000E+00
         0.00000E+00
         0.00000E+00
         0.00000E+00
         0.00000E+00
         0.00000E+00
         0.00000E+00
         0.00000E+00
         0.00000E+00
         0.00000E+00
         0.00000E+00
         0.00000E+00
         0.00000E+00
         0.00000E+00
         0.00000E+00
         0.00000E+00
         0.00000E+00
         0.00000E+00
         0.00000E+00
         0.00000E+00
         0.00000E+00
         0.00000E+00
         0.00000E+00
         0.00000E+00
         0.00000E+00
         0.00000E+00
         0.00000E+00
         0.00000E+00
         0.00000E+00
         0.00000E+00
         0.00000E+00
         0.00000E+00
         0.00000E+00
         0.00000E+00
         0.00000E+00
         0.00000E+00
         0.00000E+00
         0.00000E+00
         0.00000E+00
         0.00000E+00
         0.00000E+00
         0.00000E+00
         0.00000E+00
         0.00000E+00
         0.00000E+00
         0.00000E+00
         0.00000E+00
         0.00000E+00
         0.00000E+00
         0.00000E+00
         0.00000E+00
         0.00000E+00
         0.00000E+00
         0.00000E+00
         0.00000E+00
         0.00000E+00
         0.00000E+00
         0.00000E+00
         0.00000E+00
         0.00000E+00
         0.00000E+00
         0.00000E+00
         0.00000E+00
         0.00000E+00
         0.00000E+00
         0.00000E+00
         0.00000E+00
         0.00000E+00
         0.00000E+00
         0.00000E+00
         0.00000E+00
         0.00000E+00
         0.00000E+00
         0.00000E+00
         0.00000E+00
         0.00000E+00
         0.00000E+00
         0.00000E+00
         0.00000E+00
         0.00000E+00
         0.00000E+00
         0.00000E+00
         0.00000E+00
         0.00000E+00
         0.00000E+00
         0.00000E+00
         0.00000E+00
         0.00000E+00
         0.00000E+00
         0.00000E+00
         0.00000E+00
         0.00000E+00
         0.00000E+00
         0.00000E+00
         0.00000E+00
         0.00000E+00
         0.00000E+00
         0.00000E+00
         0.00000E+00
         0.00000E+00
         0.00000E+00
         0.00000E+00
         0.00000E+00
         0.00000E+00
         0.00000E+00
         0.00000E+00
         0.00000E+00
         0.00000E+00
         0.00000E+00
         0.00000E+00
         0.00000E+00
         0.00000E+00
         0.00000E+00
         0.00000E+00
         0.00000E+00
         0.00000E+00
         0.00000E+00
         0.00000E+00
         0.00000E+00
         0.00000E+00
         0.00000E+00
         0.00000E+00
         0.00000E+00
         0.00000E+00
         0.00000E+00
         0.00000E+00
         0.00000E+00
         0.00000E+00
         0.00000E+00
         0.00000E+00
         0.00000E+00
         0.00000E+00
         0.00000E+00
         0.00000E+00
         0.00000E+00
         0.00000E+00
         0.00000E+00
         0.00000E+00
         0.00000E+00
         0.00000E+00
         0.00000E+00
         0.00000E+00
         0.00000E+00
         0.00000E+00
         0.00000E+00
         0.00000E+00
         0.00000E+00
         0.00000E+00
         0.00000E+00
         0.00000E+00
         0.00000E+00
         0.00000E+00
         0.00000E+00
         0.00000E+00
         0.00000E+00
         0.00000E+00
         0.00000E+00
         0.00000E+00
         0.00000E+00
         0.00000E+00
         0.00000E+00
         0.00000E+00
         0.00000E+00
         0.00000E+00
         0.00000E+00
         0.00000E+00
         0.00000E+00
         0.00000E+00
         0.00000E+00
         0.00000E+00
         0.00000E+00
         0.00000E+00
         0.00000E+00
         0.00000E+00
         0.00000E+00
         0.00000E+00
         0.00000E+00
         0.00000E+00
         0.00000E+00
         0.00000E+00
         0.00000E+00
         0.00000E+00
         0.00000E+00
         0.00000E+00
         0.00000E+00
         0.00000E+00
         0.00000E+00
         0.00000E+00
         0.00000E+00
         0.00000E+00
         0.00000E+00
         0.00000E+00
         0.00000E+00
         0.00000E+00
         0.00000E+00
         0.00000E+00
         0.00000E+00
         0.00000E+00
         0.00000E+00
         0.00000E+00
         0.00000E+00
         0.00000E+00
         0.00000E+00
         0.00000E+00
         0.00000E+00
         0.00000E+00
         0.00000E+00
         0.00000E+00
         0.00000E+00
         0.00000E+00
         0.00000E+00
         0.00000E+00
         0.00000E+00
         0.00000E+00
         0.00000E+00
         0.00000E+00
         0.00000E+00
         0.00000E+00
         0.00000E+00
         0.00000E+00
         0.00000E+00
         0.00000E+00
         0.00000E+00
         0.00000E+00
         0.00000E+00
         0.00000E+00
         0.00000E+00
         0.00000E+00
         0.00000E+00
         0.00000E+00
         0.00000E+00
         0.00000E+00
         0.00000E+00
         0.00000E+00
         0.00000E+00
         0.00000E+00
         0.00000E+00
         0.00000E+00
         0.00000E+00
         0.00000E+00
         0.00000E+00
         0.00000E+00
         0.00000E+00
         0.00000E+00
         0.00000E+00
         0.00000E+00
         0.00000E+00
         0.00000E+00
         0.00000E+00
         0.00000E+00
         0.00000E+00
         0.00000E+00
         0.00000E+00
         0.00000E+00
         0.00000E+00
         0.00000E+00
         0.00000E+00
         0.00000E+00
         0.00000E+00
         0.00000E+00
         0.00000E+00
         0.00000E+00
         0.00000E+00
         0.00000E+00
         0.00000E+00
         0.00000E+00
         0.00000E+00
         0.00000E+00
         0.00000E+00
         0.00000E+00
         0.00000E+00
         0.00000E+00
         0.00000E+00
         0.00000E+00
         0.00000E+00
         0.00000E+00
         0.00000E+00
         0.00000E+00
         0.00000E+00
         0.00000E+00
         0.00000E+00
         0.00000E+00
         0.00000E+00
         0.00000E+00
         0.00000E+00
         0.00000E+00
         0.00000E+00
         0.00000E+00
         0.00000E+00
         0.00000E+00
         0.00000E+00
         0.00000E+00
         0.00000E+00
         0.00000E+00
         0.00000E+00
         0.00000E+00
         0.00000E+00
         0.00000E+00
         0.00000E+00
         0.00000E+00
         0.00000E+00
         0.00000E+00
         0.00000E+00
         0.00000E+00
         0.00000E+00
         0.00000E+00
         0.00000E+00
         0.00000E+00
         0.00000E+00
         0.00000E+00
         0.00000E+00
         0.00000E+00
         0.00000E+00
         0.00000E+00
         0.00000E+00
         0.00000E+00
         0.00000E+00
         0.00000E+00
         0.00000E+00
         0.00000E+00
         0.00000E+00
         0.00000E+00
         0.00000E+00
         0.00000E+00
         0.00000E+00
         0.00000E+00
         0.00000E+00
         0.00000E+00
         0.00000E+00
         0.00000E+00
         0.00000E+00
         0.00000E+00
         0.00000E+00
         0.00000E+00
         0.00000E+00
         0.00000E+00
         0.00000E+00
         0.00000E+00
         0.00000E+00
         0.00000E+00
         0.00000E+00
         0.00000E+00
         0.00000E+00
         0.00000E+00
         0.00000E+00
         0.00000E+00
         0.00000E+00
         0.00000E+00
         0.00000E+00
         0.00000E+00
         0.00000E+00
         0.00000E+00
         0.00000E+00
         0.00000E+00
         0.00000E+00
         0.00000E+00
         0.00000E+00
         0.00000E+00
         0.00000E+00
         0.00000E+00
         0.00000E+00
         0.00000E+00
         0.00000E+00
         0.00000E+00
         0.00000E+00
         0.00000E+00
         0.00000E+00
         0.00000E+00
         0.00000E+00
         0.00000E+00
         0.00000E+00
         0.00000E+00
         0.00000E+00
         0.00000E+00
         0.00000E+00
         0.00000E+00
         0.00000E+00
         0.00000E+00
         0.00000E+00
         0.00000E+00
         0.00000E+00
         0.00000E+00
         0.00000E+00
         0.00000E+00
         0.00000E+00
         0.00000E+00
         0.00000E+00
         0.00000E+00
         0.00000E+00
         0.00000E+00
         0.00000E+00
         0.00000E+00
         0.00000E+00
         0.00000E+00
         0.00000E+00
         0.00000E+00
         0.00000E+00
         0.00000E+00
         0.00000E+00
         0.00000E+00
         0.00000E+00
         0.00000E+00
         0.00000E+00
         0.00000E+00
         0.00000E+00
         0.00000E+00
         0.00000E+00
         0.00000E+00
         0.00000E+00
         0.00000E+00
         0.00000E+00
         0.00000E+00
         0.00000E+00
         0.00000E+00
         0.00000E+00
         0.00000E+00
         0.00000E+00
         0.00000E+00
         0.00000E+00
         0.00000E+00
         0.00000E+00
         0.00000E+00
         0.00000E+00
         0.00000E+00
         0.00000E+00
         0.00000E+00
         0.00000E+00
         0.00000E+00
         0.00000E+00
         0.00000E+00
         0.00000E+00
         0.00000E+00
         0.00000E+00
         0.00000E+00
         0.00000E+00
         0.00000E+00
         0.00000E+00
         0.00000E+00
         0.00000E+00
         0.00000E+00
         0.00000E+00
         0.00000E+00
         0.00000E+00
         0.00000E+00
         0.00000E+00
         0.00000E+00
         0.00000E+00
         0.00000E+00
         0.00000E+00
         0.00000E+00
         0.00000E+00
         0.00000E+00
         0.00000E+00
         0.00000E+00
         0.00000E+00
         0.00000E+00
         0.00000E+00
         0.00000E+00
         0.00000E+00
         0.00000E+00
         0.00000E+00
         0.00000E+00
         0.00000E+00
         0.00000E+00
         0.00000E+00
         0.00000E+00
         0.00000E+00
         0.00000E+00
         0.00000E+00
         0.00000E+00
         0.00000E+00
         0.00000E+00
         0.00000E+00
         0.00000E+00
         0.00000E+00
         0.00000E+00
         0.00000E+00
         0.00000E+00
         0.00000E+00
         0.00000E+00
         0.00000E+00
         0.00000E+00
         0.00000E+00
         0.00000E+00
         0.00000E+00
         0.00000E+00
         0.00000E+00
         0.00000E+00
         0.00000E+00
         0.00000E+00
         0.00000E+00
         0.00000E+00
         0.00000E+00
         0.00000E+00
         0.00000E+00
         0.00000E+00
         0.00000E+00
         0.00000E+00
         0.00000E+00
         0.00000E+00
         0.00000E+00
         0.00000E+00
         0.00000E+00
         0.00000E+00
         0.00000E+00
         0.00000E+00
         0.00000E+00
         0.00000E+00
         0.00000E+00
         0.00000E+00
         0.00000E+00
         0.00000E+00
         0.00000E+00
         0.00000E+00
         0.00000E+00
         0.00000E+00
         0.00000E+00
         0.00000E+00
         0.00000E+00
         0.00000E+00
         0.00000E+00
         0.00000E+00
         0.00000E+00
         0.00000E+00
         0.00000E+00
         0.00000E+00
         0.00000E+00
         0.00000E+00
         0.00000E+00
         0.00000E+00
         0.00000E+00
         0.00000E+00
         0.00000E+00
         0.00000E+00
         0.00000E+00
         0.00000E+00
         0.00000E+00
         0.00000E+00
         0.00000E+00
         0.00000E+00
         0.00000E+00
         0.00000E+00
         0.00000E+00
         0.00000E+00
         0.00000E+00
         0.00000E+00
         0.00000E+00
         0.00000E+00
         0.00000E+00
         0.00000E+00
         0.00000E+00
         0.00000E+00
         0.00000E+00
         0.00000E+00
         0.00000E+00
         0.00000E+00
         0.00000E+00
         0.00000E+00
         0.00000E+00
         0.00000E+00
         0.00000E+00
         0.00000E+00
         0.00000E+00
         0.00000E+00
         0.00000E+00
         0.00000E+00
         0.00000E+00
         0.00000E+00
         0.00000E+00
         0.00000E+00
         0.00000E+00
         0.00000E+00
         0.00000E+00
         0.00000E+00
         0.00000E+00
         0.00000E+00
         0.00000E+00
         0.00000E+00
         0.00000E+00
         0.00000E+00
         0.00000E+00
         0.00000E+00
         0.00000E+00
         0.00000E+00
         0.00000E+00
         0.00000E+00
         0.00000E+00
         0.00000E+00
         0.00000E+00
         0.00000E+00
         0.00000E+00
         0.00000E+00
         0.00000E+00
         0.00000E+00
         0.00000E+00
         0.00000E+00
         0.00000E+00
         0.00000E+00
         0.00000E+00
         0.00000E+00
         0.00000E+00
         0.00000E+00
         0.00000E+00
         0.00000E+00
         0.00000E+00
         0.00000E+00
         0.00000E+00
         0.00000E+00
         0.00000E+00
         0.00000E+00
         0.00000E+00
         0.00000E+00
         0.00000E+00
         0.00000E+00
         0.00000E+00
         0.00000E+00
         0.00000E+00
         0.00000E+00
         0.00000E+00
         0.00000E+00
         0.00000E+00
         0.00000E+00
         0.00000E+00
         0.00000E+00
         0.00000E+00
         0.00000E+00
         0.00000E+00
         0.00000E+00
         0.00000E+00
         0.00000E+00
         0.00000E+00
         0.00000E+00
         0.00000E+00
         0.00000E+00
         0.00000E+00
         0.00000E+00
         0.00000E+00
         0.00000E+00
         0.00000E+00
         0.00000E+00
         0.00000E+00
         0.00000E+00
         0.00000E+00
         0.00000E+00
         0.00000E+00
         0.00000E+00
         0.00000E+00
         0.00000E+00
         0.00000E+00
         0.00000E+00
         0.00000E+00
         0.00000E+00
         0.00000E+00
         0.00000E+00
         0.00000E+00
         0.00000E+00
         0.00000E+00
         0.00000E+00
         0.00000E+00
         0.00000E+00
         0.00000E+00
         0.00000E+00
         0.00000E+00
         0.00000E+00
         0.00000E+00
         0.00000E+00
         0.00000E+00
         0.00000E+00
         0.00000E+00
         0.00000E+00
         0.00000E+00
         0.00000E+00
         0.00000E+00
         0.00000E+00
         0.00000E+00
         0.00000E+00
         0.00000E+00
         0.00000E+00
         0.00000E+00
         0.00000E+00
         0.00000E+00
         0.00000E+00
         0.00000E+00
         0.00000E+00
         0.00000E+00
         0.00000E+00
         0.00000E+00
         0.00000E+00
         0.00000E+00
         0.00000E+00
         0.00000E+00
         0.00000E+00
         0.00000E+00
         0.00000E+00
         0.00000E+00
         0.00000E+00
         0.00000E+00
         0.00000E+00
         0.00000E+00
         0.00000E+00
         0.00000E+00
         0.00000E+00
         0.00000E+00
         0.00000E+00
         0.00000E+00
         0.00000E+00
         0.00000E+00
         0.00000E+00
         0.00000E+00
         0.00000E+00
         0.00000E+00
         0.00000E+00
         0.00000E+00
         0.00000E+00
         0.00000E+00
         0.00000E+00
         0.00000E+00
         0.00000E+00
         0.00000E+00
         0.00000E+00
         0.00000E+00
         0.00000E+00
         0.00000E+00
         0.00000E+00
         0.00000E+00
         0.00000E+00
         0.00000E+00
         0.00000E+00
         0.00000E+00
         0.00000E+00
         0.00000E+00
         0.00000E+00
         0.00000E+00
         0.00000E+00
         0.00000E+00
         0.00000E+00
         0.00000E+00
         0.00000E+00
         0.00000E+00
         0.00000E+00
         0.00000E+00
         0.00000E+00
         0.00000E+00
         0.00000E+00
         0.00000E+00
         0.00000E+00
         0.00000E+00
         0.00000E+00
         0.00000E+00
         0.00000E+00
         0.00000E+00
         0.00000E+00
         0.00000E+00
         0.00000E+00
         0.00000E+00
         0.00000E+00
         0.00000E+00
         0.00000E+00
         0.00000E+00
         0.00000E+00
         0.00000E+00
         0.00000E+00
         0.00000E+00
         0.00000E+00
         0.00000E+00
         0.00000E+00
         0.00000E+00
         0.00000E+00
         0.00000E+00
         0.00000E+00
         0.00000E+00
         0.00000E+00
         0.00000E+00
         0.00000E+00
         0.00000E+00
         0.00000E+00
         0.00000E+00
         0.00000E+00
         0.00000E+00
         0.00000E+00
         0.00000E+00
         0.00000E+00
         0.00000E+00
         0.00000E+00
         0.00000E+00
         0.00000E+00
         0.00000E+00
         0.00000E+00
         0.00000E+00
         0.00000E+00
         0.00000E+00
         0.00000E+00
         0.00000E+00
         0.00000E+00
         0.00000E+00
         0.00000E+00
         0.00000E+00
         0.00000E+00
         0.00000E+00
         0.00000E+00
         0.00000E+00
         0.00000E+00
         0.00000E+00
         0.00000E+00
         0.00000E+00
         0.00000E+00
         0.00000E+00
         0.00000E+00
         0.00000E+00
         0.00000E+00
         0.00000E+00
         0.00000E+00
         0.00000E+00
         0.00000E+00
         0.00000E+00
         0.00000E+00
         0.00000E+00
         0.00000E+00
         0.00000E+00
         0.00000E+00
         0.00000E+00
         0.00000E+00
         0.00000E+00
         0.00000E+00
         0.00000E+00
         0.00000E+00
         0.00000E+00
         0.00000E+00
         0.00000E+00
         0.00000E+00
         0.00000E+00
         0.00000E+00
         0.00000E+00
         0.00000E+00
         0.00000E+00
         0.00000E+00
         0.00000E+00
         0.00000E+00
         0.00000E+00
         0.00000E+00
         0.00000E+00
         0.00000E+00
         0.00000E+00
         0.00000E+00
         0.00000E+00
         0.00000E+00
         0.00000E+00
         0.00000E+00
         0.00000E+00
         0.00000E+00
         0.00000E+00
         0.00000E+00
         0.00000E+00
         0.00000E+00
         0.00000E+00
         0.00000E+00
         0.00000E+00
         0.00000E+00
         0.00000E+00
         0.00000E+00
         0.00000E+00
         0.00000E+00
         0.00000E+00
         0.00000E+00
         0.00000E+00
         0.00000E+00
         0.00000E+00
         0.00000E+00
         0.00000E+00
         0.00000E+00
         0.00000E+00
         0.00000E+00
         0.00000E+00
         0.00000E+00
         0.00000E+00
         0.00000E+00
         0.00000E+00
         0.00000E+00
         0.00000E+00
         0.00000E+00
         0.00000E+00
         0.00000E+00
         0.00000E+00
         0.00000E+00
         0.00000E+00
         0.00000E+00
         0.00000E+00
         0.00000E+00
         0.00000E+00
         0.00000E+00
         0.00000E+00
         0.00000E+00
         0.00000E+00
         0.00000E+00
         0.00000E+00
         0.00000E+00
         0.00000E+00
         0.00000E+00
         0.00000E+00
         0.00000E+00
         0.00000E+00
         0.00000E+00
         0.00000E+00
         0.00000E+00
         0.00000E+00
         0.00000E+00
         0.00000E+00
         0.00000E+00
         0.00000E+00
         0.00000E+00
         0.00000E+00
         0.00000E+00
         0.00000E+00
         0.00000E+00
         0.00000E+00
         0.00000E+00
         0.00000E+00
         0.00000E+00
         0.00000E+00
         0.00000E+00
         0.00000E+00
         0.00000E+00
         0.00000E+00
         0.00000E+00
         0.00000E+00
         0.00000E+00
         0.00000E+00
         0.00000E+00
         0.00000E+00
         0.00000E+00
         0.00000E+00
         0.00000E+00
         0.00000E+00
         0.00000E+00
         0.00000E+00
         0.00000E+00
         0.00000E+00
         0.00000E+00
         0.00000E+00
         0.00000E+00
         0.00000E+00
         0.00000E+00
         0.00000E+00
         0.00000E+00
         0.00000E+00
         0.00000E+00
         0.00000E+00
         0.00000E+00
         0.00000E+00
         0.00000E+00
         0.00000E+00
         0.00000E+00
         0.00000E+00
         0.00000E+00
         0.00000E+00
         0.00000E+00
         0.00000E+00
         0.00000E+00
         0.00000E+00
         0.00000E+00
         0.00000E+00
         0.00000E+00
         0.00000E+00
         0.00000E+00
         0.00000E+00
         0.00000E+00
         0.00000E+00
         0.00000E+00
         0.00000E+00
         0.00000E+00
         0.00000E+00
         0.00000E+00
         0.00000E+00
         0.00000E+00
         0.00000E+00
         0.00000E+00
         0.00000E+00
         0.00000E+00
         0.00000E+00
         0.00000E+00
         0.00000E+00
         0.00000E+00
         0.00000E+00
         0.00000E+00
         0.00000E+00
         0.00000E+00
         0.00000E+00
         0.00000E+00
         0.00000E+00
         0.00000E+00
         0.00000E+00
         0.00000E+00
         0.00000E+00
         0.00000E+00
         0.00000E+00
         0.00000E+00
         0.00000E+00
         0.00000E+00
         0.00000E+00
         0.00000E+00
         0.00000E+00
         0.00000E+00
         0.00000E+00
         0.00000E+00
         0.00000E+00
         0.00000E+00
         0.00000E+00
         0.00000E+00
         0.00000E+00
         0.00000E+00
         0.00000E+00
         0.00000E+00
         0.00000E+00
         0.00000E+00
         0.00000E+00
         0.00000E+00
         0.00000E+00
         0.00000E+00
         0.00000E+00
         0.00000E+00
         0.00000E+00
         0.00000E+00
         0.00000E+00
         0.00000E+00
         0.00000E+00
         0.00000E+00
         0.00000E+00
         0.00000E+00
         0.00000E+00
         0.00000E+00
         0.00000E+00
         0.00000E+00
         0.00000E+00
         0.00000E+00
         0.00000E+00
         0.00000E+00
         0.00000E+00
         0.00000E+00
         0.00000E+00
         0.00000E+00
         0.00000E+00
         0.00000E+00
         0.00000E+00
         0.00000E+00
         0.00000E+00
         0.00000E+00
         0.00000E+00
         0.00000E+00
         0.00000E+00
         0.00000E+00
         0.00000E+00
         0.00000E+00
         0.00000E+00
         0.00000E+00
         0.00000E+00
         0.00000E+00
         0.00000E+00
         0.00000E+00
         0.00000E+00
         0.00000E+00
         0.00000E+00
         0.00000E+00
         0.00000E+00
         0.00000E+00
         0.00000E+00
         0.00000E+00
         0.00000E+00
         0.00000E+00
         0.00000E+00
         0.00000E+00
         0.00000E+00
         0.00000E+00
         0.00000E+00
         0.00000E+00
         0.00000E+00
         0.00000E+00
         0.00000E+00
         0.00000E+00
         0.00000E+00
         0.00000E+00
         0.00000E+00
         0.00000E+00
         0.00000E+00
         0.00000E+00
         0.00000E+00
         0.00000E+00
         0.00000E+00
         0.00000E+00
         0.00000E+00
         0.00000E+00
         0.00000E+00
         0.00000E+00
         0.00000E+00
         0.00000E+00
         0.00000E+00
         0.00000E+00
         0.00000E+00
         0.00000E+00
         0.00000E+00
         0.00000E+00
         0.00000E+00
         0.00000E+00
         0.00000E+00
         0.00000E+00
         0.00000E+00
         0.00000E+00
         0.00000E+00
         0.00000E+00
         0.00000E+00
         0.00000E+00
         0.00000E+00
         0.00000E+00
         0.00000E+00
         0.00000E+00
         0.00000E+00
         0.00000E+00
         0.00000E+00
         0.00000E+00
         0.00000E+00
         0.00000E+00
         0.00000E+00
         0.00000E+00
         0.00000E+00
         0.00000E+00
         0.00000E+00
         0.00000E+00
         0.00000E+00
         0.00000E+00
         0.00000E+00
         0.00000E+00
         0.00000E+00
         0.00000E+00
         0.00000E+00
         0.00000E+00
         0.00000E+00
         0.00000E+00
         0.00000E+00
         0.00000E+00
         0.00000E+00
         0.00000E+00
         0.00000E+00
         0.00000E+00
         0.00000E+00
         0.00000E+00
         0.00000E+00
         0.00000E+00
         0.00000E+00
         0.00000E+00
         0.00000E+00
         0.00000E+00
         0.00000E+00
         0.00000E+00
         0.00000E+00
         0.00000E+00
         0.00000E+00
         0.00000E+00
         0.00000E+00
         0.00000E+00
         0.00000E+00
         0.00000E+00
         0.00000E+00
         0.00000E+00
         0.00000E+00
         0.00000E+00
         0.00000E+00
         0.00000E+00
         0.00000E+00
         0.00000E+00
         0.00000E+00
         0.00000E+00
         0.00000E+00
         0.00000E+00
         0.00000E+00
         0.00000E+00
         0.00000E+00
         0.00000E+00
         0.00000E+00
         0.00000E+00
         0.00000E+00
         0.00000E+00
         0.00000E+00
         0.00000E+00
         0.00000E+00
         0.00000E+00
         0.00000E+00
         0.00000E+00
         0.00000E+00
         0.00000E+00
         0.00000E+00
         0.00000E+00
         0.00000E+00
         0.00000E+00
         0.00000E+00
         0.00000E+00
         0.00000E+00
         0.00000E+00
         0.00000E+00
         0.00000E+00
         0.00000E+00
         0.00000E+00
         0.00000E+00
         0.00000E+00
         0.00000E+00
         0.00000E+00
         0.00000E+00
         0.00000E+00
         0.00000E+00
         0.00000E+00
         0.00000E+00
         0.00000E+00
         0.00000E+00
         0.00000E+00
         0.00000E+00
         0.00000E+00
         0.00000E+00
         0.00000E+00
         0.00000E+00
         0.00000E+00
         0.00000E+00
         0.00000E+00
         0.00000E+00
         0.00000E+00
         0.00000E+00
         0.00000E+00
         0.00000E+00
         0.00000E+00
         0.00000E+00
         0.00000E+00
         0.00000E+00
         0.00000E+00
         0.00000E+00
         0.00000E+00
         0.00000E+00
         0.00000E+00
         0.00000E+00
         0.00000E+00
         0.00000E+00
         0.00000E+00
         0.00000E+00
         0.00000E+00
         0.00000E+00
         0.00000E+00
         0.00000E+00
         0.00000E+00
         0.00000E+00
         0.00000E+00
         0.00000E+00
         0.00000E+00
         0.00000E+00
         0.00000E+00
         0.00000E+00
         0.00000E+00
         0.00000E+00
         0.00000E+00
         0.00000E+00
         0.00000E+00
         0.00000E+00
         0.00000E+00
         0.00000E+00
         0.00000E+00
         0.00000E+00
         0.00000E+00
         0.00000E+00
         0.00000E+00
         0.00000E+00
         0.00000E+00
         0.00000E+00
         0.00000E+00
         0.00000E+00
         0.00000E+00
         0.00000E+00
         0.00000E+00
         0.00000E+00
         0.00000E+00
         0.00000E+00
         0.00000E+00
         0.00000E+00
         0.00000E+00
         0.00000E+00
         0.00000E+00
         0.00000E+00
         0.00000E+00
         0.00000E+00
         0.00000E+00
         0.00000E+00
         0.00000E+00
         0.00000E+00
         0.00000E+00
         0.00000E+00
         0.00000E+00
         0.00000E+00
         0.00000E+00
         0.00000E+00
         0.00000E+00
         0.00000E+00
         0.00000E+00
         0.00000E+00
         0.00000E+00
         0.00000E+00
         0.00000E+00
         0.00000E+00
         0.00000E+00
         0.00000E+00
         0.00000E+00
         0.00000E+00
         0.00000E+00
         0.00000E+00
         0.00000E+00
         0.00000E+00
         0.00000E+00
         0.00000E+00
         0.00000E+00
         0.00000E+00
         0.00000E+00
         0.00000E+00
         0.00000E+00
         0.00000E+00
         0.00000E+00
         0.00000E+00
         0.00000E+00
         0.00000E+00
         0.00000E+00
         0.00000E+00
         0.00000E+00
         0.00000E+00
         0.00000E+00
         0.00000E+00
         0.00000E+00
         0.00000E+00
         0.00000E+00
         0.00000E+00
         0.00000E+00
         0.00000E+00
         0.00000E+00
         0.00000E+00
         0.00000E+00
         0.00000E+00
         0.00000E+00
         0.00000E+00
         0.00000E+00
         0.00000E+00
         0.00000E+00
         0.00000E+00
         0.00000E+00
         0.00000E+00
         0.00000E+00
         0.00000E+00
         0.00000E+00
         0.00000E+00
         0.00000E+00
         0.00000E+00
         0.00000E+00
         0.00000E+00
         0.00000E+00
         0.00000E+00
         0.00000E+00
         0.00000E+00
         0.00000E+00
         0.00000E+00
         0.00000E+00
         0.00000E+00
         0.00000E+00
         0.00000E+00
         0.00000E+00
         0.00000E+00
         0.00000E+00
         0.00000E+00
         0.00000E+00
         0.00000E+00
         0.00000E+00
         0.00000E+00
         0.00000E+00
         0.00000E+00
         0.00000E+00
         0.00000E+00
         0.00000E+00
         0.00000E+00
         0.00000E+00
         0.00000E+00
         0.00000E+00
         0.00000E+00
         0.00000E+00
         0.00000E+00
         0.00000E+00
         0.00000E+00
         0.00000E+00
         0.00000E+00
         0.00000E+00
         0.00000E+00
         0.00000E+00
         0.00000E+00
         0.00000E+00
         0.00000E+00
         0.00000E+00
         0.00000E+00
         0.00000E+00
         0.00000E+00
         0.00000E+00
         0.00000E+00
         0.00000E+00
         0.00000E+00
         0.00000E+00
         0.00000E+00
         0.00000E+00
         0.00000E+00
         0.00000E+00
         0.00000E+00
         0.00000E+00
         0.00000E+00
         0.00000E+00
         0.00000E+00
         0.00000E+00
         0.00000E+00
         0.00000E+00
         0.00000E+00
         0.00000E+00
         0.00000E+00
         0.00000E+00
         0.00000E+00
         0.00000E+00
         0.00000E+00
         0.00000E+00
         0.00000E+00
         0.00000E+00
         0.00000E+00
         0.00000E+00
         0.00000E+00
         0.00000E+00
         0.00000E+00
         0.00000E+00
         0.00000E+00
         0.00000E+00
         0.00000E+00
         0.00000E+00
         0.00000E+00
         0.00000E+00
         0.00000E+00
         0.00000E+00
         0.00000E+00
         0.00000E+00
         0.00000E+00
         0.00000E+00
         0.00000E+00
         0.00000E+00
         0.00000E+00
         0.00000E+00
         0.00000E+00
         0.00000E+00
         0.00000E+00
         0.00000E+00
         0.00000E+00
         0.00000E+00
         0.00000E+00
         0.00000E+00
         0.00000E+00
         0.00000E+00
         0.00000E+00
         0.00000E+00
         0.00000E+00
         0.00000E+00
         0.00000E+00
         0.00000E+00
         0.00000E+00
         0.00000E+00
         0.00000E+00
         0.00000E+00
         0.00000E+00
         0.00000E+00
         0.00000E+00
         0.00000E+00
         0.00000E+00
         0.00000E+00
         0.00000E+00
         0.00000E+00
         0.00000E+00
         0.00000E+00
         0.00000E+00
         0.00000E+00
         0.00000E+00
         0.00000E+00
         0.00000E+00
         0.00000E+00
         0.00000E+00
         0.00000E+00
         0.00000E+00
         0.00000E+00
         0.00000E+00
         0.00000E+00
         0.00000E+00
         0.00000E+00
         0.00000E+00
         0.00000E+00
         0.00000E+00
         0.00000E+00
         0.00000E+00
         0.00000E+00
         0.00000E+00
         0.00000E+00
         0.00000E+00
         0.00000E+00
         0.00000E+00
         0.00000E+00
         0.00000E+00
         0.00000E+00
         0.00000E+00
         0.00000E+00
         0.00000E+00
         0.00000E+00
         0.00000E+00
         0.00000E+00
         0.00000E+00
         0.00000E+00
         0.00000E+00
         0.00000E+00
         0.00000E+00
         0.00000E+00
         0.00000E+00
         0.00000E+00
         0.00000E+00
         0.00000E+00
         0.00000E+00
         0.00000E+00
         0.00000E+00
         0.00000E+00
         0.00000E+00
         0.00000E+00
         0.00000E+00
         0.00000E+00
         0.00000E+00
         0.00000E+00
         0.00000E+00
         0.00000E+00
         0.00000E+00
         0.00000E+00
         0.00000E+00
         0.00000E+00
         0.00000E+00
         0.00000E+00
         0.00000E+00
         0.00000E+00
         0.00000E+00
         0.00000E+00
         0.00000E+00
         0.00000E+00
         0.00000E+00
         0.00000E+00
         0.00000E+00
         0.00000E+00
         0.00000E+00
         0.00000E+00
         0.00000E+00
         0.00000E+00
         0.00000E+00
         0.00000E+00
         0.00000E+00
         0.00000E+00
         0.00000E+00
         0.00000E+00
         0.00000E+00
         0.00000E+00
         0.00000E+00
         0.00000E+00
         0.00000E+00
         0.00000E+00
         0.00000E+00
         0.00000E+00
         0.00000E+00
         0.00000E+00
         0.00000E+00
         0.00000E+00
         0.00000E+00
         0.00000E+00
         0.00000E+00
         0.00000E+00
         0.00000E+00
         0.00000E+00
         0.00000E+00
         0.00000E+00
         0.00000E+00
         0.00000E+00
         0.00000E+00
         0.00000E+00
         0.00000E+00
         0.00000E+00
         0.00000E+00
         0.00000E+00
         0.00000E+00
         0.00000E+00
         0.00000E+00
         0.00000E+00
         0.00000E+00
         0.00000E+00
         0.00000E+00
         0.00000E+00
         0.00000E+00
         0.00000E+00
         0.00000E+00
         0.00000E+00
         0.00000E+00
         0.00000E+00
         0.00000E+00
         0.00000E+00
         0.00000E+00
         0.00000E+00
         0.00000E+00
         0.00000E+00
         0.00000E+00
         0.00000E+00
         0.00000E+00
         0.00000E+00
         0.00000E+00
         0.00000E+00
         0.00000E+00
         0.00000E+00
         0.00000E+00
         0.00000E+00
         0.00000E+00
         0.00000E+00
         0.00000E+00
         0.00000E+00
         0.00000E+00
         0.00000E+00
         0.00000E+00
         0.00000E+00
         0.00000E+00
         0.00000E+00
         0.00000E+00
         0.00000E+00
         0.00000E+00
         0.00000E+00
         0.00000E+00
         0.00000E+00
         0.00000E+00
         0.00000E+00
         0.00000E+00
         0.00000E+00
         0.00000E+00
         0.00000E+00
         0.00000E+00
         0.00000E+00
         0.00000E+00
         0.00000E+00
         0.00000E+00
         0.00000E+00
         0.00000E+00
         0.00000E+00
         0.00000E+00
         0.00000E+00
         0.00000E+00
         0.00000E+00
         0.00000E+00
         0.00000E+00
         0.00000E+00
         0.00000E+00
         0.00000E+00
         0.00000E+00
         0.00000E+00
         0.00000E+00
         0.00000E+00
         0.00000E+00
         0.00000E+00
         0.00000E+00
         0.00000E+00
         0.00000E+00
         0.00000E+00
         0.00000E+00
         0.00000E+00
         0.00000E+00
         0.00000E+00
         0.00000E+00
         0.00000E+00
         0.00000E+00
         0.00000E+00
         0.00000E+00
         0.00000E+00
         0.00000E+00
         0.00000E+00
         0.00000E+00
         0.00000E+00
         0.00000E+00
         0.00000E+00
  
SCALARS                      eps_shear  double 1
LOOKUP_TABLE default
         0.00000E+00
         0.00000E+00
         0.00000E+00
         0.00000E+00
         0.00000E+00
         0.00000E+00
         0.00000E+00
         0.00000E+00
         0.00000E+00
         0.00000E+00
         0.00000E+00
         0.00000E+00
         0.00000E+00
         0.00000E+00
         0.00000E+00
         0.00000E+00
         0.00000E+00
         0.00000E+00
         0.00000E+00
         0.00000E+00
         0.00000E+00
         0.00000E+00
         0.00000E+00
         0.00000E+00
         0.00000E+00
         0.00000E+00
         0.00000E+00
         0.00000E+00
         0.00000E+00
         0.00000E+00
         0.00000E+00
         0.00000E+00
         0.00000E+00
         0.00000E+00
         0.00000E+00
         0.00000E+00
         0.00000E+00
         0.00000E+00
         0.00000E+00
         0.00000E+00
         0.00000E+00
         0.00000E+00
         0.00000E+00
         0.00000E+00
         0.00000E+00
         0.00000E+00
         0.00000E+00
         0.00000E+00
         0.00000E+00
         0.00000E+00
         0.00000E+00
         0.00000E+00
         0.00000E+00
         0.00000E+00
         0.00000E+00
         0.00000E+00
         0.00000E+00
         0.00000E+00
         0.00000E+00
         0.00000E+00
         0.00000E+00
         0.00000E+00
         0.00000E+00
         0.00000E+00
         0.00000E+00
         0.00000E+00
         0.00000E+00
         0.00000E+00
         0.00000E+00
         0.00000E+00
         0.00000E+00
         0.00000E+00
         0.00000E+00
         0.00000E+00
         0.00000E+00
         0.00000E+00
         0.00000E+00
         0.00000E+00
         0.00000E+00
         0.00000E+00
         0.00000E+00
         0.00000E+00
         0.00000E+00
         0.00000E+00
         0.00000E+00
         0.00000E+00
         0.00000E+00
         0.00000E+00
         0.00000E+00
         0.00000E+00
         0.00000E+00
         0.00000E+00
         0.00000E+00
         0.00000E+00
         0.00000E+00
         0.00000E+00
         0.00000E+00
         0.00000E+00
         0.00000E+00
         0.00000E+00
         0.00000E+00
         0.00000E+00
         0.00000E+00
         0.00000E+00
         0.00000E+00
         0.00000E+00
         0.00000E+00
         0.00000E+00
         0.00000E+00
         0.00000E+00
         0.00000E+00
         0.00000E+00
         0.00000E+00
         0.00000E+00
         0.00000E+00
         0.00000E+00
         0.00000E+00
         0.00000E+00
         0.00000E+00
         0.00000E+00
         0.00000E+00
         0.00000E+00
         0.00000E+00
         0.00000E+00
         0.00000E+00
         0.00000E+00
         0.00000E+00
         0.00000E+00
         0.00000E+00
         0.00000E+00
         0.00000E+00
         0.00000E+00
         0.00000E+00
         0.00000E+00
         0.00000E+00
         0.00000E+00
         0.00000E+00
         0.00000E+00
         0.00000E+00
         0.00000E+00
         0.00000E+00
         0.00000E+00
         0.00000E+00
         0.00000E+00
         0.00000E+00
         0.00000E+00
         0.00000E+00
         0.00000E+00
         0.00000E+00
         0.00000E+00
         0.00000E+00
         0.00000E+00
         0.00000E+00
         0.00000E+00
         0.00000E+00
         0.00000E+00
         0.00000E+00
         0.00000E+00
         0.00000E+00
         0.00000E+00
         0.00000E+00
         0.00000E+00
         0.00000E+00
         0.00000E+00
         0.00000E+00
         0.00000E+00
         0.00000E+00
         0.00000E+00
         0.00000E+00
         0.00000E+00
         0.00000E+00
         0.00000E+00
         0.00000E+00
         0.00000E+00
         0.00000E+00
         0.00000E+00
         0.00000E+00
         0.00000E+00
         0.00000E+00
         0.00000E+00
         0.00000E+00
         0.00000E+00
         0.00000E+00
         0.00000E+00
         0.00000E+00
         0.00000E+00
         0.00000E+00
         0.00000E+00
         0.00000E+00
         0.00000E+00
         0.00000E+00
         0.00000E+00
         0.00000E+00
         0.00000E+00
         0.00000E+00
         0.00000E+00
         0.00000E+00
         0.00000E+00
         0.00000E+00
         0.00000E+00
         0.00000E+00
         0.00000E+00
         0.00000E+00
         0.00000E+00
         0.00000E+00
         0.00000E+00
         0.00000E+00
         0.00000E+00
         0.00000E+00
         0.00000E+00
         0.00000E+00
         0.00000E+00
         0.00000E+00
         0.00000E+00
         0.00000E+00
         0.00000E+00
         0.00000E+00
         0.00000E+00
         0.00000E+00
         0.00000E+00
         0.00000E+00
         0.00000E+00
         0.00000E+00
         0.00000E+00
         0.00000E+00
         0.00000E+00
         0.00000E+00
         0.00000E+00
         0.00000E+00
         0.00000E+00
         0.00000E+00
         0.00000E+00
         0.00000E+00
         0.00000E+00
         0.00000E+00
         0.00000E+00
         0.00000E+00
         0.00000E+00
         0.00000E+00
         0.00000E+00
         0.00000E+00
         0.00000E+00
         0.00000E+00
         0.00000E+00
         0.00000E+00
         0.00000E+00
         0.00000E+00
         0.00000E+00
         0.00000E+00
         0.00000E+00
         0.00000E+00
         0.00000E+00
         0.00000E+00
         0.00000E+00
         0.00000E+00
         0.00000E+00
         0.00000E+00
         0.00000E+00
         0.00000E+00
         0.00000E+00
         0.00000E+00
         0.00000E+00
         0.00000E+00
         0.00000E+00
         0.00000E+00
         0.00000E+00
         0.00000E+00
         0.00000E+00
         0.00000E+00
         0.00000E+00
         0.00000E+00
         0.00000E+00
         0.00000E+00
         0.00000E+00
         0.00000E+00
         0.00000E+00
         0.00000E+00
         0.00000E+00
         0.00000E+00
         0.00000E+00
         0.00000E+00
         0.00000E+00
         0.00000E+00
         0.00000E+00
         0.00000E+00
         0.00000E+00
         0.00000E+00
         0.00000E+00
         0.00000E+00
         0.00000E+00
         0.00000E+00
         0.00000E+00
         0.00000E+00
         0.00000E+00
         0.00000E+00
         0.00000E+00
         0.00000E+00
         0.00000E+00
         0.00000E+00
         0.00000E+00
         0.00000E+00
         0.00000E+00
         0.00000E+00
         0.00000E+00
         0.00000E+00
         0.00000E+00
         0.00000E+00
         0.00000E+00
         0.00000E+00
         0.00000E+00
         0.00000E+00
         0.00000E+00
         0.00000E+00
         0.00000E+00
         0.00000E+00
         0.00000E+00
         0.00000E+00
         0.00000E+00
         0.00000E+00
         0.00000E+00
         0.00000E+00
         0.00000E+00
         0.00000E+00
         0.00000E+00
         0.00000E+00
         0.00000E+00
         0.00000E+00
         0.00000E+00
         0.00000E+00
         0.00000E+00
         0.00000E+00
         0.00000E+00
         0.00000E+00
         0.00000E+00
         0.00000E+00
         0.00000E+00
         0.00000E+00
         0.00000E+00
         0.00000E+00
         0.00000E+00
         0.00000E+00
         0.00000E+00
         0.00000E+00
         0.00000E+00
         0.00000E+00
         0.00000E+00
         0.00000E+00
         0.00000E+00
         0.00000E+00
         0.00000E+00
         0.00000E+00
         0.00000E+00
         0.00000E+00
         0.00000E+00
         0.00000E+00
         0.00000E+00
         0.00000E+00
         0.00000E+00
         0.00000E+00
         0.00000E+00
         0.00000E+00
         0.00000E+00
         0.00000E+00
         0.00000E+00
         0.00000E+00
         0.00000E+00
         0.00000E+00
         0.00000E+00
         0.00000E+00
         0.00000E+00
         0.00000E+00
         0.00000E+00
         0.00000E+00
         0.00000E+00
         0.00000E+00
         0.00000E+00
         0.00000E+00
         0.00000E+00
         0.00000E+00
         0.00000E+00
         0.00000E+00
         0.00000E+00
         0.00000E+00
         0.00000E+00
         0.00000E+00
         0.00000E+00
         0.00000E+00
         0.00000E+00
         0.00000E+00
         0.00000E+00
         0.00000E+00
         0.00000E+00
         0.00000E+00
         0.00000E+00
         0.00000E+00
         0.00000E+00
         0.00000E+00
         0.00000E+00
         0.00000E+00
         0.00000E+00
         0.00000E+00
         0.00000E+00
         0.00000E+00
         0.00000E+00
         0.00000E+00
         0.00000E+00
         0.00000E+00
         0.00000E+00
         0.00000E+00
         0.00000E+00
         0.00000E+00
         0.00000E+00
         0.00000E+00
         0.00000E+00
         0.00000E+00
         0.00000E+00
         0.00000E+00
         0.00000E+00
         0.00000E+00
         0.00000E+00
         0.00000E+00
         0.00000E+00
         0.00000E+00
         0.00000E+00
         0.00000E+00
         0.00000E+00
         0.00000E+00
         0.00000E+00
         0.00000E+00
         0.00000E+00
         0.00000E+00
         0.00000E+00
         0.00000E+00
         0.00000E+00
         0.00000E+00
         0.00000E+00
         0.00000E+00
         0.00000E+00
         0.00000E+00
         0.00000E+00
         0.00000E+00
         0.00000E+00
         0.00000E+00
         0.00000E+00
         0.00000E+00
         0.00000E+00
         0.00000E+00
         0.00000E+00
         0.00000E+00
         0.00000E+00
         0.00000E+00
         0.00000E+00
         0.00000E+00
         0.00000E+00
         0.00000E+00
         0.00000E+00
         0.00000E+00
         0.00000E+00
         0.00000E+00
         0.00000E+00
         0.00000E+00
         0.00000E+00
         0.00000E+00
         0.00000E+00
         0.00000E+00
         0.00000E+00
         0.00000E+00
         0.00000E+00
         0.00000E+00
         0.00000E+00
         0.00000E+00
         0.00000E+00
         0.00000E+00
         0.00000E+00
         0.00000E+00
         0.00000E+00
         0.00000E+00
         0.00000E+00
         0.00000E+00
         0.00000E+00
         0.00000E+00
         0.00000E+00
         0.00000E+00
         0.00000E+00
         0.00000E+00
         0.00000E+00
         0.00000E+00
         0.00000E+00
         0.00000E+00
         0.00000E+00
         0.00000E+00
         0.00000E+00
         0.00000E+00
         0.00000E+00
         0.00000E+00
         0.00000E+00
         0.00000E+00
         0.00000E+00
         0.00000E+00
         0.00000E+00
         0.00000E+00
         0.00000E+00
         0.00000E+00
         0.00000E+00
         0.00000E+00
         0.00000E+00
         0.00000E+00
         0.00000E+00
         0.00000E+00
         0.00000E+00
         0.00000E+00
         0.00000E+00
         0.00000E+00
         0.00000E+00
         0.00000E+00
         0.00000E+00
         0.00000E+00
         0.00000E+00
         0.00000E+00
         0.00000E+00
         0.00000E+00
         0.00000E+00
         0.00000E+00
         0.00000E+00
         0.00000E+00
         0.00000E+00
         0.00000E+00
         0.00000E+00
         0.00000E+00
         0.00000E+00
         0.00000E+00
         0.00000E+00
         0.00000E+00
         0.00000E+00
         0.00000E+00
         0.00000E+00
         0.00000E+00
         0.00000E+00
         0.00000E+00
         0.00000E+00
         0.00000E+00
         0.00000E+00
         0.00000E+00
         0.00000E+00
         0.00000E+00
         0.00000E+00
         0.00000E+00
         0.00000E+00
         0.00000E+00
         0.00000E+00
         0.00000E+00
         0.00000E+00
         0.00000E+00
         0.00000E+00
         0.00000E+00
         0.00000E+00
         0.00000E+00
         0.00000E+00
         0.00000E+00
         0.00000E+00
         0.00000E+00
         0.00000E+00
         0.00000E+00
         0.00000E+00
         0.00000E+00
         0.00000E+00
         0.00000E+00
         0.00000E+00
         0.00000E+00
         0.00000E+00
         0.00000E+00
         0.00000E+00
         0.00000E+00
         0.00000E+00
         0.00000E+00
         0.00000E+00
         0.00000E+00
         0.00000E+00
         0.00000E+00
         0.00000E+00
         0.00000E+00
         0.00000E+00
         0.00000E+00
         0.00000E+00
         0.00000E+00
         0.00000E+00
         0.00000E+00
         0.00000E+00
         0.00000E+00
         0.00000E+00
         0.00000E+00
         0.00000E+00
         0.00000E+00
         0.00000E+00
         0.00000E+00
         0.00000E+00
         0.00000E+00
         0.00000E+00
         0.00000E+00
         0.00000E+00
         0.00000E+00
         0.00000E+00
         0.00000E+00
         0.00000E+00
         0.00000E+00
         0.00000E+00
         0.00000E+00
         0.00000E+00
         0.00000E+00
         0.00000E+00
         0.00000E+00
         0.00000E+00
         0.00000E+00
         0.00000E+00
         0.00000E+00
         0.00000E+00
         0.00000E+00
         0.00000E+00
         0.00000E+00
         0.00000E+00
         0.00000E+00
         0.00000E+00
         0.00000E+00
         0.00000E+00
         0.00000E+00
         0.00000E+00
         0.00000E+00
         0.00000E+00
         0.00000E+00
         0.00000E+00
         0.00000E+00
         0.00000E+00
         0.00000E+00
         0.00000E+00
         0.00000E+00
         0.00000E+00
         0.00000E+00
         0.00000E+00
         0.00000E+00
         0.00000E+00
         0.00000E+00
         0.00000E+00
         0.00000E+00
         0.00000E+00
         0.00000E+00
         0.00000E+00
         0.00000E+00
         0.00000E+00
         0.00000E+00
         0.00000E+00
         0.00000E+00
         0.00000E+00
         0.00000E+00
         0.00000E+00
         0.00000E+00
         0.00000E+00
         0.00000E+00
         0.00000E+00
         0.00000E+00
         0.00000E+00
         0.00000E+00
         0.00000E+00
         0.00000E+00
         0.00000E+00
         0.00000E+00
         0.00000E+00
         0.00000E+00
         0.00000E+00
         0.00000E+00
         0.00000E+00
         0.00000E+00
         0.00000E+00
         0.00000E+00
         0.00000E+00
         0.00000E+00
         0.00000E+00
         0.00000E+00
         0.00000E+00
         0.00000E+00
         0.00000E+00
         0.00000E+00
         0.00000E+00
         0.00000E+00
         0.00000E+00
         0.00000E+00
         0.00000E+00
         0.00000E+00
         0.00000E+00
         0.00000E+00
         0.00000E+00
         0.00000E+00
         0.00000E+00
         0.00000E+00
         0.00000E+00
         0.00000E+00
         0.00000E+00
         0.00000E+00
         0.00000E+00
         0.00000E+00
         0.00000E+00
         0.00000E+00
         0.00000E+00
         0.00000E+00
         0.00000E+00
         0.00000E+00
         0.00000E+00
         0.00000E+00
         0.00000E+00
         0.00000E+00
         0.00000E+00
         0.00000E+00
         0.00000E+00
         0.00000E+00
         0.00000E+00
         0.00000E+00
         0.00000E+00
         0.00000E+00
         0.00000E+00
         0.00000E+00
         0.00000E+00
         0.00000E+00
         0.00000E+00
         0.00000E+00
         0.00000E+00
         0.00000E+00
         0.00000E+00
         0.00000E+00
         0.00000E+00
         0.00000E+00
         0.00000E+00
         0.00000E+00
         0.00000E+00
         0.00000E+00
         0.00000E+00
         0.00000E+00
         0.00000E+00
         0.00000E+00
         0.00000E+00
         0.00000E+00
         0.00000E+00
         0.00000E+00
         0.00000E+00
         0.00000E+00
         0.00000E+00
         0.00000E+00
         0.00000E+00
         0.00000E+00
         0.00000E+00
         0.00000E+00
         0.00000E+00
         0.00000E+00
         0.00000E+00
         0.00000E+00
         0.00000E+00
         0.00000E+00
         0.00000E+00
         0.00000E+00
         0.00000E+00
         0.00000E+00
         0.00000E+00
         0.00000E+00
         0.00000E+00
         0.00000E+00
         0.00000E+00
         0.00000E+00
         0.00000E+00
         0.00000E+00
         0.00000E+00
         0.00000E+00
         0.00000E+00
         0.00000E+00
         0.00000E+00
         0.00000E+00
         0.00000E+00
         0.00000E+00
         0.00000E+00
         0.00000E+00
         0.00000E+00
         0.00000E+00
         0.00000E+00
         0.00000E+00
         0.00000E+00
         0.00000E+00
         0.00000E+00
         0.00000E+00
         0.00000E+00
         0.00000E+00
         0.00000E+00
         0.00000E+00
         0.00000E+00
         0.00000E+00
         0.00000E+00
         0.00000E+00
         0.00000E+00
         0.00000E+00
         0.00000E+00
         0.00000E+00
         0.00000E+00
         0.00000E+00
         0.00000E+00
         0.00000E+00
         0.00000E+00
         0.00000E+00
         0.00000E+00
         0.00000E+00
         0.00000E+00
         0.00000E+00
         0.00000E+00
         0.00000E+00
         0.00000E+00
         0.00000E+00
         0.00000E+00
         0.00000E+00
         0.00000E+00
         0.00000E+00
         0.00000E+00
         0.00000E+00
         0.00000E+00
         0.00000E+00
         0.00000E+00
         0.00000E+00
         0.00000E+00
         0.00000E+00
         0.00000E+00
         0.00000E+00
         0.00000E+00
         0.00000E+00
         0.00000E+00
         0.00000E+00
         0.00000E+00
         0.00000E+00
         0.00000E+00
         0.00000E+00
         0.00000E+00
         0.00000E+00
         0.00000E+00
         0.00000E+00
         0.00000E+00
         0.00000E+00
         0.00000E+00
         0.00000E+00
         0.00000E+00
         0.00000E+00
         0.00000E+00
         0.00000E+00
         0.00000E+00
         0.00000E+00
         0.00000E+00
         0.00000E+00
         0.00000E+00
         0.00000E+00
         0.00000E+00
         0.00000E+00
         0.00000E+00
         0.00000E+00
         0.00000E+00
         0.00000E+00
         0.00000E+00
         0.00000E+00
         0.00000E+00
         0.00000E+00
         0.00000E+00
         0.00000E+00
         0.00000E+00
         0.00000E+00
         0.00000E+00
         0.00000E+00
         0.00000E+00
         0.00000E+00
         0.00000E+00
         0.00000E+00
         0.00000E+00
         0.00000E+00
         0.00000E+00
         0.00000E+00
         0.00000E+00
         0.00000E+00
         0.00000E+00
         0.00000E+00
         0.00000E+00
         0.00000E+00
         0.00000E+00
         0.00000E+00
         0.00000E+00
         0.00000E+00
         0.00000E+00
         0.00000E+00
         0.00000E+00
         0.00000E+00
         0.00000E+00
         0.00000E+00
         0.00000E+00
         0.00000E+00
         0.00000E+00
         0.00000E+00
         0.00000E+00
         0.00000E+00
         0.00000E+00
         0.00000E+00
         0.00000E+00
         0.00000E+00
         0.00000E+00
         0.00000E+00
         0.00000E+00
         0.00000E+00
         0.00000E+00
         0.00000E+00
         0.00000E+00
         0.00000E+00
         0.00000E+00
         0.00000E+00
         0.00000E+00
         0.00000E+00
         0.00000E+00
         0.00000E+00
         0.00000E+00
         0.00000E+00
         0.00000E+00
         0.00000E+00
         0.00000E+00
         0.00000E+00
         0.00000E+00
         0.00000E+00
         0.00000E+00
         0.00000E+00
         0.00000E+00
         0.00000E+00
         0.00000E+00
         0.00000E+00
         0.00000E+00
         0.00000E+00
         0.00000E+00
         0.00000E+00
         0.00000E+00
         0.00000E+00
         0.00000E+00
         0.00000E+00
         0.00000E+00
         0.00000E+00
         0.00000E+00
         0.00000E+00
         0.00000E+00
         0.00000E+00
         0.00000E+00
         0.00000E+00
         0.00000E+00
         0.00000E+00
         0.00000E+00
         0.00000E+00
         0.00000E+00
         0.00000E+00
         0.00000E+00
         0.00000E+00
         0.00000E+00
         0.00000E+00
         0.00000E+00
         0.00000E+00
         0.00000E+00
         0.00000E+00
         0.00000E+00
         0.00000E+00
         0.00000E+00
         0.00000E+00
         0.00000E+00
         0.00000E+00
         0.00000E+00
         0.00000E+00
         0.00000E+00
         0.00000E+00
         0.00000E+00
         0.00000E+00
         0.00000E+00
         0.00000E+00
         0.00000E+00
         0.00000E+00
         0.00000E+00
         0.00000E+00
         0.00000E+00
         0.00000E+00
         0.00000E+00
         0.00000E+00
         0.00000E+00
         0.00000E+00
         0.00000E+00
         0.00000E+00
         0.00000E+00
         0.00000E+00
         0.00000E+00
         0.00000E+00
         0.00000E+00
         0.00000E+00
         0.00000E+00
         0.00000E+00
         0.00000E+00
         0.00000E+00
         0.00000E+00
         0.00000E+00
         0.00000E+00
         0.00000E+00
         0.00000E+00
         0.00000E+00
         0.00000E+00
         0.00000E+00
         0.00000E+00
         0.00000E+00
         0.00000E+00
         0.00000E+00
         0.00000E+00
         0.00000E+00
         0.00000E+00
         0.00000E+00
         0.00000E+00
         0.00000E+00
         0.00000E+00
         0.00000E+00
         0.00000E+00
         0.00000E+00
         0.00000E+00
         0.00000E+00
         0.00000E+00
         0.00000E+00
         0.00000E+00
         0.00000E+00
         0.00000E+00
         0.00000E+00
         0.00000E+00
         0.00000E+00
         0.00000E+00
         0.00000E+00
         0.00000E+00
         0.00000E+00
         0.00000E+00
         0.00000E+00
         0.00000E+00
         0.00000E+00
         0.00000E+00
         0.00000E+00
         0.00000E+00
         0.00000E+00
         0.00000E+00
         0.00000E+00
         0.00000E+00
         0.00000E+00
         0.00000E+00
         0.00000E+00
         0.00000E+00
         0.00000E+00
         0.00000E+00
         0.00000E+00
         0.00000E+00
         0.00000E+00
         0.00000E+00
         0.00000E+00
         0.00000E+00
         0.00000E+00
         0.00000E+00
         0.00000E+00
         0.00000E+00
         0.00000E+00
         0.00000E+00
         0.00000E+00
         0.00000E+00
         0.00000E+00
         0.00000E+00
         0.00000E+00
         0.00000E+00
         0.00000E+00
         0.00000E+00
         0.00000E+00
         0.00000E+00
         0.00000E+00
         0.00000E+00
         0.00000E+00
         0.00000E+00
         0.00000E+00
         0.00000E+00
         0.00000E+00
         0.00000E+00
         0.00000E+00
         0.00000E+00
         0.00000E+00
         0.00000E+00
         0.00000E+00
         0.00000E+00
         0.00000E+00
         0.00000E+00
         0.00000E+00
         0.00000E+00
         0.00000E+00
         0.00000E+00
         0.00000E+00
         0.00000E+00
         0.00000E+00
         0.00000E+00
         0.00000E+00
         0.00000E+00
         0.00000E+00
         0.00000E+00
         0.00000E+00
         0.00000E+00
         0.00000E+00
         0.00000E+00
         0.00000E+00
         0.00000E+00
         0.00000E+00
         0.00000E+00
         0.00000E+00
         0.00000E+00
         0.00000E+00
         0.00000E+00
         0.00000E+00
         0.00000E+00
         0.00000E+00
         0.00000E+00
         0.00000E+00
         0.00000E+00
         0.00000E+00
         0.00000E+00
         0.00000E+00
         0.00000E+00
         0.00000E+00
         0.00000E+00
         0.00000E+00
         0.00000E+00
         0.00000E+00
         0.00000E+00
         0.00000E+00
         0.00000E+00
         0.00000E+00
         0.00000E+00
         0.00000E+00
         0.00000E+00
         0.00000E+00
         0.00000E+00
         0.00000E+00
         0.00000E+00
         0.00000E+00
         0.00000E+00
         0.00000E+00
         0.00000E+00
         0.00000E+00
         0.00000E+00
         0.00000E+00
         0.00000E+00
         0.00000E+00
         0.00000E+00
         0.00000E+00
         0.00000E+00
         0.00000E+00
         0.00000E+00
         0.00000E+00
         0.00000E+00
         0.00000E+00
         0.00000E+00
         0.00000E+00
         0.00000E+00
         0.00000E+00
         0.00000E+00
         0.00000E+00
         0.00000E+00
         0.00000E+00
         0.00000E+00
         0.00000E+00
         0.00000E+00
         0.00000E+00
         0.00000E+00
         0.00000E+00
         0.00000E+00
         0.00000E+00
         0.00000E+00
         0.00000E+00
         0.00000E+00
         0.00000E+00
         0.00000E+00
         0.00000E+00
         0.00000E+00
         0.00000E+00
         0.00000E+00
         0.00000E+00
         0.00000E+00
         0.00000E+00
         0.00000E+00
         0.00000E+00
         0.00000E+00
         0.00000E+00
         0.00000E+00
         0.00000E+00
         0.00000E+00
         0.00000E+00
         0.00000E+00
         0.00000E+00
         0.00000E+00
         0.00000E+00
         0.00000E+00
         0.00000E+00
         0.00000E+00
         0.00000E+00
         0.00000E+00
         0.00000E+00
         0.00000E+00
         0.00000E+00
         0.00000E+00
         0.00000E+00
         0.00000E+00
         0.00000E+00
         0.00000E+00
         0.00000E+00
         0.00000E+00
         0.00000E+00
         0.00000E+00
         0.00000E+00
         0.00000E+00
         0.00000E+00
         0.00000E+00
         0.00000E+00
         0.00000E+00
         0.00000E+00
         0.00000E+00
         0.00000E+00
         0.00000E+00
         0.00000E+00
         0.00000E+00
         0.00000E+00
         0.00000E+00
         0.00000E+00
         0.00000E+00
         0.00000E+00
         0.00000E+00
         0.00000E+00
         0.00000E+00
         0.00000E+00
         0.00000E+00
         0.00000E+00
         0.00000E+00
         0.00000E+00
         0.00000E+00
         0.00000E+00
         0.00000E+00
         0.00000E+00
         0.00000E+00
         0.00000E+00
         0.00000E+00
         0.00000E+00
         0.00000E+00
         0.00000E+00
         0.00000E+00
         0.00000E+00
         0.00000E+00
         0.00000E+00
         0.00000E+00
         0.00000E+00
         0.00000E+00
         0.00000E+00
         0.00000E+00
         0.00000E+00
         0.00000E+00
         0.00000E+00
         0.00000E+00
         0.00000E+00
         0.00000E+00
         0.00000E+00
         0.00000E+00
         0.00000E+00
         0.00000E+00
         0.00000E+00
         0.00000E+00
         0.00000E+00
         0.00000E+00
         0.00000E+00
         0.00000E+00
         0.00000E+00
         0.00000E+00
         0.00000E+00
         0.00000E+00
         0.00000E+00
         0.00000E+00
         0.00000E+00
         0.00000E+00
         0.00000E+00
         0.00000E+00
         0.00000E+00
         0.00000E+00
         0.00000E+00
         0.00000E+00
         0.00000E+00
         0.00000E+00
         0.00000E+00
         0.00000E+00
         0.00000E+00
         0.00000E+00
         0.00000E+00
         0.00000E+00
         0.00000E+00
         0.00000E+00
         0.00000E+00
         0.00000E+00
         0.00000E+00
         0.00000E+00
         0.00000E+00
         0.00000E+00
         0.00000E+00
         0.00000E+00
         0.00000E+00
         0.00000E+00
         0.00000E+00
         0.00000E+00
         0.00000E+00
         0.00000E+00
         0.00000E+00
         0.00000E+00
         0.00000E+00
         0.00000E+00
         0.00000E+00
         0.00000E+00
         0.00000E+00
         0.00000E+00
         0.00000E+00
         0.00000E+00
         0.00000E+00
         0.00000E+00
         0.00000E+00
         0.00000E+00
         0.00000E+00
         0.00000E+00
         0.00000E+00
         0.00000E+00
         0.00000E+00
         0.00000E+00
         0.00000E+00
         0.00000E+00
         0.00000E+00
         0.00000E+00
         0.00000E+00
         0.00000E+00
         0.00000E+00
         0.00000E+00
         0.00000E+00
         0.00000E+00
         0.00000E+00
         0.00000E+00
         0.00000E+00
         0.00000E+00
         0.00000E+00
         0.00000E+00
         0.00000E+00
         0.00000E+00
         0.00000E+00
         0.00000E+00
         0.00000E+00
         0.00000E+00
         0.00000E+00
         0.00000E+00
         0.00000E+00
         0.00000E+00
         0.00000E+00
         0.00000E+00
         0.00000E+00
         0.00000E+00
         0.00000E+00
         0.00000E+00
         0.00000E+00
         0.00000E+00
         0.00000E+00
         0.00000E+00
         0.00000E+00
         0.00000E+00
         0.00000E+00
         0.00000E+00
         0.00000E+00
         0.00000E+00
         0.00000E+00
         0.00000E+00
         0.00000E+00
         0.00000E+00
         0.00000E+00
         0.00000E+00
         0.00000E+00
         0.00000E+00
         0.00000E+00
         0.00000E+00
         0.00000E+00
         0.00000E+00
         0.00000E+00
         0.00000E+00
         0.00000E+00
         0.00000E+00
         0.00000E+00
         0.00000E+00
         0.00000E+00
         0.00000E+00
         0.00000E+00
         0.00000E+00
         0.00000E+00
         0.00000E+00
         0.00000E+00
         0.00000E+00
         0.00000E+00
         0.00000E+00
         0.00000E+00
         0.00000E+00
         0.00000E+00
         0.00000E+00
         0.00000E+00
         0.00000E+00
         0.00000E+00
         0.00000E+00
         0.00000E+00
         0.00000E+00
         0.00000E+00
         0.00000E+00
         0.00000E+00
         0.00000E+00
         0.00000E+00
         0.00000E+00
         0.00000E+00
         0.00000E+00
         0.00000E+00
         0.00000E+00
         0.00000E+00
         0.00000E+00
         0.00000E+00
         0.00000E+00
         0.00000E+00
         0.00000E+00
         0.00000E+00
         0.00000E+00
         0.00000E+00
         0.00000E+00
         0.00000E+00
         0.00000E+00
         0.00000E+00
         0.00000E+00
         0.00000E+00
         0.00000E+00
         0.00000E+00
         0.00000E+00
         0.00000E+00
         0.00000E+00
         0.00000E+00
         0.00000E+00
         0.00000E+00
         0.00000E+00
         0.00000E+00
         0.00000E+00
         0.00000E+00
         0.00000E+00
         0.00000E+00
         0.00000E+00
         0.00000E+00
         0.00000E+00
         0.00000E+00
         0.00000E+00
         0.00000E+00
         0.00000E+00
         0.00000E+00
         0.00000E+00
         0.00000E+00
         0.00000E+00
         0.00000E+00
         0.00000E+00
         0.00000E+00
         0.00000E+00
         0.00000E+00
         0.00000E+00
         0.00000E+00
         0.00000E+00
         0.00000E+00
         0.00000E+00
         0.00000E+00
         0.00000E+00
         0.00000E+00
         0.00000E+00
         0.00000E+00
         0.00000E+00
         0.00000E+00
         0.00000E+00
         0.00000E+00
         0.00000E+00
         0.00000E+00
         0.00000E+00
         0.00000E+00
         0.00000E+00
         0.00000E+00
         0.00000E+00
         0.00000E+00
         0.00000E+00
         0.00000E+00
         0.00000E+00
         0.00000E+00
         0.00000E+00
         0.00000E+00
         0.00000E+00
         0.00000E+00
         0.00000E+00
         0.00000E+00
         0.00000E+00
         0.00000E+00
         0.00000E+00
         0.00000E+00
         0.00000E+00
         0.00000E+00
         0.00000E+00
         0.00000E+00
         0.00000E+00
         0.00000E+00
         0.00000E+00
         0.00000E+00
         0.00000E+00
         0.00000E+00
         0.00000E+00
         0.00000E+00
         0.00000E+00
         0.00000E+00
         0.00000E+00
         0.00000E+00
         0.00000E+00
         0.00000E+00
         0.00000E+00
         0.00000E+00
         0.00000E+00
         0.00000E+00
         0.00000E+00
         0.00000E+00
         0.00000E+00
         0.00000E+00
         0.00000E+00
         0.00000E+00
         0.00000E+00
         0.00000E+00
         0.00000E+00
         0.00000E+00
         0.00000E+00
         0.00000E+00
         0.00000E+00
         0.00000E+00
         0.00000E+00
         0.00000E+00
         0.00000E+00
         0.00000E+00
         0.00000E+00
         0.00000E+00
         0.00000E+00
         0.00000E+00
         0.00000E+00
         0.00000E+00
         0.00000E+00
         0.00000E+00
         0.00000E+00
         0.00000E+00
         0.00000E+00
         0.00000E+00
         0.00000E+00
         0.00000E+00
         0.00000E+00
         0.00000E+00
         0.00000E+00
         0.00000E+00
         0.00000E+00
         0.00000E+00
         0.00000E+00
         0.00000E+00
         0.00000E+00
         0.00000E+00
         0.00000E+00
         0.00000E+00
         0.00000E+00
         0.00000E+00
         0.00000E+00
         0.00000E+00
         0.00000E+00
         0.00000E+00
         0.00000E+00
         0.00000E+00
         0.00000E+00
         0.00000E+00
         0.00000E+00
         0.00000E+00
         0.00000E+00
         0.00000E+00
         0.00000E+00
         0.00000E+00
         0.00000E+00
         0.00000E+00
         0.00000E+00
         0.00000E+00
         0.00000E+00
         0.00000E+00
         0.00000E+00
         0.00000E+00
         0.00000E+00
         0.00000E+00
         0.00000E+00
         0.00000E+00
         0.00000E+00
         0.00000E+00
         0.00000E+00
         0.00000E+00
         0.00000E+00
         0.00000E+00
         0.00000E+00
         0.00000E+00
         0.00000E+00
         0.00000E+00
         0.00000E+00
         0.00000E+00
         0.00000E+00
         0.00000E+00
         0.00000E+00
         0.00000E+00
         0.00000E+00
         0.00000E+00
         0.00000E+00
         0.00000E+00
         0.00000E+00
         0.00000E+00
         0.00000E+00
         0.00000E+00
         0.00000E+00
         0.00000E+00
         0.00000E+00
         0.00000E+00
         0.00000E+00
         0.00000E+00
         0.00000E+00
         0.00000E+00
         0.00000E+00
         0.00000E+00
         0.00000E+00
         0.00000E+00
         0.00000E+00
         0.00000E+00
         0.00000E+00
         0.00000E+00
         0.00000E+00
         0.00000E+00
         0.00000E+00
         0.00000E+00
         0.00000E+00
         0.00000E+00
         0.00000E+00
         0.00000E+00
         0.00000E+00
         0.00000E+00
         0.00000E+00
         0.00000E+00
         0.00000E+00
         0.00000E+00
         0.00000E+00
         0.00000E+00
         0.00000E+00
         0.00000E+00
         0.00000E+00
         0.00000E+00
         0.00000E+00
         0.00000E+00
         0.00000E+00
         0.00000E+00
         0.00000E+00
         0.00000E+00
         0.00000E+00
         0.00000E+00
         0.00000E+00
         0.00000E+00
         0.00000E+00
         0.00000E+00
         0.00000E+00
         0.00000E+00
         0.00000E+00
         0.00000E+00
         0.00000E+00
         0.00000E+00
         0.00000E+00
         0.00000E+00
         0.00000E+00
         0.00000E+00
         0.00000E+00
         0.00000E+00
         0.00000E+00
         0.00000E+00
         0.00000E+00
         0.00000E+00
         0.00000E+00
         0.00000E+00
         0.00000E+00
         0.00000E+00
         0.00000E+00
         0.00000E+00
         0.00000E+00
         0.00000E+00
         0.00000E+00
         0.00000E+00
         0.00000E+00
         0.00000E+00
         0.00000E+00
         0.00000E+00
         0.00000E+00
         0.00000E+00
         0.00000E+00
         0.00000E+00
         0.00000E+00
         0.00000E+00
         0.00000E+00
         0.00000E+00
         0.00000E+00
         0.00000E+00
         0.00000E+00
         0.00000E+00
         0.00000E+00
         0.00000E+00
         0.00000E+00
         0.00000E+00
         0.00000E+00
         0.00000E+00
         0.00000E+00
         0.00000E+00
         0.00000E+00
         0.00000E+00
         0.00000E+00
         0.00000E+00
         0.00000E+00
         0.00000E+00
         0.00000E+00
         0.00000E+00
         0.00000E+00
         0.00000E+00
         0.00000E+00
         0.00000E+00
         0.00000E+00
         0.00000E+00
         0.00000E+00
         0.00000E+00
         0.00000E+00
         0.00000E+00
         0.00000E+00
         0.00000E+00
         0.00000E+00
         0.00000E+00
         0.00000E+00
         0.00000E+00
         0.00000E+00
         0.00000E+00
         0.00000E+00
         0.00000E+00
         0.00000E+00
         0.00000E+00
         0.00000E+00
         0.00000E+00
         0.00000E+00
         0.00000E+00
         0.00000E+00
         0.00000E+00
         0.00000E+00
         0.00000E+00
         0.00000E+00
         0.00000E+00
         0.00000E+00
         0.00000E+00
         0.00000E+00
         0.00000E+00
         0.00000E+00
         0.00000E+00
         0.00000E+00
         0.00000E+00
         0.00000E+00
         0.00000E+00
         0.00000E+00
         0.00000E+00
         0.00000E+00
         0.00000E+00
         0.00000E+00
         0.00000E+00
         0.00000E+00
         0.00000E+00
         0.00000E+00
         0.00000E+00
         0.00000E+00
         0.00000E+00
         0.00000E+00
         0.00000E+00
         0.00000E+00
         0.00000E+00
         0.00000E+00
         0.00000E+00
         0.00000E+00
         0.00000E+00
         0.00000E+00
         0.00000E+00
         0.00000E+00
         0.00000E+00
         0.00000E+00
         0.00000E+00
         0.00000E+00
         0.00000E+00
         0.00000E+00
         0.00000E+00
         0.00000E+00
         0.00000E+00
         0.00000E+00
         0.00000E+00
         0.00000E+00
         0.00000E+00
         0.00000E+00
         0.00000E+00
         0.00000E+00
         0.00000E+00
         0.00000E+00
         0.00000E+00
         0.00000E+00
         0.00000E+00
         0.00000E+00
         0.00000E+00
         0.00000E+00
         0.00000E+00
         0.00000E+00
         0.00000E+00
         0.00000E+00
         0.00000E+00
         0.00000E+00
         0.00000E+00
         0.00000E+00
         0.00000E+00
         0.00000E+00
         0.00000E+00
         0.00000E+00
         0.00000E+00
         0.00000E+00
         0.00000E+00
         0.00000E+00
         0.00000E+00
         0.00000E+00
         0.00000E+00
         0.00000E+00
         0.00000E+00
         0.00000E+00
         0.00000E+00
         0.00000E+00
         0.00000E+00
         0.00000E+00
         0.00000E+00
         0.00000E+00
         0.00000E+00
         0.00000E+00
         0.00000E+00
         0.00000E+00
         0.00000E+00
         0.00000E+00
         0.00000E+00
         0.00000E+00
         0.00000E+00
         0.00000E+00
         0.00000E+00
         0.00000E+00
         0.00000E+00
         0.00000E+00
         0.00000E+00
         0.00000E+00
         0.00000E+00
         0.00000E+00
         0.00000E+00
         0.00000E+00
         0.00000E+00
         0.00000E+00
         0.00000E+00
         0.00000E+00
         0.00000E+00
         0.00000E+00
         0.00000E+00
         0.00000E+00
         0.00000E+00
         0.00000E+00
         0.00000E+00
         0.00000E+00
         0.00000E+00
         0.00000E+00
         0.00000E+00
         0.00000E+00
         0.00000E+00
         0.00000E+00
         0.00000E+00
         0.00000E+00
         0.00000E+00
         0.00000E+00
         0.00000E+00
         0.00000E+00
         0.00000E+00
         0.00000E+00
         0.00000E+00
         0.00000E+00
         0.00000E+00
         0.00000E+00
         0.00000E+00
         0.00000E+00
         0.00000E+00
         0.00000E+00
         0.00000E+00
         0.00000E+00
         0.00000E+00
         0.00000E+00
         0.00000E+00
         0.00000E+00
         0.00000E+00
         0.00000E+00
         0.00000E+00
         0.00000E+00
         0.00000E+00
         0.00000E+00
         0.00000E+00
         0.00000E+00
         0.00000E+00
         0.00000E+00
         0.00000E+00
         0.00000E+00
         0.00000E+00
         0.00000E+00
         0.00000E+00
         0.00000E+00
         0.00000E+00
         0.00000E+00
         0.00000E+00
         0.00000E+00
         0.00000E+00
         0.00000E+00
         0.00000E+00
         0.00000E+00
         0.00000E+00
         0.00000E+00
         0.00000E+00
         0.00000E+00
         0.00000E+00
         0.00000E+00
         0.00000E+00
         0.00000E+00
         0.00000E+00
         0.00000E+00
         0.00000E+00
         0.00000E+00
         0.00000E+00
         0.00000E+00
         0.00000E+00
         0.00000E+00
         0.00000E+00
         0.00000E+00
         0.00000E+00
         0.00000E+00
         0.00000E+00
         0.00000E+00
         0.00000E+00
         0.00000E+00
         0.00000E+00
         0.00000E+00
  
SCALARS                        eps_vol  double 1
LOOKUP_TABLE default
         0.00000E+00
         0.00000E+00
         0.00000E+00
         0.00000E+00
         0.00000E+00
         0.00000E+00
         0.00000E+00
         0.00000E+00
         0.00000E+00
         0.00000E+00
         0.00000E+00
         0.00000E+00
         0.00000E+00
         0.00000E+00
         0.00000E+00
         0.00000E+00
         0.00000E+00
         0.00000E+00
         0.00000E+00
         0.00000E+00
         0.00000E+00
         0.00000E+00
         0.00000E+00
         0.00000E+00
         0.00000E+00
         0.00000E+00
         0.00000E+00
         0.00000E+00
         0.00000E+00
         0.00000E+00
         0.00000E+00
         0.00000E+00
         0.00000E+00
         0.00000E+00
         0.00000E+00
         0.00000E+00
         0.00000E+00
         0.00000E+00
         0.00000E+00
         0.00000E+00
         0.00000E+00
         0.00000E+00
         0.00000E+00
         0.00000E+00
         0.00000E+00
         0.00000E+00
         0.00000E+00
         0.00000E+00
         0.00000E+00
         0.00000E+00
         0.00000E+00
         0.00000E+00
         0.00000E+00
         0.00000E+00
         0.00000E+00
         0.00000E+00
         0.00000E+00
         0.00000E+00
         0.00000E+00
         0.00000E+00
         0.00000E+00
         0.00000E+00
         0.00000E+00
         0.00000E+00
         0.00000E+00
         0.00000E+00
         0.00000E+00
         0.00000E+00
         0.00000E+00
         0.00000E+00
         0.00000E+00
         0.00000E+00
         0.00000E+00
         0.00000E+00
         0.00000E+00
         0.00000E+00
         0.00000E+00
         0.00000E+00
         0.00000E+00
         0.00000E+00
         0.00000E+00
         0.00000E+00
         0.00000E+00
         0.00000E+00
         0.00000E+00
         0.00000E+00
         0.00000E+00
         0.00000E+00
         0.00000E+00
         0.00000E+00
         0.00000E+00
         0.00000E+00
         0.00000E+00
         0.00000E+00
         0.00000E+00
         0.00000E+00
         0.00000E+00
         0.00000E+00
         0.00000E+00
         0.00000E+00
         0.00000E+00
         0.00000E+00
         0.00000E+00
         0.00000E+00
         0.00000E+00
         0.00000E+00
         0.00000E+00
         0.00000E+00
         0.00000E+00
         0.00000E+00
         0.00000E+00
         0.00000E+00
         0.00000E+00
         0.00000E+00
         0.00000E+00
         0.00000E+00
         0.00000E+00
         0.00000E+00
         0.00000E+00
         0.00000E+00
         0.00000E+00
         0.00000E+00
         0.00000E+00
         0.00000E+00
         0.00000E+00
         0.00000E+00
         0.00000E+00
         0.00000E+00
         0.00000E+00
         0.00000E+00
         0.00000E+00
         0.00000E+00
         0.00000E+00
         0.00000E+00
         0.00000E+00
         0.00000E+00
         0.00000E+00
         0.00000E+00
         0.00000E+00
         0.00000E+00
         0.00000E+00
         0.00000E+00
         0.00000E+00
         0.00000E+00
         0.00000E+00
         0.00000E+00
         0.00000E+00
         0.00000E+00
         0.00000E+00
         0.00000E+00
         0.00000E+00
         0.00000E+00
         0.00000E+00
         0.00000E+00
         0.00000E+00
         0.00000E+00
         0.00000E+00
         0.00000E+00
         0.00000E+00
         0.00000E+00
         0.00000E+00
         0.00000E+00
         0.00000E+00
         0.00000E+00
         0.00000E+00
         0.00000E+00
         0.00000E+00
         0.00000E+00
         0.00000E+00
         0.00000E+00
         0.00000E+00
         0.00000E+00
         0.00000E+00
         0.00000E+00
         0.00000E+00
         0.00000E+00
         0.00000E+00
         0.00000E+00
         0.00000E+00
         0.00000E+00
         0.00000E+00
         0.00000E+00
         0.00000E+00
         0.00000E+00
         0.00000E+00
         0.00000E+00
         0.00000E+00
         0.00000E+00
         0.00000E+00
         0.00000E+00
         0.00000E+00
         0.00000E+00
         0.00000E+00
         0.00000E+00
         0.00000E+00
         0.00000E+00
         0.00000E+00
         0.00000E+00
         0.00000E+00
         0.00000E+00
         0.00000E+00
         0.00000E+00
         0.00000E+00
         0.00000E+00
         0.00000E+00
         0.00000E+00
         0.00000E+00
         0.00000E+00
         0.00000E+00
         0.00000E+00
         0.00000E+00
         0.00000E+00
         0.00000E+00
         0.00000E+00
         0.00000E+00
         0.00000E+00
         0.00000E+00
         0.00000E+00
         0.00000E+00
         0.00000E+00
         0.00000E+00
         0.00000E+00
         0.00000E+00
         0.00000E+00
         0.00000E+00
         0.00000E+00
         0.00000E+00
         0.00000E+00
         0.00000E+00
         0.00000E+00
         0.00000E+00
         0.00000E+00
         0.00000E+00
         0.00000E+00
         0.00000E+00
         0.00000E+00
         0.00000E+00
         0.00000E+00
         0.00000E+00
         0.00000E+00
         0.00000E+00
         0.00000E+00
         0.00000E+00
         0.00000E+00
         0.00000E+00
         0.00000E+00
         0.00000E+00
         0.00000E+00
         0.00000E+00
         0.00000E+00
         0.00000E+00
         0.00000E+00
         0.00000E+00
         0.00000E+00
         0.00000E+00
         0.00000E+00
         0.00000E+00
         0.00000E+00
         0.00000E+00
         0.00000E+00
         0.00000E+00
         0.00000E+00
         0.00000E+00
         0.00000E+00
         0.00000E+00
         0.00000E+00
         0.00000E+00
         0.00000E+00
         0.00000E+00
         0.00000E+00
         0.00000E+00
         0.00000E+00
         0.00000E+00
         0.00000E+00
         0.00000E+00
         0.00000E+00
         0.00000E+00
         0.00000E+00
         0.00000E+00
         0.00000E+00
         0.00000E+00
         0.00000E+00
         0.00000E+00
         0.00000E+00
         0.00000E+00
         0.00000E+00
         0.00000E+00
         0.00000E+00
         0.00000E+00
         0.00000E+00
         0.00000E+00
         0.00000E+00
         0.00000E+00
         0.00000E+00
         0.00000E+00
         0.00000E+00
         0.00000E+00
         0.00000E+00
         0.00000E+00
         0.00000E+00
         0.00000E+00
         0.00000E+00
         0.00000E+00
         0.00000E+00
         0.00000E+00
         0.00000E+00
         0.00000E+00
         0.00000E+00
         0.00000E+00
         0.00000E+00
         0.00000E+00
         0.00000E+00
         0.00000E+00
         0.00000E+00
         0.00000E+00
         0.00000E+00
         0.00000E+00
         0.00000E+00
         0.00000E+00
         0.00000E+00
         0.00000E+00
         0.00000E+00
         0.00000E+00
         0.00000E+00
         0.00000E+00
         0.00000E+00
         0.00000E+00
         0.00000E+00
         0.00000E+00
         0.00000E+00
         0.00000E+00
         0.00000E+00
         0.00000E+00
         0.00000E+00
         0.00000E+00
         0.00000E+00
         0.00000E+00
         0.00000E+00
         0.00000E+00
         0.00000E+00
         0.00000E+00
         0.00000E+00
         0.00000E+00
         0.00000E+00
         0.00000E+00
         0.00000E+00
         0.00000E+00
         0.00000E+00
         0.00000E+00
         0.00000E+00
         0.00000E+00
         0.00000E+00
         0.00000E+00
         0.00000E+00
         0.00000E+00
         0.00000E+00
         0.00000E+00
         0.00000E+00
         0.00000E+00
         0.00000E+00
         0.00000E+00
         0.00000E+00
         0.00000E+00
         0.00000E+00
         0.00000E+00
         0.00000E+00
         0.00000E+00
         0.00000E+00
         0.00000E+00
         0.00000E+00
         0.00000E+00
         0.00000E+00
         0.00000E+00
         0.00000E+00
         0.00000E+00
         0.00000E+00
         0.00000E+00
         0.00000E+00
         0.00000E+00
         0.00000E+00
         0.00000E+00
         0.00000E+00
         0.00000E+00
         0.00000E+00
         0.00000E+00
         0.00000E+00
         0.00000E+00
         0.00000E+00
         0.00000E+00
         0.00000E+00
         0.00000E+00
         0.00000E+00
         0.00000E+00
         0.00000E+00
         0.00000E+00
         0.00000E+00
         0.00000E+00
         0.00000E+00
         0.00000E+00
         0.00000E+00
         0.00000E+00
         0.00000E+00
         0.00000E+00
         0.00000E+00
         0.00000E+00
         0.00000E+00
         0.00000E+00
         0.00000E+00
         0.00000E+00
         0.00000E+00
         0.00000E+00
         0.00000E+00
         0.00000E+00
         0.00000E+00
         0.00000E+00
         0.00000E+00
         0.00000E+00
         0.00000E+00
         0.00000E+00
         0.00000E+00
         0.00000E+00
         0.00000E+00
         0.00000E+00
         0.00000E+00
         0.00000E+00
         0.00000E+00
         0.00000E+00
         0.00000E+00
         0.00000E+00
         0.00000E+00
         0.00000E+00
         0.00000E+00
         0.00000E+00
         0.00000E+00
         0.00000E+00
         0.00000E+00
         0.00000E+00
         0.00000E+00
         0.00000E+00
         0.00000E+00
         0.00000E+00
         0.00000E+00
         0.00000E+00
         0.00000E+00
         0.00000E+00
         0.00000E+00
         0.00000E+00
         0.00000E+00
         0.00000E+00
         0.00000E+00
         0.00000E+00
         0.00000E+00
         0.00000E+00
         0.00000E+00
         0.00000E+00
         0.00000E+00
         0.00000E+00
         0.00000E+00
         0.00000E+00
         0.00000E+00
         0.00000E+00
         0.00000E+00
         0.00000E+00
         0.00000E+00
         0.00000E+00
         0.00000E+00
         0.00000E+00
         0.00000E+00
         0.00000E+00
         0.00000E+00
         0.00000E+00
         0.00000E+00
         0.00000E+00
         0.00000E+00
         0.00000E+00
         0.00000E+00
         0.00000E+00
         0.00000E+00
         0.00000E+00
         0.00000E+00
         0.00000E+00
         0.00000E+00
         0.00000E+00
         0.00000E+00
         0.00000E+00
         0.00000E+00
         0.00000E+00
         0.00000E+00
         0.00000E+00
         0.00000E+00
         0.00000E+00
         0.00000E+00
         0.00000E+00
         0.00000E+00
         0.00000E+00
         0.00000E+00
         0.00000E+00
         0.00000E+00
         0.00000E+00
         0.00000E+00
         0.00000E+00
         0.00000E+00
         0.00000E+00
         0.00000E+00
         0.00000E+00
         0.00000E+00
         0.00000E+00
         0.00000E+00
         0.00000E+00
         0.00000E+00
         0.00000E+00
         0.00000E+00
         0.00000E+00
         0.00000E+00
         0.00000E+00
         0.00000E+00
         0.00000E+00
         0.00000E+00
         0.00000E+00
         0.00000E+00
         0.00000E+00
         0.00000E+00
         0.00000E+00
         0.00000E+00
         0.00000E+00
         0.00000E+00
         0.00000E+00
         0.00000E+00
         0.00000E+00
         0.00000E+00
         0.00000E+00
         0.00000E+00
         0.00000E+00
         0.00000E+00
         0.00000E+00
         0.00000E+00
         0.00000E+00
         0.00000E+00
         0.00000E+00
         0.00000E+00
         0.00000E+00
         0.00000E+00
         0.00000E+00
         0.00000E+00
         0.00000E+00
         0.00000E+00
         0.00000E+00
         0.00000E+00
         0.00000E+00
         0.00000E+00
         0.00000E+00
         0.00000E+00
         0.00000E+00
         0.00000E+00
         0.00000E+00
         0.00000E+00
         0.00000E+00
         0.00000E+00
         0.00000E+00
         0.00000E+00
         0.00000E+00
         0.00000E+00
         0.00000E+00
         0.00000E+00
         0.00000E+00
         0.00000E+00
         0.00000E+00
         0.00000E+00
         0.00000E+00
         0.00000E+00
         0.00000E+00
         0.00000E+00
         0.00000E+00
         0.00000E+00
         0.00000E+00
         0.00000E+00
         0.00000E+00
         0.00000E+00
         0.00000E+00
         0.00000E+00
         0.00000E+00
         0.00000E+00
         0.00000E+00
         0.00000E+00
         0.00000E+00
         0.00000E+00
         0.00000E+00
         0.00000E+00
         0.00000E+00
         0.00000E+00
         0.00000E+00
         0.00000E+00
         0.00000E+00
         0.00000E+00
         0.00000E+00
         0.00000E+00
         0.00000E+00
         0.00000E+00
         0.00000E+00
         0.00000E+00
         0.00000E+00
         0.00000E+00
         0.00000E+00
         0.00000E+00
         0.00000E+00
         0.00000E+00
         0.00000E+00
         0.00000E+00
         0.00000E+00
         0.00000E+00
         0.00000E+00
         0.00000E+00
         0.00000E+00
         0.00000E+00
         0.00000E+00
         0.00000E+00
         0.00000E+00
         0.00000E+00
         0.00000E+00
         0.00000E+00
         0.00000E+00
         0.00000E+00
         0.00000E+00
         0.00000E+00
         0.00000E+00
         0.00000E+00
         0.00000E+00
         0.00000E+00
         0.00000E+00
         0.00000E+00
         0.00000E+00
         0.00000E+00
         0.00000E+00
         0.00000E+00
         0.00000E+00
         0.00000E+00
         0.00000E+00
         0.00000E+00
         0.00000E+00
         0.00000E+00
         0.00000E+00
         0.00000E+00
         0.00000E+00
         0.00000E+00
         0.00000E+00
         0.00000E+00
         0.00000E+00
         0.00000E+00
         0.00000E+00
         0.00000E+00
         0.00000E+00
         0.00000E+00
         0.00000E+00
         0.00000E+00
         0.00000E+00
         0.00000E+00
         0.00000E+00
         0.00000E+00
         0.00000E+00
         0.00000E+00
         0.00000E+00
         0.00000E+00
         0.00000E+00
         0.00000E+00
         0.00000E+00
         0.00000E+00
         0.00000E+00
         0.00000E+00
         0.00000E+00
         0.00000E+00
         0.00000E+00
         0.00000E+00
         0.00000E+00
         0.00000E+00
         0.00000E+00
         0.00000E+00
         0.00000E+00
         0.00000E+00
         0.00000E+00
         0.00000E+00
         0.00000E+00
         0.00000E+00
         0.00000E+00
         0.00000E+00
         0.00000E+00
         0.00000E+00
         0.00000E+00
         0.00000E+00
         0.00000E+00
         0.00000E+00
         0.00000E+00
         0.00000E+00
         0.00000E+00
         0.00000E+00
         0.00000E+00
         0.00000E+00
         0.00000E+00
         0.00000E+00
         0.00000E+00
         0.00000E+00
         0.00000E+00
         0.00000E+00
         0.00000E+00
         0.00000E+00
         0.00000E+00
         0.00000E+00
         0.00000E+00
         0.00000E+00
         0.00000E+00
         0.00000E+00
         0.00000E+00
         0.00000E+00
         0.00000E+00
         0.00000E+00
         0.00000E+00
         0.00000E+00
         0.00000E+00
         0.00000E+00
         0.00000E+00
         0.00000E+00
         0.00000E+00
         0.00000E+00
         0.00000E+00
         0.00000E+00
         0.00000E+00
         0.00000E+00
         0.00000E+00
         0.00000E+00
         0.00000E+00
         0.00000E+00
         0.00000E+00
         0.00000E+00
         0.00000E+00
         0.00000E+00
         0.00000E+00
         0.00000E+00
         0.00000E+00
         0.00000E+00
         0.00000E+00
         0.00000E+00
         0.00000E+00
         0.00000E+00
         0.00000E+00
         0.00000E+00
         0.00000E+00
         0.00000E+00
         0.00000E+00
         0.00000E+00
         0.00000E+00
         0.00000E+00
         0.00000E+00
         0.00000E+00
         0.00000E+00
         0.00000E+00
         0.00000E+00
         0.00000E+00
         0.00000E+00
         0.00000E+00
         0.00000E+00
         0.00000E+00
         0.00000E+00
         0.00000E+00
         0.00000E+00
         0.00000E+00
         0.00000E+00
         0.00000E+00
         0.00000E+00
         0.00000E+00
         0.00000E+00
         0.00000E+00
         0.00000E+00
         0.00000E+00
         0.00000E+00
         0.00000E+00
         0.00000E+00
         0.00000E+00
         0.00000E+00
         0.00000E+00
         0.00000E+00
         0.00000E+00
         0.00000E+00
         0.00000E+00
         0.00000E+00
         0.00000E+00
         0.00000E+00
         0.00000E+00
         0.00000E+00
         0.00000E+00
         0.00000E+00
         0.00000E+00
         0.00000E+00
         0.00000E+00
         0.00000E+00
         0.00000E+00
         0.00000E+00
         0.00000E+00
         0.00000E+00
         0.00000E+00
         0.00000E+00
         0.00000E+00
         0.00000E+00
         0.00000E+00
         0.00000E+00
         0.00000E+00
         0.00000E+00
         0.00000E+00
         0.00000E+00
         0.00000E+00
         0.00000E+00
         0.00000E+00
         0.00000E+00
         0.00000E+00
         0.00000E+00
         0.00000E+00
         0.00000E+00
         0.00000E+00
         0.00000E+00
         0.00000E+00
         0.00000E+00
         0.00000E+00
         0.00000E+00
         0.00000E+00
         0.00000E+00
         0.00000E+00
         0.00000E+00
         0.00000E+00
         0.00000E+00
         0.00000E+00
         0.00000E+00
         0.00000E+00
         0.00000E+00
         0.00000E+00
         0.00000E+00
         0.00000E+00
         0.00000E+00
         0.00000E+00
         0.00000E+00
         0.00000E+00
         0.00000E+00
         0.00000E+00
         0.00000E+00
         0.00000E+00
         0.00000E+00
         0.00000E+00
         0.00000E+00
         0.00000E+00
         0.00000E+00
         0.00000E+00
         0.00000E+00
         0.00000E+00
         0.00000E+00
         0.00000E+00
         0.00000E+00
         0.00000E+00
         0.00000E+00
         0.00000E+00
         0.00000E+00
         0.00000E+00
         0.00000E+00
         0.00000E+00
         0.00000E+00
         0.00000E+00
         0.00000E+00
         0.00000E+00
         0.00000E+00
         0.00000E+00
         0.00000E+00
         0.00000E+00
         0.00000E+00
         0.00000E+00
         0.00000E+00
         0.00000E+00
         0.00000E+00
         0.00000E+00
         0.00000E+00
         0.00000E+00
         0.00000E+00
         0.00000E+00
         0.00000E+00
         0.00000E+00
         0.00000E+00
         0.00000E+00
         0.00000E+00
         0.00000E+00
         0.00000E+00
         0.00000E+00
         0.00000E+00
         0.00000E+00
         0.00000E+00
         0.00000E+00
         0.00000E+00
         0.00000E+00
         0.00000E+00
         0.00000E+00
         0.00000E+00
         0.00000E+00
         0.00000E+00
         0.00000E+00
         0.00000E+00
         0.00000E+00
         0.00000E+00
         0.00000E+00
         0.00000E+00
         0.00000E+00
         0.00000E+00
         0.00000E+00
         0.00000E+00
         0.00000E+00
         0.00000E+00
         0.00000E+00
         0.00000E+00
         0.00000E+00
         0.00000E+00
         0.00000E+00
         0.00000E+00
         0.00000E+00
         0.00000E+00
         0.00000E+00
         0.00000E+00
         0.00000E+00
         0.00000E+00
         0.00000E+00
         0.00000E+00
         0.00000E+00
         0.00000E+00
         0.00000E+00
         0.00000E+00
         0.00000E+00
         0.00000E+00
         0.00000E+00
         0.00000E+00
         0.00000E+00
         0.00000E+00
         0.00000E+00
         0.00000E+00
         0.00000E+00
         0.00000E+00
         0.00000E+00
         0.00000E+00
         0.00000E+00
         0.00000E+00
         0.00000E+00
         0.00000E+00
         0.00000E+00
         0.00000E+00
         0.00000E+00
         0.00000E+00
         0.00000E+00
         0.00000E+00
         0.00000E+00
         0.00000E+00
         0.00000E+00
         0.00000E+00
         0.00000E+00
         0.00000E+00
         0.00000E+00
         0.00000E+00
         0.00000E+00
         0.00000E+00
         0.00000E+00
         0.00000E+00
         0.00000E+00
         0.00000E+00
         0.00000E+00
         0.00000E+00
         0.00000E+00
         0.00000E+00
         0.00000E+00
         0.00000E+00
         0.00000E+00
         0.00000E+00
         0.00000E+00
         0.00000E+00
         0.00000E+00
         0.00000E+00
         0.00000E+00
         0.00000E+00
         0.00000E+00
         0.00000E+00
         0.00000E+00
         0.00000E+00
         0.00000E+00
         0.00000E+00
         0.00000E+00
         0.00000E+00
         0.00000E+00
         0.00000E+00
         0.00000E+00
         0.00000E+00
         0.00000E+00
         0.00000E+00
         0.00000E+00
         0.00000E+00
         0.00000E+00
         0.00000E+00
         0.00000E+00
         0.00000E+00
         0.00000E+00
         0.00000E+00
         0.00000E+00
         0.00000E+00
         0.00000E+00
         0.00000E+00
         0.00000E+00
         0.00000E+00
         0.00000E+00
         0.00000E+00
         0.00000E+00
         0.00000E+00
         0.00000E+00
         0.00000E+00
         0.00000E+00
         0.00000E+00
         0.00000E+00
         0.00000E+00
         0.00000E+00
         0.00000E+00
         0.00000E+00
         0.00000E+00
         0.00000E+00
         0.00000E+00
         0.00000E+00
         0.00000E+00
         0.00000E+00
         0.00000E+00
         0.00000E+00
         0.00000E+00
         0.00000E+00
         0.00000E+00
         0.00000E+00
         0.00000E+00
         0.00000E+00
         0.00000E+00
         0.00000E+00
         0.00000E+00
         0.00000E+00
         0.00000E+00
         0.00000E+00
         0.00000E+00
         0.00000E+00
         0.00000E+00
         0.00000E+00
         0.00000E+00
         0.00000E+00
         0.00000E+00
         0.00000E+00
         0.00000E+00
         0.00000E+00
         0.00000E+00
         0.00000E+00
         0.00000E+00
         0.00000E+00
         0.00000E+00
         0.00000E+00
         0.00000E+00
         0.00000E+00
         0.00000E+00
         0.00000E+00
         0.00000E+00
         0.00000E+00
         0.00000E+00
         0.00000E+00
         0.00000E+00
         0.00000E+00
         0.00000E+00
         0.00000E+00
         0.00000E+00
         0.00000E+00
         0.00000E+00
         0.00000E+00
         0.00000E+00
         0.00000E+00
         0.00000E+00
         0.00000E+00
         0.00000E+00
         0.00000E+00
         0.00000E+00
         0.00000E+00
         0.00000E+00
         0.00000E+00
         0.00000E+00
         0.00000E+00
         0.00000E+00
         0.00000E+00
         0.00000E+00
         0.00000E+00
         0.00000E+00
         0.00000E+00
         0.00000E+00
         0.00000E+00
         0.00000E+00
         0.00000E+00
         0.00000E+00
         0.00000E+00
         0.00000E+00
         0.00000E+00
         0.00000E+00
         0.00000E+00
         0.00000E+00
         0.00000E+00
         0.00000E+00
         0.00000E+00
         0.00000E+00
         0.00000E+00
         0.00000E+00
         0.00000E+00
         0.00000E+00
         0.00000E+00
         0.00000E+00
         0.00000E+00
         0.00000E+00
         0.00000E+00
         0.00000E+00
         0.00000E+00
         0.00000E+00
         0.00000E+00
         0.00000E+00
         0.00000E+00
         0.00000E+00
         0.00000E+00
         0.00000E+00
         0.00000E+00
         0.00000E+00
         0.00000E+00
         0.00000E+00
         0.00000E+00
         0.00000E+00
         0.00000E+00
         0.00000E+00
         0.00000E+00
         0.00000E+00
         0.00000E+00
         0.00000E+00
         0.00000E+00
         0.00000E+00
         0.00000E+00
         0.00000E+00
         0.00000E+00
         0.00000E+00
         0.00000E+00
         0.00000E+00
         0.00000E+00
         0.00000E+00
         0.00000E+00
         0.00000E+00
         0.00000E+00
         0.00000E+00
         0.00000E+00
         0.00000E+00
         0.00000E+00
         0.00000E+00
         0.00000E+00
         0.00000E+00
         0.00000E+00
         0.00000E+00
         0.00000E+00
         0.00000E+00
         0.00000E+00
         0.00000E+00
         0.00000E+00
         0.00000E+00
         0.00000E+00
         0.00000E+00
         0.00000E+00
         0.00000E+00
         0.00000E+00
         0.00000E+00
         0.00000E+00
         0.00000E+00
         0.00000E+00
         0.00000E+00
         0.00000E+00
         0.00000E+00
         0.00000E+00
         0.00000E+00
         0.00000E+00
         0.00000E+00
         0.00000E+00
         0.00000E+00
         0.00000E+00
         0.00000E+00
         0.00000E+00
         0.00000E+00
         0.00000E+00
         0.00000E+00
         0.00000E+00
         0.00000E+00
         0.00000E+00
         0.00000E+00
         0.00000E+00
         0.00000E+00
         0.00000E+00
         0.00000E+00
         0.00000E+00
         0.00000E+00
         0.00000E+00
         0.00000E+00
         0.00000E+00
         0.00000E+00
         0.00000E+00
         0.00000E+00
         0.00000E+00
         0.00000E+00
         0.00000E+00
         0.00000E+00
         0.00000E+00
         0.00000E+00
         0.00000E+00
         0.00000E+00
         0.00000E+00
         0.00000E+00
         0.00000E+00
         0.00000E+00
         0.00000E+00
         0.00000E+00
         0.00000E+00
         0.00000E+00
         0.00000E+00
         0.00000E+00
         0.00000E+00
         0.00000E+00
         0.00000E+00
         0.00000E+00
         0.00000E+00
         0.00000E+00
         0.00000E+00
         0.00000E+00
         0.00000E+00
         0.00000E+00
         0.00000E+00
         0.00000E+00
         0.00000E+00
         0.00000E+00
         0.00000E+00
         0.00000E+00
         0.00000E+00
         0.00000E+00
         0.00000E+00
         0.00000E+00
         0.00000E+00
         0.00000E+00
         0.00000E+00
         0.00000E+00
         0.00000E+00
         0.00000E+00
         0.00000E+00
         0.00000E+00
         0.00000E+00
         0.00000E+00
         0.00000E+00
         0.00000E+00
         0.00000E+00
         0.00000E+00
         0.00000E+00
         0.00000E+00
         0.00000E+00
         0.00000E+00
         0.00000E+00
         0.00000E+00
         0.00000E+00
         0.00000E+00
         0.00000E+00
         0.00000E+00
         0.00000E+00
         0.00000E+00
         0.00000E+00
         0.00000E+00
         0.00000E+00
         0.00000E+00
         0.00000E+00
         0.00000E+00
         0.00000E+00
         0.00000E+00
         0.00000E+00
         0.00000E+00
         0.00000E+00
         0.00000E+00
         0.00000E+00
         0.00000E+00
         0.00000E+00
         0.00000E+00
         0.00000E+00
         0.00000E+00
         0.00000E+00
         0.00000E+00
         0.00000E+00
         0.00000E+00
         0.00000E+00
         0.00000E+00
         0.00000E+00
         0.00000E+00
         0.00000E+00
         0.00000E+00
         0.00000E+00
         0.00000E+00
         0.00000E+00
         0.00000E+00
         0.00000E+00
         0.00000E+00
         0.00000E+00
         0.00000E+00
         0.00000E+00
         0.00000E+00
         0.00000E+00
         0.00000E+00
         0.00000E+00
         0.00000E+00
         0.00000E+00
         0.00000E+00
         0.00000E+00
         0.00000E+00
         0.00000E+00
         0.00000E+00
         0.00000E+00
         0.00000E+00
         0.00000E+00
         0.00000E+00
         0.00000E+00
         0.00000E+00
         0.00000E+00
         0.00000E+00
         0.00000E+00
         0.00000E+00
         0.00000E+00
         0.00000E+00
         0.00000E+00
         0.00000E+00
         0.00000E+00
         0.00000E+00
         0.00000E+00
         0.00000E+00
         0.00000E+00
         0.00000E+00
         0.00000E+00
         0.00000E+00
         0.00000E+00
         0.00000E+00
         0.00000E+00
         0.00000E+00
         0.00000E+00
         0.00000E+00
         0.00000E+00
         0.00000E+00
         0.00000E+00
         0.00000E+00
         0.00000E+00
         0.00000E+00
         0.00000E+00
         0.00000E+00
         0.00000E+00
         0.00000E+00
         0.00000E+00
         0.00000E+00
         0.00000E+00
         0.00000E+00
         0.00000E+00
         0.00000E+00
         0.00000E+00
         0.00000E+00
         0.00000E+00
         0.00000E+00
         0.00000E+00
         0.00000E+00
         0.00000E+00
         0.00000E+00
         0.00000E+00
         0.00000E+00
         0.00000E+00
         0.00000E+00
         0.00000E+00
         0.00000E+00
         0.00000E+00
         0.00000E+00
         0.00000E+00
         0.00000E+00
         0.00000E+00
         0.00000E+00
         0.00000E+00
         0.00000E+00
         0.00000E+00
         0.00000E+00
         0.00000E+00
         0.00000E+00
         0.00000E+00
         0.00000E+00
         0.00000E+00
         0.00000E+00
         0.00000E+00
         0.00000E+00
         0.00000E+00
         0.00000E+00
         0.00000E+00
         0.00000E+00
         0.00000E+00
         0.00000E+00
         0.00000E+00
         0.00000E+00
         0.00000E+00
         0.00000E+00
         0.00000E+00
         0.00000E+00
         0.00000E+00
         0.00000E+00
         0.00000E+00
         0.00000E+00
         0.00000E+00
         0.00000E+00
         0.00000E+00
         0.00000E+00
         0.00000E+00
         0.00000E+00
         0.00000E+00
         0.00000E+00
         0.00000E+00
         0.00000E+00
         0.00000E+00
         0.00000E+00
         0.00000E+00
         0.00000E+00
         0.00000E+00
         0.00000E+00
         0.00000E+00
         0.00000E+00
         0.00000E+00
         0.00000E+00
         0.00000E+00
         0.00000E+00
         0.00000E+00
         0.00000E+00
         0.00000E+00
         0.00000E+00
         0.00000E+00
         0.00000E+00
         0.00000E+00
         0.00000E+00
         0.00000E+00
         0.00000E+00
         0.00000E+00
         0.00000E+00
         0.00000E+00
         0.00000E+00
         0.00000E+00
         0.00000E+00
         0.00000E+00
         0.00000E+00
         0.00000E+00
         0.00000E+00
         0.00000E+00
         0.00000E+00
         0.00000E+00
         0.00000E+00
         0.00000E+00
         0.00000E+00
         0.00000E+00
         0.00000E+00
         0.00000E+00
         0.00000E+00
         0.00000E+00
         0.00000E+00
         0.00000E+00
         0.00000E+00
         0.00000E+00
         0.00000E+00
         0.00000E+00
         0.00000E+00
         0.00000E+00
         0.00000E+00
         0.00000E+00
         0.00000E+00
         0.00000E+00
         0.00000E+00
         0.00000E+00
         0.00000E+00
         0.00000E+00
         0.00000E+00
         0.00000E+00
         0.00000E+00
         0.00000E+00
         0.00000E+00
         0.00000E+00
         0.00000E+00
         0.00000E+00
         0.00000E+00
         0.00000E+00
         0.00000E+00
         0.00000E+00
         0.00000E+00
         0.00000E+00
         0.00000E+00
         0.00000E+00
         0.00000E+00
         0.00000E+00
         0.00000E+00
         0.00000E+00
         0.00000E+00
         0.00000E+00
         0.00000E+00
         0.00000E+00
         0.00000E+00
         0.00000E+00
         0.00000E+00
         0.00000E+00
         0.00000E+00
         0.00000E+00
         0.00000E+00
         0.00000E+00
         0.00000E+00
         0.00000E+00
         0.00000E+00
         0.00000E+00
         0.00000E+00
         0.00000E+00
         0.00000E+00
         0.00000E+00
         0.00000E+00
         0.00000E+00
         0.00000E+00
         0.00000E+00
         0.00000E+00
         0.00000E+00
         0.00000E+00
         0.00000E+00
         0.00000E+00
         0.00000E+00
         0.00000E+00
         0.00000E+00
         0.00000E+00
         0.00000E+00
         0.00000E+00
         0.00000E+00
         0.00000E+00
         0.00000E+00
         0.00000E+00
         0.00000E+00
         0.00000E+00
         0.00000E+00
         0.00000E+00
         0.00000E+00
         0.00000E+00
         0.00000E+00
         0.00000E+00
         0.00000E+00
         0.00000E+00
         0.00000E+00
         0.00000E+00
         0.00000E+00
         0.00000E+00
         0.00000E+00
         0.00000E+00
         0.00000E+00
         0.00000E+00
         0.00000E+00
         0.00000E+00
         0.00000E+00
         0.00000E+00
         0.00000E+00
         0.00000E+00
         0.00000E+00
         0.00000E+00
         0.00000E+00
         0.00000E+00
         0.00000E+00
         0.00000E+00
         0.00000E+00
         0.00000E+00
         0.00000E+00
         0.00000E+00
         0.00000E+00
         0.00000E+00
         0.00000E+00
         0.00000E+00
         0.00000E+00
         0.00000E+00
         0.00000E+00
         0.00000E+00
         0.00000E+00
         0.00000E+00
         0.00000E+00
         0.00000E+00
         0.00000E+00
         0.00000E+00
         0.00000E+00
         0.00000E+00
         0.00000E+00
         0.00000E+00
         0.00000E+00
         0.00000E+00
         0.00000E+00
         0.00000E+00
         0.00000E+00
         0.00000E+00
         0.00000E+00
         0.00000E+00
         0.00000E+00
         0.00000E+00
         0.00000E+00
         0.00000E+00
         0.00000E+00
         0.00000E+00
         0.00000E+00
         0.00000E+00
         0.00000E+00
         0.00000E+00
         0.00000E+00
         0.00000E+00
         0.00000E+00
         0.00000E+00
         0.00000E+00
         0.00000E+00
         0.00000E+00
         0.00000E+00
         0.00000E+00
         0.00000E+00
         0.00000E+00
         0.00000E+00
         0.00000E+00
         0.00000E+00
         0.00000E+00
         0.00000E+00
         0.00000E+00
         0.00000E+00
         0.00000E+00
         0.00000E+00
         0.00000E+00
         0.00000E+00
         0.00000E+00
         0.00000E+00
         0.00000E+00
         0.00000E+00
         0.00000E+00
         0.00000E+00
         0.00000E+00
         0.00000E+00
         0.00000E+00
         0.00000E+00
         0.00000E+00
         0.00000E+00
         0.00000E+00
         0.00000E+00
         0.00000E+00
         0.00000E+00
         0.00000E+00
         0.00000E+00
         0.00000E+00
         0.00000E+00
         0.00000E+00
         0.00000E+00
         0.00000E+00
         0.00000E+00
         0.00000E+00
         0.00000E+00
         0.00000E+00
         0.00000E+00
         0.00000E+00
         0.00000E+00
         0.00000E+00
         0.00000E+00
         0.00000E+00
         0.00000E+00
         0.00000E+00
         0.00000E+00
         0.00000E+00
         0.00000E+00
         0.00000E+00
         0.00000E+00
         0.00000E+00
         0.00000E+00
         0.00000E+00
         0.00000E+00
         0.00000E+00
         0.00000E+00
         0.00000E+00
         0.00000E+00
         0.00000E+00
         0.00000E+00
         0.00000E+00
         0.00000E+00
         0.00000E+00
         0.00000E+00
         0.00000E+00
         0.00000E+00
         0.00000E+00
         0.00000E+00
         0.00000E+00
         0.00000E+00
         0.00000E+00
         0.00000E+00
         0.00000E+00
         0.00000E+00
         0.00000E+00
         0.00000E+00
         0.00000E+00
         0.00000E+00
         0.00000E+00
         0.00000E+00
         0.00000E+00
         0.00000E+00
         0.00000E+00
         0.00000E+00
         0.00000E+00
         0.00000E+00
         0.00000E+00
         0.00000E+00
         0.00000E+00
         0.00000E+00
         0.00000E+00
         0.00000E+00
         0.00000E+00
         0.00000E+00
         0.00000E+00
         0.00000E+00
         0.00000E+00
         0.00000E+00
         0.00000E+00
         0.00000E+00
         0.00000E+00
         0.00000E+00
         0.00000E+00
         0.00000E+00
         0.00000E+00
         0.00000E+00
         0.00000E+00
         0.00000E+00
         0.00000E+00
         0.00000E+00
         0.00000E+00
         0.00000E+00
         0.00000E+00
         0.00000E+00
         0.00000E+00
         0.00000E+00
         0.00000E+00
         0.00000E+00
         0.00000E+00
         0.00000E+00
         0.00000E+00
         0.00000E+00
         0.00000E+00
         0.00000E+00
         0.00000E+00
         0.00000E+00
         0.00000E+00
         0.00000E+00
         0.00000E+00
         0.00000E+00
         0.00000E+00
         0.00000E+00
         0.00000E+00
         0.00000E+00
         0.00000E+00
         0.00000E+00
         0.00000E+00
         0.00000E+00
         0.00000E+00
         0.00000E+00
         0.00000E+00
         0.00000E+00
         0.00000E+00
         0.00000E+00
         0.00000E+00
         0.00000E+00
         0.00000E+00
         0.00000E+00
         0.00000E+00
         0.00000E+00
         0.00000E+00
         0.00000E+00
         0.00000E+00
         0.00000E+00
         0.00000E+00
         0.00000E+00
         0.00000E+00
         0.00000E+00
         0.00000E+00
         0.00000E+00
         0.00000E+00
         0.00000E+00
         0.00000E+00
         0.00000E+00
         0.00000E+00
         0.00000E+00
         0.00000E+00
         0.00000E+00
         0.00000E+00
         0.00000E+00
         0.00000E+00
         0.00000E+00
         0.00000E+00
         0.00000E+00
         0.00000E+00
         0.00000E+00
         0.00000E+00
         0.00000E+00
         0.00000E+00
         0.00000E+00
         0.00000E+00
         0.00000E+00
         0.00000E+00
         0.00000E+00
         0.00000E+00
         0.00000E+00
         0.00000E+00
         0.00000E+00
         0.00000E+00
         0.00000E+00
         0.00000E+00
         0.00000E+00
         0.00000E+00
         0.00000E+00
         0.00000E+00
         0.00000E+00
         0.00000E+00
         0.00000E+00
         0.00000E+00
         0.00000E+00
         0.00000E+00
         0.00000E+00
         0.00000E+00
         0.00000E+00
         0.00000E+00
         0.00000E+00
         0.00000E+00
         0.00000E+00
         0.00000E+00
         0.00000E+00
         0.00000E+00
         0.00000E+00
         0.00000E+00
         0.00000E+00
         0.00000E+00
         0.00000E+00
         0.00000E+00
         0.00000E+00
         0.00000E+00
         0.00000E+00
         0.00000E+00
         0.00000E+00
         0.00000E+00
         0.00000E+00
         0.00000E+00
         0.00000E+00
         0.00000E+00
         0.00000E+00
         0.00000E+00
         0.00000E+00
         0.00000E+00
         0.00000E+00
         0.00000E+00
         0.00000E+00
         0.00000E+00
         0.00000E+00
         0.00000E+00
         0.00000E+00
         0.00000E+00
         0.00000E+00
         0.00000E+00
         0.00000E+00
         0.00000E+00
         0.00000E+00
         0.00000E+00
         0.00000E+00
         0.00000E+00
         0.00000E+00
         0.00000E+00
         0.00000E+00
         0.00000E+00
         0.00000E+00
         0.00000E+00
         0.00000E+00
         0.00000E+00
         0.00000E+00
         0.00000E+00
         0.00000E+00
         0.00000E+00
         0.00000E+00
         0.00000E+00
         0.00000E+00
         0.00000E+00
         0.00000E+00
         0.00000E+00
         0.00000E+00
         0.00000E+00
         0.00000E+00
         0.00000E+00
         0.00000E+00
         0.00000E+00
         0.00000E+00
         0.00000E+00
         0.00000E+00
         0.00000E+00
         0.00000E+00
         0.00000E+00
         0.00000E+00
         0.00000E+00
         0.00000E+00
         0.00000E+00
         0.00000E+00
         0.00000E+00
         0.00000E+00
         0.00000E+00
         0.00000E+00
         0.00000E+00
         0.00000E+00
         0.00000E+00
         0.00000E+00
         0.00000E+00
         0.00000E+00
         0.00000E+00
         0.00000E+00
         0.00000E+00
         0.00000E+00
         0.00000E+00
         0.00000E+00
         0.00000E+00
         0.00000E+00
         0.00000E+00
         0.00000E+00
         0.00000E+00
         0.00000E+00
         0.00000E+00
         0.00000E+00
         0.00000E+00
         0.00000E+00
         0.00000E+00
         0.00000E+00
         0.00000E+00
         0.00000E+00
         0.00000E+00
         0.00000E+00
         0.00000E+00
         0.00000E+00
         0.00000E+00
         0.00000E+00
         0.00000E+00
         0.00000E+00
         0.00000E+00
         0.00000E+00
         0.00000E+00
         0.00000E+00
         0.00000E+00
         0.00000E+00
         0.00000E+00
         0.00000E+00
         0.00000E+00
         0.00000E+00
         0.00000E+00
         0.00000E+00
         0.00000E+00
         0.00000E+00
         0.00000E+00
  
SCALARS                            eps  double 1
LOOKUP_TABLE default
         0.34079E+01
         0.33644E+01
         0.33920E+01
         0.34415E+01
         0.00000E+00
         0.00000E+00
         0.00000E+00
         0.00000E+00
         0.33632E+01
         0.33777E+01
         0.00000E+00
         0.00000E+00
         0.33015E+01
         0.32991E+01
         0.00000E+00
         0.00000E+00
         0.34342E+01
         0.33026E+01
         0.00000E+00
         0.00000E+00
         0.32541E+01
         0.32167E+01
         0.32765E+01
         0.00000E+00
         0.00000E+00
         0.00000E+00
         0.32181E+01
         0.31632E+01
         0.00000E+00
         0.00000E+00
         0.34318E+01
         0.33746E+01
         0.34873E+01
         0.00000E+00
         0.00000E+00
         0.00000E+00
         0.33987E+01
         0.33257E+01
         0.00000E+00
         0.00000E+00
         0.33699E+01
         0.33136E+01
         0.00000E+00
         0.00000E+00
         0.34175E+01
         0.34386E+01
         0.00000E+00
         0.00000E+00
         0.32683E+01
         0.00000E+00
         0.34345E+01
         0.00000E+00
         0.32022E+01
         0.00000E+00
         0.31849E+01
         0.00000E+00
         0.31853E+01
         0.32465E+01
         0.00000E+00
         0.00000E+00
         0.34307E+01
         0.34087E+01
         0.00000E+00
         0.00000E+00
         0.34444E+01
         0.00000E+00
         0.34183E+01
         0.00000E+00
         0.33499E+01
         0.33427E+01
         0.00000E+00
         0.00000E+00
         0.33271E+01
         0.00000E+00
         0.31438E+01
         0.00000E+00
         0.31342E+01
         0.00000E+00
         0.31391E+01
         0.00000E+00
         0.31659E+01
         0.31933E+01
         0.00000E+00
         0.00000E+00
         0.32487E+01
         0.00000E+00
         0.34165E+01
         0.00000E+00
         0.33904E+01
         0.00000E+00
         0.33693E+01
         0.33571E+01
         0.00000E+00
         0.00000E+00
         0.33715E+01
         0.00000E+00
         0.33818E+01
         0.00000E+00
         0.33726E+01
         0.00000E+00
         0.33696E+01
         0.33788E+01
         0.00000E+00
         0.00000E+00
         0.33189E+01
         0.33440E+01
         0.00000E+00
         0.00000E+00
         0.33145E+01
         0.00000E+00
         0.33435E+01
         0.00000E+00
         0.33151E+01
         0.00000E+00
         0.32527E+01
         0.00000E+00
         0.31924E+01
         0.00000E+00
         0.31561E+01
         0.00000E+00
         0.31524E+01
         0.00000E+00
         0.31535E+01
         0.00000E+00
         0.31927E+01
         0.00000E+00
         0.32668E+01
         0.00000E+00
         0.33478E+01
         0.00000E+00
         0.33949E+01
         0.00000E+00
         0.34415E+01
         0.00000E+00
         0.34723E+01
         0.00000E+00
         0.34713E+01
         0.00000E+00
         0.33958E+01
         0.00000E+00
         0.33430E+01
         0.00000E+00
         0.33256E+01
         0.00000E+00
         0.33540E+01
         0.00000E+00
         0.33684E+01
         0.00000E+00
         0.33434E+01
         0.00000E+00
         0.33434E+01
         0.00000E+00
         0.33623E+01
         0.00000E+00
         0.33868E+01
         0.00000E+00
         0.30807E+00
         0.31036E+00
         0.31006E+00
         0.30701E+00
         0.31248E+00
         0.30983E+00
         0.31302E+00
         0.31140E+00
         0.30752E+00
         0.31000E+00
         0.31466E+00
         0.31525E+00
         0.31392E+00
         0.31375E+00
         0.31471E+00
         0.30717E+00
         0.30775E+00
         0.30608E+00
         0.31060E+00
         0.30982E+00
         0.31100E+00
         0.31028E+00
         0.31160E+00
         0.31119E+00
         0.30990E+00
         0.30998E+00
         0.31217E+00
         0.31197E+00
         0.31350E+00
         0.31117E+00
         0.30746E+00
         0.31039E+00
         0.30747E+00
         0.30943E+00
         0.31556E+00
         0.31373E+00
         0.31284E+00
         0.31394E+00
         0.31404E+00
         0.31566E+00
         0.31683E+00
         0.31399E+00
         0.31097E+00
         0.31137E+00
         0.31294E+00
         0.31551E+00
         0.31331E+00
         0.31078E+00
         0.31095E+00
         0.31292E+00
         0.31483E+00
         0.31225E+00
         0.32002E+00
         0.31834E+00
         0.31872E+00
         0.31836E+00
         0.31860E+00
         0.31976E+00
         0.32064E+00
         0.32072E+00
         0.32054E+00
         0.32071E+00
         0.32102E+00
         0.31859E+00
         0.31731E+00
         0.31681E+00
         0.31618E+00
         0.31571E+00
         0.31581E+00
         0.31683E+00
         0.31955E+00
         0.31902E+00
         0.31797E+00
         0.31788E+00
         0.31807E+00
         0.31891E+00
         0.31763E+00
         0.31715E+00
         0.34437E-02
         0.82498E-03
         0.60224E-03
         0.00000E+00
         0.36971E-02
         0.15915E-02
         0.00000E+00
         0.33351E-02
         0.92451E-03
         0.29617E-02
         0.00000E+00
         0.97114E-02
         0.66035E-02
         0.17323E-02
         0.10324E-01
         0.16479E-02
         0.00000E+00
         0.00000E+00
         0.96798E-04
         0.00000E+00
         0.69521E-02
         0.63254E-02
         0.60769E-02
         0.00000E+00
         0.80677E-03
         0.00000E+00
         0.14584E-02
         0.00000E+00
         0.00000E+00
         0.11378E-02
         0.95483E-03
         0.00000E+00
         0.00000E+00
         0.00000E+00
         0.57030E-02
         0.21509E-02
         0.37061E-02
         0.78261E-02
         0.52856E-02
         0.47006E-02
         0.80120E-02
         0.69641E-02
         0.70317E-02
         0.47269E-02
         0.38841E-02
         0.64771E-02
         0.31591E-02
         0.22180E-02
         0.12828E-02
         0.20780E-02
         0.53917E-02
         0.27157E-02
         0.34739E-01
         0.35653E-01
         0.37427E-01
         0.37130E-01
         0.39812E-01
         0.43007E-01
         0.41125E-01
         0.36179E-01
         0.35168E-01
         0.37883E-01
         0.37057E-01
         0.36505E-01
         0.29576E-01
         0.27947E-01
         0.31040E-01
         0.33494E-01
         0.34890E-01
         0.38424E-01
         0.36826E-01
         0.37918E-01
         0.33795E-01
         0.31913E-01
         0.34264E-01
         0.33418E-01
         0.34490E-01
         0.34170E-01
         0.34486E-02
         0.82584E-03
         0.60433E-03
         0.00000E+00
         0.36940E-02
         0.15888E-02
         0.00000E+00
         0.33414E-02
         0.93147E-03
         0.29796E-02
         0.00000E+00
         0.97110E-02
         0.66073E-02
         0.17209E-02
         0.10338E-01
         0.16517E-02
         0.00000E+00
         0.00000E+00
         0.98646E-04
         0.00000E+00
         0.69529E-02
         0.63247E-02
         0.60763E-02
         0.00000E+00
         0.82359E-03
         0.00000E+00
         0.14600E-02
         0.00000E+00
         0.00000E+00
         0.11453E-02
         0.95873E-03
         0.00000E+00
         0.00000E+00
         0.00000E+00
         0.57069E-02
         0.21494E-02
         0.37045E-02
         0.78433E-02
         0.53045E-02
         0.47115E-02
         0.80194E-02
         0.69694E-02
         0.70330E-02
         0.47267E-02
         0.38827E-02
         0.64766E-02
         0.31592E-02
         0.22176E-02
         0.12766E-02
         0.20709E-02
         0.53869E-02
         0.27067E-02
         0.34725E-01
         0.35644E-01
         0.37427E-01
         0.37130E-01
         0.39805E-01
         0.42991E-01
         0.41107E-01
         0.36168E-01
         0.35158E-01
         0.37870E-01
         0.37050E-01
         0.36507E-01
         0.29573E-01
         0.27945E-01
         0.31044E-01
         0.33503E-01
         0.34899E-01
         0.38432E-01
         0.36824E-01
         0.37916E-01
         0.33791E-01
         0.31911E-01
         0.34251E-01
         0.33394E-01
         0.34468E-01
         0.34150E-01
         0.34536E-02
         0.82677E-03
         0.60645E-03
         0.00000E+00
         0.36909E-02
         0.15862E-02
         0.00000E+00
         0.33476E-02
         0.93846E-03
         0.29975E-02
         0.00000E+00
         0.97106E-02
         0.66112E-02
         0.17096E-02
         0.10352E-01
         0.16556E-02
         0.00000E+00
         0.00000E+00
         0.10054E-03
         0.00000E+00
         0.69539E-02
         0.63241E-02
         0.60757E-02
         0.00000E+00
         0.84026E-03
         0.00000E+00
         0.14614E-02
         0.00000E+00
         0.00000E+00
         0.11525E-02
         0.96269E-03
         0.00000E+00
         0.00000E+00
         0.00000E+00
         0.57109E-02
         0.21481E-02
         0.37029E-02
         0.78605E-02
         0.53236E-02
         0.47225E-02
         0.80270E-02
         0.69748E-02
         0.70344E-02
         0.47269E-02
         0.38815E-02
         0.64764E-02
         0.31592E-02
         0.22173E-02
         0.12704E-02
         0.20638E-02
         0.53823E-02
         0.26978E-02
         0.34711E-01
         0.35635E-01
         0.37426E-01
         0.37130E-01
         0.39798E-01
         0.42975E-01
         0.41088E-01
         0.36158E-01
         0.35148E-01
         0.37858E-01
         0.37044E-01
         0.36508E-01
         0.29570E-01
         0.27944E-01
         0.31048E-01
         0.33512E-01
         0.34910E-01
         0.38442E-01
         0.36822E-01
         0.37913E-01
         0.33787E-01
         0.31908E-01
         0.34238E-01
         0.33370E-01
         0.34447E-01
         0.34130E-01
         0.34586E-02
         0.82766E-03
         0.60857E-03
         0.00000E+00
         0.36877E-02
         0.15835E-02
         0.00000E+00
         0.33538E-02
         0.94542E-03
         0.30149E-02
         0.00000E+00
         0.97102E-02
         0.66152E-02
         0.16982E-02
         0.10366E-01
         0.16599E-02
         0.00000E+00
         0.00000E+00
         0.10258E-03
         0.00000E+00
         0.69552E-02
         0.63237E-02
         0.60759E-02
         0.00000E+00
         0.85660E-03
         0.00000E+00
         0.14627E-02
         0.00000E+00
         0.00000E+00
         0.11591E-02
         0.96682E-03
         0.00000E+00
         0.00000E+00
         0.00000E+00
         0.57147E-02
         0.21466E-02
         0.37012E-02
         0.78777E-02
         0.53430E-02
         0.47340E-02
         0.80351E-02
         0.69804E-02
         0.70362E-02
         0.47278E-02
         0.38807E-02
         0.64762E-02
         0.31597E-02
         0.22170E-02
         0.12642E-02
         0.20566E-02
         0.53774E-02
         0.26887E-02
         0.34697E-01
         0.35625E-01
         0.37426E-01
         0.37131E-01
         0.39791E-01
         0.42960E-01
         0.41069E-01
         0.36147E-01
         0.35138E-01
         0.37845E-01
         0.37037E-01
         0.36510E-01
         0.29568E-01
         0.27943E-01
         0.31053E-01
         0.33523E-01
         0.34921E-01
         0.38451E-01
         0.36819E-01
         0.37911E-01
         0.33783E-01
         0.31906E-01
         0.34225E-01
         0.33346E-01
         0.34426E-01
         0.34110E-01
         0.34636E-02
         0.82855E-03
         0.61068E-03
         0.00000E+00
         0.36847E-02
         0.15808E-02
         0.00000E+00
         0.33599E-02
         0.95232E-03
         0.30319E-02
         0.00000E+00
         0.97098E-02
         0.66191E-02
         0.16869E-02
         0.10380E-01
         0.16645E-02
         0.00000E+00
         0.00000E+00
         0.10467E-03
         0.00000E+00
         0.69567E-02
         0.63235E-02
         0.60765E-02
         0.00000E+00
         0.87255E-03
         0.00000E+00
         0.14638E-02
         0.00000E+00
         0.00000E+00
         0.11650E-02
         0.97110E-03
         0.00000E+00
         0.00000E+00
         0.00000E+00
         0.57187E-02
         0.21451E-02
         0.36997E-02
         0.78950E-02
         0.53626E-02
         0.47461E-02
         0.80437E-02
         0.69863E-02
         0.70386E-02
         0.47295E-02
         0.38804E-02
         0.64766E-02
         0.31605E-02
         0.22169E-02
         0.12580E-02
         0.20494E-02
         0.53728E-02
         0.26797E-02
         0.34684E-01
         0.35616E-01
         0.37426E-01
         0.37131E-01
         0.39784E-01
         0.42944E-01
         0.41051E-01
         0.36137E-01
         0.35128E-01
         0.37833E-01
         0.37030E-01
         0.36513E-01
         0.29567E-01
         0.27942E-01
         0.31058E-01
         0.33534E-01
         0.34934E-01
         0.38461E-01
         0.36817E-01
         0.37909E-01
         0.33779E-01
         0.31904E-01
         0.34213E-01
         0.33322E-01
         0.34404E-01
         0.34090E-01
         0.34682E-02
         0.82920E-03
         0.61271E-03
         0.00000E+00
         0.36816E-02
         0.15781E-02
         0.00000E+00
         0.33656E-02
         0.95927E-03
         0.30485E-02
         0.00000E+00
         0.97095E-02
         0.66230E-02
         0.16756E-02
         0.10394E-01
         0.16692E-02
         0.00000E+00
         0.00000E+00
         0.10677E-03
         0.00000E+00
         0.69585E-02
         0.63234E-02
         0.60774E-02
         0.00000E+00
         0.88815E-03
         0.00000E+00
         0.14648E-02
         0.00000E+00
         0.00000E+00
         0.11707E-02
         0.97528E-03
         0.00000E+00
         0.00000E+00
         0.00000E+00
         0.57228E-02
         0.21439E-02
         0.36984E-02
         0.79124E-02
         0.53826E-02
         0.47586E-02
         0.80524E-02
         0.69923E-02
         0.70411E-02
         0.47314E-02
         0.38806E-02
         0.64775E-02
         0.31613E-02
         0.22170E-02
         0.12522E-02
         0.20424E-02
         0.53682E-02
         0.26710E-02
         0.34670E-01
         0.35607E-01
         0.37426E-01
         0.37131E-01
         0.39777E-01
         0.42928E-01
         0.41032E-01
         0.36126E-01
         0.35119E-01
         0.37820E-01
         0.37024E-01
         0.36515E-01
         0.29565E-01
         0.27942E-01
         0.31063E-01
         0.33547E-01
         0.34947E-01
         0.38472E-01
         0.36815E-01
         0.37906E-01
         0.33775E-01
         0.31902E-01
         0.34200E-01
         0.33298E-01
         0.34383E-01
         0.34070E-01
         0.34726E-02
         0.82933E-03
         0.61466E-03
         0.00000E+00
         0.36786E-02
         0.15756E-02
         0.00000E+00
         0.33705E-02
         0.96635E-03
         0.30644E-02
         0.00000E+00
         0.97096E-02
         0.66274E-02
         0.16644E-02
         0.10408E-01
         0.16739E-02
         0.00000E+00
         0.00000E+00
         0.10892E-03
         0.00000E+00
         0.69602E-02
         0.63235E-02
         0.60784E-02
         0.00000E+00
         0.90326E-03
         0.00000E+00
         0.14660E-02
         0.00000E+00
         0.00000E+00
         0.11764E-02
         0.97916E-03
         0.00000E+00
         0.00000E+00
         0.00000E+00
         0.57270E-02
         0.21429E-02
         0.36972E-02
         0.79300E-02
         0.54027E-02
         0.47710E-02
         0.80614E-02
         0.69984E-02
         0.70437E-02
         0.47334E-02
         0.38811E-02
         0.64788E-02
         0.31627E-02
         0.22177E-02
         0.12472E-02
         0.20357E-02
         0.53640E-02
         0.26622E-02
         0.34656E-01
         0.35597E-01
         0.37425E-01
         0.37131E-01
         0.39769E-01
         0.42912E-01
         0.41013E-01
         0.36115E-01
         0.35109E-01
         0.37808E-01
         0.37017E-01
         0.36518E-01
         0.29564E-01
         0.27941E-01
         0.31068E-01
         0.33559E-01
         0.34960E-01
         0.38482E-01
         0.36813E-01
         0.37903E-01
         0.33772E-01
         0.31900E-01
         0.34187E-01
         0.33274E-01
         0.34362E-01
         0.34050E-01
         0.34767E-02
         0.82934E-03
         0.61656E-03
         0.00000E+00
         0.36758E-02
         0.15729E-02
         0.00000E+00
         0.33749E-02
         0.97352E-03
         0.30799E-02
         0.00000E+00
         0.97097E-02
         0.66318E-02
         0.16532E-02
         0.10423E-01
         0.16787E-02
         0.00000E+00
         0.00000E+00
         0.11105E-03
         0.00000E+00
         0.69620E-02
         0.63235E-02
         0.60794E-02
         0.00000E+00
         0.91815E-03
         0.00000E+00
         0.14673E-02
         0.00000E+00
         0.00000E+00
         0.11821E-02
         0.98292E-03
         0.00000E+00
         0.00000E+00
         0.00000E+00
         0.57313E-02
         0.21422E-02
         0.36963E-02
         0.79477E-02
         0.54229E-02
         0.47836E-02
         0.80703E-02
         0.70047E-02
         0.70464E-02
         0.47356E-02
         0.38818E-02
         0.64804E-02
         0.31643E-02
         0.22184E-02
         0.12425E-02
         0.20291E-02
         0.53599E-02
         0.26536E-02
         0.34642E-01
         0.35588E-01
         0.37425E-01
         0.37132E-01
         0.39762E-01
         0.42897E-01
         0.40994E-01
         0.36105E-01
         0.35099E-01
         0.37795E-01
         0.37011E-01
         0.36521E-01
         0.29563E-01
         0.27940E-01
         0.31074E-01
         0.33571E-01
         0.34973E-01
         0.38491E-01
         0.36810E-01
         0.37901E-01
         0.33768E-01
         0.31898E-01
         0.34174E-01
         0.33250E-01
         0.34341E-01
         0.34030E-01
         0.34808E-02
         0.82935E-03
         0.61845E-03
         0.00000E+00
         0.36729E-02
         0.15702E-02
         0.00000E+00
         0.33794E-02
         0.98071E-03
         0.30954E-02
         0.00000E+00
         0.97097E-02
         0.66362E-02
         0.16422E-02
         0.10437E-01
         0.16834E-02
         0.00000E+00
         0.00000E+00
         0.11316E-03
         0.00000E+00
         0.69637E-02
         0.63235E-02
         0.60805E-02
         0.00000E+00
         0.93302E-03
         0.00000E+00
         0.14686E-02
         0.00000E+00
         0.00000E+00
         0.11877E-02
         0.98667E-03
         0.00000E+00
         0.00000E+00
         0.00000E+00
         0.57358E-02
         0.21412E-02
         0.36953E-02
         0.79654E-02
         0.54432E-02
         0.47960E-02
         0.80793E-02
         0.70109E-02
         0.70491E-02
         0.47379E-02
         0.38826E-02
         0.64819E-02
         0.31657E-02
         0.22193E-02
         0.12380E-02
         0.20227E-02
         0.53560E-02
         0.26449E-02
         0.34628E-01
         0.35579E-01
         0.37424E-01
         0.37132E-01
         0.39755E-01
         0.42881E-01
         0.40975E-01
         0.36094E-01
         0.35089E-01
         0.37782E-01
         0.37004E-01
         0.36523E-01
         0.29562E-01
         0.27940E-01
         0.31079E-01
         0.33584E-01
         0.34987E-01
         0.38501E-01
         0.36807E-01
         0.37898E-01
         0.33765E-01
         0.31897E-01
         0.34161E-01
         0.33226E-01
         0.34320E-01
         0.34010E-01
         0.34849E-02
         0.82929E-03
         0.62031E-03
         0.00000E+00
         0.36700E-02
         0.15675E-02
         0.00000E+00
         0.33839E-02
         0.98789E-03
         0.31109E-02
         0.00000E+00
         0.97098E-02
         0.66408E-02
         0.16311E-02
         0.10451E-01
         0.16882E-02
         0.00000E+00
         0.00000E+00
         0.11525E-03
         0.00000E+00
         0.69655E-02
         0.63235E-02
         0.60813E-02
         0.00000E+00
         0.94787E-03
         0.00000E+00
         0.14699E-02
         0.00000E+00
         0.00000E+00
         0.11934E-02
         0.99039E-03
         0.00000E+00
         0.00000E+00
         0.00000E+00
         0.57400E-02
         0.21405E-02
         0.36944E-02
         0.79832E-02
         0.54634E-02
         0.48085E-02
         0.80882E-02
         0.70170E-02
         0.70517E-02
         0.47402E-02
         0.38832E-02
         0.64834E-02
         0.31673E-02
         0.22202E-02
         0.12333E-02
         0.20161E-02
         0.53518E-02
         0.26362E-02
         0.34614E-01
         0.35570E-01
         0.37424E-01
         0.37132E-01
         0.39748E-01
         0.42865E-01
         0.40956E-01
         0.36083E-01
         0.35080E-01
         0.37770E-01
         0.36997E-01
         0.36526E-01
         0.29561E-01
         0.27939E-01
         0.31084E-01
         0.33596E-01
         0.35000E-01
         0.38511E-01
         0.36804E-01
         0.37896E-01
         0.33762E-01
         0.31895E-01
         0.34148E-01
         0.33202E-01
         0.34299E-01
         0.33990E-01
         0.34890E-02
         0.82922E-03
         0.62220E-03
         0.00000E+00
         0.36672E-02
         0.15649E-02
         0.00000E+00
         0.33883E-02
         0.99510E-03
         0.31264E-02
         0.00000E+00
         0.97098E-02
         0.66452E-02
         0.16200E-02
         0.10466E-01
         0.16929E-02
         0.00000E+00
         0.00000E+00
         0.11738E-03
         0.00000E+00
         0.69671E-02
         0.63235E-02
         0.60824E-02
         0.00000E+00
         0.96267E-03
         0.00000E+00
         0.14713E-02
         0.00000E+00
         0.00000E+00
         0.11991E-02
         0.99413E-03
         0.00000E+00
         0.00000E+00
         0.00000E+00
         0.57444E-02
         0.21396E-02
         0.36935E-02
         0.80009E-02
         0.54837E-02
         0.48209E-02
         0.80972E-02
         0.70232E-02
         0.70544E-02
         0.47423E-02
         0.38839E-02
         0.64850E-02
         0.31689E-02
         0.22210E-02
         0.12287E-02
         0.20096E-02
         0.53479E-02
         0.26276E-02
         0.34600E-01
         0.35560E-01
         0.37423E-01
         0.37132E-01
         0.39741E-01
         0.42849E-01
         0.40937E-01
         0.36073E-01
         0.35070E-01
         0.37757E-01
         0.36991E-01
         0.36529E-01
         0.29559E-01
         0.27939E-01
         0.31089E-01
         0.33608E-01
         0.35013E-01
         0.38520E-01
         0.36802E-01
         0.37893E-01
         0.33758E-01
         0.31894E-01
         0.34134E-01
         0.33178E-01
         0.34278E-01
         0.33970E-01
         0.34930E-02
         0.82920E-03
         0.62407E-03
         0.00000E+00
         0.36643E-02
         0.15623E-02
         0.00000E+00
         0.33927E-02
         0.10023E-02
         0.31419E-02
         0.00000E+00
         0.97099E-02
         0.66496E-02
         0.16090E-02
         0.10480E-01
         0.16977E-02
         0.00000E+00
         0.00000E+00
         0.11949E-03
         0.00000E+00
         0.69689E-02
         0.63234E-02
         0.60834E-02
         0.00000E+00
         0.97745E-03
         0.00000E+00
         0.14726E-02
         0.00000E+00
         0.00000E+00
         0.12048E-02
         0.99788E-03
         0.00000E+00
         0.00000E+00
         0.00000E+00
         0.57489E-02
         0.21388E-02
         0.36926E-02
         0.80187E-02
         0.55040E-02
         0.48334E-02
         0.81061E-02
         0.70294E-02
         0.70570E-02
         0.47445E-02
         0.38846E-02
         0.64866E-02
         0.31703E-02
         0.22220E-02
         0.12241E-02
         0.20031E-02
         0.53438E-02
         0.26190E-02
         0.34586E-01
         0.35551E-01
         0.37423E-01
         0.37132E-01
         0.39734E-01
         0.42833E-01
         0.40918E-01
         0.36062E-01
         0.35061E-01
         0.37744E-01
         0.36984E-01
         0.36531E-01
         0.29558E-01
         0.27938E-01
         0.31095E-01
         0.33621E-01
         0.35026E-01
         0.38530E-01
         0.36799E-01
         0.37891E-01
         0.33755E-01
         0.31892E-01
         0.34121E-01
         0.33154E-01
         0.34257E-01
         0.33950E-01
         0.34971E-02
         0.82915E-03
         0.62596E-03
         0.00000E+00
         0.36614E-02
         0.15596E-02
         0.00000E+00
         0.33972E-02
         0.10095E-02
         0.31573E-02
         0.00000E+00
         0.97100E-02
         0.66542E-02
         0.15980E-02
         0.10494E-01
         0.17024E-02
         0.00000E+00
         0.00000E+00
         0.12160E-03
         0.00000E+00
         0.69706E-02
         0.63235E-02
         0.60843E-02
         0.00000E+00
         0.99219E-03
         0.00000E+00
         0.14739E-02
         0.00000E+00
         0.00000E+00
         0.12104E-02
         0.10016E-02
         0.00000E+00
         0.00000E+00
         0.00000E+00
         0.57531E-02
         0.21381E-02
         0.36917E-02
         0.80364E-02
         0.55244E-02
         0.48459E-02
         0.81152E-02
         0.70355E-02
         0.70597E-02
         0.47468E-02
         0.38855E-02
         0.64879E-02
         0.31720E-02
         0.22228E-02
         0.12196E-02
         0.19966E-02
         0.53396E-02
         0.26103E-02
         0.34572E-01
         0.35542E-01
         0.37422E-01
         0.37132E-01
         0.39727E-01
         0.42817E-01
         0.40899E-01
         0.36051E-01
         0.35051E-01
         0.37731E-01
         0.36977E-01
         0.36534E-01
         0.29557E-01
         0.27938E-01
         0.31100E-01
         0.33633E-01
         0.35040E-01
         0.38540E-01
         0.36796E-01
         0.37888E-01
         0.33752E-01
         0.31890E-01
         0.34108E-01
         0.33130E-01
         0.34236E-01
         0.33930E-01
         0.35011E-02
         0.82915E-03
         0.62784E-03
         0.00000E+00
         0.36586E-02
         0.15569E-02
         0.00000E+00
         0.34015E-02
         0.10167E-02
         0.31728E-02
         0.00000E+00
         0.97100E-02
         0.66586E-02
         0.15870E-02
         0.10508E-01
         0.17071E-02
         0.00000E+00
         0.00000E+00
         0.12372E-03
         0.00000E+00
         0.69723E-02
         0.63234E-02
         0.60854E-02
         0.00000E+00
         0.10070E-02
         0.00000E+00
         0.14751E-02
         0.00000E+00
         0.00000E+00
         0.12160E-02
         0.10053E-02
         0.00000E+00
         0.00000E+00
         0.00000E+00
         0.57576E-02
         0.21372E-02
         0.36907E-02
         0.80543E-02
         0.55448E-02
         0.48582E-02
         0.81241E-02
         0.70416E-02
         0.70623E-02
         0.47490E-02
         0.38862E-02
         0.64896E-02
         0.31735E-02
         0.22237E-02
         0.12149E-02
         0.19901E-02
         0.53357E-02
         0.26017E-02
         0.34559E-01
         0.35533E-01
         0.37421E-01
         0.37133E-01
         0.39719E-01
         0.42801E-01
         0.40880E-01
         0.36040E-01
         0.35041E-01
         0.37718E-01
         0.36971E-01
         0.36536E-01
         0.29555E-01
         0.27937E-01
         0.31105E-01
         0.33645E-01
         0.35053E-01
         0.38550E-01
         0.36794E-01
         0.37886E-01
         0.33748E-01
         0.31889E-01
         0.34095E-01
         0.33106E-01
         0.34215E-01
         0.33911E-01
         0.35052E-02
         0.82914E-03
         0.62970E-03
         0.00000E+00
         0.36557E-02
         0.15542E-02
         0.00000E+00
         0.34060E-02
         0.10240E-02
         0.31882E-02
         0.00000E+00
         0.97102E-02
         0.66630E-02
         0.15759E-02
         0.10523E-01
         0.17118E-02
         0.00000E+00
         0.00000E+00
         0.12583E-03
         0.00000E+00
         0.69741E-02
         0.63234E-02
         0.60863E-02
         0.00000E+00
         0.10217E-02
         0.00000E+00
         0.14764E-02
         0.00000E+00
         0.00000E+00
         0.12217E-02
         0.10090E-02
         0.00000E+00
         0.00000E+00
         0.00000E+00
         0.57619E-02
         0.21365E-02
         0.36898E-02
         0.80721E-02
         0.55651E-02
         0.48707E-02
         0.81331E-02
         0.70478E-02
         0.70649E-02
         0.47512E-02
         0.38869E-02
         0.64912E-02
         0.31750E-02
         0.22246E-02
         0.12103E-02
         0.19835E-02
         0.53316E-02
         0.25930E-02
         0.34545E-01
         0.35524E-01
         0.37421E-01
         0.37133E-01
         0.39712E-01
         0.42786E-01
         0.40861E-01
         0.36030E-01
         0.35032E-01
         0.37705E-01
         0.36964E-01
         0.36539E-01
         0.29554E-01
         0.27936E-01
         0.31110E-01
         0.33658E-01
         0.35066E-01
         0.38559E-01
         0.36791E-01
         0.37883E-01
         0.33745E-01
         0.31887E-01
         0.34082E-01
         0.33082E-01
         0.34194E-01
         0.33891E-01
         0.35092E-02
         0.82903E-03
         0.63156E-03
         0.00000E+00
         0.36528E-02
         0.15517E-02
         0.00000E+00
         0.34104E-02
         0.10313E-02
         0.32036E-02
         0.00000E+00
         0.97103E-02
         0.66675E-02
         0.15650E-02
         0.10537E-01
         0.17166E-02
         0.00000E+00
         0.00000E+00
         0.12794E-03
         0.00000E+00
         0.69758E-02
         0.63234E-02
         0.60873E-02
         0.00000E+00
         0.10364E-02
         0.00000E+00
         0.14777E-02
         0.00000E+00
         0.00000E+00
         0.12273E-02
         0.10128E-02
         0.00000E+00
         0.00000E+00
         0.00000E+00
         0.57664E-02
         0.21357E-02
         0.36889E-02
         0.80899E-02
         0.55855E-02
         0.48829E-02
         0.81419E-02
         0.70539E-02
         0.70676E-02
         0.47533E-02
         0.38877E-02
         0.64927E-02
         0.31766E-02
         0.22255E-02
         0.12058E-02
         0.19770E-02
         0.53276E-02
         0.25844E-02
         0.34531E-01
         0.35515E-01
         0.37420E-01
         0.37133E-01
         0.39705E-01
         0.42770E-01
         0.40842E-01
         0.36019E-01
         0.35022E-01
         0.37691E-01
         0.36958E-01
         0.36542E-01
         0.29553E-01
         0.27936E-01
         0.31116E-01
         0.33670E-01
         0.35079E-01
         0.38569E-01
         0.36788E-01
         0.37880E-01
         0.33742E-01
         0.31885E-01
         0.34069E-01
         0.33058E-01
         0.34173E-01
         0.33871E-01
         0.35132E-02
         0.82899E-03
         0.63344E-03
         0.00000E+00
         0.36500E-02
         0.15490E-02
         0.00000E+00
         0.34148E-02
         0.10385E-02
         0.32190E-02
         0.00000E+00
         0.97104E-02
         0.66720E-02
         0.15539E-02
         0.10551E-01
         0.17213E-02
         0.00000E+00
         0.00000E+00
         0.13006E-03
         0.00000E+00
         0.69776E-02
         0.63233E-02
         0.60883E-02
         0.00000E+00
         0.10511E-02
         0.00000E+00
         0.14789E-02
         0.00000E+00
         0.00000E+00
         0.12328E-02
         0.10165E-02
         0.00000E+00
         0.00000E+00
         0.00000E+00
         0.57709E-02
         0.21349E-02
         0.36879E-02
         0.81078E-02
         0.56059E-02
         0.48952E-02
         0.81507E-02
         0.70599E-02
         0.70701E-02
         0.47556E-02
         0.38884E-02
         0.64943E-02
         0.31782E-02
         0.22264E-02
         0.12012E-02
         0.19705E-02
         0.53235E-02
         0.25759E-02
         0.34517E-01
         0.35505E-01
         0.37419E-01
         0.37133E-01
         0.39698E-01
         0.42753E-01
         0.40822E-01
         0.36008E-01
         0.35012E-01
         0.37678E-01
         0.36951E-01
         0.36545E-01
         0.29552E-01
         0.27935E-01
         0.31121E-01
         0.33682E-01
         0.35093E-01
         0.38579E-01
         0.36786E-01
         0.37878E-01
         0.33738E-01
         0.31884E-01
         0.34056E-01
         0.33034E-01
         0.34152E-01
         0.33851E-01
         0.35172E-02
         0.82896E-03
         0.63531E-03
         0.00000E+00
         0.36472E-02
         0.15464E-02
         0.00000E+00
         0.34191E-02
         0.10458E-02
         0.32343E-02
         0.00000E+00
         0.97105E-02
         0.66763E-02
         0.15429E-02
         0.10565E-01
         0.17260E-02
         0.00000E+00
         0.00000E+00
         0.13221E-03
         0.00000E+00
         0.69793E-02
         0.63232E-02
         0.60894E-02
         0.00000E+00
         0.10658E-02
         0.00000E+00
         0.14797E-02
         0.00000E+00
         0.00000E+00
         0.12380E-02
         0.10202E-02
         0.00000E+00
         0.00000E+00
         0.00000E+00
         0.57752E-02
         0.21342E-02
         0.36871E-02
         0.81257E-02
         0.56262E-02
         0.49069E-02
         0.81590E-02
         0.70654E-02
         0.70724E-02
         0.47579E-02
         0.38892E-02
         0.64959E-02
         0.31797E-02
         0.22273E-02
         0.11966E-02
         0.19640E-02
         0.53196E-02
         0.25672E-02
         0.34503E-01
         0.35496E-01
         0.37419E-01
         0.37133E-01
         0.39691E-01
         0.42738E-01
         0.40803E-01
         0.35997E-01
         0.35003E-01
         0.37664E-01
         0.36945E-01
         0.36549E-01
         0.29551E-01
         0.27935E-01
         0.31126E-01
         0.33694E-01
         0.35106E-01
         0.38588E-01
         0.36783E-01
         0.37875E-01
         0.33735E-01
         0.31882E-01
         0.34042E-01
         0.33010E-01
         0.34131E-01
         0.33831E-01
         0.35212E-02
         0.82894E-03
         0.63717E-03
         0.00000E+00
         0.36443E-02
         0.15437E-02
         0.00000E+00
         0.34235E-02
         0.10532E-02
         0.32494E-02
         0.00000E+00
         0.97106E-02
         0.66809E-02
         0.15318E-02
         0.10580E-01
         0.17307E-02
         0.00000E+00
         0.00000E+00
         0.13433E-03
         0.00000E+00
         0.69811E-02
         0.63229E-02
         0.60904E-02
         0.00000E+00
         0.10804E-02
         0.00000E+00
         0.14802E-02
         0.00000E+00
         0.00000E+00
         0.12430E-02
         0.10240E-02
         0.00000E+00
         0.00000E+00
         0.00000E+00
         0.57797E-02
         0.21334E-02
         0.36862E-02
         0.81437E-02
         0.56464E-02
         0.49184E-02
         0.81668E-02
         0.70704E-02
         0.70745E-02
         0.47601E-02
         0.38901E-02
         0.64975E-02
         0.31813E-02
         0.22282E-02
         0.11921E-02
         0.19574E-02
         0.53154E-02
         0.25585E-02
         0.34489E-01
         0.35487E-01
         0.37418E-01
         0.37133E-01
         0.39684E-01
         0.42722E-01
         0.40784E-01
         0.35986E-01
         0.34993E-01
         0.37650E-01
         0.36938E-01
         0.36554E-01
         0.29551E-01
         0.27934E-01
         0.31131E-01
         0.33707E-01
         0.35119E-01
         0.38598E-01
         0.36780E-01
         0.37873E-01
         0.33732E-01
         0.31880E-01
         0.34029E-01
         0.32986E-01
         0.34110E-01
         0.33811E-01
         0.35253E-02
         0.82893E-03
         0.63914E-03
         0.00000E+00
         0.36416E-02
         0.15411E-02
         0.00000E+00
         0.34278E-02
         0.10605E-02
         0.32645E-02
         0.00000E+00
         0.97107E-02
         0.66853E-02
         0.15206E-02
         0.10594E-01
         0.17355E-02
         0.00000E+00
         0.00000E+00
         0.13649E-03
         0.00000E+00
         0.69829E-02
         0.63228E-02
         0.60913E-02
         0.00000E+00
         0.10949E-02
         0.00000E+00
         0.14806E-02
         0.00000E+00
         0.00000E+00
         0.12479E-02
         0.10277E-02
         0.00000E+00
         0.00000E+00
         0.00000E+00
         0.57843E-02
         0.21327E-02
         0.36852E-02
         0.81617E-02
         0.56666E-02
         0.49295E-02
         0.81743E-02
         0.70751E-02
         0.70765E-02
         0.47623E-02
         0.38907E-02
         0.64991E-02
         0.31829E-02
         0.22292E-02
         0.11876E-02
         0.19509E-02
         0.53116E-02
         0.25500E-02
         0.34475E-01
         0.35478E-01
         0.37417E-01
         0.37134E-01
         0.39677E-01
         0.42706E-01
         0.40764E-01
         0.35976E-01
         0.34983E-01
         0.37635E-01
         0.36932E-01
         0.36559E-01
         0.29552E-01
         0.27934E-01
         0.31136E-01
         0.33719E-01
         0.35132E-01
         0.38608E-01
         0.36778E-01
         0.37870E-01
         0.33729E-01
         0.31879E-01
         0.34016E-01
         0.32962E-01
         0.34089E-01
         0.33791E-01
         0.38300E-02
         0.13198E-02
         0.11456E-02
         0.87054E-04
         0.40477E-02
         0.20274E-02
         0.00000E+00
         0.38139E-02
         0.14897E-02
         0.36691E-02
         0.71846E-03
         0.10069E-01
         0.70462E-02
         0.21420E-02
         0.10968E-01
         0.20955E-02
         0.13267E-03
         0.00000E+00
         0.74405E-03
         0.00000E+00
         0.72848E-02
         0.66437E-02
         0.63889E-02
         0.00000E+00
         0.16568E-02
         0.00000E+00
         0.21012E-02
         0.00000E+00
         0.00000E+00
         0.18215E-02
         0.14435E-02
         0.00000E+00
         0.31731E-04
         0.00000E+00
         0.61859E-02
         0.26271E-02
         0.40874E-02
         0.85522E-02
         0.61046E-02
         0.53772E-02
         0.85413E-02
         0.74294E-02
         0.73970E-02
         0.50794E-02
         0.42643E-02
         0.68773E-02
         0.36228E-02
         0.26707E-02
         0.16883E-02
         0.24205E-02
         0.56902E-02
         0.29844E-02
         0.34914E-01
         0.35906E-01
         0.37862E-01
         0.37560E-01
         0.40113E-01
         0.43161E-01
         0.41224E-01
         0.36444E-01
         0.35460E-01
         0.38120E-01
         0.37405E-01
         0.37004E-01
         0.29939E-01
         0.28294E-01
         0.31499E-01
         0.34092E-01
         0.35511E-01
         0.39025E-01
         0.37228E-01
         0.38322E-01
         0.34135E-01
         0.32270E-01
         0.34412E-01
         0.33346E-01
         0.34469E-01
         0.34172E-01
         0.19993E-01
         0.19480E-01
         0.19102E-01
         0.16938E-01
         0.22875E-01
         0.20529E-01
         0.20647E-01
         0.22552E-01
         0.18214E-01
         0.22446E-01
         0.23040E-01
         0.31039E-01
         0.26675E-01
         0.24263E-01
         0.32630E-01
         0.18165E-01
         0.18666E-01
         0.15797E-01
         0.19528E-01
         0.20260E-01
         0.25007E-01
         0.25057E-01
         0.23554E-01
         0.18480E-01
         0.21689E-01
         0.17541E-01
         0.24176E-01
         0.22880E-01
         0.23124E-01
         0.22541E-01
         0.18023E-01
         0.18336E-01
         0.17064E-01
         0.17871E-01
         0.26088E-01
         0.22252E-01
         0.23106E-01
         0.30198E-01
         0.27949E-01
         0.27208E-01
         0.29733E-01
         0.27764E-01
         0.26514E-01
         0.22203E-01
         0.22468E-01
         0.26488E-01
         0.22898E-01
         0.21126E-01
         0.20251E-01
         0.21339E-01
         0.24876E-01
         0.21666E-01
         0.60000E-01
         0.60226E-01
         0.62695E-01
         0.61726E-01
         0.64981E-01
         0.69446E-01
         0.68396E-01
         0.63892E-01
         0.63054E-01
         0.66071E-01
         0.64591E-01
         0.62484E-01
         0.53172E-01
         0.50350E-01
         0.53186E-01
         0.55664E-01
         0.57194E-01
         0.62313E-01
         0.62166E-01
         0.63392E-01
         0.57737E-01
         0.55309E-01
         0.58066E-01
         0.56963E-01
         0.57694E-01
         0.57197E-01
  
SCALARS                            dam  double 1
LOOKUP_TABLE default
         0.00000E+00
         0.00000E+00
         0.00000E+00
         0.00000E+00
         0.00000E+00
         0.00000E+00
         0.00000E+00
         0.00000E+00
         0.00000E+00
         0.00000E+00
         0.00000E+00
         0.00000E+00
         0.00000E+00
         0.00000E+00
         0.00000E+00
         0.00000E+00
         0.00000E+00
         0.00000E+00
         0.00000E+00
         0.00000E+00
         0.00000E+00
         0.00000E+00
         0.00000E+00
         0.00000E+00
         0.00000E+00
         0.00000E+00
         0.00000E+00
         0.00000E+00
         0.00000E+00
         0.00000E+00
         0.00000E+00
         0.00000E+00
         0.00000E+00
         0.00000E+00
         0.00000E+00
         0.00000E+00
         0.00000E+00
         0.00000E+00
         0.00000E+00
         0.00000E+00
         0.00000E+00
         0.00000E+00
         0.00000E+00
         0.00000E+00
         0.00000E+00
         0.00000E+00
         0.00000E+00
         0.00000E+00
         0.00000E+00
         0.00000E+00
         0.00000E+00
         0.00000E+00
         0.00000E+00
         0.00000E+00
         0.00000E+00
         0.00000E+00
         0.00000E+00
         0.00000E+00
         0.00000E+00
         0.00000E+00
         0.00000E+00
         0.00000E+00
         0.00000E+00
         0.00000E+00
         0.00000E+00
         0.00000E+00
         0.00000E+00
         0.00000E+00
         0.00000E+00
         0.00000E+00
         0.00000E+00
         0.00000E+00
         0.00000E+00
         0.00000E+00
         0.00000E+00
         0.00000E+00
         0.00000E+00
         0.00000E+00
         0.00000E+00
         0.00000E+00
         0.00000E+00
         0.00000E+00
         0.00000E+00
         0.00000E+00
         0.00000E+00
         0.00000E+00
         0.00000E+00
         0.00000E+00
         0.00000E+00
         0.00000E+00
         0.00000E+00
         0.00000E+00
         0.00000E+00
         0.00000E+00
         0.00000E+00
         0.00000E+00
         0.00000E+00
         0.00000E+00
         0.00000E+00
         0.00000E+00
         0.00000E+00
         0.00000E+00
         0.00000E+00
         0.00000E+00
         0.00000E+00
         0.00000E+00
         0.00000E+00
         0.00000E+00
         0.00000E+00
         0.00000E+00
         0.00000E+00
         0.00000E+00
         0.00000E+00
         0.00000E+00
         0.00000E+00
         0.00000E+00
         0.00000E+00
         0.00000E+00
         0.00000E+00
         0.00000E+00
         0.00000E+00
         0.00000E+00
         0.00000E+00
         0.00000E+00
         0.00000E+00
         0.00000E+00
         0.00000E+00
         0.00000E+00
         0.00000E+00
         0.00000E+00
         0.00000E+00
         0.00000E+00
         0.00000E+00
         0.00000E+00
         0.00000E+00
         0.00000E+00
         0.00000E+00
         0.00000E+00
         0.00000E+00
         0.00000E+00
         0.00000E+00
         0.00000E+00
         0.00000E+00
         0.00000E+00
         0.00000E+00
         0.00000E+00
         0.00000E+00
         0.00000E+00
         0.00000E+00
         0.00000E+00
         0.00000E+00
         0.00000E+00
         0.00000E+00
         0.00000E+00
         0.00000E+00
         0.00000E+00
         0.00000E+00
         0.00000E+00
         0.00000E+00
         0.00000E+00
         0.00000E+00
         0.00000E+00
         0.00000E+00
         0.00000E+00
         0.00000E+00
         0.00000E+00
         0.00000E+00
         0.00000E+00
         0.00000E+00
         0.00000E+00
         0.00000E+00
         0.00000E+00
         0.00000E+00
         0.00000E+00
         0.00000E+00
         0.00000E+00
         0.00000E+00
         0.00000E+00
         0.00000E+00
         0.00000E+00
         0.00000E+00
         0.00000E+00
         0.00000E+00
         0.00000E+00
         0.00000E+00
         0.00000E+00
         0.00000E+00
         0.00000E+00
         0.00000E+00
         0.00000E+00
         0.00000E+00
         0.00000E+00
         0.00000E+00
         0.00000E+00
         0.00000E+00
         0.00000E+00
         0.00000E+00
         0.00000E+00
         0.00000E+00
         0.00000E+00
         0.00000E+00
         0.00000E+00
         0.00000E+00
         0.00000E+00
         0.00000E+00
         0.00000E+00
         0.00000E+00
         0.00000E+00
         0.00000E+00
         0.00000E+00
         0.00000E+00
         0.00000E+00
         0.00000E+00
         0.00000E+00
         0.00000E+00
         0.00000E+00
         0.00000E+00
         0.00000E+00
         0.00000E+00
         0.00000E+00
         0.00000E+00
         0.00000E+00
         0.00000E+00
         0.00000E+00
         0.00000E+00
         0.00000E+00
         0.00000E+00
         0.00000E+00
         0.00000E+00
         0.00000E+00
         0.00000E+00
         0.00000E+00
         0.00000E+00
         0.00000E+00
         0.00000E+00
         0.00000E+00
         0.00000E+00
         0.00000E+00
         0.00000E+00
         0.00000E+00
         0.00000E+00
         0.00000E+00
         0.00000E+00
         0.00000E+00
         0.00000E+00
         0.00000E+00
         0.00000E+00
         0.00000E+00
         0.00000E+00
         0.00000E+00
         0.00000E+00
         0.00000E+00
         0.00000E+00
         0.00000E+00
         0.00000E+00
         0.00000E+00
         0.00000E+00
         0.00000E+00
         0.00000E+00
         0.00000E+00
         0.00000E+00
         0.00000E+00
         0.00000E+00
         0.00000E+00
         0.00000E+00
         0.00000E+00
         0.00000E+00
         0.00000E+00
         0.00000E+00
         0.00000E+00
         0.00000E+00
         0.00000E+00
         0.00000E+00
         0.00000E+00
         0.00000E+00
         0.00000E+00
         0.00000E+00
         0.00000E+00
         0.00000E+00
         0.00000E+00
         0.00000E+00
         0.00000E+00
         0.00000E+00
         0.00000E+00
         0.00000E+00
         0.00000E+00
         0.00000E+00
         0.00000E+00
         0.00000E+00
         0.00000E+00
         0.00000E+00
         0.00000E+00
         0.00000E+00
         0.00000E+00
         0.00000E+00
         0.00000E+00
         0.00000E+00
         0.00000E+00
         0.00000E+00
         0.00000E+00
         0.00000E+00
         0.00000E+00
         0.00000E+00
         0.00000E+00
         0.00000E+00
         0.00000E+00
         0.00000E+00
         0.00000E+00
         0.00000E+00
         0.00000E+00
         0.00000E+00
         0.00000E+00
         0.00000E+00
         0.00000E+00
         0.00000E+00
         0.00000E+00
         0.00000E+00
         0.00000E+00
         0.00000E+00
         0.00000E+00
         0.00000E+00
         0.00000E+00
         0.00000E+00
         0.00000E+00
         0.00000E+00
         0.00000E+00
         0.00000E+00
         0.00000E+00
         0.00000E+00
         0.00000E+00
         0.00000E+00
         0.00000E+00
         0.00000E+00
         0.00000E+00
         0.00000E+00
         0.00000E+00
         0.00000E+00
         0.00000E+00
         0.00000E+00
         0.00000E+00
         0.00000E+00
         0.00000E+00
         0.00000E+00
         0.00000E+00
         0.00000E+00
         0.00000E+00
         0.00000E+00
         0.00000E+00
         0.00000E+00
         0.00000E+00
         0.00000E+00
         0.00000E+00
         0.00000E+00
         0.00000E+00
         0.00000E+00
         0.00000E+00
         0.00000E+00
         0.00000E+00
         0.00000E+00
         0.00000E+00
         0.00000E+00
         0.00000E+00
         0.00000E+00
         0.00000E+00
         0.00000E+00
         0.00000E+00
         0.00000E+00
         0.00000E+00
         0.00000E+00
         0.00000E+00
         0.00000E+00
         0.00000E+00
         0.00000E+00
         0.00000E+00
         0.00000E+00
         0.00000E+00
         0.00000E+00
         0.00000E+00
         0.00000E+00
         0.00000E+00
         0.00000E+00
         0.00000E+00
         0.00000E+00
         0.00000E+00
         0.00000E+00
         0.00000E+00
         0.00000E+00
         0.00000E+00
         0.00000E+00
         0.00000E+00
         0.00000E+00
         0.00000E+00
         0.00000E+00
         0.00000E+00
         0.00000E+00
         0.00000E+00
         0.00000E+00
         0.00000E+00
         0.00000E+00
         0.00000E+00
         0.00000E+00
         0.00000E+00
         0.00000E+00
         0.00000E+00
         0.00000E+00
         0.00000E+00
         0.00000E+00
         0.00000E+00
         0.00000E+00
         0.00000E+00
         0.00000E+00
         0.00000E+00
         0.00000E+00
         0.00000E+00
         0.00000E+00
         0.00000E+00
         0.00000E+00
         0.00000E+00
         0.00000E+00
         0.00000E+00
         0.00000E+00
         0.00000E+00
         0.00000E+00
         0.00000E+00
         0.00000E+00
         0.00000E+00
         0.00000E+00
         0.00000E+00
         0.00000E+00
         0.00000E+00
         0.00000E+00
         0.00000E+00
         0.00000E+00
         0.00000E+00
         0.00000E+00
         0.00000E+00
         0.00000E+00
         0.00000E+00
         0.00000E+00
         0.00000E+00
         0.00000E+00
         0.00000E+00
         0.00000E+00
         0.00000E+00
         0.00000E+00
         0.00000E+00
         0.00000E+00
         0.00000E+00
         0.00000E+00
         0.00000E+00
         0.00000E+00
         0.00000E+00
         0.00000E+00
         0.00000E+00
         0.00000E+00
         0.00000E+00
         0.00000E+00
         0.00000E+00
         0.00000E+00
         0.00000E+00
         0.00000E+00
         0.00000E+00
         0.00000E+00
         0.00000E+00
         0.00000E+00
         0.00000E+00
         0.00000E+00
         0.00000E+00
         0.00000E+00
         0.00000E+00
         0.00000E+00
         0.00000E+00
         0.00000E+00
         0.00000E+00
         0.00000E+00
         0.00000E+00
         0.00000E+00
         0.00000E+00
         0.00000E+00
         0.00000E+00
         0.00000E+00
         0.00000E+00
         0.00000E+00
         0.00000E+00
         0.00000E+00
         0.00000E+00
         0.00000E+00
         0.00000E+00
         0.00000E+00
         0.00000E+00
         0.00000E+00
         0.00000E+00
         0.00000E+00
         0.00000E+00
         0.00000E+00
         0.00000E+00
         0.00000E+00
         0.00000E+00
         0.00000E+00
         0.00000E+00
         0.00000E+00
         0.00000E+00
         0.00000E+00
         0.00000E+00
         0.00000E+00
         0.00000E+00
         0.00000E+00
         0.00000E+00
         0.00000E+00
         0.00000E+00
         0.00000E+00
         0.00000E+00
         0.00000E+00
         0.00000E+00
         0.00000E+00
         0.00000E+00
         0.00000E+00
         0.00000E+00
         0.00000E+00
         0.00000E+00
         0.00000E+00
         0.00000E+00
         0.00000E+00
         0.00000E+00
         0.00000E+00
         0.00000E+00
         0.00000E+00
         0.00000E+00
         0.00000E+00
         0.00000E+00
         0.00000E+00
         0.00000E+00
         0.00000E+00
         0.00000E+00
         0.00000E+00
         0.00000E+00
         0.00000E+00
         0.00000E+00
         0.00000E+00
         0.00000E+00
         0.00000E+00
         0.00000E+00
         0.00000E+00
         0.00000E+00
         0.00000E+00
         0.00000E+00
         0.00000E+00
         0.00000E+00
         0.00000E+00
         0.00000E+00
         0.00000E+00
         0.00000E+00
         0.00000E+00
         0.00000E+00
         0.00000E+00
         0.00000E+00
         0.00000E+00
         0.00000E+00
         0.00000E+00
         0.00000E+00
         0.00000E+00
         0.00000E+00
         0.00000E+00
         0.00000E+00
         0.00000E+00
         0.00000E+00
         0.00000E+00
         0.00000E+00
         0.00000E+00
         0.00000E+00
         0.00000E+00
         0.00000E+00
         0.00000E+00
         0.00000E+00
         0.00000E+00
         0.00000E+00
         0.00000E+00
         0.00000E+00
         0.00000E+00
         0.00000E+00
         0.00000E+00
         0.00000E+00
         0.00000E+00
         0.00000E+00
         0.00000E+00
         0.00000E+00
         0.00000E+00
         0.00000E+00
         0.00000E+00
         0.00000E+00
         0.00000E+00
         0.00000E+00
         0.00000E+00
         0.00000E+00
         0.00000E+00
         0.00000E+00
         0.00000E+00
         0.00000E+00
         0.00000E+00
         0.00000E+00
         0.00000E+00
         0.00000E+00
         0.00000E+00
         0.00000E+00
         0.00000E+00
         0.00000E+00
         0.00000E+00
         0.00000E+00
         0.00000E+00
         0.00000E+00
         0.00000E+00
         0.00000E+00
         0.00000E+00
         0.00000E+00
         0.00000E+00
         0.00000E+00
         0.00000E+00
         0.00000E+00
         0.00000E+00
         0.00000E+00
         0.00000E+00
         0.00000E+00
         0.00000E+00
         0.00000E+00
         0.00000E+00
         0.00000E+00
         0.00000E+00
         0.00000E+00
         0.00000E+00
         0.00000E+00
         0.00000E+00
         0.00000E+00
         0.00000E+00
         0.00000E+00
         0.00000E+00
         0.00000E+00
         0.00000E+00
         0.00000E+00
         0.00000E+00
         0.00000E+00
         0.00000E+00
         0.00000E+00
         0.00000E+00
         0.00000E+00
         0.00000E+00
         0.00000E+00
         0.00000E+00
         0.00000E+00
         0.00000E+00
         0.00000E+00
         0.00000E+00
         0.00000E+00
         0.00000E+00
         0.00000E+00
         0.00000E+00
         0.00000E+00
         0.00000E+00
         0.00000E+00
         0.00000E+00
         0.00000E+00
         0.00000E+00
         0.00000E+00
         0.00000E+00
         0.00000E+00
         0.00000E+00
         0.00000E+00
         0.00000E+00
         0.00000E+00
         0.00000E+00
         0.00000E+00
         0.00000E+00
         0.00000E+00
         0.00000E+00
         0.00000E+00
         0.00000E+00
         0.00000E+00
         0.00000E+00
         0.00000E+00
         0.00000E+00
         0.00000E+00
         0.00000E+00
         0.00000E+00
         0.00000E+00
         0.00000E+00
         0.00000E+00
         0.00000E+00
         0.00000E+00
         0.00000E+00
         0.00000E+00
         0.00000E+00
         0.00000E+00
         0.00000E+00
         0.00000E+00
         0.00000E+00
         0.00000E+00
         0.00000E+00
         0.00000E+00
         0.00000E+00
         0.00000E+00
         0.00000E+00
         0.00000E+00
         0.00000E+00
         0.00000E+00
         0.00000E+00
         0.00000E+00
         0.00000E+00
         0.00000E+00
         0.00000E+00
         0.00000E+00
         0.00000E+00
         0.00000E+00
         0.00000E+00
         0.00000E+00
         0.00000E+00
         0.00000E+00
         0.00000E+00
         0.00000E+00
         0.00000E+00
         0.00000E+00
         0.00000E+00
         0.00000E+00
         0.00000E+00
         0.00000E+00
         0.00000E+00
         0.00000E+00
         0.00000E+00
         0.00000E+00
         0.00000E+00
         0.00000E+00
         0.00000E+00
         0.00000E+00
         0.00000E+00
         0.00000E+00
         0.00000E+00
         0.00000E+00
         0.00000E+00
         0.00000E+00
         0.00000E+00
         0.00000E+00
         0.00000E+00
         0.00000E+00
         0.00000E+00
         0.00000E+00
         0.00000E+00
         0.00000E+00
         0.00000E+00
         0.00000E+00
         0.00000E+00
         0.00000E+00
         0.00000E+00
         0.00000E+00
         0.00000E+00
         0.00000E+00
         0.00000E+00
         0.00000E+00
         0.00000E+00
         0.00000E+00
         0.00000E+00
         0.00000E+00
         0.00000E+00
         0.00000E+00
         0.00000E+00
         0.00000E+00
         0.00000E+00
         0.00000E+00
         0.00000E+00
         0.00000E+00
         0.00000E+00
         0.00000E+00
         0.00000E+00
         0.00000E+00
         0.00000E+00
         0.00000E+00
         0.00000E+00
         0.00000E+00
         0.00000E+00
         0.00000E+00
         0.00000E+00
         0.00000E+00
         0.00000E+00
         0.00000E+00
         0.00000E+00
         0.00000E+00
         0.00000E+00
         0.00000E+00
         0.00000E+00
         0.00000E+00
         0.00000E+00
         0.00000E+00
         0.00000E+00
         0.00000E+00
         0.00000E+00
         0.00000E+00
         0.00000E+00
         0.00000E+00
         0.00000E+00
         0.00000E+00
         0.00000E+00
         0.00000E+00
         0.00000E+00
         0.00000E+00
         0.00000E+00
         0.00000E+00
         0.00000E+00
         0.00000E+00
         0.00000E+00
         0.00000E+00
         0.00000E+00
         0.00000E+00
         0.00000E+00
         0.00000E+00
         0.00000E+00
         0.00000E+00
         0.00000E+00
         0.00000E+00
         0.00000E+00
         0.00000E+00
         0.00000E+00
         0.00000E+00
         0.00000E+00
         0.00000E+00
         0.00000E+00
         0.00000E+00
         0.00000E+00
         0.00000E+00
         0.00000E+00
         0.00000E+00
         0.00000E+00
         0.00000E+00
         0.00000E+00
         0.00000E+00
         0.00000E+00
         0.00000E+00
         0.00000E+00
         0.00000E+00
         0.00000E+00
         0.00000E+00
         0.00000E+00
         0.00000E+00
         0.00000E+00
         0.00000E+00
         0.00000E+00
         0.00000E+00
         0.00000E+00
         0.00000E+00
         0.00000E+00
         0.00000E+00
         0.00000E+00
         0.00000E+00
         0.00000E+00
         0.00000E+00
         0.00000E+00
         0.00000E+00
         0.00000E+00
         0.00000E+00
         0.00000E+00
         0.00000E+00
         0.00000E+00
         0.00000E+00
         0.00000E+00
         0.00000E+00
         0.00000E+00
         0.00000E+00
         0.00000E+00
         0.00000E+00
         0.00000E+00
         0.00000E+00
         0.00000E+00
         0.00000E+00
         0.00000E+00
         0.00000E+00
         0.00000E+00
         0.00000E+00
         0.00000E+00
         0.00000E+00
         0.00000E+00
         0.00000E+00
         0.00000E+00
         0.00000E+00
         0.00000E+00
         0.00000E+00
         0.00000E+00
         0.00000E+00
         0.00000E+00
         0.00000E+00
         0.00000E+00
         0.00000E+00
         0.00000E+00
         0.00000E+00
         0.00000E+00
         0.00000E+00
         0.00000E+00
         0.00000E+00
         0.00000E+00
         0.00000E+00
         0.00000E+00
         0.00000E+00
         0.00000E+00
         0.00000E+00
         0.00000E+00
         0.00000E+00
         0.00000E+00
         0.00000E+00
         0.00000E+00
         0.00000E+00
         0.00000E+00
         0.00000E+00
         0.00000E+00
         0.00000E+00
         0.00000E+00
         0.00000E+00
         0.00000E+00
         0.00000E+00
         0.00000E+00
         0.00000E+00
         0.00000E+00
         0.00000E+00
         0.00000E+00
         0.00000E+00
         0.00000E+00
         0.00000E+00
         0.00000E+00
         0.00000E+00
         0.00000E+00
         0.00000E+00
         0.00000E+00
         0.00000E+00
         0.00000E+00
         0.00000E+00
         0.00000E+00
         0.00000E+00
         0.00000E+00
         0.00000E+00
         0.00000E+00
         0.00000E+00
         0.00000E+00
         0.00000E+00
         0.00000E+00
         0.00000E+00
         0.00000E+00
         0.00000E+00
         0.00000E+00
         0.00000E+00
         0.00000E+00
         0.00000E+00
         0.00000E+00
         0.00000E+00
         0.00000E+00
         0.00000E+00
         0.00000E+00
         0.00000E+00
         0.00000E+00
         0.00000E+00
         0.00000E+00
         0.00000E+00
         0.00000E+00
         0.00000E+00
         0.00000E+00
         0.00000E+00
         0.00000E+00
         0.00000E+00
         0.00000E+00
         0.00000E+00
         0.00000E+00
         0.00000E+00
         0.00000E+00
         0.00000E+00
         0.00000E+00
         0.00000E+00
         0.00000E+00
         0.00000E+00
         0.00000E+00
         0.00000E+00
         0.00000E+00
         0.00000E+00
         0.00000E+00
         0.00000E+00
         0.00000E+00
         0.00000E+00
         0.00000E+00
         0.00000E+00
         0.00000E+00
         0.00000E+00
         0.00000E+00
         0.00000E+00
         0.00000E+00
         0.00000E+00
         0.00000E+00
         0.00000E+00
         0.00000E+00
         0.00000E+00
         0.00000E+00
         0.00000E+00
         0.00000E+00
         0.00000E+00
         0.00000E+00
         0.00000E+00
         0.00000E+00
         0.00000E+00
         0.00000E+00
         0.00000E+00
         0.00000E+00
         0.00000E+00
         0.00000E+00
         0.00000E+00
         0.00000E+00
         0.00000E+00
         0.00000E+00
         0.00000E+00
         0.00000E+00
         0.00000E+00
         0.00000E+00
         0.00000E+00
         0.00000E+00
         0.00000E+00
         0.00000E+00
         0.00000E+00
         0.00000E+00
         0.00000E+00
         0.00000E+00
         0.00000E+00
         0.00000E+00
         0.00000E+00
         0.00000E+00
         0.00000E+00
         0.00000E+00
         0.00000E+00
         0.00000E+00
         0.00000E+00
         0.00000E+00
         0.00000E+00
         0.00000E+00
         0.00000E+00
         0.00000E+00
         0.00000E+00
         0.00000E+00
         0.00000E+00
         0.00000E+00
         0.00000E+00
         0.00000E+00
         0.00000E+00
         0.00000E+00
         0.00000E+00
         0.00000E+00
         0.00000E+00
         0.00000E+00
         0.00000E+00
         0.00000E+00
         0.00000E+00
         0.00000E+00
         0.00000E+00
         0.00000E+00
         0.00000E+00
         0.00000E+00
         0.00000E+00
         0.00000E+00
         0.00000E+00
         0.00000E+00
         0.00000E+00
         0.00000E+00
         0.00000E+00
         0.00000E+00
         0.00000E+00
         0.00000E+00
         0.00000E+00
         0.00000E+00
         0.00000E+00
         0.00000E+00
         0.00000E+00
         0.00000E+00
         0.00000E+00
         0.00000E+00
         0.00000E+00
         0.00000E+00
         0.00000E+00
         0.00000E+00
         0.00000E+00
         0.00000E+00
         0.00000E+00
         0.00000E+00
         0.00000E+00
         0.00000E+00
         0.00000E+00
         0.00000E+00
         0.00000E+00
         0.00000E+00
         0.00000E+00
         0.00000E+00
         0.00000E+00
         0.00000E+00
         0.00000E+00
         0.00000E+00
         0.00000E+00
         0.00000E+00
         0.00000E+00
         0.00000E+00
         0.00000E+00
         0.00000E+00
         0.00000E+00
         0.00000E+00
         0.00000E+00
         0.00000E+00
         0.00000E+00
         0.00000E+00
         0.00000E+00
         0.00000E+00
         0.00000E+00
         0.00000E+00
         0.00000E+00
         0.00000E+00
         0.00000E+00
         0.00000E+00
         0.00000E+00
         0.00000E+00
         0.00000E+00
         0.00000E+00
         0.00000E+00
         0.00000E+00
         0.00000E+00
         0.00000E+00
         0.00000E+00
         0.00000E+00
         0.00000E+00
         0.00000E+00
         0.00000E+00
         0.00000E+00
         0.00000E+00
         0.00000E+00
         0.00000E+00
         0.00000E+00
         0.00000E+00
         0.00000E+00
         0.00000E+00
         0.00000E+00
         0.00000E+00
         0.00000E+00
         0.00000E+00
         0.00000E+00
         0.00000E+00
         0.00000E+00
         0.00000E+00
         0.00000E+00
         0.00000E+00
         0.00000E+00
         0.00000E+00
         0.00000E+00
         0.00000E+00
         0.00000E+00
         0.00000E+00
         0.00000E+00
         0.00000E+00
         0.00000E+00
         0.00000E+00
         0.00000E+00
         0.00000E+00
         0.00000E+00
         0.00000E+00
         0.00000E+00
         0.00000E+00
         0.00000E+00
         0.00000E+00
         0.00000E+00
         0.00000E+00
         0.00000E+00
         0.00000E+00
         0.00000E+00
         0.00000E+00
         0.00000E+00
         0.00000E+00
         0.00000E+00
         0.00000E+00
         0.00000E+00
         0.00000E+00
         0.00000E+00
         0.00000E+00
         0.00000E+00
         0.00000E+00
         0.00000E+00
         0.00000E+00
         0.00000E+00
         0.00000E+00
         0.00000E+00
         0.00000E+00
         0.00000E+00
         0.00000E+00
         0.00000E+00
         0.00000E+00
         0.00000E+00
         0.00000E+00
         0.00000E+00
         0.00000E+00
         0.00000E+00
         0.00000E+00
         0.00000E+00
         0.00000E+00
         0.00000E+00
         0.00000E+00
         0.00000E+00
         0.00000E+00
         0.00000E+00
         0.00000E+00
         0.00000E+00
         0.00000E+00
         0.00000E+00
         0.00000E+00
         0.00000E+00
         0.00000E+00
         0.00000E+00
         0.00000E+00
         0.00000E+00
         0.00000E+00
         0.00000E+00
         0.00000E+00
         0.00000E+00
         0.00000E+00
         0.00000E+00
         0.00000E+00
         0.00000E+00
         0.00000E+00
         0.00000E+00
         0.00000E+00
         0.00000E+00
         0.00000E+00
         0.00000E+00
         0.00000E+00
         0.00000E+00
         0.00000E+00
         0.00000E+00
         0.00000E+00
         0.00000E+00
         0.00000E+00
         0.00000E+00
         0.00000E+00
         0.00000E+00
         0.00000E+00
         0.00000E+00
         0.00000E+00
         0.00000E+00
         0.00000E+00
         0.00000E+00
         0.00000E+00
         0.00000E+00
         0.00000E+00
         0.00000E+00
         0.00000E+00
         0.00000E+00
         0.00000E+00
         0.00000E+00
         0.00000E+00
         0.00000E+00
         0.00000E+00
         0.00000E+00
         0.00000E+00
         0.00000E+00
         0.00000E+00
         0.00000E+00
         0.00000E+00
         0.00000E+00
         0.00000E+00
         0.00000E+00
         0.00000E+00
         0.00000E+00
         0.00000E+00
         0.00000E+00
         0.00000E+00
         0.00000E+00
         0.00000E+00
         0.00000E+00
         0.00000E+00
         0.00000E+00
         0.00000E+00
         0.00000E+00
         0.00000E+00
         0.00000E+00
         0.00000E+00
         0.00000E+00
         0.00000E+00
         0.00000E+00
         0.00000E+00
         0.00000E+00
         0.00000E+00
         0.00000E+00
         0.00000E+00
         0.00000E+00
         0.00000E+00
         0.00000E+00
         0.00000E+00
         0.00000E+00
         0.00000E+00
         0.00000E+00
         0.00000E+00
         0.00000E+00
         0.00000E+00
         0.00000E+00
         0.00000E+00
         0.00000E+00
         0.00000E+00
         0.00000E+00
         0.00000E+00
         0.00000E+00
         0.00000E+00
         0.00000E+00
         0.00000E+00
         0.00000E+00
         0.00000E+00
         0.00000E+00
         0.00000E+00
         0.00000E+00
         0.00000E+00
         0.00000E+00
         0.00000E+00
         0.00000E+00
         0.00000E+00
         0.00000E+00
         0.00000E+00
         0.00000E+00
         0.00000E+00
         0.00000E+00
         0.00000E+00
         0.00000E+00
         0.00000E+00
         0.00000E+00
         0.00000E+00
         0.00000E+00
         0.00000E+00
         0.00000E+00
         0.00000E+00
         0.00000E+00
         0.00000E+00
         0.00000E+00
         0.00000E+00
         0.00000E+00
         0.00000E+00
         0.00000E+00
         0.00000E+00
         0.00000E+00
         0.00000E+00
         0.00000E+00
         0.00000E+00
         0.00000E+00
         0.00000E+00
         0.00000E+00
         0.00000E+00
         0.00000E+00
         0.00000E+00
         0.00000E+00
         0.00000E+00
         0.00000E+00
         0.00000E+00
         0.00000E+00
         0.00000E+00
         0.00000E+00
         0.00000E+00
         0.00000E+00
         0.00000E+00
         0.00000E+00
         0.00000E+00
         0.00000E+00
         0.00000E+00
         0.00000E+00
         0.00000E+00
         0.00000E+00
         0.00000E+00
         0.00000E+00
         0.00000E+00
         0.00000E+00
         0.00000E+00
         0.00000E+00
         0.00000E+00
         0.00000E+00
         0.00000E+00
         0.00000E+00
         0.00000E+00
         0.00000E+00
         0.00000E+00
         0.00000E+00
         0.00000E+00
         0.00000E+00
         0.00000E+00
         0.00000E+00
         0.00000E+00
         0.00000E+00
         0.00000E+00
         0.00000E+00
         0.00000E+00
         0.00000E+00
         0.00000E+00
         0.00000E+00
         0.00000E+00
         0.00000E+00
         0.00000E+00
         0.00000E+00
         0.00000E+00
         0.00000E+00
         0.00000E+00
         0.00000E+00
         0.00000E+00
         0.00000E+00
         0.00000E+00
         0.00000E+00
         0.00000E+00
         0.00000E+00
         0.00000E+00
         0.00000E+00
         0.00000E+00
         0.00000E+00
         0.00000E+00
         0.00000E+00
         0.00000E+00
         0.00000E+00
         0.00000E+00
         0.00000E+00
         0.00000E+00
         0.00000E+00
         0.00000E+00
         0.00000E+00
         0.00000E+00
         0.00000E+00
         0.00000E+00
         0.00000E+00
         0.00000E+00
         0.00000E+00
         0.00000E+00
         0.00000E+00
         0.00000E+00
         0.00000E+00
         0.00000E+00
         0.00000E+00
         0.00000E+00
         0.00000E+00
         0.00000E+00
         0.00000E+00
         0.00000E+00
         0.00000E+00
         0.00000E+00
         0.00000E+00
         0.00000E+00
         0.00000E+00
         0.00000E+00
         0.00000E+00
         0.00000E+00
         0.00000E+00
         0.00000E+00
         0.00000E+00
         0.00000E+00
         0.00000E+00
         0.00000E+00
         0.00000E+00
         0.00000E+00
         0.00000E+00
         0.00000E+00
         0.00000E+00
         0.00000E+00
         0.00000E+00
         0.00000E+00
         0.00000E+00
         0.00000E+00
         0.00000E+00
         0.00000E+00
         0.00000E+00
         0.00000E+00
         0.00000E+00
         0.00000E+00
         0.00000E+00
         0.00000E+00
         0.00000E+00
         0.00000E+00
         0.00000E+00
         0.00000E+00
         0.00000E+00
         0.00000E+00
         0.00000E+00
         0.00000E+00
         0.00000E+00
         0.00000E+00
         0.00000E+00
         0.00000E+00
         0.00000E+00
         0.00000E+00
         0.00000E+00
         0.00000E+00
         0.00000E+00
         0.00000E+00
         0.00000E+00
         0.00000E+00
         0.00000E+00
         0.00000E+00
         0.00000E+00
         0.00000E+00
         0.00000E+00
         0.00000E+00
         0.00000E+00
         0.00000E+00
         0.00000E+00
         0.00000E+00
         0.00000E+00
         0.00000E+00
         0.00000E+00
         0.00000E+00
         0.00000E+00
         0.00000E+00
         0.00000E+00
         0.00000E+00
         0.00000E+00
         0.00000E+00
         0.00000E+00
         0.00000E+00
         0.00000E+00
         0.00000E+00
         0.00000E+00
         0.00000E+00
         0.00000E+00
         0.00000E+00
         0.00000E+00
         0.00000E+00
         0.00000E+00
         0.00000E+00
         0.00000E+00
         0.00000E+00
         0.00000E+00
         0.00000E+00
         0.00000E+00
         0.00000E+00
         0.00000E+00
         0.00000E+00
         0.00000E+00
         0.00000E+00
         0.00000E+00
         0.00000E+00
         0.00000E+00
         0.00000E+00
         0.00000E+00
         0.00000E+00
         0.00000E+00
         0.00000E+00
         0.00000E+00
         0.00000E+00
         0.00000E+00
         0.00000E+00
         0.00000E+00
         0.00000E+00
         0.00000E+00
         0.00000E+00
         0.00000E+00
         0.00000E+00
         0.00000E+00
         0.00000E+00
         0.00000E+00
         0.00000E+00
         0.00000E+00
         0.00000E+00
         0.00000E+00
         0.00000E+00
         0.00000E+00
         0.00000E+00
         0.00000E+00
         0.00000E+00
         0.00000E+00
         0.00000E+00
         0.00000E+00
         0.00000E+00
         0.00000E+00
         0.00000E+00
         0.00000E+00
         0.00000E+00
         0.00000E+00
         0.00000E+00
         0.00000E+00
         0.00000E+00
         0.00000E+00
         0.00000E+00
         0.00000E+00
         0.00000E+00
         0.00000E+00
         0.00000E+00
         0.00000E+00
         0.00000E+00
         0.00000E+00
         0.00000E+00
         0.00000E+00
         0.00000E+00
         0.00000E+00
         0.00000E+00
         0.00000E+00
         0.00000E+00
         0.00000E+00
         0.00000E+00
         0.00000E+00
         0.00000E+00
         0.00000E+00
         0.00000E+00
         0.00000E+00
         0.00000E+00
         0.00000E+00
         0.00000E+00
         0.00000E+00
         0.00000E+00
         0.00000E+00
         0.00000E+00
         0.00000E+00
         0.00000E+00
         0.00000E+00
         0.00000E+00
         0.00000E+00
         0.00000E+00
         0.00000E+00
         0.00000E+00
         0.00000E+00
         0.00000E+00
         0.00000E+00
         0.00000E+00
         0.00000E+00
         0.00000E+00
         0.00000E+00
         0.00000E+00
         0.00000E+00
         0.00000E+00
         0.00000E+00
         0.00000E+00
         0.00000E+00
         0.00000E+00
         0.00000E+00
         0.00000E+00
         0.00000E+00
         0.00000E+00
         0.00000E+00
         0.00000E+00
         0.00000E+00
         0.00000E+00
         0.00000E+00
         0.00000E+00
         0.00000E+00
         0.00000E+00
         0.00000E+00
         0.00000E+00
         0.00000E+00
         0.00000E+00
         0.00000E+00
         0.00000E+00
         0.00000E+00
         0.00000E+00
         0.00000E+00
         0.00000E+00
         0.00000E+00
         0.00000E+00
         0.00000E+00
         0.00000E+00
         0.00000E+00
         0.00000E+00
         0.00000E+00
         0.00000E+00
         0.00000E+00
         0.00000E+00
         0.00000E+00
         0.00000E+00
         0.00000E+00
         0.00000E+00
         0.00000E+00
         0.00000E+00
         0.00000E+00
         0.00000E+00
         0.00000E+00
         0.00000E+00
         0.00000E+00
         0.00000E+00
         0.00000E+00
         0.00000E+00
         0.00000E+00
         0.00000E+00
         0.00000E+00
         0.00000E+00
         0.00000E+00
         0.00000E+00
         0.00000E+00
         0.00000E+00
         0.00000E+00
         0.00000E+00
         0.00000E+00
         0.00000E+00
         0.00000E+00
         0.00000E+00
         0.00000E+00
         0.00000E+00
         0.00000E+00
         0.00000E+00
         0.00000E+00
         0.00000E+00
         0.00000E+00
         0.00000E+00
         0.00000E+00
         0.00000E+00
         0.00000E+00
         0.00000E+00
         0.00000E+00
         0.00000E+00
         0.00000E+00
         0.00000E+00
         0.00000E+00
         0.00000E+00
         0.00000E+00
         0.00000E+00
         0.00000E+00
         0.00000E+00
         0.00000E+00
         0.00000E+00
         0.00000E+00
         0.00000E+00
         0.00000E+00
         0.00000E+00
         0.00000E+00
         0.00000E+00
         0.00000E+00
         0.00000E+00
         0.00000E+00
         0.00000E+00
         0.00000E+00
         0.00000E+00
         0.00000E+00
         0.00000E+00
         0.00000E+00
         0.00000E+00
         0.00000E+00
         0.00000E+00
         0.00000E+00
         0.00000E+00
         0.00000E+00
         0.00000E+00
         0.00000E+00
         0.00000E+00
         0.00000E+00
         0.00000E+00
         0.00000E+00
         0.00000E+00
         0.00000E+00
         0.00000E+00
         0.00000E+00
         0.00000E+00
         0.00000E+00
         0.00000E+00
         0.00000E+00
         0.00000E+00
         0.00000E+00
         0.00000E+00
         0.00000E+00
         0.00000E+00
         0.00000E+00
         0.00000E+00
         0.00000E+00
         0.00000E+00
         0.00000E+00
         0.00000E+00
         0.00000E+00
         0.00000E+00
         0.00000E+00
         0.00000E+00
         0.00000E+00
         0.00000E+00
         0.00000E+00
         0.00000E+00
         0.00000E+00
         0.00000E+00
         0.00000E+00
         0.00000E+00
         0.00000E+00
         0.00000E+00
         0.00000E+00
         0.00000E+00
         0.00000E+00
         0.00000E+00
         0.00000E+00
         0.00000E+00
         0.00000E+00
         0.00000E+00
         0.00000E+00
         0.00000E+00
         0.00000E+00
         0.00000E+00
         0.00000E+00
         0.00000E+00
         0.00000E+00
         0.00000E+00
         0.00000E+00
         0.00000E+00
         0.00000E+00
         0.00000E+00
         0.00000E+00
         0.00000E+00
         0.00000E+00
         0.00000E+00
         0.00000E+00
         0.00000E+00
         0.00000E+00
         0.00000E+00
         0.00000E+00
         0.00000E+00
         0.00000E+00
         0.00000E+00
         0.00000E+00
         0.00000E+00
         0.00000E+00
         0.00000E+00
         0.00000E+00
         0.00000E+00
         0.00000E+00
         0.00000E+00
         0.00000E+00
         0.00000E+00
         0.00000E+00
         0.00000E+00
         0.00000E+00
         0.00000E+00
         0.00000E+00
         0.00000E+00
         0.00000E+00
         0.00000E+00
         0.00000E+00
         0.00000E+00
         0.00000E+00
         0.00000E+00
         0.00000E+00
         0.00000E+00
         0.00000E+00
         0.00000E+00
         0.00000E+00
         0.00000E+00
         0.00000E+00
         0.00000E+00
         0.00000E+00
         0.00000E+00
         0.00000E+00
         0.00000E+00
         0.00000E+00
         0.00000E+00
         0.00000E+00
         0.00000E+00
         0.00000E+00
         0.00000E+00
         0.00000E+00
         0.00000E+00
         0.00000E+00
         0.00000E+00
         0.00000E+00
         0.00000E+00
         0.00000E+00
         0.00000E+00
         0.00000E+00
         0.00000E+00
         0.00000E+00
         0.00000E+00
         0.00000E+00
         0.00000E+00
         0.00000E+00
         0.00000E+00
         0.00000E+00
         0.00000E+00
         0.00000E+00
         0.00000E+00
         0.00000E+00
         0.00000E+00
         0.00000E+00
         0.00000E+00
         0.00000E+00
         0.00000E+00
         0.00000E+00
         0.00000E+00
         0.00000E+00
         0.00000E+00
         0.00000E+00
         0.00000E+00
         0.00000E+00
         0.00000E+00
         0.00000E+00
         0.00000E+00
         0.00000E+00
         0.00000E+00
         0.00000E+00
         0.00000E+00
         0.00000E+00
         0.00000E+00
         0.00000E+00
         0.00000E+00
         0.00000E+00
         0.00000E+00
         0.00000E+00
         0.00000E+00
         0.00000E+00
         0.00000E+00
         0.00000E+00
         0.00000E+00
         0.00000E+00
         0.00000E+00
         0.00000E+00
         0.00000E+00
         0.00000E+00
         0.00000E+00
         0.00000E+00
         0.00000E+00
         0.00000E+00
         0.00000E+00
         0.00000E+00
         0.00000E+00
         0.00000E+00
         0.00000E+00
         0.00000E+00
         0.00000E+00
         0.00000E+00
         0.00000E+00
         0.00000E+00
         0.00000E+00
         0.00000E+00
         0.00000E+00
         0.00000E+00
         0.00000E+00
         0.00000E+00
         0.00000E+00
         0.00000E+00
         0.00000E+00
         0.00000E+00
         0.00000E+00
         0.00000E+00
         0.00000E+00
         0.00000E+00
         0.00000E+00
         0.00000E+00
         0.00000E+00
         0.00000E+00
         0.00000E+00
         0.00000E+00
         0.00000E+00
         0.00000E+00
         0.00000E+00
         0.00000E+00
         0.00000E+00
         0.00000E+00
         0.00000E+00
         0.00000E+00
         0.00000E+00
         0.00000E+00
         0.00000E+00
         0.00000E+00
         0.00000E+00
         0.00000E+00
         0.00000E+00
         0.00000E+00
         0.00000E+00
         0.00000E+00
         0.00000E+00
         0.00000E+00
         0.00000E+00
         0.00000E+00
  
SCALARS           initial_coordinate_x  double 1
LOOKUP_TABLE default
         0.10378E-02
         0.17452E-02
         0.23177E-02
         0.16698E-02
         0.10379E-02
         0.17453E-02
         0.23178E-02
         0.16700E-02
         0.30377E-02
         0.27791E-02
         0.30377E-02
         0.27788E-02
         0.12850E-02
         0.65139E-03
         0.12851E-02
         0.65164E-03
         0.12757E-03
        -0.12822E-03
         0.12783E-03
        -0.12804E-03
         0.94500E-03
         0.11327E-02
         0.17490E-02
         0.94533E-03
         0.11330E-02
         0.17494E-02
         0.40588E-03
         0.39779E-03
         0.40594E-03
         0.39781E-03
        -0.76303E-03
        -0.86604E-03
         0.46119E-03
        -0.76268E-03
        -0.86593E-03
         0.46164E-03
        -0.18300E-02
        -0.18440E-02
        -0.18297E-02
        -0.18441E-02
        -0.27238E-02
        -0.28028E-02
        -0.27238E-02
        -0.28031E-02
        -0.25365E-02
        -0.19287E-02
        -0.25363E-02
        -0.19283E-02
        -0.99363E-03
        -0.99377E-03
        -0.14380E-02
        -0.14377E-02
        -0.31574E-03
        -0.31594E-03
        -0.11068E-02
        -0.11071E-02
        -0.18845E-02
        -0.18713E-02
        -0.18846E-02
        -0.18714E-02
        -0.15871E-03
        -0.94089E-03
        -0.15844E-03
        -0.94029E-03
         0.78856E-03
         0.78922E-03
         0.17211E-02
         0.17211E-02
         0.32050E-02
         0.28046E-02
         0.32047E-02
         0.28047E-02
         0.23059E-02
         0.23060E-02
        -0.40614E-03
        -0.40627E-03
        -0.12092E-02
        -0.12092E-02
        -0.19448E-02
        -0.19448E-02
        -0.25029E-02
        -0.26371E-02
        -0.25029E-02
        -0.26372E-02
        -0.27671E-02
        -0.27674E-02
        -0.21123E-02
        -0.21122E-02
        -0.16087E-02
        -0.16087E-02
        -0.11939E-02
        -0.58641E-03
        -0.11937E-02
        -0.58606E-03
         0.20912E-03
         0.20952E-03
         0.10586E-02
         0.10589E-02
         0.18413E-02
         0.18413E-02
         0.24544E-02
         0.26022E-02
         0.24543E-02
         0.26021E-02
         0.37964E-02
         0.39100E-02
         0.37964E-02
         0.39100E-02
         0.34621E-02
         0.34621E-02
         0.29267E-02
         0.29267E-02
         0.22211E-02
         0.22211E-02
         0.13865E-02
         0.13865E-02
         0.47130E-03
         0.47130E-03
        -0.47130E-03
        -0.47130E-03
        -0.13865E-02
        -0.13865E-02
        -0.22211E-02
        -0.22211E-02
        -0.29267E-02
        -0.29267E-02
        -0.34621E-02
        -0.34621E-02
        -0.37964E-02
        -0.37964E-02
        -0.39100E-02
        -0.39100E-02
        -0.37964E-02
        -0.37964E-02
        -0.34621E-02
        -0.34621E-02
        -0.29267E-02
        -0.29267E-02
        -0.22211E-02
        -0.22211E-02
        -0.13865E-02
        -0.13865E-02
        -0.47130E-03
        -0.47130E-03
         0.47130E-03
         0.47130E-03
         0.13865E-02
         0.13865E-02
         0.22211E-02
         0.22211E-02
         0.29267E-02
         0.29267E-02
         0.34621E-02
         0.34621E-02
         0.37964E-02
         0.37964E-02
         0.10376E-02
         0.17450E-02
         0.23175E-02
         0.16696E-02
         0.30377E-02
         0.27795E-02
         0.12849E-02
         0.65115E-03
         0.12731E-03
        -0.12841E-03
         0.94467E-03
         0.11323E-02
         0.17487E-02
         0.40583E-03
         0.39777E-03
        -0.76338E-03
        -0.86615E-03
         0.46074E-03
        -0.18303E-02
        -0.18439E-02
        -0.27238E-02
        -0.28025E-02
        -0.25366E-02
        -0.19292E-02
        -0.99349E-03
        -0.14384E-02
        -0.31554E-03
        -0.11064E-02
        -0.18845E-02
        -0.18712E-02
        -0.15899E-03
        -0.94149E-03
         0.78790E-03
         0.17210E-02
         0.32053E-02
         0.28046E-02
         0.23058E-02
        -0.40600E-03
        -0.12092E-02
        -0.19447E-02
        -0.25028E-02
        -0.26370E-02
        -0.27668E-02
        -0.21125E-02
        -0.16088E-02
        -0.11940E-02
        -0.58676E-03
         0.20871E-03
         0.10583E-02
         0.18413E-02
         0.24545E-02
         0.26022E-02
         0.37964E-02
         0.39100E-02
         0.34621E-02
         0.29267E-02
         0.22211E-02
         0.13865E-02
         0.47130E-03
        -0.47130E-03
        -0.13865E-02
        -0.22211E-02
        -0.29267E-02
        -0.34621E-02
        -0.37964E-02
        -0.39100E-02
        -0.37964E-02
        -0.34621E-02
        -0.29267E-02
        -0.22211E-02
        -0.13865E-02
        -0.47130E-03
         0.47130E-03
         0.13865E-02
         0.22211E-02
         0.29267E-02
         0.34621E-02
         0.37964E-02
         0.10375E-02
         0.17448E-02
         0.23174E-02
         0.16694E-02
         0.30377E-02
         0.27798E-02
         0.12848E-02
         0.65090E-03
         0.12705E-03
        -0.12859E-03
         0.94434E-03
         0.11320E-02
         0.17483E-02
         0.40577E-03
         0.39776E-03
        -0.76374E-03
        -0.86626E-03
         0.46029E-03
        -0.18306E-02
        -0.18438E-02
        -0.27238E-02
        -0.28022E-02
        -0.25368E-02
        -0.19296E-02
        -0.99334E-03
        -0.14387E-02
        -0.31534E-03
        -0.11061E-02
        -0.18844E-02
        -0.18710E-02
        -0.15926E-03
        -0.94209E-03
         0.78724E-03
         0.17210E-02
         0.32056E-02
         0.28046E-02
         0.23057E-02
        -0.40586E-03
        -0.12092E-02
        -0.19447E-02
        -0.25028E-02
        -0.26369E-02
        -0.27665E-02
        -0.21126E-02
        -0.16088E-02
        -0.11941E-02
        -0.58711E-03
         0.20830E-03
         0.10580E-02
         0.18414E-02
         0.24546E-02
         0.26023E-02
         0.37964E-02
         0.39100E-02
         0.34621E-02
         0.29267E-02
         0.22211E-02
         0.13865E-02
         0.47130E-03
        -0.47130E-03
        -0.13865E-02
        -0.22211E-02
        -0.29267E-02
        -0.34621E-02
        -0.37964E-02
        -0.39100E-02
        -0.37964E-02
        -0.34621E-02
        -0.29267E-02
        -0.22211E-02
        -0.13865E-02
        -0.47130E-03
         0.47130E-03
         0.13865E-02
         0.22211E-02
         0.29267E-02
         0.34621E-02
         0.37964E-02
         0.10374E-02
         0.17446E-02
         0.23173E-02
         0.16692E-02
         0.30376E-02
         0.27801E-02
         0.12847E-02
         0.65065E-03
         0.12678E-03
        -0.12878E-03
         0.94401E-03
         0.11316E-02
         0.17479E-02
         0.40572E-03
         0.39774E-03
        -0.76409E-03
        -0.86637E-03
         0.45985E-03
        -0.18309E-02
        -0.18437E-02
        -0.27237E-02
        -0.28020E-02
        -0.25369E-02
        -0.19300E-02
        -0.99320E-03
        -0.14391E-02
        -0.31514E-03
        -0.11057E-02
        -0.18844E-02
        -0.18709E-02
        -0.15954E-03
        -0.94269E-03
         0.78658E-03
         0.17209E-02
         0.32060E-02
         0.28046E-02
         0.23056E-02
        -0.40572E-03
        -0.12092E-02
        -0.19446E-02
        -0.25028E-02
        -0.26368E-02
        -0.27662E-02
        -0.21128E-02
        -0.16088E-02
        -0.11942E-02
        -0.58746E-03
         0.20790E-03
         0.10577E-02
         0.18414E-02
         0.24548E-02
         0.26024E-02
         0.37964E-02
         0.39100E-02
         0.34621E-02
         0.29267E-02
         0.22211E-02
         0.13865E-02
         0.47130E-03
        -0.47130E-03
        -0.13865E-02
        -0.22211E-02
        -0.29267E-02
        -0.34621E-02
        -0.37964E-02
        -0.39100E-02
        -0.37964E-02
        -0.34621E-02
        -0.29267E-02
        -0.22211E-02
        -0.13865E-02
        -0.47130E-03
         0.47130E-03
         0.13865E-02
         0.22211E-02
         0.29267E-02
         0.34621E-02
         0.37964E-02
         0.10373E-02
         0.17445E-02
         0.23172E-02
         0.16689E-02
         0.30376E-02
         0.27805E-02
         0.12846E-02
         0.65041E-03
         0.12652E-03
        -0.12896E-03
         0.94367E-03
         0.11313E-02
         0.17475E-02
         0.40566E-03
         0.39772E-03
        -0.76444E-03
        -0.86648E-03
         0.45940E-03
        -0.18312E-02
        -0.18436E-02
        -0.27237E-02
        -0.28017E-02
        -0.25371E-02
        -0.19305E-02
        -0.99305E-03
        -0.14394E-02
        -0.31494E-03
        -0.11054E-02
        -0.18843E-02
        -0.18708E-02
        -0.15981E-03
        -0.94328E-03
         0.78592E-03
         0.17209E-02
         0.32063E-02
         0.28045E-02
         0.23055E-02
        -0.40558E-03
        -0.12092E-02
        -0.19446E-02
        -0.25027E-02
        -0.26367E-02
        -0.27658E-02
        -0.21129E-02
        -0.16089E-02
        -0.11943E-02
        -0.58781E-03
         0.20749E-03
         0.10574E-02
         0.18415E-02
         0.24549E-02
         0.26025E-02
         0.37964E-02
         0.39100E-02
         0.34621E-02
         0.29267E-02
         0.22211E-02
         0.13865E-02
         0.47130E-03
        -0.47130E-03
        -0.13865E-02
        -0.22211E-02
        -0.29267E-02
        -0.34621E-02
        -0.37964E-02
        -0.39100E-02
        -0.37964E-02
        -0.34621E-02
        -0.29267E-02
        -0.22211E-02
        -0.13865E-02
        -0.47130E-03
         0.47130E-03
         0.13865E-02
         0.22211E-02
         0.29267E-02
         0.34621E-02
         0.37964E-02
         0.10372E-02
         0.17443E-02
         0.23171E-02
         0.16687E-02
         0.30376E-02
         0.27808E-02
         0.12845E-02
         0.65016E-03
         0.12626E-03
        -0.12915E-03
         0.94334E-03
         0.11310E-02
         0.17471E-02
         0.40561E-03
         0.39770E-03
        -0.76480E-03
        -0.86659E-03
         0.45895E-03
        -0.18315E-02
        -0.18435E-02
        -0.27237E-02
        -0.28014E-02
        -0.25372E-02
        -0.19309E-02
        -0.99291E-03
        -0.14398E-02
        -0.31474E-03
        -0.11051E-02
        -0.18843E-02
        -0.18706E-02
        -0.16009E-03
        -0.94388E-03
         0.78526E-03
         0.17208E-02
         0.32066E-02
         0.28045E-02
         0.23053E-02
        -0.40545E-03
        -0.12092E-02
        -0.19446E-02
        -0.25027E-02
        -0.26366E-02
        -0.27655E-02
        -0.21130E-02
        -0.16089E-02
        -0.11944E-02
        -0.58816E-03
         0.20709E-03
         0.10571E-02
         0.18415E-02
         0.24550E-02
         0.26025E-02
         0.37964E-02
         0.39100E-02
         0.34621E-02
         0.29267E-02
         0.22211E-02
         0.13865E-02
         0.47130E-03
        -0.47130E-03
        -0.13865E-02
        -0.22211E-02
        -0.29267E-02
        -0.34621E-02
        -0.37964E-02
        -0.39100E-02
        -0.37964E-02
        -0.34621E-02
        -0.29267E-02
        -0.22211E-02
        -0.13865E-02
        -0.47130E-03
         0.47130E-03
         0.13865E-02
         0.22211E-02
         0.29267E-02
         0.34621E-02
         0.37964E-02
         0.10371E-02
         0.17441E-02
         0.23169E-02
         0.16685E-02
         0.30376E-02
         0.27812E-02
         0.12844E-02
         0.64992E-03
         0.12600E-03
        -0.12933E-03
         0.94301E-03
         0.11306E-02
         0.17467E-02
         0.40556E-03
         0.39769E-03
        -0.76515E-03
        -0.86670E-03
         0.45850E-03
        -0.18318E-02
        -0.18434E-02
        -0.27236E-02
        -0.28011E-02
        -0.25374E-02
        -0.19313E-02
        -0.99277E-03
        -0.14401E-02
        -0.31454E-03
        -0.11047E-02
        -0.18842E-02
        -0.18705E-02
        -0.16036E-03
        -0.94448E-03
         0.78460E-03
         0.17208E-02
         0.32070E-02
         0.28045E-02
         0.23052E-02
        -0.40531E-03
        -0.12092E-02
        -0.19445E-02
        -0.25027E-02
        -0.26366E-02
        -0.27652E-02
        -0.21132E-02
        -0.16090E-02
        -0.11946E-02
        -0.58851E-03
         0.20668E-03
         0.10567E-02
         0.18416E-02
         0.24551E-02
         0.26026E-02
         0.37964E-02
         0.39100E-02
         0.34621E-02
         0.29267E-02
         0.22211E-02
         0.13865E-02
         0.47130E-03
        -0.47130E-03
        -0.13865E-02
        -0.22211E-02
        -0.29267E-02
        -0.34621E-02
        -0.37964E-02
        -0.39100E-02
        -0.37964E-02
        -0.34621E-02
        -0.29267E-02
        -0.22211E-02
        -0.13865E-02
        -0.47130E-03
         0.47130E-03
         0.13865E-02
         0.22211E-02
         0.29267E-02
         0.34621E-02
         0.37964E-02
         0.10370E-02
         0.17439E-02
         0.23168E-02
         0.16683E-02
         0.30375E-02
         0.27815E-02
         0.12843E-02
         0.64967E-03
         0.12573E-03
        -0.12952E-03
         0.94268E-03
         0.11303E-02
         0.17463E-02
         0.40550E-03
         0.39767E-03
        -0.76551E-03
        -0.86680E-03
         0.45806E-03
        -0.18321E-02
        -0.18433E-02
        -0.27236E-02
        -0.28009E-02
        -0.25375E-02
        -0.19317E-02
        -0.99262E-03
        -0.14405E-02
        -0.31434E-03
        -0.11044E-02
        -0.18842E-02
        -0.18704E-02
        -0.16064E-03
        -0.94508E-03
         0.78394E-03
         0.17208E-02
         0.32073E-02
         0.28045E-02
         0.23051E-02
        -0.40517E-03
        -0.12092E-02
        -0.19445E-02
        -0.25026E-02
        -0.26365E-02
        -0.27649E-02
        -0.21133E-02
        -0.16090E-02
        -0.11947E-02
        -0.58886E-03
         0.20627E-03
         0.10564E-02
         0.18416E-02
         0.24553E-02
         0.26027E-02
         0.37964E-02
         0.39100E-02
         0.34621E-02
         0.29267E-02
         0.22211E-02
         0.13865E-02
         0.47130E-03
        -0.47130E-03
        -0.13865E-02
        -0.22211E-02
        -0.29267E-02
        -0.34621E-02
        -0.37964E-02
        -0.39100E-02
        -0.37964E-02
        -0.34621E-02
        -0.29267E-02
        -0.22211E-02
        -0.13865E-02
        -0.47130E-03
         0.47130E-03
         0.13865E-02
         0.22211E-02
         0.29267E-02
         0.34621E-02
         0.37964E-02
         0.10368E-02
         0.17438E-02
         0.23167E-02
         0.16681E-02
         0.30375E-02
         0.27819E-02
         0.12842E-02
         0.64943E-03
         0.12547E-03
        -0.12970E-03
         0.94235E-03
         0.11300E-02
         0.17459E-02
         0.40545E-03
         0.39766E-03
        -0.76586E-03
        -0.86691E-03
         0.45761E-03
        -0.18324E-02
        -0.18432E-02
        -0.27236E-02
        -0.28006E-02
        -0.25377E-02
        -0.19322E-02
        -0.99248E-03
        -0.14408E-02
        -0.31414E-03
        -0.11040E-02
        -0.18841E-02
        -0.18703E-02
        -0.16091E-03
        -0.94568E-03
         0.78328E-03
         0.17207E-02
         0.32076E-02
         0.28044E-02
         0.23050E-02
        -0.40503E-03
        -0.12092E-02
        -0.19445E-02
        -0.25026E-02
        -0.26364E-02
        -0.27646E-02
        -0.21134E-02
        -0.16091E-02
        -0.11948E-02
        -0.58921E-03
         0.20587E-03
         0.10561E-02
         0.18416E-02
         0.24554E-02
         0.26027E-02
         0.37964E-02
         0.39100E-02
         0.34621E-02
         0.29267E-02
         0.22211E-02
         0.13865E-02
         0.47130E-03
        -0.47130E-03
        -0.13865E-02
        -0.22211E-02
        -0.29267E-02
        -0.34621E-02
        -0.37964E-02
        -0.39100E-02
        -0.37964E-02
        -0.34621E-02
        -0.29267E-02
        -0.22211E-02
        -0.13865E-02
        -0.47130E-03
         0.47130E-03
         0.13865E-02
         0.22211E-02
         0.29267E-02
         0.34621E-02
         0.37964E-02
         0.10367E-02
         0.17436E-02
         0.23166E-02
         0.16679E-02
         0.30375E-02
         0.27822E-02
         0.12841E-02
         0.64918E-03
         0.12521E-03
        -0.12989E-03
         0.94202E-03
         0.11296E-02
         0.17455E-02
         0.40539E-03
         0.39764E-03
        -0.76621E-03
        -0.86702E-03
         0.45716E-03
        -0.18326E-02
        -0.18431E-02
        -0.27235E-02
        -0.28003E-02
        -0.25379E-02
        -0.19326E-02
        -0.99233E-03
        -0.14412E-02
        -0.31394E-03
        -0.11037E-02
        -0.18841E-02
        -0.18701E-02
        -0.16119E-03
        -0.94628E-03
         0.78262E-03
         0.17207E-02
         0.32079E-02
         0.28044E-02
         0.23049E-02
        -0.40490E-03
        -0.12093E-02
        -0.19444E-02
        -0.25026E-02
        -0.26363E-02
        -0.27643E-02
        -0.21136E-02
        -0.16091E-02
        -0.11949E-02
        -0.58956E-03
         0.20546E-03
         0.10558E-02
         0.18417E-02
         0.24555E-02
         0.26028E-02
         0.37964E-02
         0.39100E-02
         0.34621E-02
         0.29267E-02
         0.22211E-02
         0.13865E-02
         0.47130E-03
        -0.47130E-03
        -0.13865E-02
        -0.22211E-02
        -0.29267E-02
        -0.34621E-02
        -0.37964E-02
        -0.39100E-02
        -0.37964E-02
        -0.34621E-02
        -0.29267E-02
        -0.22211E-02
        -0.13865E-02
        -0.47130E-03
         0.47130E-03
         0.13865E-02
         0.22211E-02
         0.29267E-02
         0.34621E-02
         0.37964E-02
         0.10366E-02
         0.17434E-02
         0.23164E-02
         0.16677E-02
         0.30375E-02
         0.27825E-02
         0.12840E-02
         0.64894E-03
         0.12495E-03
        -0.13007E-03
         0.94169E-03
         0.11293E-02
         0.17451E-02
         0.40534E-03
         0.39762E-03
        -0.76657E-03
        -0.86713E-03
         0.45671E-03
        -0.18329E-02
        -0.18430E-02
        -0.27235E-02
        -0.28001E-02
        -0.25380E-02
        -0.19330E-02
        -0.99219E-03
        -0.14415E-02
        -0.31374E-03
        -0.11033E-02
        -0.18840E-02
        -0.18700E-02
        -0.16146E-03
        -0.94687E-03
         0.78195E-03
         0.17207E-02
         0.32083E-02
         0.28044E-02
         0.23048E-02
        -0.40476E-03
        -0.12093E-02
        -0.19444E-02
        -0.25026E-02
        -0.26362E-02
        -0.27640E-02
        -0.21137E-02
        -0.16091E-02
        -0.11950E-02
        -0.58991E-03
         0.20505E-03
         0.10555E-02
         0.18417E-02
         0.24556E-02
         0.26029E-02
         0.37964E-02
         0.39100E-02
         0.34621E-02
         0.29267E-02
         0.22211E-02
         0.13865E-02
         0.47130E-03
        -0.47130E-03
        -0.13865E-02
        -0.22211E-02
        -0.29267E-02
        -0.34621E-02
        -0.37964E-02
        -0.39100E-02
        -0.37964E-02
        -0.34621E-02
        -0.29267E-02
        -0.22211E-02
        -0.13865E-02
        -0.47130E-03
         0.47130E-03
         0.13865E-02
         0.22211E-02
         0.29267E-02
         0.34621E-02
         0.37964E-02
         0.10365E-02
         0.17432E-02
         0.23163E-02
         0.16675E-02
         0.30374E-02
         0.27829E-02
         0.12839E-02
         0.64869E-03
         0.12468E-03
        -0.13026E-03
         0.94135E-03
         0.11289E-02
         0.17447E-02
         0.40528E-03
         0.39760E-03
        -0.76692E-03
        -0.86724E-03
         0.45626E-03
        -0.18332E-02
        -0.18430E-02
        -0.27235E-02
        -0.27998E-02
        -0.25382E-02
        -0.19334E-02
        -0.99205E-03
        -0.14419E-02
        -0.31354E-03
        -0.11030E-02
        -0.18840E-02
        -0.18699E-02
        -0.16174E-03
        -0.94747E-03
         0.78129E-03
         0.17206E-02
         0.32086E-02
         0.28044E-02
         0.23047E-02
        -0.40462E-03
        -0.12093E-02
        -0.19444E-02
        -0.25025E-02
        -0.26361E-02
        -0.27637E-02
        -0.21139E-02
        -0.16092E-02
        -0.11951E-02
        -0.59025E-03
         0.20465E-03
         0.10552E-02
         0.18418E-02
         0.24558E-02
         0.26030E-02
         0.37964E-02
         0.39100E-02
         0.34621E-02
         0.29267E-02
         0.22211E-02
         0.13865E-02
         0.47130E-03
        -0.47130E-03
        -0.13865E-02
        -0.22211E-02
        -0.29267E-02
        -0.34621E-02
        -0.37964E-02
        -0.39100E-02
        -0.37964E-02
        -0.34621E-02
        -0.29267E-02
        -0.22211E-02
        -0.13865E-02
        -0.47130E-03
         0.47130E-03
         0.13865E-02
         0.22211E-02
         0.29267E-02
         0.34621E-02
         0.37964E-02
         0.10364E-02
         0.17430E-02
         0.23162E-02
         0.16672E-02
         0.30374E-02
         0.27832E-02
         0.12838E-02
         0.64845E-03
         0.12442E-03
        -0.13044E-03
         0.94102E-03
         0.11286E-02
         0.17443E-02
         0.40523E-03
         0.39759E-03
        -0.76727E-03
        -0.86735E-03
         0.45582E-03
        -0.18335E-02
        -0.18429E-02
        -0.27235E-02
        -0.27995E-02
        -0.25383E-02
        -0.19339E-02
        -0.99190E-03
        -0.14422E-02
        -0.31334E-03
        -0.11026E-02
        -0.18839E-02
        -0.18697E-02
        -0.16201E-03
        -0.94807E-03
         0.78063E-03
         0.17206E-02
         0.32089E-02
         0.28043E-02
         0.23046E-02
        -0.40448E-03
        -0.12093E-02
        -0.19443E-02
        -0.25025E-02
        -0.26360E-02
        -0.27633E-02
        -0.21140E-02
        -0.16092E-02
        -0.11953E-02
        -0.59060E-03
         0.20424E-03
         0.10549E-02
         0.18418E-02
         0.24559E-02
         0.26030E-02
         0.37964E-02
         0.39100E-02
         0.34621E-02
         0.29267E-02
         0.22211E-02
         0.13865E-02
         0.47130E-03
        -0.47130E-03
        -0.13865E-02
        -0.22211E-02
        -0.29267E-02
        -0.34621E-02
        -0.37964E-02
        -0.39100E-02
        -0.37964E-02
        -0.34621E-02
        -0.29267E-02
        -0.22211E-02
        -0.13865E-02
        -0.47130E-03
         0.47130E-03
         0.13865E-02
         0.22211E-02
         0.29267E-02
         0.34621E-02
         0.37964E-02
         0.10363E-02
         0.17429E-02
         0.23161E-02
         0.16670E-02
         0.30374E-02
         0.27836E-02
         0.12837E-02
         0.64820E-03
         0.12416E-03
        -0.13063E-03
         0.94069E-03
         0.11282E-02
         0.17439E-02
         0.40518E-03
         0.39757E-03
        -0.76763E-03
        -0.86746E-03
         0.45537E-03
        -0.18338E-02
        -0.18428E-02
        -0.27234E-02
        -0.27992E-02
        -0.25385E-02
        -0.19343E-02
        -0.99176E-03
        -0.14425E-02
        -0.31314E-03
        -0.11023E-02
        -0.18839E-02
        -0.18696E-02
        -0.16229E-03
        -0.94867E-03
         0.77997E-03
         0.17205E-02
         0.32092E-02
         0.28043E-02
         0.23044E-02
        -0.40434E-03
        -0.12093E-02
        -0.19443E-02
        -0.25025E-02
        -0.26359E-02
        -0.27630E-02
        -0.21141E-02
        -0.16093E-02
        -0.11954E-02
        -0.59095E-03
         0.20384E-03
         0.10546E-02
         0.18419E-02
         0.24560E-02
         0.26031E-02
         0.37964E-02
         0.39100E-02
         0.34621E-02
         0.29267E-02
         0.22211E-02
         0.13865E-02
         0.47130E-03
        -0.47130E-03
        -0.13865E-02
        -0.22211E-02
        -0.29267E-02
        -0.34621E-02
        -0.37964E-02
        -0.39100E-02
        -0.37964E-02
        -0.34621E-02
        -0.29267E-02
        -0.22211E-02
        -0.13865E-02
        -0.47130E-03
         0.47130E-03
         0.13865E-02
         0.22211E-02
         0.29267E-02
         0.34621E-02
         0.37964E-02
         0.10362E-02
         0.17427E-02
         0.23160E-02
         0.16668E-02
         0.30373E-02
         0.27839E-02
         0.12836E-02
         0.64796E-03
         0.12390E-03
        -0.13082E-03
         0.94036E-03
         0.11279E-02
         0.17435E-02
         0.40512E-03
         0.39755E-03
        -0.76798E-03
        -0.86756E-03
         0.45492E-03
        -0.18341E-02
        -0.18427E-02
        -0.27234E-02
        -0.27990E-02
        -0.25386E-02
        -0.19347E-02
        -0.99161E-03
        -0.14429E-02
        -0.31294E-03
        -0.11019E-02
        -0.18838E-02
        -0.18695E-02
        -0.16256E-03
        -0.94927E-03
         0.77931E-03
         0.17205E-02
         0.32096E-02
         0.28043E-02
         0.23043E-02
        -0.40420E-03
        -0.12093E-02
        -0.19443E-02
        -0.25024E-02
        -0.26358E-02
        -0.27627E-02
        -0.21143E-02
        -0.16093E-02
        -0.11955E-02
        -0.59130E-03
         0.20343E-03
         0.10543E-02
         0.18419E-02
         0.24561E-02
         0.26032E-02
         0.37964E-02
         0.39100E-02
         0.34621E-02
         0.29267E-02
         0.22211E-02
         0.13865E-02
         0.47130E-03
        -0.47130E-03
        -0.13865E-02
        -0.22211E-02
        -0.29267E-02
        -0.34621E-02
        -0.37964E-02
        -0.39100E-02
        -0.37964E-02
        -0.34621E-02
        -0.29267E-02
        -0.22211E-02
        -0.13865E-02
        -0.47130E-03
         0.47130E-03
         0.13865E-02
         0.22211E-02
         0.29267E-02
         0.34621E-02
         0.37964E-02
         0.10360E-02
         0.17425E-02
         0.23158E-02
         0.16666E-02
         0.30373E-02
         0.27842E-02
         0.12835E-02
         0.64771E-03
         0.12363E-03
        -0.13100E-03
         0.94003E-03
         0.11276E-02
         0.17432E-02
         0.40507E-03
         0.39754E-03
        -0.76834E-03
        -0.86767E-03
         0.45447E-03
        -0.18344E-02
        -0.18426E-02
        -0.27234E-02
        -0.27987E-02
        -0.25388E-02
        -0.19352E-02
        -0.99147E-03
        -0.14433E-02
        -0.31274E-03
        -0.11016E-02
        -0.18838E-02
        -0.18694E-02
        -0.16284E-03
        -0.94986E-03
         0.77865E-03
         0.17205E-02
         0.32099E-02
         0.28042E-02
         0.23042E-02
        -0.40407E-03
        -0.12093E-02
        -0.19442E-02
        -0.25024E-02
        -0.26358E-02
        -0.27624E-02
        -0.21144E-02
        -0.16094E-02
        -0.11956E-02
        -0.59165E-03
         0.20302E-03
         0.10540E-02
         0.18419E-02
         0.24563E-02
         0.26033E-02
         0.37964E-02
         0.39100E-02
         0.34621E-02
         0.29267E-02
         0.22211E-02
         0.13865E-02
         0.47130E-03
        -0.47130E-03
        -0.13865E-02
        -0.22211E-02
        -0.29267E-02
        -0.34621E-02
        -0.37964E-02
        -0.39100E-02
        -0.37964E-02
        -0.34621E-02
        -0.29267E-02
        -0.22211E-02
        -0.13865E-02
        -0.47130E-03
         0.47130E-03
         0.13865E-02
         0.22211E-02
         0.29267E-02
         0.34621E-02
         0.37964E-02
         0.10359E-02
         0.17423E-02
         0.23157E-02
         0.16664E-02
         0.30373E-02
         0.27846E-02
         0.12834E-02
         0.64747E-03
         0.12337E-03
        -0.13118E-03
         0.93970E-03
         0.11272E-02
         0.17428E-02
         0.40501E-03
         0.39752E-03
        -0.76869E-03
        -0.86778E-03
         0.45402E-03
        -0.18347E-02
        -0.18425E-02
        -0.27234E-02
        -0.27984E-02
        -0.25389E-02
        -0.19356E-02
        -0.99133E-03
        -0.14436E-02
        -0.31254E-03
        -0.11013E-02
        -0.18837E-02
        -0.18692E-02
        -0.16311E-03
        -0.95046E-03
         0.77799E-03
         0.17204E-02
         0.32102E-02
         0.28042E-02
         0.23041E-02
        -0.40393E-03
        -0.12093E-02
        -0.19442E-02
        -0.25024E-02
        -0.26357E-02
        -0.27621E-02
        -0.21146E-02
        -0.16094E-02
        -0.11957E-02
        -0.59200E-03
         0.20262E-03
         0.10536E-02
         0.18420E-02
         0.24564E-02
         0.26033E-02
         0.37964E-02
         0.39100E-02
         0.34621E-02
         0.29267E-02
         0.22211E-02
         0.13865E-02
         0.47130E-03
        -0.47130E-03
        -0.13865E-02
        -0.22211E-02
        -0.29267E-02
        -0.34621E-02
        -0.37964E-02
        -0.39100E-02
        -0.37964E-02
        -0.34621E-02
        -0.29267E-02
        -0.22211E-02
        -0.13865E-02
        -0.47130E-03
         0.47130E-03
         0.13865E-02
         0.22211E-02
         0.29267E-02
         0.34621E-02
         0.37964E-02
         0.10358E-02
         0.17422E-02
         0.23156E-02
         0.16662E-02
         0.30373E-02
         0.27849E-02
         0.12833E-02
         0.64722E-03
         0.12311E-03
        -0.13137E-03
         0.93937E-03
         0.11269E-02
         0.17424E-02
         0.40496E-03
         0.39750E-03
        -0.76904E-03
        -0.86789E-03
         0.45358E-03
        -0.18350E-02
        -0.18424E-02
        -0.27233E-02
        -0.27981E-02
        -0.25391E-02
        -0.19360E-02
        -0.99118E-03
        -0.14440E-02
        -0.31234E-03
        -0.11009E-02
        -0.18836E-02
        -0.18691E-02
        -0.16339E-03
        -0.95106E-03
         0.77733E-03
         0.17204E-02
         0.32105E-02
         0.28042E-02
         0.23040E-02
        -0.40379E-03
        -0.12093E-02
        -0.19441E-02
        -0.25023E-02
        -0.26356E-02
        -0.27618E-02
        -0.21147E-02
        -0.16094E-02
        -0.11958E-02
        -0.59235E-03
         0.20221E-03
         0.10533E-02
         0.18420E-02
         0.24565E-02
         0.26034E-02
         0.37964E-02
         0.39100E-02
         0.34621E-02
         0.29267E-02
         0.22211E-02
         0.13865E-02
         0.47130E-03
        -0.47130E-03
        -0.13865E-02
        -0.22211E-02
        -0.29267E-02
        -0.34621E-02
        -0.37964E-02
        -0.39100E-02
        -0.37964E-02
        -0.34621E-02
        -0.29267E-02
        -0.22211E-02
        -0.13865E-02
        -0.47130E-03
         0.47130E-03
         0.13865E-02
         0.22211E-02
         0.29267E-02
         0.34621E-02
         0.37964E-02
         0.10357E-02
         0.17420E-02
         0.23155E-02
         0.16660E-02
         0.30372E-02
         0.27853E-02
         0.12832E-02
         0.64698E-03
         0.12285E-03
        -0.13155E-03
         0.93903E-03
         0.11266E-02
         0.17420E-02
         0.40490E-03
         0.39749E-03
        -0.76940E-03
        -0.86800E-03
         0.45313E-03
        -0.18353E-02
        -0.18423E-02
        -0.27233E-02
        -0.27979E-02
        -0.25393E-02
        -0.19365E-02
        -0.99104E-03
        -0.14443E-02
        -0.31214E-03
        -0.11006E-02
        -0.18836E-02
        -0.18690E-02
        -0.16366E-03
        -0.95166E-03
         0.77667E-03
         0.17203E-02
         0.32109E-02
         0.28042E-02
         0.23039E-02
        -0.40365E-03
        -0.12093E-02
        -0.19441E-02
        -0.25023E-02
        -0.26355E-02
        -0.27615E-02
        -0.21148E-02
        -0.16095E-02
        -0.11960E-02
        -0.59270E-03
         0.20180E-03
         0.10530E-02
         0.18421E-02
         0.24566E-02
         0.26035E-02
         0.37964E-02
         0.39100E-02
         0.34621E-02
         0.29267E-02
         0.22211E-02
         0.13865E-02
         0.47130E-03
        -0.47130E-03
        -0.13865E-02
        -0.22211E-02
        -0.29267E-02
        -0.34621E-02
        -0.37964E-02
        -0.39100E-02
        -0.37964E-02
        -0.34621E-02
        -0.29267E-02
        -0.22211E-02
        -0.13865E-02
        -0.47130E-03
         0.47130E-03
         0.13865E-02
         0.22211E-02
         0.29267E-02
         0.34621E-02
         0.37964E-02
         0.10356E-02
         0.17418E-02
         0.23153E-02
         0.16657E-02
         0.30372E-02
         0.27856E-02
         0.12830E-02
         0.64673E-03
         0.12259E-03
        -0.13174E-03
         0.93870E-03
         0.11262E-02
         0.17416E-02
         0.40485E-03
         0.39747E-03
        -0.76975E-03
        -0.86811E-03
         0.45268E-03
        -0.18356E-02
        -0.18422E-02
        -0.27233E-02
        -0.27976E-02
        -0.25394E-02
        -0.19369E-02
        -0.99090E-03
        -0.14446E-02
        -0.31194E-03
        -0.11002E-02
        -0.18835E-02
        -0.18689E-02
        -0.16394E-03
        -0.95226E-03
         0.77601E-03
         0.17203E-02
         0.32112E-02
         0.28042E-02
         0.23038E-02
        -0.40352E-03
        -0.12093E-02
        -0.19441E-02
        -0.25023E-02
        -0.26354E-02
        -0.27612E-02
        -0.21150E-02
        -0.16095E-02
        -0.11961E-02
        -0.59305E-03
         0.20140E-03
         0.10527E-02
         0.18421E-02
         0.24568E-02
         0.26036E-02
         0.37964E-02
         0.39100E-02
         0.34621E-02
         0.29267E-02
         0.22211E-02
         0.13865E-02
         0.47130E-03
        -0.47130E-03
        -0.13865E-02
        -0.22211E-02
        -0.29267E-02
        -0.34621E-02
        -0.37964E-02
        -0.39100E-02
        -0.37964E-02
        -0.34621E-02
        -0.29267E-02
        -0.22211E-02
        -0.13865E-02
        -0.47130E-03
         0.47130E-03
         0.13865E-02
         0.22211E-02
         0.29267E-02
         0.34621E-02
         0.37964E-02
         0.10355E-02
         0.17416E-02
         0.23152E-02
         0.16655E-02
         0.30372E-02
         0.27860E-02
         0.12829E-02
         0.64649E-03
         0.12232E-03
        -0.13193E-03
         0.93837E-03
         0.11259E-02
         0.17412E-02
         0.40480E-03
         0.39745E-03
        -0.77011E-03
        -0.86822E-03
         0.45223E-03
        -0.18359E-02
        -0.18421E-02
        -0.27232E-02
        -0.27973E-02
        -0.25396E-02
        -0.19373E-02
        -0.99075E-03
        -0.14450E-02
        -0.31173E-03
        -0.10999E-02
        -0.18835E-02
        -0.18687E-02
        -0.16421E-03
        -0.95285E-03
         0.77535E-03
         0.17202E-02
         0.32115E-02
         0.28041E-02
         0.23037E-02
        -0.40338E-03
        -0.12093E-02
        -0.19440E-02
        -0.25023E-02
        -0.26353E-02
        -0.27609E-02
        -0.21151E-02
        -0.16096E-02
        -0.11962E-02
        -0.59340E-03
         0.20099E-03
         0.10524E-02
         0.18422E-02
         0.24569E-02
         0.26036E-02
         0.37964E-02
         0.39100E-02
         0.34621E-02
         0.29267E-02
         0.22211E-02
         0.13865E-02
         0.47130E-03
        -0.47130E-03
        -0.13865E-02
        -0.22211E-02
        -0.29267E-02
        -0.34621E-02
        -0.37964E-02
        -0.39100E-02
        -0.37964E-02
        -0.34621E-02
        -0.29267E-02
        -0.22211E-02
        -0.13865E-02
        -0.47130E-03
         0.47130E-03
         0.13865E-02
         0.22211E-02
         0.29267E-02
         0.34621E-02
         0.37964E-02
         0.10354E-02
         0.17414E-02
         0.23151E-02
         0.16653E-02
         0.30372E-02
         0.27863E-02
         0.12829E-02
         0.64624E-03
         0.12206E-03
        -0.13211E-03
         0.93804E-03
         0.11255E-02
         0.17408E-02
         0.40474E-03
         0.39744E-03
        -0.77046E-03
        -0.86832E-03
         0.45179E-03
        -0.18362E-02
        -0.18420E-02
        -0.27232E-02
        -0.27970E-02
        -0.25397E-02
        -0.19377E-02
        -0.99061E-03
        -0.14453E-02
        -0.31153E-03
        -0.10995E-02
        -0.18834E-02
        -0.18686E-02
        -0.16449E-03
        -0.95345E-03
         0.77469E-03
         0.17202E-02
         0.32119E-02
         0.28041E-02
         0.23036E-02
        -0.40324E-03
        -0.12093E-02
        -0.19440E-02
        -0.25022E-02
        -0.26352E-02
        -0.27606E-02
        -0.21152E-02
        -0.16096E-02
        -0.11963E-02
        -0.59375E-03
         0.20059E-03
         0.10521E-02
         0.18422E-02
         0.24570E-02
         0.26037E-02
         0.37964E-02
         0.39100E-02
         0.34621E-02
         0.29267E-02
         0.22211E-02
         0.13865E-02
         0.47130E-03
        -0.47130E-03
        -0.13865E-02
        -0.22211E-02
        -0.29267E-02
        -0.34621E-02
        -0.37964E-02
        -0.39100E-02
        -0.37964E-02
        -0.34621E-02
        -0.29267E-02
        -0.22211E-02
        -0.13865E-02
        -0.47130E-03
         0.47130E-03
         0.13865E-02
         0.22211E-02
         0.29267E-02
         0.34621E-02
         0.37964E-02
         0.10352E-02
         0.17413E-02
         0.23150E-02
         0.16651E-02
         0.30371E-02
         0.27866E-02
         0.12827E-02
         0.64600E-03
         0.12180E-03
        -0.13230E-03
         0.93771E-03
         0.11252E-02
         0.17404E-02
         0.40469E-03
         0.39742E-03
        -0.77081E-03
        -0.86843E-03
         0.45134E-03
        -0.18365E-02
        -0.18419E-02
        -0.27232E-02
        -0.27968E-02
        -0.25399E-02
        -0.19382E-02
        -0.99046E-03
        -0.14457E-02
        -0.31133E-03
        -0.10992E-02
        -0.18834E-02
        -0.18685E-02
        -0.16476E-03
        -0.95405E-03
         0.77402E-03
         0.17202E-02
         0.32122E-02
         0.28041E-02
         0.23034E-02
        -0.40310E-03
        -0.12093E-02
        -0.19440E-02
        -0.25022E-02
        -0.26351E-02
        -0.27602E-02
        -0.21154E-02
        -0.16097E-02
        -0.11964E-02
        -0.59409E-03
         0.20018E-03
         0.10518E-02
         0.18422E-02
         0.24571E-02
         0.26038E-02
         0.37964E-02
         0.39100E-02
         0.34621E-02
         0.29267E-02
         0.22211E-02
         0.13865E-02
         0.47130E-03
        -0.47130E-03
        -0.13865E-02
        -0.22211E-02
        -0.29267E-02
        -0.34621E-02
        -0.37964E-02
        -0.39100E-02
        -0.37964E-02
        -0.34621E-02
        -0.29267E-02
        -0.22211E-02
        -0.13865E-02
        -0.47130E-03
         0.47130E-03
         0.13865E-02
         0.22211E-02
         0.29267E-02
         0.34621E-02
         0.37964E-02
         0.10351E-02
         0.17411E-02
         0.23149E-02
         0.16649E-02
         0.30371E-02
         0.27870E-02
         0.12826E-02
         0.64575E-03
         0.12154E-03
        -0.13248E-03
         0.93738E-03
         0.11249E-02
         0.17400E-02
         0.40463E-03
         0.39740E-03
        -0.77117E-03
        -0.86854E-03
         0.45089E-03
        -0.18368E-02
        -0.18418E-02
        -0.27232E-02
        -0.27965E-02
        -0.25400E-02
        -0.19386E-02
        -0.99032E-03
        -0.14460E-02
        -0.31113E-03
        -0.10988E-02
        -0.18833E-02
        -0.18683E-02
        -0.16504E-03
        -0.95465E-03
         0.77336E-03
         0.17201E-02
         0.32125E-02
         0.28041E-02
         0.23033E-02
        -0.40296E-03
        -0.12093E-02
        -0.19439E-02
        -0.25022E-02
        -0.26350E-02
        -0.27599E-02
        -0.21155E-02
        -0.16097E-02
        -0.11965E-02
        -0.59444E-03
         0.19977E-03
         0.10515E-02
         0.18423E-02
         0.24573E-02
         0.26039E-02
         0.37964E-02
         0.39100E-02
         0.34621E-02
         0.29267E-02
         0.22211E-02
         0.13865E-02
         0.47130E-03
        -0.47130E-03
        -0.13865E-02
        -0.22211E-02
        -0.29267E-02
        -0.34621E-02
        -0.37964E-02
        -0.39100E-02
        -0.37964E-02
        -0.34621E-02
        -0.29267E-02
        -0.22211E-02
        -0.13865E-02
        -0.47130E-03
         0.47130E-03
         0.13865E-02
         0.22211E-02
         0.29267E-02
         0.34621E-02
         0.37964E-02
  
SCALARS           initial_coordinate_y  double 1
LOOKUP_TABLE default
         0.67292E-03
         0.12308E-02
         0.59151E-03
        -0.33775E-03
         0.67237E-03
         0.12301E-02
         0.59098E-03
        -0.33851E-03
         0.14882E-03
        -0.67643E-03
         0.14846E-03
        -0.67692E-03
         0.18412E-02
         0.14576E-02
         0.18410E-02
         0.14566E-02
         0.29933E-03
         0.11672E-02
         0.29819E-03
         0.11655E-02
         0.22748E-02
         0.28286E-02
         0.24238E-02
         0.22746E-02
         0.28291E-02
         0.24236E-02
         0.21685E-02
         0.29366E-02
         0.21684E-02
         0.29369E-02
        -0.10033E-02
         0.78969E-04
        -0.70318E-03
        -0.10032E-02
         0.78160E-04
        -0.70391E-03
        -0.71196E-03
         0.82749E-04
        -0.71210E-03
         0.82626E-04
        -0.77865E-03
         0.40713E-04
        -0.77882E-03
         0.40439E-04
        -0.15195E-02
        -0.13230E-02
        -0.15195E-02
        -0.13231E-02
         0.98847E-03
         0.98712E-03
        -0.17325E-02
        -0.17325E-02
         0.20220E-02
         0.20217E-02
         0.18615E-02
         0.18616E-02
         0.17175E-02
         0.90940E-03
         0.17175E-02
         0.90916E-03
        -0.19800E-02
        -0.23489E-02
        -0.19800E-02
        -0.23489E-02
        -0.17074E-02
        -0.17074E-02
        -0.14894E-02
        -0.14892E-02
         0.76036E-03
         0.12477E-02
         0.75936E-03
         0.12473E-02
         0.18665E-02
         0.18664E-02
         0.29038E-02
         0.29049E-02
         0.27207E-02
         0.27212E-02
         0.24642E-02
         0.24645E-02
         0.22359E-02
         0.16503E-02
         0.22359E-02
         0.16503E-02
         0.87493E-03
         0.87466E-03
        -0.21373E-02
        -0.21373E-02
        -0.26931E-02
        -0.26931E-02
        -0.31291E-02
        -0.30382E-02
        -0.31291E-02
        -0.30382E-02
        -0.28748E-02
        -0.28748E-02
        -0.26423E-02
        -0.26420E-02
        -0.23707E-02
        -0.23705E-02
        -0.21445E-02
        -0.15105E-02
        -0.21439E-02
        -0.15106E-02
         0.93572E-03
         0.00000E+00
         0.93572E-03
         0.00000E+00
         0.18171E-02
         0.18171E-02
         0.25928E-02
         0.25928E-02
         0.32179E-02
         0.32179E-02
         0.36559E-02
         0.36559E-02
         0.38815E-02
         0.38815E-02
         0.38815E-02
         0.38815E-02
         0.36559E-02
         0.36559E-02
         0.32179E-02
         0.32179E-02
         0.25928E-02
         0.25928E-02
         0.18171E-02
         0.18171E-02
         0.93572E-03
         0.93572E-03
         0.22152E-17
        -0.47884E-18
        -0.93572E-03
        -0.93572E-03
        -0.18171E-02
        -0.18171E-02
        -0.25928E-02
        -0.25928E-02
        -0.32179E-02
        -0.32179E-02
        -0.36559E-02
        -0.36559E-02
        -0.38815E-02
        -0.38815E-02
        -0.38815E-02
        -0.38815E-02
        -0.36559E-02
        -0.36559E-02
        -0.32179E-02
        -0.32179E-02
        -0.25928E-02
        -0.25928E-02
        -0.18171E-02
        -0.18171E-02
        -0.93572E-03
        -0.93572E-03
         0.67348E-03
         0.12314E-02
         0.59203E-03
        -0.33700E-03
         0.14918E-03
        -0.67594E-03
         0.18414E-02
         0.14586E-02
         0.30048E-03
         0.11690E-02
         0.22749E-02
         0.28282E-02
         0.24239E-02
         0.21685E-02
         0.29364E-02
        -0.10035E-02
         0.79778E-04
        -0.70245E-03
        -0.71182E-03
         0.82873E-04
        -0.77848E-03
         0.40986E-04
        -0.15194E-02
        -0.13228E-02
         0.98983E-03
        -0.17324E-02
         0.20223E-02
         0.18614E-02
         0.17175E-02
         0.90964E-03
        -0.19800E-02
        -0.23489E-02
        -0.17074E-02
        -0.14896E-02
         0.76137E-03
         0.12481E-02
         0.18665E-02
         0.29027E-02
         0.27202E-02
         0.24640E-02
         0.22359E-02
         0.16503E-02
         0.87519E-03
        -0.21373E-02
        -0.26932E-02
        -0.31291E-02
        -0.30382E-02
        -0.28748E-02
        -0.26426E-02
        -0.23709E-02
        -0.21450E-02
        -0.15104E-02
         0.93572E-03
         0.00000E+00
         0.18171E-02
         0.25928E-02
         0.32179E-02
         0.36559E-02
         0.38815E-02
         0.38815E-02
         0.36559E-02
         0.32179E-02
         0.25928E-02
         0.18171E-02
         0.93572E-03
        -0.47884E-18
        -0.93572E-03
        -0.18171E-02
        -0.25928E-02
        -0.32179E-02
        -0.36559E-02
        -0.38815E-02
        -0.38815E-02
        -0.36559E-02
        -0.32179E-02
        -0.25928E-02
        -0.18171E-02
        -0.93572E-03
         0.67403E-03
         0.12321E-02
         0.59255E-03
        -0.33624E-03
         0.14955E-03
        -0.67544E-03
         0.18415E-02
         0.14596E-02
         0.30163E-03
         0.11707E-02
         0.22750E-02
         0.28277E-02
         0.24241E-02
         0.21685E-02
         0.29361E-02
        -0.10036E-02
         0.80588E-04
        -0.70173E-03
        -0.71168E-03
         0.82996E-04
        -0.77831E-03
         0.41259E-04
        -0.15194E-02
        -0.13227E-02
         0.99119E-03
        -0.17324E-02
         0.20226E-02
         0.18613E-02
         0.17175E-02
         0.90988E-03
        -0.19801E-02
        -0.23490E-02
        -0.17074E-02
        -0.14899E-02
         0.76237E-03
         0.12485E-02
         0.18666E-02
         0.29017E-02
         0.27198E-02
         0.24638E-02
         0.22359E-02
         0.16503E-02
         0.87545E-03
        -0.21374E-02
        -0.26932E-02
        -0.31291E-02
        -0.30382E-02
        -0.28748E-02
        -0.26428E-02
        -0.23711E-02
        -0.21456E-02
        -0.15103E-02
         0.93572E-03
         0.00000E+00
         0.18171E-02
         0.25928E-02
         0.32179E-02
         0.36559E-02
         0.38815E-02
         0.38815E-02
         0.36559E-02
         0.32179E-02
         0.25928E-02
         0.18171E-02
         0.93572E-03
         0.39516E-17
        -0.93572E-03
        -0.18171E-02
        -0.25928E-02
        -0.32179E-02
        -0.36559E-02
        -0.38815E-02
        -0.38815E-02
        -0.36559E-02
        -0.32179E-02
        -0.25928E-02
        -0.18171E-02
        -0.93572E-03
         0.67459E-03
         0.12328E-02
         0.59308E-03
        -0.33549E-03
         0.14991E-03
        -0.67495E-03
         0.18417E-02
         0.14606E-02
         0.30278E-03
         0.11725E-02
         0.22752E-02
         0.28273E-02
         0.24242E-02
         0.21686E-02
         0.29359E-02
        -0.10038E-02
         0.81397E-04
        -0.70100E-03
        -0.71154E-03
         0.83120E-04
        -0.77814E-03
         0.41533E-04
        -0.15193E-02
        -0.13227E-02
         0.99254E-03
        -0.17324E-02
         0.20228E-02
         0.18611E-02
         0.17175E-02
         0.91012E-03
        -0.19801E-02
        -0.23490E-02
        -0.17074E-02
        -0.14901E-02
         0.76338E-03
         0.12490E-02
         0.18666E-02
         0.29006E-02
         0.27193E-02
         0.24636E-02
         0.22359E-02
         0.16503E-02
         0.87571E-03
        -0.21374E-02
        -0.26932E-02
        -0.31291E-02
        -0.30382E-02
        -0.28748E-02
        -0.26431E-02
        -0.23713E-02
        -0.21461E-02
        -0.15102E-02
         0.93572E-03
         0.00000E+00
         0.18171E-02
         0.25928E-02
         0.32179E-02
         0.36559E-02
         0.38815E-02
         0.38815E-02
         0.36559E-02
         0.32179E-02
         0.25928E-02
         0.18171E-02
         0.93572E-03
        -0.47884E-18
        -0.93572E-03
        -0.18171E-02
        -0.25928E-02
        -0.32179E-02
        -0.36559E-02
        -0.38815E-02
        -0.38815E-02
        -0.36559E-02
        -0.32179E-02
        -0.25928E-02
        -0.18171E-02
        -0.93572E-03
         0.67514E-03
         0.12334E-02
         0.59360E-03
        -0.33474E-03
         0.15027E-03
        -0.67446E-03
         0.18419E-02
         0.14616E-02
         0.30393E-03
         0.11742E-02
         0.22753E-02
         0.28269E-02
         0.24244E-02
         0.21686E-02
         0.29356E-02
        -0.10039E-02
         0.82206E-04
        -0.70028E-03
        -0.71140E-03
         0.83243E-04
        -0.77797E-03
         0.41806E-04
        -0.15193E-02
        -0.13226E-02
         0.99390E-03
        -0.17323E-02
         0.20231E-02
         0.18610E-02
         0.17175E-02
         0.91036E-03
        -0.19801E-02
        -0.23490E-02
        -0.17074E-02
        -0.14904E-02
         0.76439E-03
         0.12494E-02
         0.18666E-02
         0.28995E-02
         0.27188E-02
         0.24633E-02
         0.22359E-02
         0.16503E-02
         0.87597E-03
        -0.21374E-02
        -0.26932E-02
        -0.31291E-02
        -0.30382E-02
        -0.28748E-02
        -0.26434E-02
        -0.23715E-02
        -0.21467E-02
        -0.15101E-02
         0.93572E-03
         0.00000E+00
         0.18171E-02
         0.25928E-02
         0.32179E-02
         0.36559E-02
         0.38815E-02
         0.38815E-02
         0.36559E-02
         0.32179E-02
         0.25928E-02
         0.18171E-02
         0.93572E-03
        -0.47884E-18
        -0.93572E-03
        -0.18171E-02
        -0.25928E-02
        -0.32179E-02
        -0.36559E-02
        -0.38815E-02
        -0.38815E-02
        -0.36559E-02
        -0.32179E-02
        -0.25928E-02
        -0.18171E-02
        -0.93572E-03
         0.67570E-03
         0.12341E-02
         0.59412E-03
        -0.33398E-03
         0.15064E-03
        -0.67396E-03
         0.18421E-02
         0.14626E-02
         0.30507E-03
         0.11760E-02
         0.22754E-02
         0.28264E-02
         0.24245E-02
         0.21686E-02
         0.29353E-02
        -0.10040E-02
         0.83015E-04
        -0.69955E-03
        -0.71126E-03
         0.83367E-04
        -0.77780E-03
         0.42080E-04
        -0.15192E-02
        -0.13224E-02
         0.99526E-03
        -0.17323E-02
         0.20234E-02
         0.18609E-02
         0.17175E-02
         0.91060E-03
        -0.19801E-02
        -0.23490E-02
        -0.17074E-02
        -0.14906E-02
         0.76539E-03
         0.12498E-02
         0.18667E-02
         0.28984E-02
         0.27184E-02
         0.24631E-02
         0.22359E-02
         0.16503E-02
         0.87623E-03
        -0.21374E-02
        -0.26932E-02
        -0.31291E-02
        -0.30382E-02
        -0.28748E-02
        -0.26436E-02
        -0.23717E-02
        -0.21472E-02
        -0.15100E-02
         0.93572E-03
         0.00000E+00
         0.18171E-02
         0.25928E-02
         0.32179E-02
         0.36559E-02
         0.38815E-02
         0.38815E-02
         0.36559E-02
         0.32179E-02
         0.25928E-02
         0.18171E-02
         0.93572E-03
        -0.47884E-18
        -0.93572E-03
        -0.18171E-02
        -0.25928E-02
        -0.32179E-02
        -0.36559E-02
        -0.38815E-02
        -0.38815E-02
        -0.36559E-02
        -0.32179E-02
        -0.25928E-02
        -0.18171E-02
        -0.93572E-03
         0.67625E-03
         0.12348E-02
         0.59465E-03
        -0.33323E-03
         0.15100E-03
        -0.67347E-03
         0.18423E-02
         0.14636E-02
         0.30622E-03
         0.11777E-02
         0.22755E-02
         0.28260E-02
         0.24247E-02
         0.21687E-02
         0.29351E-02
        -0.10042E-02
         0.83825E-04
        -0.69882E-03
        -0.71112E-03
         0.83490E-04
        -0.77763E-03
         0.42353E-04
        -0.15192E-02
        -0.13223E-02
         0.99661E-03
        -0.17322E-02
         0.20237E-02
         0.18607E-02
         0.17175E-02
         0.91084E-03
        -0.19801E-02
        -0.23491E-02
        -0.17074E-02
        -0.14909E-02
         0.76640E-03
         0.12503E-02
         0.18667E-02
         0.28974E-02
         0.27179E-02
         0.24629E-02
         0.22359E-02
         0.16503E-02
         0.87650E-03
        -0.21374E-02
        -0.26933E-02
        -0.31291E-02
        -0.30382E-02
        -0.28749E-02
        -0.26439E-02
        -0.23719E-02
        -0.21478E-02
        -0.15099E-02
         0.93572E-03
         0.00000E+00
         0.18171E-02
         0.25928E-02
         0.32179E-02
         0.36559E-02
         0.38815E-02
         0.38815E-02
         0.36559E-02
         0.32179E-02
         0.25928E-02
         0.18171E-02
         0.93572E-03
        -0.47884E-18
        -0.93572E-03
        -0.18171E-02
        -0.25928E-02
        -0.32179E-02
        -0.36559E-02
        -0.38815E-02
        -0.38815E-02
        -0.36559E-02
        -0.32179E-02
        -0.25928E-02
        -0.18171E-02
        -0.93572E-03
         0.67680E-03
         0.12354E-02
         0.59517E-03
        -0.33247E-03
         0.15136E-03
        -0.67298E-03
         0.18425E-02
         0.14646E-02
         0.30737E-03
         0.11795E-02
         0.22757E-02
         0.28255E-02
         0.24248E-02
         0.21687E-02
         0.29348E-02
        -0.10043E-02
         0.84634E-04
        -0.69810E-03
        -0.71098E-03
         0.83614E-04
        -0.77746E-03
         0.42626E-04
        -0.15191E-02
        -0.13223E-02
         0.99797E-03
        -0.17322E-02
         0.20240E-02
         0.18606E-02
         0.17175E-02
         0.91108E-03
        -0.19802E-02
        -0.23491E-02
        -0.17074E-02
        -0.14911E-02
         0.76740E-03
         0.12507E-02
         0.18668E-02
         0.28963E-02
         0.27174E-02
         0.24627E-02
         0.22358E-02
         0.16503E-02
         0.87676E-03
        -0.21374E-02
        -0.26933E-02
        -0.31291E-02
        -0.30382E-02
        -0.28749E-02
        -0.26442E-02
        -0.23721E-02
        -0.21483E-02
        -0.15097E-02
         0.93572E-03
         0.00000E+00
         0.18171E-02
         0.25928E-02
         0.32179E-02
         0.36559E-02
         0.38815E-02
         0.38815E-02
         0.36559E-02
         0.32179E-02
         0.25928E-02
         0.18171E-02
         0.93572E-03
        -0.47884E-18
        -0.93572E-03
        -0.18171E-02
        -0.25928E-02
        -0.32179E-02
        -0.36559E-02
        -0.38815E-02
        -0.38815E-02
        -0.36559E-02
        -0.32179E-02
        -0.25928E-02
        -0.18171E-02
        -0.93572E-03
         0.67736E-03
         0.12361E-02
         0.59570E-03
        -0.33172E-03
         0.15173E-03
        -0.67248E-03
         0.18427E-02
         0.14656E-02
         0.30852E-03
         0.11812E-02
         0.22758E-02
         0.28251E-02
         0.24249E-02
         0.21688E-02
         0.29345E-02
        -0.10044E-02
         0.85443E-04
        -0.69737E-03
        -0.71084E-03
         0.83737E-04
        -0.77729E-03
         0.42899E-04
        -0.15191E-02
        -0.13222E-02
         0.99932E-03
        -0.17322E-02
         0.20243E-02
         0.18605E-02
         0.17175E-02
         0.91132E-03
        -0.19802E-02
        -0.23491E-02
        -0.17074E-02
        -0.14914E-02
         0.76841E-03
         0.12511E-02
         0.18668E-02
         0.28952E-02
         0.27170E-02
         0.24624E-02
         0.22358E-02
         0.16503E-02
         0.87702E-03
        -0.21374E-02
        -0.26933E-02
        -0.31291E-02
        -0.30382E-02
        -0.28749E-02
        -0.26444E-02
        -0.23723E-02
        -0.21489E-02
        -0.15096E-02
         0.93572E-03
         0.00000E+00
         0.18171E-02
         0.25928E-02
         0.32179E-02
         0.36559E-02
         0.38815E-02
         0.38815E-02
         0.36559E-02
         0.32179E-02
         0.25928E-02
         0.18171E-02
         0.93572E-03
        -0.47884E-18
        -0.93572E-03
        -0.18171E-02
        -0.25928E-02
        -0.32179E-02
        -0.36559E-02
        -0.38815E-02
        -0.38815E-02
        -0.36559E-02
        -0.32179E-02
        -0.25928E-02
        -0.18171E-02
        -0.93572E-03
         0.67791E-03
         0.12368E-02
         0.59622E-03
        -0.33096E-03
         0.15209E-03
        -0.67199E-03
         0.18429E-02
         0.14666E-02
         0.30967E-03
         0.11830E-02
         0.22759E-02
         0.28247E-02
         0.24251E-02
         0.21688E-02
         0.29343E-02
        -0.10046E-02
         0.86253E-04
        -0.69665E-03
        -0.71070E-03
         0.83861E-04
        -0.77712E-03
         0.43173E-04
        -0.15190E-02
        -0.13220E-02
         0.10007E-02
        -0.17321E-02
         0.20245E-02
         0.18603E-02
         0.17175E-02
         0.91156E-03
        -0.19802E-02
        -0.23491E-02
        -0.17074E-02
        -0.14916E-02
         0.76941E-03
         0.12515E-02
         0.18668E-02
         0.28942E-02
         0.27165E-02
         0.24622E-02
         0.22358E-02
         0.16503E-02
         0.87728E-03
        -0.21374E-02
        -0.26933E-02
        -0.31291E-02
        -0.30382E-02
        -0.28749E-02
        -0.26447E-02
        -0.23725E-02
        -0.21494E-02
        -0.15095E-02
         0.93572E-03
         0.00000E+00
         0.18171E-02
         0.25928E-02
         0.32179E-02
         0.36559E-02
         0.38815E-02
         0.38815E-02
         0.36559E-02
         0.32179E-02
         0.25928E-02
         0.18171E-02
         0.93572E-03
        -0.47884E-18
        -0.93572E-03
        -0.18171E-02
        -0.25928E-02
        -0.32179E-02
        -0.36559E-02
        -0.38815E-02
        -0.38815E-02
        -0.36559E-02
        -0.32179E-02
        -0.25928E-02
        -0.18171E-02
        -0.93572E-03
         0.67847E-03
         0.12374E-02
         0.59674E-03
        -0.33021E-03
         0.15245E-03
        -0.67150E-03
         0.18430E-02
         0.14676E-02
         0.31081E-03
         0.11847E-02
         0.22761E-02
         0.28242E-02
         0.24252E-02
         0.21688E-02
         0.29340E-02
        -0.10047E-02
         0.87062E-04
        -0.69592E-03
        -0.71056E-03
         0.83985E-04
        -0.77695E-03
         0.43446E-04
        -0.15190E-02
        -0.13219E-02
         0.10020E-02
        -0.17321E-02
         0.20248E-02
         0.18602E-02
         0.17175E-02
         0.91180E-03
        -0.19803E-02
        -0.23491E-02
        -0.17073E-02
        -0.14919E-02
         0.77042E-03
         0.12520E-02
         0.18669E-02
         0.28931E-02
         0.27160E-02
         0.24620E-02
         0.22358E-02
         0.16503E-02
         0.87754E-03
        -0.21374E-02
        -0.26933E-02
        -0.31291E-02
        -0.30382E-02
        -0.28749E-02
        -0.26450E-02
        -0.23727E-02
        -0.21500E-02
        -0.15094E-02
         0.93572E-03
         0.00000E+00
         0.18171E-02
         0.25928E-02
         0.32179E-02
         0.36559E-02
         0.38815E-02
         0.38815E-02
         0.36559E-02
         0.32179E-02
         0.25928E-02
         0.18171E-02
         0.93572E-03
         0.39516E-17
        -0.93572E-03
        -0.18171E-02
        -0.25928E-02
        -0.32179E-02
        -0.36559E-02
        -0.38815E-02
        -0.38815E-02
        -0.36559E-02
        -0.32179E-02
        -0.25928E-02
        -0.18171E-02
        -0.93572E-03
         0.67902E-03
         0.12381E-02
         0.59727E-03
        -0.32945E-03
         0.15282E-03
        -0.67100E-03
         0.18432E-02
         0.14686E-02
         0.31196E-03
         0.11865E-02
         0.22762E-02
         0.28238E-02
         0.24254E-02
         0.21688E-02
         0.29337E-02
        -0.10049E-02
         0.87871E-04
        -0.69519E-03
        -0.71042E-03
         0.84108E-04
        -0.77678E-03
         0.43720E-04
        -0.15189E-02
        -0.13219E-02
         0.10034E-02
        -0.17320E-02
         0.20251E-02
         0.18601E-02
         0.17175E-02
         0.91204E-03
        -0.19803E-02
        -0.23492E-02
        -0.17073E-02
        -0.14921E-02
         0.77142E-03
         0.12524E-02
         0.18669E-02
         0.28920E-02
         0.27155E-02
         0.24618E-02
         0.22358E-02
         0.16503E-02
         0.87781E-03
        -0.21374E-02
        -0.26934E-02
        -0.31291E-02
        -0.30382E-02
        -0.28749E-02
        -0.26452E-02
        -0.23729E-02
        -0.21505E-02
        -0.15093E-02
         0.93572E-03
         0.00000E+00
         0.18171E-02
         0.25928E-02
         0.32179E-02
         0.36559E-02
         0.38815E-02
         0.38815E-02
         0.36559E-02
         0.32179E-02
         0.25928E-02
         0.18171E-02
         0.93572E-03
        -0.47884E-18
        -0.93572E-03
        -0.18171E-02
        -0.25928E-02
        -0.32179E-02
        -0.36559E-02
        -0.38815E-02
        -0.38815E-02
        -0.36559E-02
        -0.32179E-02
        -0.25928E-02
        -0.18171E-02
        -0.93572E-03
         0.67958E-03
         0.12387E-02
         0.59779E-03
        -0.32870E-03
         0.15318E-03
        -0.67051E-03
         0.18434E-02
         0.14696E-02
         0.31311E-03
         0.11882E-02
         0.22763E-02
         0.28233E-02
         0.24255E-02
         0.21689E-02
         0.29335E-02
        -0.10050E-02
         0.88681E-04
        -0.69447E-03
        -0.71028E-03
         0.84232E-04
        -0.77661E-03
         0.43993E-04
        -0.15189E-02
        -0.13218E-02
         0.10048E-02
        -0.17320E-02
         0.20254E-02
         0.18599E-02
         0.17175E-02
         0.91228E-03
        -0.19803E-02
        -0.23492E-02
        -0.17073E-02
        -0.14923E-02
         0.77243E-03
         0.12528E-02
         0.18670E-02
         0.28910E-02
         0.27151E-02
         0.24615E-02
         0.22358E-02
         0.16503E-02
         0.87807E-03
        -0.21374E-02
        -0.26934E-02
        -0.31291E-02
        -0.30382E-02
        -0.28749E-02
        -0.26455E-02
        -0.23732E-02
        -0.21511E-02
        -0.15092E-02
         0.93572E-03
         0.00000E+00
         0.18171E-02
         0.25928E-02
         0.32179E-02
         0.36559E-02
         0.38815E-02
         0.38815E-02
         0.36559E-02
         0.32179E-02
         0.25928E-02
         0.18171E-02
         0.93572E-03
         0.22152E-17
        -0.93572E-03
        -0.18171E-02
        -0.25928E-02
        -0.32179E-02
        -0.36559E-02
        -0.38815E-02
        -0.38815E-02
        -0.36559E-02
        -0.32179E-02
        -0.25928E-02
        -0.18171E-02
        -0.93572E-03
         0.68013E-03
         0.12394E-02
         0.59831E-03
        -0.32794E-03
         0.15354E-03
        -0.67002E-03
         0.18436E-02
         0.14706E-02
         0.31426E-03
         0.11900E-02
         0.22765E-02
         0.28229E-02
         0.24257E-02
         0.21689E-02
         0.29332E-02
        -0.10051E-02
         0.89490E-04
        -0.69374E-03
        -0.71013E-03
         0.84355E-04
        -0.77644E-03
         0.44266E-04
        -0.15188E-02
        -0.13216E-02
         0.10061E-02
        -0.17320E-02
         0.20257E-02
         0.18598E-02
         0.17175E-02
         0.91252E-03
        -0.19803E-02
        -0.23492E-02
        -0.17073E-02
        -0.14926E-02
         0.77343E-03
         0.12533E-02
         0.18670E-02
         0.28899E-02
         0.27146E-02
         0.24613E-02
         0.22358E-02
         0.16503E-02
         0.87833E-03
        -0.21374E-02
        -0.26934E-02
        -0.31291E-02
        -0.30382E-02
        -0.28750E-02
        -0.26458E-02
        -0.23734E-02
        -0.21516E-02
        -0.15091E-02
         0.93572E-03
         0.00000E+00
         0.18171E-02
         0.25928E-02
         0.32179E-02
         0.36559E-02
         0.38815E-02
         0.38815E-02
         0.36559E-02
         0.32179E-02
         0.25928E-02
         0.18171E-02
         0.93572E-03
        -0.47884E-18
        -0.93572E-03
        -0.18171E-02
        -0.25928E-02
        -0.32179E-02
        -0.36559E-02
        -0.38815E-02
        -0.38815E-02
        -0.36559E-02
        -0.32179E-02
        -0.25928E-02
        -0.18171E-02
        -0.93572E-03
         0.68068E-03
         0.12401E-02
         0.59884E-03
        -0.32719E-03
         0.15391E-03
        -0.66953E-03
         0.18438E-02
         0.14716E-02
         0.31541E-03
         0.11917E-02
         0.22766E-02
         0.28225E-02
         0.24258E-02
         0.21690E-02
         0.29330E-02
        -0.10053E-02
         0.90299E-04
        -0.69302E-03
        -0.70999E-03
         0.84479E-04
        -0.77627E-03
         0.44540E-04
        -0.15188E-02
        -0.13215E-02
         0.10075E-02
        -0.17319E-02
         0.20260E-02
         0.18597E-02
         0.17175E-02
         0.91276E-03
        -0.19804E-02
        -0.23493E-02
        -0.17073E-02
        -0.14928E-02
         0.77444E-03
         0.12537E-02
         0.18670E-02
         0.28888E-02
         0.27141E-02
         0.24611E-02
         0.22358E-02
         0.16503E-02
         0.87859E-03
        -0.21374E-02
        -0.26934E-02
        -0.31291E-02
        -0.30382E-02
        -0.28750E-02
        -0.26460E-02
        -0.23736E-02
        -0.21521E-02
        -0.15090E-02
         0.93572E-03
         0.00000E+00
         0.18171E-02
         0.25928E-02
         0.32179E-02
         0.36559E-02
         0.38815E-02
         0.38815E-02
         0.36559E-02
         0.32179E-02
         0.25928E-02
         0.18171E-02
         0.93572E-03
         0.22152E-17
        -0.93572E-03
        -0.18171E-02
        -0.25928E-02
        -0.32179E-02
        -0.36559E-02
        -0.38815E-02
        -0.38815E-02
        -0.36559E-02
        -0.32179E-02
        -0.25928E-02
        -0.18171E-02
        -0.93572E-03
         0.68124E-03
         0.12407E-02
         0.59936E-03
        -0.32643E-03
         0.15427E-03
        -0.66903E-03
         0.18440E-02
         0.14727E-02
         0.31656E-03
         0.11935E-02
         0.22767E-02
         0.28220E-02
         0.24260E-02
         0.21690E-02
         0.29327E-02
        -0.10054E-02
         0.91108E-04
        -0.69229E-03
        -0.70985E-03
         0.84602E-04
        -0.77610E-03
         0.44813E-04
        -0.15187E-02
        -0.13215E-02
         0.10088E-02
        -0.17319E-02
         0.20262E-02
         0.18595E-02
         0.17175E-02
         0.91300E-03
        -0.19804E-02
        -0.23493E-02
        -0.17073E-02
        -0.14931E-02
         0.77544E-03
         0.12541E-02
         0.18671E-02
         0.28877E-02
         0.27137E-02
         0.24609E-02
         0.22358E-02
         0.16503E-02
         0.87885E-03
        -0.21374E-02
        -0.26934E-02
        -0.31291E-02
        -0.30382E-02
        -0.28750E-02
        -0.26463E-02
        -0.23738E-02
        -0.21527E-02
        -0.15088E-02
         0.93572E-03
         0.00000E+00
         0.18171E-02
         0.25928E-02
         0.32179E-02
         0.36559E-02
         0.38815E-02
         0.38815E-02
         0.36559E-02
         0.32179E-02
         0.25928E-02
         0.18171E-02
         0.93572E-03
        -0.47884E-18
        -0.93572E-03
        -0.18171E-02
        -0.25928E-02
        -0.32179E-02
        -0.36559E-02
        -0.38815E-02
        -0.38815E-02
        -0.36559E-02
        -0.32179E-02
        -0.25928E-02
        -0.18171E-02
        -0.93572E-03
         0.68179E-03
         0.12414E-02
         0.59988E-03
        -0.32568E-03
         0.15463E-03
        -0.66854E-03
         0.18442E-02
         0.14736E-02
         0.31770E-03
         0.11952E-02
         0.22768E-02
         0.28216E-02
         0.24261E-02
         0.21690E-02
         0.29324E-02
        -0.10056E-02
         0.91918E-04
        -0.69156E-03
        -0.70971E-03
         0.84726E-04
        -0.77593E-03
         0.45086E-04
        -0.15187E-02
        -0.13213E-02
         0.10102E-02
        -0.17318E-02
         0.20265E-02
         0.18594E-02
         0.17175E-02
         0.91324E-03
        -0.19804E-02
        -0.23493E-02
        -0.17073E-02
        -0.14933E-02
         0.77645E-03
         0.12545E-02
         0.18671E-02
         0.28867E-02
         0.27132E-02
         0.24606E-02
         0.22358E-02
         0.16503E-02
         0.87912E-03
        -0.21374E-02
        -0.26935E-02
        -0.31291E-02
        -0.30381E-02
        -0.28750E-02
        -0.26466E-02
        -0.23740E-02
        -0.21533E-02
        -0.15087E-02
         0.93572E-03
         0.00000E+00
         0.18171E-02
         0.25928E-02
         0.32179E-02
         0.36559E-02
         0.38815E-02
         0.38815E-02
         0.36559E-02
         0.32179E-02
         0.25928E-02
         0.18171E-02
         0.93572E-03
        -0.47884E-18
        -0.93572E-03
        -0.18171E-02
        -0.25928E-02
        -0.32179E-02
        -0.36559E-02
        -0.38815E-02
        -0.38815E-02
        -0.36559E-02
        -0.32179E-02
        -0.25928E-02
        -0.18171E-02
        -0.93572E-03
         0.68235E-03
         0.12421E-02
         0.60041E-03
        -0.32493E-03
         0.15500E-03
        -0.66805E-03
         0.18444E-02
         0.14747E-02
         0.31885E-03
         0.11970E-02
         0.22770E-02
         0.28211E-02
         0.24262E-02
         0.21691E-02
         0.29322E-02
        -0.10057E-02
         0.92727E-04
        -0.69084E-03
        -0.70957E-03
         0.84849E-04
        -0.77576E-03
         0.45359E-04
        -0.15186E-02
        -0.13212E-02
         0.10115E-02
        -0.17318E-02
         0.20268E-02
         0.18593E-02
         0.17175E-02
         0.91347E-03
        -0.19804E-02
        -0.23493E-02
        -0.17073E-02
        -0.14936E-02
         0.77745E-03
         0.12550E-02
         0.18671E-02
         0.28856E-02
         0.27127E-02
         0.24604E-02
         0.22358E-02
         0.16503E-02
         0.87938E-03
        -0.21374E-02
        -0.26935E-02
        -0.31291E-02
        -0.30381E-02
        -0.28750E-02
        -0.26468E-02
        -0.23742E-02
        -0.21538E-02
        -0.15086E-02
         0.93572E-03
         0.00000E+00
         0.18171E-02
         0.25928E-02
         0.32179E-02
         0.36559E-02
         0.38815E-02
         0.38815E-02
         0.36559E-02
         0.32179E-02
         0.25928E-02
         0.18171E-02
         0.93572E-03
        -0.47884E-18
        -0.93572E-03
        -0.18171E-02
        -0.25928E-02
        -0.32179E-02
        -0.36559E-02
        -0.38815E-02
        -0.38815E-02
        -0.36559E-02
        -0.32179E-02
        -0.25928E-02
        -0.18171E-02
        -0.93572E-03
         0.68290E-03
         0.12427E-02
         0.60093E-03
        -0.32417E-03
         0.15536E-03
        -0.66755E-03
         0.18445E-02
         0.14757E-02
         0.32000E-03
         0.11987E-02
         0.22771E-02
         0.28207E-02
         0.24264E-02
         0.21691E-02
         0.29319E-02
        -0.10058E-02
         0.93536E-04
        -0.69011E-03
        -0.70943E-03
         0.84973E-04
        -0.77559E-03
         0.45633E-04
        -0.15186E-02
        -0.13212E-02
         0.10129E-02
        -0.17318E-02
         0.20271E-02
         0.18592E-02
         0.17175E-02
         0.91371E-03
        -0.19805E-02
        -0.23493E-02
        -0.17073E-02
        -0.14938E-02
         0.77846E-03
         0.12554E-02
         0.18672E-02
         0.28845E-02
         0.27122E-02
         0.24602E-02
         0.22358E-02
         0.16502E-02
         0.87964E-03
        -0.21374E-02
        -0.26935E-02
        -0.31291E-02
        -0.30381E-02
        -0.28750E-02
        -0.26471E-02
        -0.23744E-02
        -0.21543E-02
        -0.15085E-02
         0.93572E-03
         0.00000E+00
         0.18171E-02
         0.25928E-02
         0.32179E-02
         0.36559E-02
         0.38815E-02
         0.38815E-02
         0.36559E-02
         0.32179E-02
         0.25928E-02
         0.18171E-02
         0.93572E-03
        -0.47884E-18
        -0.93572E-03
        -0.18171E-02
        -0.25928E-02
        -0.32179E-02
        -0.36559E-02
        -0.38815E-02
        -0.38815E-02
        -0.36559E-02
        -0.32179E-02
        -0.25928E-02
        -0.18171E-02
        -0.93572E-03
         0.68346E-03
         0.12434E-02
         0.60145E-03
        -0.32342E-03
         0.15572E-03
        -0.66706E-03
         0.18447E-02
         0.14767E-02
         0.32115E-03
         0.12005E-02
         0.22772E-02
         0.28203E-02
         0.24265E-02
         0.21691E-02
         0.29316E-02
        -0.10060E-02
         0.94345E-04
        -0.68939E-03
        -0.70929E-03
         0.85096E-04
        -0.77542E-03
         0.45906E-04
        -0.15185E-02
        -0.13211E-02
         0.10142E-02
        -0.17317E-02
         0.20274E-02
         0.18590E-02
         0.17175E-02
         0.91395E-03
        -0.19805E-02
        -0.23494E-02
        -0.17073E-02
        -0.14941E-02
         0.77946E-03
         0.12558E-02
         0.18672E-02
         0.28835E-02
         0.27118E-02
         0.24600E-02
         0.22358E-02
         0.16502E-02
         0.87990E-03
        -0.21374E-02
        -0.26935E-02
        -0.31291E-02
        -0.30381E-02
        -0.28750E-02
        -0.26474E-02
        -0.23746E-02
        -0.21549E-02
        -0.15084E-02
         0.93572E-03
         0.00000E+00
         0.18171E-02
         0.25928E-02
         0.32179E-02
         0.36559E-02
         0.38815E-02
         0.38815E-02
         0.36559E-02
         0.32179E-02
         0.25928E-02
         0.18171E-02
         0.93572E-03
         0.22152E-17
        -0.93572E-03
        -0.18171E-02
        -0.25928E-02
        -0.32179E-02
        -0.36559E-02
        -0.38815E-02
        -0.38815E-02
        -0.36559E-02
        -0.32179E-02
        -0.25928E-02
        -0.18171E-02
        -0.93572E-03
         0.68401E-03
         0.12440E-02
         0.60198E-03
        -0.32266E-03
         0.15609E-03
        -0.66657E-03
         0.18449E-02
         0.14777E-02
         0.32230E-03
         0.12022E-02
         0.22774E-02
         0.28198E-02
         0.24267E-02
         0.21692E-02
         0.29314E-02
        -0.10061E-02
         0.95155E-04
        -0.68866E-03
        -0.70915E-03
         0.85220E-04
        -0.77525E-03
         0.46180E-04
        -0.15185E-02
        -0.13210E-02
         0.10156E-02
        -0.17317E-02
         0.20277E-02
         0.18589E-02
         0.17175E-02
         0.91419E-03
        -0.19805E-02
        -0.23494E-02
        -0.17073E-02
        -0.14943E-02
         0.78047E-03
         0.12563E-02
         0.18672E-02
         0.28824E-02
         0.27113E-02
         0.24597E-02
         0.22358E-02
         0.16502E-02
         0.88016E-03
        -0.21374E-02
        -0.26935E-02
        -0.31291E-02
        -0.30381E-02
        -0.28751E-02
        -0.26476E-02
        -0.23748E-02
        -0.21554E-02
        -0.15083E-02
         0.93572E-03
         0.00000E+00
         0.18171E-02
         0.25928E-02
         0.32179E-02
         0.36559E-02
         0.38815E-02
         0.38815E-02
         0.36559E-02
         0.32179E-02
         0.25928E-02
         0.18171E-02
         0.93572E-03
        -0.47884E-18
        -0.93572E-03
        -0.18171E-02
        -0.25928E-02
        -0.32179E-02
        -0.36559E-02
        -0.38815E-02
        -0.38815E-02
        -0.36559E-02
        -0.32179E-02
        -0.25928E-02
        -0.18171E-02
        -0.93572E-03
         0.68457E-03
         0.12447E-02
         0.60250E-03
        -0.32191E-03
         0.15645E-03
        -0.66607E-03
         0.18451E-02
         0.14787E-02
         0.32345E-03
         0.12040E-02
         0.22775E-02
         0.28194E-02
         0.24268E-02
         0.21692E-02
         0.29311E-02
        -0.10062E-02
         0.95964E-04
        -0.68793E-03
        -0.70901E-03
         0.85343E-04
        -0.77507E-03
         0.46453E-04
        -0.15184E-02
        -0.13209E-02
         0.10169E-02
        -0.17316E-02
         0.20280E-02
         0.18588E-02
         0.17175E-02
         0.91443E-03
        -0.19806E-02
        -0.23494E-02
        -0.17073E-02
        -0.14945E-02
         0.78148E-03
         0.12567E-02
         0.18673E-02
         0.28813E-02
         0.27108E-02
         0.24595E-02
         0.22358E-02
         0.16502E-02
         0.88043E-03
        -0.21374E-02
        -0.26936E-02
        -0.31291E-02
        -0.30381E-02
        -0.28751E-02
        -0.26479E-02
        -0.23750E-02
        -0.21560E-02
        -0.15082E-02
         0.93572E-03
         0.00000E+00
         0.18171E-02
         0.25928E-02
         0.32179E-02
         0.36559E-02
         0.38815E-02
         0.38815E-02
         0.36559E-02
         0.32179E-02
         0.25928E-02
         0.18171E-02
         0.93572E-03
        -0.47884E-18
        -0.93572E-03
        -0.18171E-02
        -0.25928E-02
        -0.32179E-02
        -0.36559E-02
        -0.38815E-02
        -0.38815E-02
        -0.36559E-02
        -0.32179E-02
        -0.25928E-02
        -0.18171E-02
        -0.93572E-03
         0.68512E-03
         0.12454E-02
         0.60302E-03
        -0.32115E-03
         0.15681E-03
        -0.66558E-03
         0.18453E-02
         0.14797E-02
         0.32459E-03
         0.12058E-02
         0.22776E-02
         0.28189E-02
         0.24270E-02
         0.21693E-02
         0.29308E-02
        -0.10064E-02
         0.96773E-04
        -0.68721E-03
        -0.70887E-03
         0.85467E-04
        -0.77490E-03
         0.46726E-04
        -0.15184E-02
        -0.13208E-02
         0.10183E-02
        -0.17316E-02
         0.20283E-02
         0.18586E-02
         0.17175E-02
         0.91467E-03
        -0.19806E-02
        -0.23494E-02
        -0.17073E-02
        -0.14948E-02
         0.78248E-03
         0.12571E-02
         0.18673E-02
         0.28802E-02
         0.27103E-02
         0.24593E-02
         0.22358E-02
         0.16502E-02
         0.88069E-03
        -0.21374E-02
        -0.26936E-02
        -0.31291E-02
        -0.30381E-02
        -0.28751E-02
        -0.26482E-02
        -0.23752E-02
        -0.21565E-02
        -0.15081E-02
         0.93572E-03
         0.00000E+00
         0.18171E-02
         0.25928E-02
         0.32179E-02
         0.36559E-02
         0.38815E-02
         0.38815E-02
         0.36559E-02
         0.32179E-02
         0.25928E-02
         0.18171E-02
         0.93572E-03
        -0.47884E-18
        -0.93572E-03
        -0.18171E-02
        -0.25928E-02
        -0.32179E-02
        -0.36559E-02
        -0.38815E-02
        -0.38815E-02
        -0.36559E-02
        -0.32179E-02
        -0.25928E-02
        -0.18171E-02
        -0.93572E-03
         0.68567E-03
         0.12460E-02
         0.60355E-03
        -0.32040E-03
         0.15718E-03
        -0.66509E-03
         0.18455E-02
         0.14807E-02
         0.32574E-03
         0.12075E-02
         0.22777E-02
         0.28185E-02
         0.24271E-02
         0.21693E-02
         0.29306E-02
        -0.10065E-02
         0.97583E-04
        -0.68648E-03
        -0.70873E-03
         0.85591E-04
        -0.77474E-03
         0.47000E-04
        -0.15183E-02
        -0.13207E-02
         0.10197E-02
        -0.17316E-02
         0.20285E-02
         0.18585E-02
         0.17175E-02
         0.91491E-03
        -0.19806E-02
        -0.23495E-02
        -0.17073E-02
        -0.14950E-02
         0.78348E-03
         0.12576E-02
         0.18674E-02
         0.28792E-02
         0.27099E-02
         0.24591E-02
         0.22358E-02
         0.16502E-02
         0.88095E-03
        -0.21374E-02
        -0.26936E-02
        -0.31290E-02
        -0.30381E-02
        -0.28751E-02
        -0.26484E-02
        -0.23754E-02
        -0.21571E-02
        -0.15080E-02
         0.93572E-03
         0.00000E+00
         0.18171E-02
         0.25928E-02
         0.32179E-02
         0.36559E-02
         0.38815E-02
         0.38815E-02
         0.36559E-02
         0.32179E-02
         0.25928E-02
         0.18171E-02
         0.93572E-03
         0.47884E-18
        -0.93572E-03
        -0.18171E-02
        -0.25928E-02
        -0.32179E-02
        -0.36559E-02
        -0.38815E-02
        -0.38815E-02
        -0.36559E-02
        -0.32179E-02
        -0.25928E-02
        -0.18171E-02
        -0.93572E-03
  
SCALARS           initial_coordinate_z  double 1
LOOKUP_TABLE default
        -0.10771E-01
        -0.10771E-01
        -0.10771E-01
        -0.10771E-01
        -0.11750E-01
        -0.11750E-01
        -0.11750E-01
        -0.11750E-01
        -0.10771E-01
        -0.10771E-01
        -0.11750E-01
        -0.11750E-01
        -0.10771E-01
        -0.10771E-01
        -0.11750E-01
        -0.11750E-01
        -0.10771E-01
        -0.10771E-01
        -0.11750E-01
        -0.11750E-01
        -0.10771E-01
        -0.10771E-01
        -0.10771E-01
        -0.11750E-01
        -0.11750E-01
        -0.11750E-01
        -0.10771E-01
        -0.10771E-01
        -0.11750E-01
        -0.11750E-01
        -0.10771E-01
        -0.10771E-01
        -0.10771E-01
        -0.11750E-01
        -0.11750E-01
        -0.11750E-01
        -0.10771E-01
        -0.10771E-01
        -0.11750E-01
        -0.11750E-01
        -0.10771E-01
        -0.10771E-01
        -0.11750E-01
        -0.11750E-01
        -0.10771E-01
        -0.10771E-01
        -0.11750E-01
        -0.11750E-01
        -0.10771E-01
        -0.11750E-01
        -0.10771E-01
        -0.11750E-01
        -0.10771E-01
        -0.11750E-01
        -0.10771E-01
        -0.11750E-01
        -0.10771E-01
        -0.10771E-01
        -0.11750E-01
        -0.11750E-01
        -0.10771E-01
        -0.10771E-01
        -0.11750E-01
        -0.11750E-01
        -0.10771E-01
        -0.11750E-01
        -0.10771E-01
        -0.11750E-01
        -0.10771E-01
        -0.10771E-01
        -0.11750E-01
        -0.11750E-01
        -0.10771E-01
        -0.11750E-01
        -0.10771E-01
        -0.11750E-01
        -0.10771E-01
        -0.11750E-01
        -0.10771E-01
        -0.11750E-01
        -0.10771E-01
        -0.10771E-01
        -0.11750E-01
        -0.11750E-01
        -0.10771E-01
        -0.11750E-01
        -0.10771E-01
        -0.11750E-01
        -0.10771E-01
        -0.11750E-01
        -0.10771E-01
        -0.10771E-01
        -0.11750E-01
        -0.11750E-01
        -0.10771E-01
        -0.11750E-01
        -0.10771E-01
        -0.11750E-01
        -0.10771E-01
        -0.11750E-01
        -0.10771E-01
        -0.10771E-01
        -0.11750E-01
        -0.11750E-01
        -0.10771E-01
        -0.10771E-01
        -0.11750E-01
        -0.11750E-01
        -0.10771E-01
        -0.11750E-01
        -0.10771E-01
        -0.11750E-01
        -0.10771E-01
        -0.11750E-01
        -0.10771E-01
        -0.11750E-01
        -0.10771E-01
        -0.11750E-01
        -0.10771E-01
        -0.11750E-01
        -0.10771E-01
        -0.11750E-01
        -0.10771E-01
        -0.11750E-01
        -0.10771E-01
        -0.11750E-01
        -0.10771E-01
        -0.11750E-01
        -0.10771E-01
        -0.11750E-01
        -0.10771E-01
        -0.11750E-01
        -0.10771E-01
        -0.11750E-01
        -0.10771E-01
        -0.11750E-01
        -0.10771E-01
        -0.11750E-01
        -0.10771E-01
        -0.11750E-01
        -0.10771E-01
        -0.11750E-01
        -0.10771E-01
        -0.11750E-01
        -0.10771E-01
        -0.11750E-01
        -0.10771E-01
        -0.11750E-01
        -0.10771E-01
        -0.11750E-01
        -0.10771E-01
        -0.11750E-01
        -0.10771E-01
        -0.11750E-01
        -0.10771E-01
        -0.11750E-01
        -0.97917E-02
        -0.97917E-02
        -0.97917E-02
        -0.97917E-02
        -0.97917E-02
        -0.97917E-02
        -0.97917E-02
        -0.97917E-02
        -0.97917E-02
        -0.97917E-02
        -0.97917E-02
        -0.97917E-02
        -0.97917E-02
        -0.97917E-02
        -0.97917E-02
        -0.97917E-02
        -0.97917E-02
        -0.97917E-02
        -0.97917E-02
        -0.97917E-02
        -0.97917E-02
        -0.97917E-02
        -0.97917E-02
        -0.97917E-02
        -0.97917E-02
        -0.97917E-02
        -0.97917E-02
        -0.97917E-02
        -0.97917E-02
        -0.97917E-02
        -0.97917E-02
        -0.97917E-02
        -0.97917E-02
        -0.97917E-02
        -0.97917E-02
        -0.97917E-02
        -0.97917E-02
        -0.97917E-02
        -0.97917E-02
        -0.97917E-02
        -0.97917E-02
        -0.97917E-02
        -0.97917E-02
        -0.97917E-02
        -0.97917E-02
        -0.97917E-02
        -0.97917E-02
        -0.97917E-02
        -0.97917E-02
        -0.97917E-02
        -0.97917E-02
        -0.97917E-02
        -0.97917E-02
        -0.97917E-02
        -0.97917E-02
        -0.97917E-02
        -0.97917E-02
        -0.97917E-02
        -0.97917E-02
        -0.97917E-02
        -0.97917E-02
        -0.97917E-02
        -0.97917E-02
        -0.97917E-02
        -0.97917E-02
        -0.97917E-02
        -0.97917E-02
        -0.97917E-02
        -0.97917E-02
        -0.97917E-02
        -0.97917E-02
        -0.97917E-02
        -0.97917E-02
        -0.97917E-02
        -0.97917E-02
        -0.97917E-02
        -0.97917E-02
        -0.97917E-02
        -0.88125E-02
        -0.88125E-02
        -0.88125E-02
        -0.88125E-02
        -0.88125E-02
        -0.88125E-02
        -0.88125E-02
        -0.88125E-02
        -0.88125E-02
        -0.88125E-02
        -0.88125E-02
        -0.88125E-02
        -0.88125E-02
        -0.88125E-02
        -0.88125E-02
        -0.88125E-02
        -0.88125E-02
        -0.88125E-02
        -0.88125E-02
        -0.88125E-02
        -0.88125E-02
        -0.88125E-02
        -0.88125E-02
        -0.88125E-02
        -0.88125E-02
        -0.88125E-02
        -0.88125E-02
        -0.88125E-02
        -0.88125E-02
        -0.88125E-02
        -0.88125E-02
        -0.88125E-02
        -0.88125E-02
        -0.88125E-02
        -0.88125E-02
        -0.88125E-02
        -0.88125E-02
        -0.88125E-02
        -0.88125E-02
        -0.88125E-02
        -0.88125E-02
        -0.88125E-02
        -0.88125E-02
        -0.88125E-02
        -0.88125E-02
        -0.88125E-02
        -0.88125E-02
        -0.88125E-02
        -0.88125E-02
        -0.88125E-02
        -0.88125E-02
        -0.88125E-02
        -0.88125E-02
        -0.88125E-02
        -0.88125E-02
        -0.88125E-02
        -0.88125E-02
        -0.88125E-02
        -0.88125E-02
        -0.88125E-02
        -0.88125E-02
        -0.88125E-02
        -0.88125E-02
        -0.88125E-02
        -0.88125E-02
        -0.88125E-02
        -0.88125E-02
        -0.88125E-02
        -0.88125E-02
        -0.88125E-02
        -0.88125E-02
        -0.88125E-02
        -0.88125E-02
        -0.88125E-02
        -0.88125E-02
        -0.88125E-02
        -0.88125E-02
        -0.88125E-02
        -0.78333E-02
        -0.78333E-02
        -0.78333E-02
        -0.78333E-02
        -0.78333E-02
        -0.78333E-02
        -0.78333E-02
        -0.78333E-02
        -0.78333E-02
        -0.78333E-02
        -0.78333E-02
        -0.78333E-02
        -0.78333E-02
        -0.78333E-02
        -0.78333E-02
        -0.78333E-02
        -0.78333E-02
        -0.78333E-02
        -0.78333E-02
        -0.78333E-02
        -0.78333E-02
        -0.78333E-02
        -0.78333E-02
        -0.78333E-02
        -0.78333E-02
        -0.78333E-02
        -0.78333E-02
        -0.78333E-02
        -0.78333E-02
        -0.78333E-02
        -0.78333E-02
        -0.78333E-02
        -0.78333E-02
        -0.78333E-02
        -0.78333E-02
        -0.78333E-02
        -0.78333E-02
        -0.78333E-02
        -0.78333E-02
        -0.78333E-02
        -0.78333E-02
        -0.78333E-02
        -0.78333E-02
        -0.78333E-02
        -0.78333E-02
        -0.78333E-02
        -0.78333E-02
        -0.78333E-02
        -0.78333E-02
        -0.78333E-02
        -0.78333E-02
        -0.78333E-02
        -0.78333E-02
        -0.78333E-02
        -0.78333E-02
        -0.78333E-02
        -0.78333E-02
        -0.78333E-02
        -0.78333E-02
        -0.78333E-02
        -0.78333E-02
        -0.78333E-02
        -0.78333E-02
        -0.78333E-02
        -0.78333E-02
        -0.78333E-02
        -0.78333E-02
        -0.78333E-02
        -0.78333E-02
        -0.78333E-02
        -0.78333E-02
        -0.78333E-02
        -0.78333E-02
        -0.78333E-02
        -0.78333E-02
        -0.78333E-02
        -0.78333E-02
        -0.78333E-02
        -0.68542E-02
        -0.68542E-02
        -0.68542E-02
        -0.68542E-02
        -0.68542E-02
        -0.68542E-02
        -0.68542E-02
        -0.68542E-02
        -0.68542E-02
        -0.68542E-02
        -0.68542E-02
        -0.68542E-02
        -0.68542E-02
        -0.68542E-02
        -0.68542E-02
        -0.68542E-02
        -0.68542E-02
        -0.68542E-02
        -0.68542E-02
        -0.68542E-02
        -0.68542E-02
        -0.68542E-02
        -0.68542E-02
        -0.68542E-02
        -0.68542E-02
        -0.68542E-02
        -0.68542E-02
        -0.68542E-02
        -0.68542E-02
        -0.68542E-02
        -0.68542E-02
        -0.68542E-02
        -0.68542E-02
        -0.68542E-02
        -0.68542E-02
        -0.68542E-02
        -0.68542E-02
        -0.68542E-02
        -0.68542E-02
        -0.68542E-02
        -0.68542E-02
        -0.68542E-02
        -0.68542E-02
        -0.68542E-02
        -0.68542E-02
        -0.68542E-02
        -0.68542E-02
        -0.68542E-02
        -0.68542E-02
        -0.68542E-02
        -0.68542E-02
        -0.68542E-02
        -0.68542E-02
        -0.68542E-02
        -0.68542E-02
        -0.68542E-02
        -0.68542E-02
        -0.68542E-02
        -0.68542E-02
        -0.68542E-02
        -0.68542E-02
        -0.68542E-02
        -0.68542E-02
        -0.68542E-02
        -0.68542E-02
        -0.68542E-02
        -0.68542E-02
        -0.68542E-02
        -0.68542E-02
        -0.68542E-02
        -0.68542E-02
        -0.68542E-02
        -0.68542E-02
        -0.68542E-02
        -0.68542E-02
        -0.68542E-02
        -0.68542E-02
        -0.68542E-02
        -0.58750E-02
        -0.58750E-02
        -0.58750E-02
        -0.58750E-02
        -0.58750E-02
        -0.58750E-02
        -0.58750E-02
        -0.58750E-02
        -0.58750E-02
        -0.58750E-02
        -0.58750E-02
        -0.58750E-02
        -0.58750E-02
        -0.58750E-02
        -0.58750E-02
        -0.58750E-02
        -0.58750E-02
        -0.58750E-02
        -0.58750E-02
        -0.58750E-02
        -0.58750E-02
        -0.58750E-02
        -0.58750E-02
        -0.58750E-02
        -0.58750E-02
        -0.58750E-02
        -0.58750E-02
        -0.58750E-02
        -0.58750E-02
        -0.58750E-02
        -0.58750E-02
        -0.58750E-02
        -0.58750E-02
        -0.58750E-02
        -0.58750E-02
        -0.58750E-02
        -0.58750E-02
        -0.58750E-02
        -0.58750E-02
        -0.58750E-02
        -0.58750E-02
        -0.58750E-02
        -0.58750E-02
        -0.58750E-02
        -0.58750E-02
        -0.58750E-02
        -0.58750E-02
        -0.58750E-02
        -0.58750E-02
        -0.58750E-02
        -0.58750E-02
        -0.58750E-02
        -0.58750E-02
        -0.58750E-02
        -0.58750E-02
        -0.58750E-02
        -0.58750E-02
        -0.58750E-02
        -0.58750E-02
        -0.58750E-02
        -0.58750E-02
        -0.58750E-02
        -0.58750E-02
        -0.58750E-02
        -0.58750E-02
        -0.58750E-02
        -0.58750E-02
        -0.58750E-02
        -0.58750E-02
        -0.58750E-02
        -0.58750E-02
        -0.58750E-02
        -0.58750E-02
        -0.58750E-02
        -0.58750E-02
        -0.58750E-02
        -0.58750E-02
        -0.58750E-02
        -0.48958E-02
        -0.48958E-02
        -0.48958E-02
        -0.48958E-02
        -0.48958E-02
        -0.48958E-02
        -0.48958E-02
        -0.48958E-02
        -0.48958E-02
        -0.48958E-02
        -0.48958E-02
        -0.48958E-02
        -0.48958E-02
        -0.48958E-02
        -0.48958E-02
        -0.48958E-02
        -0.48958E-02
        -0.48958E-02
        -0.48958E-02
        -0.48958E-02
        -0.48958E-02
        -0.48958E-02
        -0.48958E-02
        -0.48958E-02
        -0.48958E-02
        -0.48958E-02
        -0.48958E-02
        -0.48958E-02
        -0.48958E-02
        -0.48958E-02
        -0.48958E-02
        -0.48958E-02
        -0.48958E-02
        -0.48958E-02
        -0.48958E-02
        -0.48958E-02
        -0.48958E-02
        -0.48958E-02
        -0.48958E-02
        -0.48958E-02
        -0.48958E-02
        -0.48958E-02
        -0.48958E-02
        -0.48958E-02
        -0.48958E-02
        -0.48958E-02
        -0.48958E-02
        -0.48958E-02
        -0.48958E-02
        -0.48958E-02
        -0.48958E-02
        -0.48958E-02
        -0.48958E-02
        -0.48958E-02
        -0.48958E-02
        -0.48958E-02
        -0.48958E-02
        -0.48958E-02
        -0.48958E-02
        -0.48958E-02
        -0.48958E-02
        -0.48958E-02
        -0.48958E-02
        -0.48958E-02
        -0.48958E-02
        -0.48958E-02
        -0.48958E-02
        -0.48958E-02
        -0.48958E-02
        -0.48958E-02
        -0.48958E-02
        -0.48958E-02
        -0.48958E-02
        -0.48958E-02
        -0.48958E-02
        -0.48958E-02
        -0.48958E-02
        -0.48958E-02
        -0.39167E-02
        -0.39167E-02
        -0.39167E-02
        -0.39167E-02
        -0.39167E-02
        -0.39167E-02
        -0.39167E-02
        -0.39167E-02
        -0.39167E-02
        -0.39167E-02
        -0.39167E-02
        -0.39167E-02
        -0.39167E-02
        -0.39167E-02
        -0.39167E-02
        -0.39167E-02
        -0.39167E-02
        -0.39167E-02
        -0.39167E-02
        -0.39167E-02
        -0.39167E-02
        -0.39167E-02
        -0.39167E-02
        -0.39167E-02
        -0.39167E-02
        -0.39167E-02
        -0.39167E-02
        -0.39167E-02
        -0.39167E-02
        -0.39167E-02
        -0.39167E-02
        -0.39167E-02
        -0.39167E-02
        -0.39167E-02
        -0.39167E-02
        -0.39167E-02
        -0.39167E-02
        -0.39167E-02
        -0.39167E-02
        -0.39167E-02
        -0.39167E-02
        -0.39167E-02
        -0.39167E-02
        -0.39167E-02
        -0.39167E-02
        -0.39167E-02
        -0.39167E-02
        -0.39167E-02
        -0.39167E-02
        -0.39167E-02
        -0.39167E-02
        -0.39167E-02
        -0.39167E-02
        -0.39167E-02
        -0.39167E-02
        -0.39167E-02
        -0.39167E-02
        -0.39167E-02
        -0.39167E-02
        -0.39167E-02
        -0.39167E-02
        -0.39167E-02
        -0.39167E-02
        -0.39167E-02
        -0.39167E-02
        -0.39167E-02
        -0.39167E-02
        -0.39167E-02
        -0.39167E-02
        -0.39167E-02
        -0.39167E-02
        -0.39167E-02
        -0.39167E-02
        -0.39167E-02
        -0.39167E-02
        -0.39167E-02
        -0.39167E-02
        -0.39167E-02
        -0.29375E-02
        -0.29375E-02
        -0.29375E-02
        -0.29375E-02
        -0.29375E-02
        -0.29375E-02
        -0.29375E-02
        -0.29375E-02
        -0.29375E-02
        -0.29375E-02
        -0.29375E-02
        -0.29375E-02
        -0.29375E-02
        -0.29375E-02
        -0.29375E-02
        -0.29375E-02
        -0.29375E-02
        -0.29375E-02
        -0.29375E-02
        -0.29375E-02
        -0.29375E-02
        -0.29375E-02
        -0.29375E-02
        -0.29375E-02
        -0.29375E-02
        -0.29375E-02
        -0.29375E-02
        -0.29375E-02
        -0.29375E-02
        -0.29375E-02
        -0.29375E-02
        -0.29375E-02
        -0.29375E-02
        -0.29375E-02
        -0.29375E-02
        -0.29375E-02
        -0.29375E-02
        -0.29375E-02
        -0.29375E-02
        -0.29375E-02
        -0.29375E-02
        -0.29375E-02
        -0.29375E-02
        -0.29375E-02
        -0.29375E-02
        -0.29375E-02
        -0.29375E-02
        -0.29375E-02
        -0.29375E-02
        -0.29375E-02
        -0.29375E-02
        -0.29375E-02
        -0.29375E-02
        -0.29375E-02
        -0.29375E-02
        -0.29375E-02
        -0.29375E-02
        -0.29375E-02
        -0.29375E-02
        -0.29375E-02
        -0.29375E-02
        -0.29375E-02
        -0.29375E-02
        -0.29375E-02
        -0.29375E-02
        -0.29375E-02
        -0.29375E-02
        -0.29375E-02
        -0.29375E-02
        -0.29375E-02
        -0.29375E-02
        -0.29375E-02
        -0.29375E-02
        -0.29375E-02
        -0.29375E-02
        -0.29375E-02
        -0.29375E-02
        -0.29375E-02
        -0.19583E-02
        -0.19583E-02
        -0.19583E-02
        -0.19583E-02
        -0.19583E-02
        -0.19583E-02
        -0.19583E-02
        -0.19583E-02
        -0.19583E-02
        -0.19583E-02
        -0.19583E-02
        -0.19583E-02
        -0.19583E-02
        -0.19583E-02
        -0.19583E-02
        -0.19583E-02
        -0.19583E-02
        -0.19583E-02
        -0.19583E-02
        -0.19583E-02
        -0.19583E-02
        -0.19583E-02
        -0.19583E-02
        -0.19583E-02
        -0.19583E-02
        -0.19583E-02
        -0.19583E-02
        -0.19583E-02
        -0.19583E-02
        -0.19583E-02
        -0.19583E-02
        -0.19583E-02
        -0.19583E-02
        -0.19583E-02
        -0.19583E-02
        -0.19583E-02
        -0.19583E-02
        -0.19583E-02
        -0.19583E-02
        -0.19583E-02
        -0.19583E-02
        -0.19583E-02
        -0.19583E-02
        -0.19583E-02
        -0.19583E-02
        -0.19583E-02
        -0.19583E-02
        -0.19583E-02
        -0.19583E-02
        -0.19583E-02
        -0.19583E-02
        -0.19583E-02
        -0.19583E-02
        -0.19583E-02
        -0.19583E-02
        -0.19583E-02
        -0.19583E-02
        -0.19583E-02
        -0.19583E-02
        -0.19583E-02
        -0.19583E-02
        -0.19583E-02
        -0.19583E-02
        -0.19583E-02
        -0.19583E-02
        -0.19583E-02
        -0.19583E-02
        -0.19583E-02
        -0.19583E-02
        -0.19583E-02
        -0.19583E-02
        -0.19583E-02
        -0.19583E-02
        -0.19583E-02
        -0.19583E-02
        -0.19583E-02
        -0.19583E-02
        -0.19583E-02
        -0.97917E-03
        -0.97917E-03
        -0.97917E-03
        -0.97917E-03
        -0.97917E-03
        -0.97917E-03
        -0.97917E-03
        -0.97917E-03
        -0.97917E-03
        -0.97917E-03
        -0.97917E-03
        -0.97917E-03
        -0.97917E-03
        -0.97917E-03
        -0.97917E-03
        -0.97917E-03
        -0.97917E-03
        -0.97917E-03
        -0.97917E-03
        -0.97917E-03
        -0.97917E-03
        -0.97917E-03
        -0.97917E-03
        -0.97917E-03
        -0.97917E-03
        -0.97917E-03
        -0.97917E-03
        -0.97917E-03
        -0.97917E-03
        -0.97917E-03
        -0.97917E-03
        -0.97917E-03
        -0.97917E-03
        -0.97917E-03
        -0.97917E-03
        -0.97917E-03
        -0.97917E-03
        -0.97917E-03
        -0.97917E-03
        -0.97917E-03
        -0.97917E-03
        -0.97917E-03
        -0.97917E-03
        -0.97917E-03
        -0.97917E-03
        -0.97917E-03
        -0.97917E-03
        -0.97917E-03
        -0.97917E-03
        -0.97917E-03
        -0.97917E-03
        -0.97917E-03
        -0.97917E-03
        -0.97917E-03
        -0.97917E-03
        -0.97917E-03
        -0.97917E-03
        -0.97917E-03
        -0.97917E-03
        -0.97917E-03
        -0.97917E-03
        -0.97917E-03
        -0.97917E-03
        -0.97917E-03
        -0.97917E-03
        -0.97917E-03
        -0.97917E-03
        -0.97917E-03
        -0.97917E-03
        -0.97917E-03
        -0.97917E-03
        -0.97917E-03
        -0.97917E-03
        -0.97917E-03
        -0.97917E-03
        -0.97917E-03
        -0.97917E-03
        -0.97917E-03
         0.38917E-18
         0.44621E-18
         0.34485E-18
         0.23671E-18
         0.26613E-18
         0.16162E-18
         0.53980E-18
         0.50579E-18
         0.36337E-18
         0.48798E-18
         0.60712E-18
         0.67611E-18
         0.60634E-18
         0.60658E-18
         0.70997E-18
         0.20892E-18
         0.35894E-18
         0.21887E-18
         0.27638E-18
         0.38382E-18
         0.29058E-18
         0.40326E-18
         0.18564E-18
         0.19650E-18
         0.48570E-18
         0.12837E-18
         0.60589E-18
         0.60416E-18
         0.60524E-18
         0.49621E-18
         0.61582E-19
         0.32255E-19
         0.73874E-19
         0.78478E-19
         0.34514E-18
         0.42054E-18
         0.51644E-18
         0.72521E-18
         0.72233E-18
         0.70722E-18
         0.69126E-18
         0.61573E-18
         0.51484E-18
         0.91170E-19
         0.30347E-20
        -0.66516E-19
        -0.69988E-19
        -0.68643E-19
        -0.59779E-19
        -0.43507E-19
        -0.29471E-19
         0.53205E-19
         0.86819E-18
         0.00000E+00
         0.86819E-18
         0.86819E-18
         0.00000E+00
         0.00000E+00
         0.00000E+00
         0.17364E-17
         0.17364E-17
         0.17364E-17
         0.43410E-18
         0.43410E-18
         0.43410E-18
         0.00000E+00
         0.00000E+00
         0.00000E+00
         0.00000E+00
         0.00000E+00
         0.21705E-18
        -0.21705E-18
         0.00000E+00
         0.00000E+00
         0.00000E+00
        -0.32557E-18
         0.54262E-19
        -0.40697E-18
         0.97917E-03
         0.97917E-03
         0.97917E-03
         0.97917E-03
         0.97917E-03
         0.97917E-03
         0.97917E-03
         0.97917E-03
         0.97917E-03
         0.97917E-03
         0.97917E-03
         0.97917E-03
         0.97917E-03
         0.97917E-03
         0.97917E-03
         0.97917E-03
         0.97917E-03
         0.97917E-03
         0.97917E-03
         0.97917E-03
         0.97917E-03
         0.97917E-03
         0.97917E-03
         0.97917E-03
         0.97917E-03
         0.97917E-03
         0.97917E-03
         0.97917E-03
         0.97917E-03
         0.97917E-03
         0.97917E-03
         0.97917E-03
         0.97917E-03
         0.97917E-03
         0.97917E-03
         0.97917E-03
         0.97917E-03
         0.97917E-03
         0.97917E-03
         0.97917E-03
         0.97917E-03
         0.97917E-03
         0.97917E-03
         0.97917E-03
         0.97917E-03
         0.97917E-03
         0.97917E-03
         0.97917E-03
         0.97917E-03
         0.97917E-03
         0.97917E-03
         0.97917E-03
         0.97917E-03
         0.97917E-03
         0.97917E-03
         0.97917E-03
         0.97917E-03
         0.97917E-03
         0.97917E-03
         0.97917E-03
         0.97917E-03
         0.97917E-03
         0.97917E-03
         0.97917E-03
         0.97917E-03
         0.97917E-03
         0.97917E-03
         0.97917E-03
         0.97917E-03
         0.97917E-03
         0.97917E-03
         0.97917E-03
         0.97917E-03
         0.97917E-03
         0.97917E-03
         0.97917E-03
         0.97917E-03
         0.97917E-03
         0.19583E-02
         0.19583E-02
         0.19583E-02
         0.19583E-02
         0.19583E-02
         0.19583E-02
         0.19583E-02
         0.19583E-02
         0.19583E-02
         0.19583E-02
         0.19583E-02
         0.19583E-02
         0.19583E-02
         0.19583E-02
         0.19583E-02
         0.19583E-02
         0.19583E-02
         0.19583E-02
         0.19583E-02
         0.19583E-02
         0.19583E-02
         0.19583E-02
         0.19583E-02
         0.19583E-02
         0.19583E-02
         0.19583E-02
         0.19583E-02
         0.19583E-02
         0.19583E-02
         0.19583E-02
         0.19583E-02
         0.19583E-02
         0.19583E-02
         0.19583E-02
         0.19583E-02
         0.19583E-02
         0.19583E-02
         0.19583E-02
         0.19583E-02
         0.19583E-02
         0.19583E-02
         0.19583E-02
         0.19583E-02
         0.19583E-02
         0.19583E-02
         0.19583E-02
         0.19583E-02
         0.19583E-02
         0.19583E-02
         0.19583E-02
         0.19583E-02
         0.19583E-02
         0.19583E-02
         0.19583E-02
         0.19583E-02
         0.19583E-02
         0.19583E-02
         0.19583E-02
         0.19583E-02
         0.19583E-02
         0.19583E-02
         0.19583E-02
         0.19583E-02
         0.19583E-02
         0.19583E-02
         0.19583E-02
         0.19583E-02
         0.19583E-02
         0.19583E-02
         0.19583E-02
         0.19583E-02
         0.19583E-02
         0.19583E-02
         0.19583E-02
         0.19583E-02
         0.19583E-02
         0.19583E-02
         0.19583E-02
         0.29375E-02
         0.29375E-02
         0.29375E-02
         0.29375E-02
         0.29375E-02
         0.29375E-02
         0.29375E-02
         0.29375E-02
         0.29375E-02
         0.29375E-02
         0.29375E-02
         0.29375E-02
         0.29375E-02
         0.29375E-02
         0.29375E-02
         0.29375E-02
         0.29375E-02
         0.29375E-02
         0.29375E-02
         0.29375E-02
         0.29375E-02
         0.29375E-02
         0.29375E-02
         0.29375E-02
         0.29375E-02
         0.29375E-02
         0.29375E-02
         0.29375E-02
         0.29375E-02
         0.29375E-02
         0.29375E-02
         0.29375E-02
         0.29375E-02
         0.29375E-02
         0.29375E-02
         0.29375E-02
         0.29375E-02
         0.29375E-02
         0.29375E-02
         0.29375E-02
         0.29375E-02
         0.29375E-02
         0.29375E-02
         0.29375E-02
         0.29375E-02
         0.29375E-02
         0.29375E-02
         0.29375E-02
         0.29375E-02
         0.29375E-02
         0.29375E-02
         0.29375E-02
         0.29375E-02
         0.29375E-02
         0.29375E-02
         0.29375E-02
         0.29375E-02
         0.29375E-02
         0.29375E-02
         0.29375E-02
         0.29375E-02
         0.29375E-02
         0.29375E-02
         0.29375E-02
         0.29375E-02
         0.29375E-02
         0.29375E-02
         0.29375E-02
         0.29375E-02
         0.29375E-02
         0.29375E-02
         0.29375E-02
         0.29375E-02
         0.29375E-02
         0.29375E-02
         0.29375E-02
         0.29375E-02
         0.29375E-02
         0.39167E-02
         0.39167E-02
         0.39167E-02
         0.39167E-02
         0.39167E-02
         0.39167E-02
         0.39167E-02
         0.39167E-02
         0.39167E-02
         0.39167E-02
         0.39167E-02
         0.39167E-02
         0.39167E-02
         0.39167E-02
         0.39167E-02
         0.39167E-02
         0.39167E-02
         0.39167E-02
         0.39167E-02
         0.39167E-02
         0.39167E-02
         0.39167E-02
         0.39167E-02
         0.39167E-02
         0.39167E-02
         0.39167E-02
         0.39167E-02
         0.39167E-02
         0.39167E-02
         0.39167E-02
         0.39167E-02
         0.39167E-02
         0.39167E-02
         0.39167E-02
         0.39167E-02
         0.39167E-02
         0.39167E-02
         0.39167E-02
         0.39167E-02
         0.39167E-02
         0.39167E-02
         0.39167E-02
         0.39167E-02
         0.39167E-02
         0.39167E-02
         0.39167E-02
         0.39167E-02
         0.39167E-02
         0.39167E-02
         0.39167E-02
         0.39167E-02
         0.39167E-02
         0.39167E-02
         0.39167E-02
         0.39167E-02
         0.39167E-02
         0.39167E-02
         0.39167E-02
         0.39167E-02
         0.39167E-02
         0.39167E-02
         0.39167E-02
         0.39167E-02
         0.39167E-02
         0.39167E-02
         0.39167E-02
         0.39167E-02
         0.39167E-02
         0.39167E-02
         0.39167E-02
         0.39167E-02
         0.39167E-02
         0.39167E-02
         0.39167E-02
         0.39167E-02
         0.39167E-02
         0.39167E-02
         0.39167E-02
         0.48958E-02
         0.48958E-02
         0.48958E-02
         0.48958E-02
         0.48958E-02
         0.48958E-02
         0.48958E-02
         0.48958E-02
         0.48958E-02
         0.48958E-02
         0.48958E-02
         0.48958E-02
         0.48958E-02
         0.48958E-02
         0.48958E-02
         0.48958E-02
         0.48958E-02
         0.48958E-02
         0.48958E-02
         0.48958E-02
         0.48958E-02
         0.48958E-02
         0.48958E-02
         0.48958E-02
         0.48958E-02
         0.48958E-02
         0.48958E-02
         0.48958E-02
         0.48958E-02
         0.48958E-02
         0.48958E-02
         0.48958E-02
         0.48958E-02
         0.48958E-02
         0.48958E-02
         0.48958E-02
         0.48958E-02
         0.48958E-02
         0.48958E-02
         0.48958E-02
         0.48958E-02
         0.48958E-02
         0.48958E-02
         0.48958E-02
         0.48958E-02
         0.48958E-02
         0.48958E-02
         0.48958E-02
         0.48958E-02
         0.48958E-02
         0.48958E-02
         0.48958E-02
         0.48958E-02
         0.48958E-02
         0.48958E-02
         0.48958E-02
         0.48958E-02
         0.48958E-02
         0.48958E-02
         0.48958E-02
         0.48958E-02
         0.48958E-02
         0.48958E-02
         0.48958E-02
         0.48958E-02
         0.48958E-02
         0.48958E-02
         0.48958E-02
         0.48958E-02
         0.48958E-02
         0.48958E-02
         0.48958E-02
         0.48958E-02
         0.48958E-02
         0.48958E-02
         0.48958E-02
         0.48958E-02
         0.48958E-02
         0.58750E-02
         0.58750E-02
         0.58750E-02
         0.58750E-02
         0.58750E-02
         0.58750E-02
         0.58750E-02
         0.58750E-02
         0.58750E-02
         0.58750E-02
         0.58750E-02
         0.58750E-02
         0.58750E-02
         0.58750E-02
         0.58750E-02
         0.58750E-02
         0.58750E-02
         0.58750E-02
         0.58750E-02
         0.58750E-02
         0.58750E-02
         0.58750E-02
         0.58750E-02
         0.58750E-02
         0.58750E-02
         0.58750E-02
         0.58750E-02
         0.58750E-02
         0.58750E-02
         0.58750E-02
         0.58750E-02
         0.58750E-02
         0.58750E-02
         0.58750E-02
         0.58750E-02
         0.58750E-02
         0.58750E-02
         0.58750E-02
         0.58750E-02
         0.58750E-02
         0.58750E-02
         0.58750E-02
         0.58750E-02
         0.58750E-02
         0.58750E-02
         0.58750E-02
         0.58750E-02
         0.58750E-02
         0.58750E-02
         0.58750E-02
         0.58750E-02
         0.58750E-02
         0.58750E-02
         0.58750E-02
         0.58750E-02
         0.58750E-02
         0.58750E-02
         0.58750E-02
         0.58750E-02
         0.58750E-02
         0.58750E-02
         0.58750E-02
         0.58750E-02
         0.58750E-02
         0.58750E-02
         0.58750E-02
         0.58750E-02
         0.58750E-02
         0.58750E-02
         0.58750E-02
         0.58750E-02
         0.58750E-02
         0.58750E-02
         0.58750E-02
         0.58750E-02
         0.58750E-02
         0.58750E-02
         0.58750E-02
         0.68542E-02
         0.68542E-02
         0.68542E-02
         0.68542E-02
         0.68542E-02
         0.68542E-02
         0.68542E-02
         0.68542E-02
         0.68542E-02
         0.68542E-02
         0.68542E-02
         0.68542E-02
         0.68542E-02
         0.68542E-02
         0.68542E-02
         0.68542E-02
         0.68542E-02
         0.68542E-02
         0.68542E-02
         0.68542E-02
         0.68542E-02
         0.68542E-02
         0.68542E-02
         0.68542E-02
         0.68542E-02
         0.68542E-02
         0.68542E-02
         0.68542E-02
         0.68542E-02
         0.68542E-02
         0.68542E-02
         0.68542E-02
         0.68542E-02
         0.68542E-02
         0.68542E-02
         0.68542E-02
         0.68542E-02
         0.68542E-02
         0.68542E-02
         0.68542E-02
         0.68542E-02
         0.68542E-02
         0.68542E-02
         0.68542E-02
         0.68542E-02
         0.68542E-02
         0.68542E-02
         0.68542E-02
         0.68542E-02
         0.68542E-02
         0.68542E-02
         0.68542E-02
         0.68542E-02
         0.68542E-02
         0.68542E-02
         0.68542E-02
         0.68542E-02
         0.68542E-02
         0.68542E-02
         0.68542E-02
         0.68542E-02
         0.68542E-02
         0.68542E-02
         0.68542E-02
         0.68542E-02
         0.68542E-02
         0.68542E-02
         0.68542E-02
         0.68542E-02
         0.68542E-02
         0.68542E-02
         0.68542E-02
         0.68542E-02
         0.68542E-02
         0.68542E-02
         0.68542E-02
         0.68542E-02
         0.68542E-02
         0.78333E-02
         0.78333E-02
         0.78333E-02
         0.78333E-02
         0.78333E-02
         0.78333E-02
         0.78333E-02
         0.78333E-02
         0.78333E-02
         0.78333E-02
         0.78333E-02
         0.78333E-02
         0.78333E-02
         0.78333E-02
         0.78333E-02
         0.78333E-02
         0.78333E-02
         0.78333E-02
         0.78333E-02
         0.78333E-02
         0.78333E-02
         0.78333E-02
         0.78333E-02
         0.78333E-02
         0.78333E-02
         0.78333E-02
         0.78333E-02
         0.78333E-02
         0.78333E-02
         0.78333E-02
         0.78333E-02
         0.78333E-02
         0.78333E-02
         0.78333E-02
         0.78333E-02
         0.78333E-02
         0.78333E-02
         0.78333E-02
         0.78333E-02
         0.78333E-02
         0.78333E-02
         0.78333E-02
         0.78333E-02
         0.78333E-02
         0.78333E-02
         0.78333E-02
         0.78333E-02
         0.78333E-02
         0.78333E-02
         0.78333E-02
         0.78333E-02
         0.78333E-02
         0.78333E-02
         0.78333E-02
         0.78333E-02
         0.78333E-02
         0.78333E-02
         0.78333E-02
         0.78333E-02
         0.78333E-02
         0.78333E-02
         0.78333E-02
         0.78333E-02
         0.78333E-02
         0.78333E-02
         0.78333E-02
         0.78333E-02
         0.78333E-02
         0.78333E-02
         0.78333E-02
         0.78333E-02
         0.78333E-02
         0.78333E-02
         0.78333E-02
         0.78333E-02
         0.78333E-02
         0.78333E-02
         0.78333E-02
         0.88125E-02
         0.88125E-02
         0.88125E-02
         0.88125E-02
         0.88125E-02
         0.88125E-02
         0.88125E-02
         0.88125E-02
         0.88125E-02
         0.88125E-02
         0.88125E-02
         0.88125E-02
         0.88125E-02
         0.88125E-02
         0.88125E-02
         0.88125E-02
         0.88125E-02
         0.88125E-02
         0.88125E-02
         0.88125E-02
         0.88125E-02
         0.88125E-02
         0.88125E-02
         0.88125E-02
         0.88125E-02
         0.88125E-02
         0.88125E-02
         0.88125E-02
         0.88125E-02
         0.88125E-02
         0.88125E-02
         0.88125E-02
         0.88125E-02
         0.88125E-02
         0.88125E-02
         0.88125E-02
         0.88125E-02
         0.88125E-02
         0.88125E-02
         0.88125E-02
         0.88125E-02
         0.88125E-02
         0.88125E-02
         0.88125E-02
         0.88125E-02
         0.88125E-02
         0.88125E-02
         0.88125E-02
         0.88125E-02
         0.88125E-02
         0.88125E-02
         0.88125E-02
         0.88125E-02
         0.88125E-02
         0.88125E-02
         0.88125E-02
         0.88125E-02
         0.88125E-02
         0.88125E-02
         0.88125E-02
         0.88125E-02
         0.88125E-02
         0.88125E-02
         0.88125E-02
         0.88125E-02
         0.88125E-02
         0.88125E-02
         0.88125E-02
         0.88125E-02
         0.88125E-02
         0.88125E-02
         0.88125E-02
         0.88125E-02
         0.88125E-02
         0.88125E-02
         0.88125E-02
         0.88125E-02
         0.88125E-02
         0.97917E-02
         0.97917E-02
         0.97917E-02
         0.97917E-02
         0.97917E-02
         0.97917E-02
         0.97917E-02
         0.97917E-02
         0.97917E-02
         0.97917E-02
         0.97917E-02
         0.97917E-02
         0.97917E-02
         0.97917E-02
         0.97917E-02
         0.97917E-02
         0.97917E-02
         0.97917E-02
         0.97917E-02
         0.97917E-02
         0.97917E-02
         0.97917E-02
         0.97917E-02
         0.97917E-02
         0.97917E-02
         0.97917E-02
         0.97917E-02
         0.97917E-02
         0.97917E-02
         0.97917E-02
         0.97917E-02
         0.97917E-02
         0.97917E-02
         0.97917E-02
         0.97917E-02
         0.97917E-02
         0.97917E-02
         0.97917E-02
         0.97917E-02
         0.97917E-02
         0.97917E-02
         0.97917E-02
         0.97917E-02
         0.97917E-02
         0.97917E-02
         0.97917E-02
         0.97917E-02
         0.97917E-02
         0.97917E-02
         0.97917E-02
         0.97917E-02
         0.97917E-02
         0.97917E-02
         0.97917E-02
         0.97917E-02
         0.97917E-02
         0.97917E-02
         0.97917E-02
         0.97917E-02
         0.97917E-02
         0.97917E-02
         0.97917E-02
         0.97917E-02
         0.97917E-02
         0.97917E-02
         0.97917E-02
         0.97917E-02
         0.97917E-02
         0.97917E-02
         0.97917E-02
         0.97917E-02
         0.97917E-02
         0.97917E-02
         0.97917E-02
         0.97917E-02
         0.97917E-02
         0.97917E-02
         0.97917E-02
         0.10771E-01
         0.10771E-01
         0.10771E-01
         0.10771E-01
         0.10771E-01
         0.10771E-01
         0.10771E-01
         0.10771E-01
         0.10771E-01
         0.10771E-01
         0.10771E-01
         0.10771E-01
         0.10771E-01
         0.10771E-01
         0.10771E-01
         0.10771E-01
         0.10771E-01
         0.10771E-01
         0.10771E-01
         0.10771E-01
         0.10771E-01
         0.10771E-01
         0.10771E-01
         0.10771E-01
         0.10771E-01
         0.10771E-01
         0.10771E-01
         0.10771E-01
         0.10771E-01
         0.10771E-01
         0.10771E-01
         0.10771E-01
         0.10771E-01
         0.10771E-01
         0.10771E-01
         0.10771E-01
         0.10771E-01
         0.10771E-01
         0.10771E-01
         0.10771E-01
         0.10771E-01
         0.10771E-01
         0.10771E-01
         0.10771E-01
         0.10771E-01
         0.10771E-01
         0.10771E-01
         0.10771E-01
         0.10771E-01
         0.10771E-01
         0.10771E-01
         0.10771E-01
         0.10771E-01
         0.10771E-01
         0.10771E-01
         0.10771E-01
         0.10771E-01
         0.10771E-01
         0.10771E-01
         0.10771E-01
         0.10771E-01
         0.10771E-01
         0.10771E-01
         0.10771E-01
         0.10771E-01
         0.10771E-01
         0.10771E-01
         0.10771E-01
         0.10771E-01
         0.10771E-01
         0.10771E-01
         0.10771E-01
         0.10771E-01
         0.10771E-01
         0.10771E-01
         0.10771E-01
         0.10771E-01
         0.10771E-01
         0.11750E-01
         0.11750E-01
         0.11750E-01
         0.11750E-01
         0.11750E-01
         0.11750E-01
         0.11750E-01
         0.11750E-01
         0.11750E-01
         0.11750E-01
         0.11750E-01
         0.11750E-01
         0.11750E-01
         0.11750E-01
         0.11750E-01
         0.11750E-01
         0.11750E-01
         0.11750E-01
         0.11750E-01
         0.11750E-01
         0.11750E-01
         0.11750E-01
         0.11750E-01
         0.11750E-01
         0.11750E-01
         0.11750E-01
         0.11750E-01
         0.11750E-01
         0.11750E-01
         0.11750E-01
         0.11750E-01
         0.11750E-01
         0.11750E-01
         0.11750E-01
         0.11750E-01
         0.11750E-01
         0.11750E-01
         0.11750E-01
         0.11750E-01
         0.11750E-01
         0.11750E-01
         0.11750E-01
         0.11750E-01
         0.11750E-01
         0.11750E-01
         0.11750E-01
         0.11750E-01
         0.11750E-01
         0.11750E-01
         0.11750E-01
         0.11750E-01
         0.11750E-01
         0.11750E-01
         0.11750E-01
         0.11750E-01
         0.11750E-01
         0.11750E-01
         0.11750E-01
         0.11750E-01
         0.11750E-01
         0.11750E-01
         0.11750E-01
         0.11750E-01
         0.11750E-01
         0.11750E-01
         0.11750E-01
         0.11750E-01
         0.11750E-01
         0.11750E-01
         0.11750E-01
         0.11750E-01
         0.11750E-01
         0.11750E-01
         0.11750E-01
         0.11750E-01
         0.11750E-01
         0.11750E-01
         0.11750E-01
  
SCALARS                init_velocity_x  double 1
LOOKUP_TABLE default
         0.00000E+00
         0.00000E+00
         0.00000E+00
         0.00000E+00
         0.00000E+00
         0.00000E+00
         0.00000E+00
         0.00000E+00
         0.00000E+00
         0.00000E+00
         0.00000E+00
         0.00000E+00
         0.00000E+00
         0.00000E+00
         0.00000E+00
         0.00000E+00
         0.00000E+00
         0.00000E+00
         0.00000E+00
         0.00000E+00
         0.00000E+00
         0.00000E+00
         0.00000E+00
         0.00000E+00
         0.00000E+00
         0.00000E+00
         0.00000E+00
         0.00000E+00
         0.00000E+00
         0.00000E+00
         0.00000E+00
         0.00000E+00
         0.00000E+00
         0.00000E+00
         0.00000E+00
         0.00000E+00
         0.00000E+00
         0.00000E+00
         0.00000E+00
         0.00000E+00
         0.00000E+00
         0.00000E+00
         0.00000E+00
         0.00000E+00
         0.00000E+00
         0.00000E+00
         0.00000E+00
         0.00000E+00
         0.00000E+00
         0.00000E+00
         0.00000E+00
         0.00000E+00
         0.00000E+00
         0.00000E+00
         0.00000E+00
         0.00000E+00
         0.00000E+00
         0.00000E+00
         0.00000E+00
         0.00000E+00
         0.00000E+00
         0.00000E+00
         0.00000E+00
         0.00000E+00
         0.00000E+00
         0.00000E+00
         0.00000E+00
         0.00000E+00
         0.00000E+00
         0.00000E+00
         0.00000E+00
         0.00000E+00
         0.00000E+00
         0.00000E+00
         0.00000E+00
         0.00000E+00
         0.00000E+00
         0.00000E+00
         0.00000E+00
         0.00000E+00
         0.00000E+00
         0.00000E+00
         0.00000E+00
         0.00000E+00
         0.00000E+00
         0.00000E+00
         0.00000E+00
         0.00000E+00
         0.00000E+00
         0.00000E+00
         0.00000E+00
         0.00000E+00
         0.00000E+00
         0.00000E+00
         0.00000E+00
         0.00000E+00
         0.00000E+00
         0.00000E+00
         0.00000E+00
         0.00000E+00
         0.00000E+00
         0.00000E+00
         0.00000E+00
         0.00000E+00
         0.00000E+00
         0.00000E+00
         0.00000E+00
         0.00000E+00
         0.00000E+00
         0.00000E+00
         0.00000E+00
         0.00000E+00
         0.00000E+00
         0.00000E+00
         0.00000E+00
         0.00000E+00
         0.00000E+00
         0.00000E+00
         0.00000E+00
         0.00000E+00
         0.00000E+00
         0.00000E+00
         0.00000E+00
         0.00000E+00
         0.00000E+00
         0.00000E+00
         0.00000E+00
         0.00000E+00
         0.00000E+00
         0.00000E+00
         0.00000E+00
         0.00000E+00
         0.00000E+00
         0.00000E+00
         0.00000E+00
         0.00000E+00
         0.00000E+00
         0.00000E+00
         0.00000E+00
         0.00000E+00
         0.00000E+00
         0.00000E+00
         0.00000E+00
         0.00000E+00
         0.00000E+00
         0.00000E+00
         0.00000E+00
         0.00000E+00
         0.00000E+00
         0.00000E+00
         0.00000E+00
         0.00000E+00
         0.00000E+00
         0.00000E+00
         0.00000E+00
         0.00000E+00
         0.00000E+00
         0.00000E+00
         0.00000E+00
         0.00000E+00
         0.00000E+00
         0.00000E+00
         0.00000E+00
         0.00000E+00
         0.00000E+00
         0.00000E+00
         0.00000E+00
         0.00000E+00
         0.00000E+00
         0.00000E+00
         0.00000E+00
         0.00000E+00
         0.00000E+00
         0.00000E+00
         0.00000E+00
         0.00000E+00
         0.00000E+00
         0.00000E+00
         0.00000E+00
         0.00000E+00
         0.00000E+00
         0.00000E+00
         0.00000E+00
         0.00000E+00
         0.00000E+00
         0.00000E+00
         0.00000E+00
         0.00000E+00
         0.00000E+00
         0.00000E+00
         0.00000E+00
         0.00000E+00
         0.00000E+00
         0.00000E+00
         0.00000E+00
         0.00000E+00
         0.00000E+00
         0.00000E+00
         0.00000E+00
         0.00000E+00
         0.00000E+00
         0.00000E+00
         0.00000E+00
         0.00000E+00
         0.00000E+00
         0.00000E+00
         0.00000E+00
         0.00000E+00
         0.00000E+00
         0.00000E+00
         0.00000E+00
         0.00000E+00
         0.00000E+00
         0.00000E+00
         0.00000E+00
         0.00000E+00
         0.00000E+00
         0.00000E+00
         0.00000E+00
         0.00000E+00
         0.00000E+00
         0.00000E+00
         0.00000E+00
         0.00000E+00
         0.00000E+00
         0.00000E+00
         0.00000E+00
         0.00000E+00
         0.00000E+00
         0.00000E+00
         0.00000E+00
         0.00000E+00
         0.00000E+00
         0.00000E+00
         0.00000E+00
         0.00000E+00
         0.00000E+00
         0.00000E+00
         0.00000E+00
         0.00000E+00
         0.00000E+00
         0.00000E+00
         0.00000E+00
         0.00000E+00
         0.00000E+00
         0.00000E+00
         0.00000E+00
         0.00000E+00
         0.00000E+00
         0.00000E+00
         0.00000E+00
         0.00000E+00
         0.00000E+00
         0.00000E+00
         0.00000E+00
         0.00000E+00
         0.00000E+00
         0.00000E+00
         0.00000E+00
         0.00000E+00
         0.00000E+00
         0.00000E+00
         0.00000E+00
         0.00000E+00
         0.00000E+00
         0.00000E+00
         0.00000E+00
         0.00000E+00
         0.00000E+00
         0.00000E+00
         0.00000E+00
         0.00000E+00
         0.00000E+00
         0.00000E+00
         0.00000E+00
         0.00000E+00
         0.00000E+00
         0.00000E+00
         0.00000E+00
         0.00000E+00
         0.00000E+00
         0.00000E+00
         0.00000E+00
         0.00000E+00
         0.00000E+00
         0.00000E+00
         0.00000E+00
         0.00000E+00
         0.00000E+00
         0.00000E+00
         0.00000E+00
         0.00000E+00
         0.00000E+00
         0.00000E+00
         0.00000E+00
         0.00000E+00
         0.00000E+00
         0.00000E+00
         0.00000E+00
         0.00000E+00
         0.00000E+00
         0.00000E+00
         0.00000E+00
         0.00000E+00
         0.00000E+00
         0.00000E+00
         0.00000E+00
         0.00000E+00
         0.00000E+00
         0.00000E+00
         0.00000E+00
         0.00000E+00
         0.00000E+00
         0.00000E+00
         0.00000E+00
         0.00000E+00
         0.00000E+00
         0.00000E+00
         0.00000E+00
         0.00000E+00
         0.00000E+00
         0.00000E+00
         0.00000E+00
         0.00000E+00
         0.00000E+00
         0.00000E+00
         0.00000E+00
         0.00000E+00
         0.00000E+00
         0.00000E+00
         0.00000E+00
         0.00000E+00
         0.00000E+00
         0.00000E+00
         0.00000E+00
         0.00000E+00
         0.00000E+00
         0.00000E+00
         0.00000E+00
         0.00000E+00
         0.00000E+00
         0.00000E+00
         0.00000E+00
         0.00000E+00
         0.00000E+00
         0.00000E+00
         0.00000E+00
         0.00000E+00
         0.00000E+00
         0.00000E+00
         0.00000E+00
         0.00000E+00
         0.00000E+00
         0.00000E+00
         0.00000E+00
         0.00000E+00
         0.00000E+00
         0.00000E+00
         0.00000E+00
         0.00000E+00
         0.00000E+00
         0.00000E+00
         0.00000E+00
         0.00000E+00
         0.00000E+00
         0.00000E+00
         0.00000E+00
         0.00000E+00
         0.00000E+00
         0.00000E+00
         0.00000E+00
         0.00000E+00
         0.00000E+00
         0.00000E+00
         0.00000E+00
         0.00000E+00
         0.00000E+00
         0.00000E+00
         0.00000E+00
         0.00000E+00
         0.00000E+00
         0.00000E+00
         0.00000E+00
         0.00000E+00
         0.00000E+00
         0.00000E+00
         0.00000E+00
         0.00000E+00
         0.00000E+00
         0.00000E+00
         0.00000E+00
         0.00000E+00
         0.00000E+00
         0.00000E+00
         0.00000E+00
         0.00000E+00
         0.00000E+00
         0.00000E+00
         0.00000E+00
         0.00000E+00
         0.00000E+00
         0.00000E+00
         0.00000E+00
         0.00000E+00
         0.00000E+00
         0.00000E+00
         0.00000E+00
         0.00000E+00
         0.00000E+00
         0.00000E+00
         0.00000E+00
         0.00000E+00
         0.00000E+00
         0.00000E+00
         0.00000E+00
         0.00000E+00
         0.00000E+00
         0.00000E+00
         0.00000E+00
         0.00000E+00
         0.00000E+00
         0.00000E+00
         0.00000E+00
         0.00000E+00
         0.00000E+00
         0.00000E+00
         0.00000E+00
         0.00000E+00
         0.00000E+00
         0.00000E+00
         0.00000E+00
         0.00000E+00
         0.00000E+00
         0.00000E+00
         0.00000E+00
         0.00000E+00
         0.00000E+00
         0.00000E+00
         0.00000E+00
         0.00000E+00
         0.00000E+00
         0.00000E+00
         0.00000E+00
         0.00000E+00
         0.00000E+00
         0.00000E+00
         0.00000E+00
         0.00000E+00
         0.00000E+00
         0.00000E+00
         0.00000E+00
         0.00000E+00
         0.00000E+00
         0.00000E+00
         0.00000E+00
         0.00000E+00
         0.00000E+00
         0.00000E+00
         0.00000E+00
         0.00000E+00
         0.00000E+00
         0.00000E+00
         0.00000E+00
         0.00000E+00
         0.00000E+00
         0.00000E+00
         0.00000E+00
         0.00000E+00
         0.00000E+00
         0.00000E+00
         0.00000E+00
         0.00000E+00
         0.00000E+00
         0.00000E+00
         0.00000E+00
         0.00000E+00
         0.00000E+00
         0.00000E+00
         0.00000E+00
         0.00000E+00
         0.00000E+00
         0.00000E+00
         0.00000E+00
         0.00000E+00
         0.00000E+00
         0.00000E+00
         0.00000E+00
         0.00000E+00
         0.00000E+00
         0.00000E+00
         0.00000E+00
         0.00000E+00
         0.00000E+00
         0.00000E+00
         0.00000E+00
         0.00000E+00
         0.00000E+00
         0.00000E+00
         0.00000E+00
         0.00000E+00
         0.00000E+00
         0.00000E+00
         0.00000E+00
         0.00000E+00
         0.00000E+00
         0.00000E+00
         0.00000E+00
         0.00000E+00
         0.00000E+00
         0.00000E+00
         0.00000E+00
         0.00000E+00
         0.00000E+00
         0.00000E+00
         0.00000E+00
         0.00000E+00
         0.00000E+00
         0.00000E+00
         0.00000E+00
         0.00000E+00
         0.00000E+00
         0.00000E+00
         0.00000E+00
         0.00000E+00
         0.00000E+00
         0.00000E+00
         0.00000E+00
         0.00000E+00
         0.00000E+00
         0.00000E+00
         0.00000E+00
         0.00000E+00
         0.00000E+00
         0.00000E+00
         0.00000E+00
         0.00000E+00
         0.00000E+00
         0.00000E+00
         0.00000E+00
         0.00000E+00
         0.00000E+00
         0.00000E+00
         0.00000E+00
         0.00000E+00
         0.00000E+00
         0.00000E+00
         0.00000E+00
         0.00000E+00
         0.00000E+00
         0.00000E+00
         0.00000E+00
         0.00000E+00
         0.00000E+00
         0.00000E+00
         0.00000E+00
         0.00000E+00
         0.00000E+00
         0.00000E+00
         0.00000E+00
         0.00000E+00
         0.00000E+00
         0.00000E+00
         0.00000E+00
         0.00000E+00
         0.00000E+00
         0.00000E+00
         0.00000E+00
         0.00000E+00
         0.00000E+00
         0.00000E+00
         0.00000E+00
         0.00000E+00
         0.00000E+00
         0.00000E+00
         0.00000E+00
         0.00000E+00
         0.00000E+00
         0.00000E+00
         0.00000E+00
         0.00000E+00
         0.00000E+00
         0.00000E+00
         0.00000E+00
         0.00000E+00
         0.00000E+00
         0.00000E+00
         0.00000E+00
         0.00000E+00
         0.00000E+00
         0.00000E+00
         0.00000E+00
         0.00000E+00
         0.00000E+00
         0.00000E+00
         0.00000E+00
         0.00000E+00
         0.00000E+00
         0.00000E+00
         0.00000E+00
         0.00000E+00
         0.00000E+00
         0.00000E+00
         0.00000E+00
         0.00000E+00
         0.00000E+00
         0.00000E+00
         0.00000E+00
         0.00000E+00
         0.00000E+00
         0.00000E+00
         0.00000E+00
         0.00000E+00
         0.00000E+00
         0.00000E+00
         0.00000E+00
         0.00000E+00
         0.00000E+00
         0.00000E+00
         0.00000E+00
         0.00000E+00
         0.00000E+00
         0.00000E+00
         0.00000E+00
         0.00000E+00
         0.00000E+00
         0.00000E+00
         0.00000E+00
         0.00000E+00
         0.00000E+00
         0.00000E+00
         0.00000E+00
         0.00000E+00
         0.00000E+00
         0.00000E+00
         0.00000E+00
         0.00000E+00
         0.00000E+00
         0.00000E+00
         0.00000E+00
         0.00000E+00
         0.00000E+00
         0.00000E+00
         0.00000E+00
         0.00000E+00
         0.00000E+00
         0.00000E+00
         0.00000E+00
         0.00000E+00
         0.00000E+00
         0.00000E+00
         0.00000E+00
         0.00000E+00
         0.00000E+00
         0.00000E+00
         0.00000E+00
         0.00000E+00
         0.00000E+00
         0.00000E+00
         0.00000E+00
         0.00000E+00
         0.00000E+00
         0.00000E+00
         0.00000E+00
         0.00000E+00
         0.00000E+00
         0.00000E+00
         0.00000E+00
         0.00000E+00
         0.00000E+00
         0.00000E+00
         0.00000E+00
         0.00000E+00
         0.00000E+00
         0.00000E+00
         0.00000E+00
         0.00000E+00
         0.00000E+00
         0.00000E+00
         0.00000E+00
         0.00000E+00
         0.00000E+00
         0.00000E+00
         0.00000E+00
         0.00000E+00
         0.00000E+00
         0.00000E+00
         0.00000E+00
         0.00000E+00
         0.00000E+00
         0.00000E+00
         0.00000E+00
         0.00000E+00
         0.00000E+00
         0.00000E+00
         0.00000E+00
         0.00000E+00
         0.00000E+00
         0.00000E+00
         0.00000E+00
         0.00000E+00
         0.00000E+00
         0.00000E+00
         0.00000E+00
         0.00000E+00
         0.00000E+00
         0.00000E+00
         0.00000E+00
         0.00000E+00
         0.00000E+00
         0.00000E+00
         0.00000E+00
         0.00000E+00
         0.00000E+00
         0.00000E+00
         0.00000E+00
         0.00000E+00
         0.00000E+00
         0.00000E+00
         0.00000E+00
         0.00000E+00
         0.00000E+00
         0.00000E+00
         0.00000E+00
         0.00000E+00
         0.00000E+00
         0.00000E+00
         0.00000E+00
         0.00000E+00
         0.00000E+00
         0.00000E+00
         0.00000E+00
         0.00000E+00
         0.00000E+00
         0.00000E+00
         0.00000E+00
         0.00000E+00
         0.00000E+00
         0.00000E+00
         0.00000E+00
         0.00000E+00
         0.00000E+00
         0.00000E+00
         0.00000E+00
         0.00000E+00
         0.00000E+00
         0.00000E+00
         0.00000E+00
         0.00000E+00
         0.00000E+00
         0.00000E+00
         0.00000E+00
         0.00000E+00
         0.00000E+00
         0.00000E+00
         0.00000E+00
         0.00000E+00
         0.00000E+00
         0.00000E+00
         0.00000E+00
         0.00000E+00
         0.00000E+00
         0.00000E+00
         0.00000E+00
         0.00000E+00
         0.00000E+00
         0.00000E+00
         0.00000E+00
         0.00000E+00
         0.00000E+00
         0.00000E+00
         0.00000E+00
         0.00000E+00
         0.00000E+00
         0.00000E+00
         0.00000E+00
         0.00000E+00
         0.00000E+00
         0.00000E+00
         0.00000E+00
         0.00000E+00
         0.00000E+00
         0.00000E+00
         0.00000E+00
         0.00000E+00
         0.00000E+00
         0.00000E+00
         0.00000E+00
         0.00000E+00
         0.00000E+00
         0.00000E+00
         0.00000E+00
         0.00000E+00
         0.00000E+00
         0.00000E+00
         0.00000E+00
         0.00000E+00
         0.00000E+00
         0.00000E+00
         0.00000E+00
         0.00000E+00
         0.00000E+00
         0.00000E+00
         0.00000E+00
         0.00000E+00
         0.00000E+00
         0.00000E+00
         0.00000E+00
         0.00000E+00
         0.00000E+00
         0.00000E+00
         0.00000E+00
         0.00000E+00
         0.00000E+00
         0.00000E+00
         0.00000E+00
         0.00000E+00
         0.00000E+00
         0.00000E+00
         0.00000E+00
         0.00000E+00
         0.00000E+00
         0.00000E+00
         0.00000E+00
         0.00000E+00
         0.00000E+00
         0.00000E+00
         0.00000E+00
         0.00000E+00
         0.00000E+00
         0.00000E+00
         0.00000E+00
         0.00000E+00
         0.00000E+00
         0.00000E+00
         0.00000E+00
         0.00000E+00
         0.00000E+00
         0.00000E+00
         0.00000E+00
         0.00000E+00
         0.00000E+00
         0.00000E+00
         0.00000E+00
         0.00000E+00
         0.00000E+00
         0.00000E+00
         0.00000E+00
         0.00000E+00
         0.00000E+00
         0.00000E+00
         0.00000E+00
         0.00000E+00
         0.00000E+00
         0.00000E+00
         0.00000E+00
         0.00000E+00
         0.00000E+00
         0.00000E+00
         0.00000E+00
         0.00000E+00
         0.00000E+00
         0.00000E+00
         0.00000E+00
         0.00000E+00
         0.00000E+00
         0.00000E+00
         0.00000E+00
         0.00000E+00
         0.00000E+00
         0.00000E+00
         0.00000E+00
         0.00000E+00
         0.00000E+00
         0.00000E+00
         0.00000E+00
         0.00000E+00
         0.00000E+00
         0.00000E+00
         0.00000E+00
         0.00000E+00
         0.00000E+00
         0.00000E+00
         0.00000E+00
         0.00000E+00
         0.00000E+00
         0.00000E+00
         0.00000E+00
         0.00000E+00
         0.00000E+00
         0.00000E+00
         0.00000E+00
         0.00000E+00
         0.00000E+00
         0.00000E+00
         0.00000E+00
         0.00000E+00
         0.00000E+00
         0.00000E+00
         0.00000E+00
         0.00000E+00
         0.00000E+00
         0.00000E+00
         0.00000E+00
         0.00000E+00
         0.00000E+00
         0.00000E+00
         0.00000E+00
         0.00000E+00
         0.00000E+00
         0.00000E+00
         0.00000E+00
         0.00000E+00
         0.00000E+00
         0.00000E+00
         0.00000E+00
         0.00000E+00
         0.00000E+00
         0.00000E+00
         0.00000E+00
         0.00000E+00
         0.00000E+00
         0.00000E+00
         0.00000E+00
         0.00000E+00
         0.00000E+00
         0.00000E+00
         0.00000E+00
         0.00000E+00
         0.00000E+00
         0.00000E+00
         0.00000E+00
         0.00000E+00
         0.00000E+00
         0.00000E+00
         0.00000E+00
         0.00000E+00
         0.00000E+00
         0.00000E+00
         0.00000E+00
         0.00000E+00
         0.00000E+00
         0.00000E+00
         0.00000E+00
         0.00000E+00
         0.00000E+00
         0.00000E+00
         0.00000E+00
         0.00000E+00
         0.00000E+00
         0.00000E+00
         0.00000E+00
         0.00000E+00
         0.00000E+00
         0.00000E+00
         0.00000E+00
         0.00000E+00
         0.00000E+00
         0.00000E+00
         0.00000E+00
         0.00000E+00
         0.00000E+00
         0.00000E+00
         0.00000E+00
         0.00000E+00
         0.00000E+00
         0.00000E+00
         0.00000E+00
         0.00000E+00
         0.00000E+00
         0.00000E+00
         0.00000E+00
         0.00000E+00
         0.00000E+00
         0.00000E+00
         0.00000E+00
         0.00000E+00
         0.00000E+00
         0.00000E+00
         0.00000E+00
         0.00000E+00
         0.00000E+00
         0.00000E+00
         0.00000E+00
         0.00000E+00
         0.00000E+00
         0.00000E+00
         0.00000E+00
         0.00000E+00
         0.00000E+00
         0.00000E+00
         0.00000E+00
         0.00000E+00
         0.00000E+00
         0.00000E+00
         0.00000E+00
         0.00000E+00
         0.00000E+00
         0.00000E+00
         0.00000E+00
         0.00000E+00
         0.00000E+00
         0.00000E+00
         0.00000E+00
         0.00000E+00
         0.00000E+00
         0.00000E+00
         0.00000E+00
         0.00000E+00
         0.00000E+00
         0.00000E+00
         0.00000E+00
         0.00000E+00
         0.00000E+00
         0.00000E+00
         0.00000E+00
         0.00000E+00
         0.00000E+00
         0.00000E+00
         0.00000E+00
         0.00000E+00
         0.00000E+00
         0.00000E+00
         0.00000E+00
         0.00000E+00
         0.00000E+00
         0.00000E+00
         0.00000E+00
         0.00000E+00
         0.00000E+00
         0.00000E+00
         0.00000E+00
         0.00000E+00
         0.00000E+00
         0.00000E+00
         0.00000E+00
         0.00000E+00
         0.00000E+00
         0.00000E+00
         0.00000E+00
         0.00000E+00
         0.00000E+00
         0.00000E+00
         0.00000E+00
         0.00000E+00
         0.00000E+00
         0.00000E+00
         0.00000E+00
         0.00000E+00
         0.00000E+00
         0.00000E+00
         0.00000E+00
         0.00000E+00
         0.00000E+00
         0.00000E+00
         0.00000E+00
         0.00000E+00
         0.00000E+00
         0.00000E+00
         0.00000E+00
         0.00000E+00
         0.00000E+00
         0.00000E+00
         0.00000E+00
         0.00000E+00
         0.00000E+00
         0.00000E+00
         0.00000E+00
         0.00000E+00
         0.00000E+00
         0.00000E+00
         0.00000E+00
         0.00000E+00
         0.00000E+00
         0.00000E+00
         0.00000E+00
         0.00000E+00
         0.00000E+00
         0.00000E+00
         0.00000E+00
         0.00000E+00
         0.00000E+00
         0.00000E+00
         0.00000E+00
         0.00000E+00
         0.00000E+00
         0.00000E+00
         0.00000E+00
         0.00000E+00
         0.00000E+00
         0.00000E+00
         0.00000E+00
         0.00000E+00
         0.00000E+00
         0.00000E+00
         0.00000E+00
         0.00000E+00
         0.00000E+00
         0.00000E+00
         0.00000E+00
         0.00000E+00
         0.00000E+00
         0.00000E+00
         0.00000E+00
         0.00000E+00
         0.00000E+00
         0.00000E+00
         0.00000E+00
         0.00000E+00
         0.00000E+00
         0.00000E+00
         0.00000E+00
         0.00000E+00
         0.00000E+00
         0.00000E+00
         0.00000E+00
         0.00000E+00
         0.00000E+00
         0.00000E+00
         0.00000E+00
         0.00000E+00
         0.00000E+00
         0.00000E+00
         0.00000E+00
         0.00000E+00
         0.00000E+00
         0.00000E+00
         0.00000E+00
         0.00000E+00
         0.00000E+00
         0.00000E+00
         0.00000E+00
         0.00000E+00
         0.00000E+00
         0.00000E+00
         0.00000E+00
         0.00000E+00
         0.00000E+00
         0.00000E+00
         0.00000E+00
         0.00000E+00
         0.00000E+00
         0.00000E+00
         0.00000E+00
         0.00000E+00
         0.00000E+00
         0.00000E+00
         0.00000E+00
         0.00000E+00
         0.00000E+00
         0.00000E+00
         0.00000E+00
         0.00000E+00
         0.00000E+00
         0.00000E+00
         0.00000E+00
         0.00000E+00
         0.00000E+00
         0.00000E+00
         0.00000E+00
         0.00000E+00
         0.00000E+00
         0.00000E+00
         0.00000E+00
         0.00000E+00
         0.00000E+00
         0.00000E+00
         0.00000E+00
         0.00000E+00
         0.00000E+00
         0.00000E+00
         0.00000E+00
         0.00000E+00
         0.00000E+00
         0.00000E+00
         0.00000E+00
         0.00000E+00
         0.00000E+00
         0.00000E+00
         0.00000E+00
         0.00000E+00
         0.00000E+00
         0.00000E+00
         0.00000E+00
         0.00000E+00
         0.00000E+00
         0.00000E+00
         0.00000E+00
         0.00000E+00
         0.00000E+00
         0.00000E+00
         0.00000E+00
         0.00000E+00
         0.00000E+00
         0.00000E+00
         0.00000E+00
         0.00000E+00
         0.00000E+00
         0.00000E+00
         0.00000E+00
         0.00000E+00
         0.00000E+00
         0.00000E+00
         0.00000E+00
         0.00000E+00
         0.00000E+00
         0.00000E+00
         0.00000E+00
         0.00000E+00
         0.00000E+00
         0.00000E+00
         0.00000E+00
         0.00000E+00
         0.00000E+00
         0.00000E+00
         0.00000E+00
         0.00000E+00
         0.00000E+00
         0.00000E+00
         0.00000E+00
         0.00000E+00
         0.00000E+00
         0.00000E+00
         0.00000E+00
         0.00000E+00
         0.00000E+00
         0.00000E+00
         0.00000E+00
         0.00000E+00
         0.00000E+00
         0.00000E+00
         0.00000E+00
         0.00000E+00
         0.00000E+00
         0.00000E+00
         0.00000E+00
         0.00000E+00
         0.00000E+00
         0.00000E+00
         0.00000E+00
         0.00000E+00
         0.00000E+00
         0.00000E+00
         0.00000E+00
         0.00000E+00
         0.00000E+00
         0.00000E+00
         0.00000E+00
         0.00000E+00
         0.00000E+00
         0.00000E+00
         0.00000E+00
         0.00000E+00
         0.00000E+00
         0.00000E+00
         0.00000E+00
         0.00000E+00
         0.00000E+00
         0.00000E+00
         0.00000E+00
         0.00000E+00
         0.00000E+00
         0.00000E+00
         0.00000E+00
         0.00000E+00
         0.00000E+00
         0.00000E+00
         0.00000E+00
         0.00000E+00
         0.00000E+00
         0.00000E+00
         0.00000E+00
         0.00000E+00
         0.00000E+00
         0.00000E+00
         0.00000E+00
         0.00000E+00
         0.00000E+00
         0.00000E+00
         0.00000E+00
         0.00000E+00
         0.00000E+00
         0.00000E+00
         0.00000E+00
         0.00000E+00
         0.00000E+00
         0.00000E+00
         0.00000E+00
         0.00000E+00
         0.00000E+00
         0.00000E+00
         0.00000E+00
         0.00000E+00
         0.00000E+00
         0.00000E+00
         0.00000E+00
         0.00000E+00
         0.00000E+00
         0.00000E+00
         0.00000E+00
         0.00000E+00
         0.00000E+00
         0.00000E+00
         0.00000E+00
         0.00000E+00
         0.00000E+00
         0.00000E+00
         0.00000E+00
         0.00000E+00
         0.00000E+00
         0.00000E+00
         0.00000E+00
         0.00000E+00
         0.00000E+00
         0.00000E+00
         0.00000E+00
         0.00000E+00
         0.00000E+00
         0.00000E+00
         0.00000E+00
         0.00000E+00
         0.00000E+00
         0.00000E+00
         0.00000E+00
         0.00000E+00
         0.00000E+00
         0.00000E+00
         0.00000E+00
         0.00000E+00
         0.00000E+00
         0.00000E+00
         0.00000E+00
         0.00000E+00
         0.00000E+00
         0.00000E+00
         0.00000E+00
         0.00000E+00
         0.00000E+00
         0.00000E+00
         0.00000E+00
         0.00000E+00
         0.00000E+00
         0.00000E+00
         0.00000E+00
         0.00000E+00
         0.00000E+00
         0.00000E+00
         0.00000E+00
         0.00000E+00
         0.00000E+00
         0.00000E+00
         0.00000E+00
         0.00000E+00
         0.00000E+00
         0.00000E+00
         0.00000E+00
         0.00000E+00
         0.00000E+00
         0.00000E+00
         0.00000E+00
         0.00000E+00
         0.00000E+00
         0.00000E+00
         0.00000E+00
         0.00000E+00
         0.00000E+00
         0.00000E+00
         0.00000E+00
         0.00000E+00
         0.00000E+00
         0.00000E+00
         0.00000E+00
         0.00000E+00
         0.00000E+00
         0.00000E+00
         0.00000E+00
         0.00000E+00
         0.00000E+00
         0.00000E+00
         0.00000E+00
         0.00000E+00
         0.00000E+00
         0.00000E+00
         0.00000E+00
         0.00000E+00
         0.00000E+00
         0.00000E+00
         0.00000E+00
         0.00000E+00
         0.00000E+00
         0.00000E+00
         0.00000E+00
         0.00000E+00
         0.00000E+00
         0.00000E+00
         0.00000E+00
         0.00000E+00
         0.00000E+00
         0.00000E+00
         0.00000E+00
         0.00000E+00
         0.00000E+00
         0.00000E+00
         0.00000E+00
         0.00000E+00
         0.00000E+00
         0.00000E+00
         0.00000E+00
         0.00000E+00
         0.00000E+00
         0.00000E+00
         0.00000E+00
         0.00000E+00
         0.00000E+00
         0.00000E+00
         0.00000E+00
         0.00000E+00
         0.00000E+00
         0.00000E+00
         0.00000E+00
         0.00000E+00
         0.00000E+00
         0.00000E+00
         0.00000E+00
         0.00000E+00
         0.00000E+00
         0.00000E+00
         0.00000E+00
         0.00000E+00
         0.00000E+00
         0.00000E+00
         0.00000E+00
         0.00000E+00
         0.00000E+00
         0.00000E+00
         0.00000E+00
         0.00000E+00
         0.00000E+00
         0.00000E+00
         0.00000E+00
         0.00000E+00
         0.00000E+00
         0.00000E+00
         0.00000E+00
         0.00000E+00
         0.00000E+00
         0.00000E+00
         0.00000E+00
         0.00000E+00
         0.00000E+00
         0.00000E+00
         0.00000E+00
         0.00000E+00
         0.00000E+00
         0.00000E+00
         0.00000E+00
         0.00000E+00
         0.00000E+00
         0.00000E+00
         0.00000E+00
         0.00000E+00
         0.00000E+00
         0.00000E+00
         0.00000E+00
         0.00000E+00
         0.00000E+00
         0.00000E+00
         0.00000E+00
         0.00000E+00
         0.00000E+00
         0.00000E+00
         0.00000E+00
         0.00000E+00
         0.00000E+00
         0.00000E+00
         0.00000E+00
         0.00000E+00
         0.00000E+00
         0.00000E+00
         0.00000E+00
         0.00000E+00
         0.00000E+00
         0.00000E+00
         0.00000E+00
         0.00000E+00
         0.00000E+00
         0.00000E+00
         0.00000E+00
         0.00000E+00
         0.00000E+00
         0.00000E+00
         0.00000E+00
         0.00000E+00
         0.00000E+00
         0.00000E+00
         0.00000E+00
         0.00000E+00
         0.00000E+00
         0.00000E+00
         0.00000E+00
         0.00000E+00
         0.00000E+00
         0.00000E+00
         0.00000E+00
         0.00000E+00
         0.00000E+00
         0.00000E+00
         0.00000E+00
         0.00000E+00
         0.00000E+00
         0.00000E+00
         0.00000E+00
         0.00000E+00
         0.00000E+00
         0.00000E+00
         0.00000E+00
         0.00000E+00
         0.00000E+00
         0.00000E+00
         0.00000E+00
         0.00000E+00
         0.00000E+00
         0.00000E+00
         0.00000E+00
         0.00000E+00
         0.00000E+00
         0.00000E+00
         0.00000E+00
         0.00000E+00
         0.00000E+00
         0.00000E+00
         0.00000E+00
         0.00000E+00
         0.00000E+00
         0.00000E+00
         0.00000E+00
         0.00000E+00
         0.00000E+00
         0.00000E+00
         0.00000E+00
         0.00000E+00
         0.00000E+00
         0.00000E+00
         0.00000E+00
         0.00000E+00
         0.00000E+00
         0.00000E+00
         0.00000E+00
         0.00000E+00
         0.00000E+00
         0.00000E+00
         0.00000E+00
         0.00000E+00
         0.00000E+00
         0.00000E+00
         0.00000E+00
         0.00000E+00
         0.00000E+00
         0.00000E+00
         0.00000E+00
         0.00000E+00
         0.00000E+00
         0.00000E+00
         0.00000E+00
         0.00000E+00
         0.00000E+00
         0.00000E+00
         0.00000E+00
         0.00000E+00
         0.00000E+00
         0.00000E+00
         0.00000E+00
         0.00000E+00
         0.00000E+00
         0.00000E+00
         0.00000E+00
         0.00000E+00
         0.00000E+00
         0.00000E+00
         0.00000E+00
         0.00000E+00
         0.00000E+00
         0.00000E+00
         0.00000E+00
         0.00000E+00
         0.00000E+00
         0.00000E+00
         0.00000E+00
         0.00000E+00
         0.00000E+00
         0.00000E+00
         0.00000E+00
         0.00000E+00
         0.00000E+00
         0.00000E+00
         0.00000E+00
         0.00000E+00
         0.00000E+00
         0.00000E+00
         0.00000E+00
         0.00000E+00
         0.00000E+00
         0.00000E+00
         0.00000E+00
         0.00000E+00
         0.00000E+00
         0.00000E+00
         0.00000E+00
         0.00000E+00
         0.00000E+00
         0.00000E+00
         0.00000E+00
         0.00000E+00
         0.00000E+00
         0.00000E+00
         0.00000E+00
         0.00000E+00
         0.00000E+00
         0.00000E+00
         0.00000E+00
         0.00000E+00
         0.00000E+00
         0.00000E+00
         0.00000E+00
         0.00000E+00
         0.00000E+00
         0.00000E+00
         0.00000E+00
         0.00000E+00
         0.00000E+00
         0.00000E+00
         0.00000E+00
         0.00000E+00
         0.00000E+00
         0.00000E+00
         0.00000E+00
         0.00000E+00
         0.00000E+00
         0.00000E+00
         0.00000E+00
         0.00000E+00
         0.00000E+00
         0.00000E+00
         0.00000E+00
         0.00000E+00
         0.00000E+00
         0.00000E+00
         0.00000E+00
         0.00000E+00
         0.00000E+00
         0.00000E+00
         0.00000E+00
         0.00000E+00
         0.00000E+00
         0.00000E+00
         0.00000E+00
         0.00000E+00
         0.00000E+00
         0.00000E+00
         0.00000E+00
         0.00000E+00
         0.00000E+00
         0.00000E+00
         0.00000E+00
         0.00000E+00
         0.00000E+00
         0.00000E+00
         0.00000E+00
         0.00000E+00
         0.00000E+00
         0.00000E+00
         0.00000E+00
         0.00000E+00
         0.00000E+00
         0.00000E+00
         0.00000E+00
         0.00000E+00
         0.00000E+00
         0.00000E+00
         0.00000E+00
         0.00000E+00
         0.00000E+00
         0.00000E+00
         0.00000E+00
         0.00000E+00
         0.00000E+00
         0.00000E+00
         0.00000E+00
         0.00000E+00
         0.00000E+00
         0.00000E+00
         0.00000E+00
         0.00000E+00
         0.00000E+00
         0.00000E+00
         0.00000E+00
         0.00000E+00
         0.00000E+00
         0.00000E+00
         0.00000E+00
         0.00000E+00
         0.00000E+00
         0.00000E+00
         0.00000E+00
         0.00000E+00
         0.00000E+00
         0.00000E+00
         0.00000E+00
         0.00000E+00
         0.00000E+00
         0.00000E+00
         0.00000E+00
         0.00000E+00
         0.00000E+00
         0.00000E+00
         0.00000E+00
         0.00000E+00
         0.00000E+00
         0.00000E+00
         0.00000E+00
         0.00000E+00
         0.00000E+00
         0.00000E+00
         0.00000E+00
         0.00000E+00
         0.00000E+00
         0.00000E+00
         0.00000E+00
         0.00000E+00
         0.00000E+00
         0.00000E+00
         0.00000E+00
         0.00000E+00
         0.00000E+00
         0.00000E+00
         0.00000E+00
         0.00000E+00
         0.00000E+00
         0.00000E+00
         0.00000E+00
         0.00000E+00
         0.00000E+00
         0.00000E+00
         0.00000E+00
         0.00000E+00
         0.00000E+00
         0.00000E+00
         0.00000E+00
         0.00000E+00
         0.00000E+00
         0.00000E+00
         0.00000E+00
         0.00000E+00
         0.00000E+00
         0.00000E+00
         0.00000E+00
         0.00000E+00
         0.00000E+00
         0.00000E+00
         0.00000E+00
         0.00000E+00
         0.00000E+00
         0.00000E+00
         0.00000E+00
         0.00000E+00
         0.00000E+00
         0.00000E+00
         0.00000E+00
         0.00000E+00
         0.00000E+00
         0.00000E+00
         0.00000E+00
         0.00000E+00
         0.00000E+00
         0.00000E+00
         0.00000E+00
         0.00000E+00
         0.00000E+00
         0.00000E+00
         0.00000E+00
         0.00000E+00
         0.00000E+00
         0.00000E+00
         0.00000E+00
         0.00000E+00
         0.00000E+00
         0.00000E+00
         0.00000E+00
         0.00000E+00
         0.00000E+00
         0.00000E+00
         0.00000E+00
         0.00000E+00
         0.00000E+00
         0.00000E+00
         0.00000E+00
         0.00000E+00
         0.00000E+00
         0.00000E+00
         0.00000E+00
         0.00000E+00
         0.00000E+00
         0.00000E+00
         0.00000E+00
         0.00000E+00
         0.00000E+00
         0.00000E+00
         0.00000E+00
         0.00000E+00
         0.00000E+00
         0.00000E+00
         0.00000E+00
         0.00000E+00
         0.00000E+00
         0.00000E+00
         0.00000E+00
         0.00000E+00
         0.00000E+00
         0.00000E+00
         0.00000E+00
         0.00000E+00
         0.00000E+00
         0.00000E+00
         0.00000E+00
         0.00000E+00
         0.00000E+00
         0.00000E+00
         0.00000E+00
         0.00000E+00
         0.00000E+00
         0.00000E+00
         0.00000E+00
         0.00000E+00
         0.00000E+00
         0.00000E+00
         0.00000E+00
         0.00000E+00
         0.00000E+00
         0.00000E+00
         0.00000E+00
         0.00000E+00
         0.00000E+00
         0.00000E+00
         0.00000E+00
         0.00000E+00
         0.00000E+00
         0.00000E+00
         0.00000E+00
         0.00000E+00
         0.00000E+00
         0.00000E+00
         0.00000E+00
         0.00000E+00
         0.00000E+00
         0.00000E+00
         0.00000E+00
         0.00000E+00
         0.00000E+00
         0.00000E+00
         0.00000E+00
         0.00000E+00
         0.00000E+00
         0.00000E+00
         0.00000E+00
         0.00000E+00
         0.00000E+00
         0.00000E+00
         0.00000E+00
         0.00000E+00
         0.00000E+00
         0.00000E+00
         0.00000E+00
         0.00000E+00
         0.00000E+00
         0.00000E+00
         0.00000E+00
         0.00000E+00
         0.00000E+00
         0.00000E+00
         0.00000E+00
         0.00000E+00
         0.00000E+00
         0.00000E+00
         0.00000E+00
         0.00000E+00
         0.00000E+00
         0.00000E+00
         0.00000E+00
         0.00000E+00
         0.00000E+00
         0.00000E+00
         0.00000E+00
         0.00000E+00
         0.00000E+00
         0.00000E+00
         0.00000E+00
         0.00000E+00
         0.00000E+00
         0.00000E+00
         0.00000E+00
         0.00000E+00
         0.00000E+00
         0.00000E+00
         0.00000E+00
         0.00000E+00
         0.00000E+00
         0.00000E+00
         0.00000E+00
         0.00000E+00
         0.00000E+00
         0.00000E+00
         0.00000E+00
         0.00000E+00
         0.00000E+00
         0.00000E+00
         0.00000E+00
         0.00000E+00
         0.00000E+00
         0.00000E+00
         0.00000E+00
         0.00000E+00
         0.00000E+00
         0.00000E+00
         0.00000E+00
         0.00000E+00
         0.00000E+00
         0.00000E+00
         0.00000E+00
         0.00000E+00
         0.00000E+00
         0.00000E+00
         0.00000E+00
         0.00000E+00
         0.00000E+00
         0.00000E+00
         0.00000E+00
         0.00000E+00
         0.00000E+00
         0.00000E+00
         0.00000E+00
         0.00000E+00
         0.00000E+00
         0.00000E+00
         0.00000E+00
         0.00000E+00
         0.00000E+00
         0.00000E+00
         0.00000E+00
         0.00000E+00
         0.00000E+00
         0.00000E+00
  
SCALARS                init_velocity_y  double 1
LOOKUP_TABLE default
         0.00000E+00
         0.00000E+00
         0.00000E+00
         0.00000E+00
         0.00000E+00
         0.00000E+00
         0.00000E+00
         0.00000E+00
         0.00000E+00
         0.00000E+00
         0.00000E+00
         0.00000E+00
         0.00000E+00
         0.00000E+00
         0.00000E+00
         0.00000E+00
         0.00000E+00
         0.00000E+00
         0.00000E+00
         0.00000E+00
         0.00000E+00
         0.00000E+00
         0.00000E+00
         0.00000E+00
         0.00000E+00
         0.00000E+00
         0.00000E+00
         0.00000E+00
         0.00000E+00
         0.00000E+00
         0.00000E+00
         0.00000E+00
         0.00000E+00
         0.00000E+00
         0.00000E+00
         0.00000E+00
         0.00000E+00
         0.00000E+00
         0.00000E+00
         0.00000E+00
         0.00000E+00
         0.00000E+00
         0.00000E+00
         0.00000E+00
         0.00000E+00
         0.00000E+00
         0.00000E+00
         0.00000E+00
         0.00000E+00
         0.00000E+00
         0.00000E+00
         0.00000E+00
         0.00000E+00
         0.00000E+00
         0.00000E+00
         0.00000E+00
         0.00000E+00
         0.00000E+00
         0.00000E+00
         0.00000E+00
         0.00000E+00
         0.00000E+00
         0.00000E+00
         0.00000E+00
         0.00000E+00
         0.00000E+00
         0.00000E+00
         0.00000E+00
         0.00000E+00
         0.00000E+00
         0.00000E+00
         0.00000E+00
         0.00000E+00
         0.00000E+00
         0.00000E+00
         0.00000E+00
         0.00000E+00
         0.00000E+00
         0.00000E+00
         0.00000E+00
         0.00000E+00
         0.00000E+00
         0.00000E+00
         0.00000E+00
         0.00000E+00
         0.00000E+00
         0.00000E+00
         0.00000E+00
         0.00000E+00
         0.00000E+00
         0.00000E+00
         0.00000E+00
         0.00000E+00
         0.00000E+00
         0.00000E+00
         0.00000E+00
         0.00000E+00
         0.00000E+00
         0.00000E+00
         0.00000E+00
         0.00000E+00
         0.00000E+00
         0.00000E+00
         0.00000E+00
         0.00000E+00
         0.00000E+00
         0.00000E+00
         0.00000E+00
         0.00000E+00
         0.00000E+00
         0.00000E+00
         0.00000E+00
         0.00000E+00
         0.00000E+00
         0.00000E+00
         0.00000E+00
         0.00000E+00
         0.00000E+00
         0.00000E+00
         0.00000E+00
         0.00000E+00
         0.00000E+00
         0.00000E+00
         0.00000E+00
         0.00000E+00
         0.00000E+00
         0.00000E+00
         0.00000E+00
         0.00000E+00
         0.00000E+00
         0.00000E+00
         0.00000E+00
         0.00000E+00
         0.00000E+00
         0.00000E+00
         0.00000E+00
         0.00000E+00
         0.00000E+00
         0.00000E+00
         0.00000E+00
         0.00000E+00
         0.00000E+00
         0.00000E+00
         0.00000E+00
         0.00000E+00
         0.00000E+00
         0.00000E+00
         0.00000E+00
         0.00000E+00
         0.00000E+00
         0.00000E+00
         0.00000E+00
         0.00000E+00
         0.00000E+00
         0.00000E+00
         0.00000E+00
         0.00000E+00
         0.00000E+00
         0.00000E+00
         0.00000E+00
         0.00000E+00
         0.00000E+00
         0.00000E+00
         0.00000E+00
         0.00000E+00
         0.00000E+00
         0.00000E+00
         0.00000E+00
         0.00000E+00
         0.00000E+00
         0.00000E+00
         0.00000E+00
         0.00000E+00
         0.00000E+00
         0.00000E+00
         0.00000E+00
         0.00000E+00
         0.00000E+00
         0.00000E+00
         0.00000E+00
         0.00000E+00
         0.00000E+00
         0.00000E+00
         0.00000E+00
         0.00000E+00
         0.00000E+00
         0.00000E+00
         0.00000E+00
         0.00000E+00
         0.00000E+00
         0.00000E+00
         0.00000E+00
         0.00000E+00
         0.00000E+00
         0.00000E+00
         0.00000E+00
         0.00000E+00
         0.00000E+00
         0.00000E+00
         0.00000E+00
         0.00000E+00
         0.00000E+00
         0.00000E+00
         0.00000E+00
         0.00000E+00
         0.00000E+00
         0.00000E+00
         0.00000E+00
         0.00000E+00
         0.00000E+00
         0.00000E+00
         0.00000E+00
         0.00000E+00
         0.00000E+00
         0.00000E+00
         0.00000E+00
         0.00000E+00
         0.00000E+00
         0.00000E+00
         0.00000E+00
         0.00000E+00
         0.00000E+00
         0.00000E+00
         0.00000E+00
         0.00000E+00
         0.00000E+00
         0.00000E+00
         0.00000E+00
         0.00000E+00
         0.00000E+00
         0.00000E+00
         0.00000E+00
         0.00000E+00
         0.00000E+00
         0.00000E+00
         0.00000E+00
         0.00000E+00
         0.00000E+00
         0.00000E+00
         0.00000E+00
         0.00000E+00
         0.00000E+00
         0.00000E+00
         0.00000E+00
         0.00000E+00
         0.00000E+00
         0.00000E+00
         0.00000E+00
         0.00000E+00
         0.00000E+00
         0.00000E+00
         0.00000E+00
         0.00000E+00
         0.00000E+00
         0.00000E+00
         0.00000E+00
         0.00000E+00
         0.00000E+00
         0.00000E+00
         0.00000E+00
         0.00000E+00
         0.00000E+00
         0.00000E+00
         0.00000E+00
         0.00000E+00
         0.00000E+00
         0.00000E+00
         0.00000E+00
         0.00000E+00
         0.00000E+00
         0.00000E+00
         0.00000E+00
         0.00000E+00
         0.00000E+00
         0.00000E+00
         0.00000E+00
         0.00000E+00
         0.00000E+00
         0.00000E+00
         0.00000E+00
         0.00000E+00
         0.00000E+00
         0.00000E+00
         0.00000E+00
         0.00000E+00
         0.00000E+00
         0.00000E+00
         0.00000E+00
         0.00000E+00
         0.00000E+00
         0.00000E+00
         0.00000E+00
         0.00000E+00
         0.00000E+00
         0.00000E+00
         0.00000E+00
         0.00000E+00
         0.00000E+00
         0.00000E+00
         0.00000E+00
         0.00000E+00
         0.00000E+00
         0.00000E+00
         0.00000E+00
         0.00000E+00
         0.00000E+00
         0.00000E+00
         0.00000E+00
         0.00000E+00
         0.00000E+00
         0.00000E+00
         0.00000E+00
         0.00000E+00
         0.00000E+00
         0.00000E+00
         0.00000E+00
         0.00000E+00
         0.00000E+00
         0.00000E+00
         0.00000E+00
         0.00000E+00
         0.00000E+00
         0.00000E+00
         0.00000E+00
         0.00000E+00
         0.00000E+00
         0.00000E+00
         0.00000E+00
         0.00000E+00
         0.00000E+00
         0.00000E+00
         0.00000E+00
         0.00000E+00
         0.00000E+00
         0.00000E+00
         0.00000E+00
         0.00000E+00
         0.00000E+00
         0.00000E+00
         0.00000E+00
         0.00000E+00
         0.00000E+00
         0.00000E+00
         0.00000E+00
         0.00000E+00
         0.00000E+00
         0.00000E+00
         0.00000E+00
         0.00000E+00
         0.00000E+00
         0.00000E+00
         0.00000E+00
         0.00000E+00
         0.00000E+00
         0.00000E+00
         0.00000E+00
         0.00000E+00
         0.00000E+00
         0.00000E+00
         0.00000E+00
         0.00000E+00
         0.00000E+00
         0.00000E+00
         0.00000E+00
         0.00000E+00
         0.00000E+00
         0.00000E+00
         0.00000E+00
         0.00000E+00
         0.00000E+00
         0.00000E+00
         0.00000E+00
         0.00000E+00
         0.00000E+00
         0.00000E+00
         0.00000E+00
         0.00000E+00
         0.00000E+00
         0.00000E+00
         0.00000E+00
         0.00000E+00
         0.00000E+00
         0.00000E+00
         0.00000E+00
         0.00000E+00
         0.00000E+00
         0.00000E+00
         0.00000E+00
         0.00000E+00
         0.00000E+00
         0.00000E+00
         0.00000E+00
         0.00000E+00
         0.00000E+00
         0.00000E+00
         0.00000E+00
         0.00000E+00
         0.00000E+00
         0.00000E+00
         0.00000E+00
         0.00000E+00
         0.00000E+00
         0.00000E+00
         0.00000E+00
         0.00000E+00
         0.00000E+00
         0.00000E+00
         0.00000E+00
         0.00000E+00
         0.00000E+00
         0.00000E+00
         0.00000E+00
         0.00000E+00
         0.00000E+00
         0.00000E+00
         0.00000E+00
         0.00000E+00
         0.00000E+00
         0.00000E+00
         0.00000E+00
         0.00000E+00
         0.00000E+00
         0.00000E+00
         0.00000E+00
         0.00000E+00
         0.00000E+00
         0.00000E+00
         0.00000E+00
         0.00000E+00
         0.00000E+00
         0.00000E+00
         0.00000E+00
         0.00000E+00
         0.00000E+00
         0.00000E+00
         0.00000E+00
         0.00000E+00
         0.00000E+00
         0.00000E+00
         0.00000E+00
         0.00000E+00
         0.00000E+00
         0.00000E+00
         0.00000E+00
         0.00000E+00
         0.00000E+00
         0.00000E+00
         0.00000E+00
         0.00000E+00
         0.00000E+00
         0.00000E+00
         0.00000E+00
         0.00000E+00
         0.00000E+00
         0.00000E+00
         0.00000E+00
         0.00000E+00
         0.00000E+00
         0.00000E+00
         0.00000E+00
         0.00000E+00
         0.00000E+00
         0.00000E+00
         0.00000E+00
         0.00000E+00
         0.00000E+00
         0.00000E+00
         0.00000E+00
         0.00000E+00
         0.00000E+00
         0.00000E+00
         0.00000E+00
         0.00000E+00
         0.00000E+00
         0.00000E+00
         0.00000E+00
         0.00000E+00
         0.00000E+00
         0.00000E+00
         0.00000E+00
         0.00000E+00
         0.00000E+00
         0.00000E+00
         0.00000E+00
         0.00000E+00
         0.00000E+00
         0.00000E+00
         0.00000E+00
         0.00000E+00
         0.00000E+00
         0.00000E+00
         0.00000E+00
         0.00000E+00
         0.00000E+00
         0.00000E+00
         0.00000E+00
         0.00000E+00
         0.00000E+00
         0.00000E+00
         0.00000E+00
         0.00000E+00
         0.00000E+00
         0.00000E+00
         0.00000E+00
         0.00000E+00
         0.00000E+00
         0.00000E+00
         0.00000E+00
         0.00000E+00
         0.00000E+00
         0.00000E+00
         0.00000E+00
         0.00000E+00
         0.00000E+00
         0.00000E+00
         0.00000E+00
         0.00000E+00
         0.00000E+00
         0.00000E+00
         0.00000E+00
         0.00000E+00
         0.00000E+00
         0.00000E+00
         0.00000E+00
         0.00000E+00
         0.00000E+00
         0.00000E+00
         0.00000E+00
         0.00000E+00
         0.00000E+00
         0.00000E+00
         0.00000E+00
         0.00000E+00
         0.00000E+00
         0.00000E+00
         0.00000E+00
         0.00000E+00
         0.00000E+00
         0.00000E+00
         0.00000E+00
         0.00000E+00
         0.00000E+00
         0.00000E+00
         0.00000E+00
         0.00000E+00
         0.00000E+00
         0.00000E+00
         0.00000E+00
         0.00000E+00
         0.00000E+00
         0.00000E+00
         0.00000E+00
         0.00000E+00
         0.00000E+00
         0.00000E+00
         0.00000E+00
         0.00000E+00
         0.00000E+00
         0.00000E+00
         0.00000E+00
         0.00000E+00
         0.00000E+00
         0.00000E+00
         0.00000E+00
         0.00000E+00
         0.00000E+00
         0.00000E+00
         0.00000E+00
         0.00000E+00
         0.00000E+00
         0.00000E+00
         0.00000E+00
         0.00000E+00
         0.00000E+00
         0.00000E+00
         0.00000E+00
         0.00000E+00
         0.00000E+00
         0.00000E+00
         0.00000E+00
         0.00000E+00
         0.00000E+00
         0.00000E+00
         0.00000E+00
         0.00000E+00
         0.00000E+00
         0.00000E+00
         0.00000E+00
         0.00000E+00
         0.00000E+00
         0.00000E+00
         0.00000E+00
         0.00000E+00
         0.00000E+00
         0.00000E+00
         0.00000E+00
         0.00000E+00
         0.00000E+00
         0.00000E+00
         0.00000E+00
         0.00000E+00
         0.00000E+00
         0.00000E+00
         0.00000E+00
         0.00000E+00
         0.00000E+00
         0.00000E+00
         0.00000E+00
         0.00000E+00
         0.00000E+00
         0.00000E+00
         0.00000E+00
         0.00000E+00
         0.00000E+00
         0.00000E+00
         0.00000E+00
         0.00000E+00
         0.00000E+00
         0.00000E+00
         0.00000E+00
         0.00000E+00
         0.00000E+00
         0.00000E+00
         0.00000E+00
         0.00000E+00
         0.00000E+00
         0.00000E+00
         0.00000E+00
         0.00000E+00
         0.00000E+00
         0.00000E+00
         0.00000E+00
         0.00000E+00
         0.00000E+00
         0.00000E+00
         0.00000E+00
         0.00000E+00
         0.00000E+00
         0.00000E+00
         0.00000E+00
         0.00000E+00
         0.00000E+00
         0.00000E+00
         0.00000E+00
         0.00000E+00
         0.00000E+00
         0.00000E+00
         0.00000E+00
         0.00000E+00
         0.00000E+00
         0.00000E+00
         0.00000E+00
         0.00000E+00
         0.00000E+00
         0.00000E+00
         0.00000E+00
         0.00000E+00
         0.00000E+00
         0.00000E+00
         0.00000E+00
         0.00000E+00
         0.00000E+00
         0.00000E+00
         0.00000E+00
         0.00000E+00
         0.00000E+00
         0.00000E+00
         0.00000E+00
         0.00000E+00
         0.00000E+00
         0.00000E+00
         0.00000E+00
         0.00000E+00
         0.00000E+00
         0.00000E+00
         0.00000E+00
         0.00000E+00
         0.00000E+00
         0.00000E+00
         0.00000E+00
         0.00000E+00
         0.00000E+00
         0.00000E+00
         0.00000E+00
         0.00000E+00
         0.00000E+00
         0.00000E+00
         0.00000E+00
         0.00000E+00
         0.00000E+00
         0.00000E+00
         0.00000E+00
         0.00000E+00
         0.00000E+00
         0.00000E+00
         0.00000E+00
         0.00000E+00
         0.00000E+00
         0.00000E+00
         0.00000E+00
         0.00000E+00
         0.00000E+00
         0.00000E+00
         0.00000E+00
         0.00000E+00
         0.00000E+00
         0.00000E+00
         0.00000E+00
         0.00000E+00
         0.00000E+00
         0.00000E+00
         0.00000E+00
         0.00000E+00
         0.00000E+00
         0.00000E+00
         0.00000E+00
         0.00000E+00
         0.00000E+00
         0.00000E+00
         0.00000E+00
         0.00000E+00
         0.00000E+00
         0.00000E+00
         0.00000E+00
         0.00000E+00
         0.00000E+00
         0.00000E+00
         0.00000E+00
         0.00000E+00
         0.00000E+00
         0.00000E+00
         0.00000E+00
         0.00000E+00
         0.00000E+00
         0.00000E+00
         0.00000E+00
         0.00000E+00
         0.00000E+00
         0.00000E+00
         0.00000E+00
         0.00000E+00
         0.00000E+00
         0.00000E+00
         0.00000E+00
         0.00000E+00
         0.00000E+00
         0.00000E+00
         0.00000E+00
         0.00000E+00
         0.00000E+00
         0.00000E+00
         0.00000E+00
         0.00000E+00
         0.00000E+00
         0.00000E+00
         0.00000E+00
         0.00000E+00
         0.00000E+00
         0.00000E+00
         0.00000E+00
         0.00000E+00
         0.00000E+00
         0.00000E+00
         0.00000E+00
         0.00000E+00
         0.00000E+00
         0.00000E+00
         0.00000E+00
         0.00000E+00
         0.00000E+00
         0.00000E+00
         0.00000E+00
         0.00000E+00
         0.00000E+00
         0.00000E+00
         0.00000E+00
         0.00000E+00
         0.00000E+00
         0.00000E+00
         0.00000E+00
         0.00000E+00
         0.00000E+00
         0.00000E+00
         0.00000E+00
         0.00000E+00
         0.00000E+00
         0.00000E+00
         0.00000E+00
         0.00000E+00
         0.00000E+00
         0.00000E+00
         0.00000E+00
         0.00000E+00
         0.00000E+00
         0.00000E+00
         0.00000E+00
         0.00000E+00
         0.00000E+00
         0.00000E+00
         0.00000E+00
         0.00000E+00
         0.00000E+00
         0.00000E+00
         0.00000E+00
         0.00000E+00
         0.00000E+00
         0.00000E+00
         0.00000E+00
         0.00000E+00
         0.00000E+00
         0.00000E+00
         0.00000E+00
         0.00000E+00
         0.00000E+00
         0.00000E+00
         0.00000E+00
         0.00000E+00
         0.00000E+00
         0.00000E+00
         0.00000E+00
         0.00000E+00
         0.00000E+00
         0.00000E+00
         0.00000E+00
         0.00000E+00
         0.00000E+00
         0.00000E+00
         0.00000E+00
         0.00000E+00
         0.00000E+00
         0.00000E+00
         0.00000E+00
         0.00000E+00
         0.00000E+00
         0.00000E+00
         0.00000E+00
         0.00000E+00
         0.00000E+00
         0.00000E+00
         0.00000E+00
         0.00000E+00
         0.00000E+00
         0.00000E+00
         0.00000E+00
         0.00000E+00
         0.00000E+00
         0.00000E+00
         0.00000E+00
         0.00000E+00
         0.00000E+00
         0.00000E+00
         0.00000E+00
         0.00000E+00
         0.00000E+00
         0.00000E+00
         0.00000E+00
         0.00000E+00
         0.00000E+00
         0.00000E+00
         0.00000E+00
         0.00000E+00
         0.00000E+00
         0.00000E+00
         0.00000E+00
         0.00000E+00
         0.00000E+00
         0.00000E+00
         0.00000E+00
         0.00000E+00
         0.00000E+00
         0.00000E+00
         0.00000E+00
         0.00000E+00
         0.00000E+00
         0.00000E+00
         0.00000E+00
         0.00000E+00
         0.00000E+00
         0.00000E+00
         0.00000E+00
         0.00000E+00
         0.00000E+00
         0.00000E+00
         0.00000E+00
         0.00000E+00
         0.00000E+00
         0.00000E+00
         0.00000E+00
         0.00000E+00
         0.00000E+00
         0.00000E+00
         0.00000E+00
         0.00000E+00
         0.00000E+00
         0.00000E+00
         0.00000E+00
         0.00000E+00
         0.00000E+00
         0.00000E+00
         0.00000E+00
         0.00000E+00
         0.00000E+00
         0.00000E+00
         0.00000E+00
         0.00000E+00
         0.00000E+00
         0.00000E+00
         0.00000E+00
         0.00000E+00
         0.00000E+00
         0.00000E+00
         0.00000E+00
         0.00000E+00
         0.00000E+00
         0.00000E+00
         0.00000E+00
         0.00000E+00
         0.00000E+00
         0.00000E+00
         0.00000E+00
         0.00000E+00
         0.00000E+00
         0.00000E+00
         0.00000E+00
         0.00000E+00
         0.00000E+00
         0.00000E+00
         0.00000E+00
         0.00000E+00
         0.00000E+00
         0.00000E+00
         0.00000E+00
         0.00000E+00
         0.00000E+00
         0.00000E+00
         0.00000E+00
         0.00000E+00
         0.00000E+00
         0.00000E+00
         0.00000E+00
         0.00000E+00
         0.00000E+00
         0.00000E+00
         0.00000E+00
         0.00000E+00
         0.00000E+00
         0.00000E+00
         0.00000E+00
         0.00000E+00
         0.00000E+00
         0.00000E+00
         0.00000E+00
         0.00000E+00
         0.00000E+00
         0.00000E+00
         0.00000E+00
         0.00000E+00
         0.00000E+00
         0.00000E+00
         0.00000E+00
         0.00000E+00
         0.00000E+00
         0.00000E+00
         0.00000E+00
         0.00000E+00
         0.00000E+00
         0.00000E+00
         0.00000E+00
         0.00000E+00
         0.00000E+00
         0.00000E+00
         0.00000E+00
         0.00000E+00
         0.00000E+00
         0.00000E+00
         0.00000E+00
         0.00000E+00
         0.00000E+00
         0.00000E+00
         0.00000E+00
         0.00000E+00
         0.00000E+00
         0.00000E+00
         0.00000E+00
         0.00000E+00
         0.00000E+00
         0.00000E+00
         0.00000E+00
         0.00000E+00
         0.00000E+00
         0.00000E+00
         0.00000E+00
         0.00000E+00
         0.00000E+00
         0.00000E+00
         0.00000E+00
         0.00000E+00
         0.00000E+00
         0.00000E+00
         0.00000E+00
         0.00000E+00
         0.00000E+00
         0.00000E+00
         0.00000E+00
         0.00000E+00
         0.00000E+00
         0.00000E+00
         0.00000E+00
         0.00000E+00
         0.00000E+00
         0.00000E+00
         0.00000E+00
         0.00000E+00
         0.00000E+00
         0.00000E+00
         0.00000E+00
         0.00000E+00
         0.00000E+00
         0.00000E+00
         0.00000E+00
         0.00000E+00
         0.00000E+00
         0.00000E+00
         0.00000E+00
         0.00000E+00
         0.00000E+00
         0.00000E+00
         0.00000E+00
         0.00000E+00
         0.00000E+00
         0.00000E+00
         0.00000E+00
         0.00000E+00
         0.00000E+00
         0.00000E+00
         0.00000E+00
         0.00000E+00
         0.00000E+00
         0.00000E+00
         0.00000E+00
         0.00000E+00
         0.00000E+00
         0.00000E+00
         0.00000E+00
         0.00000E+00
         0.00000E+00
         0.00000E+00
         0.00000E+00
         0.00000E+00
         0.00000E+00
         0.00000E+00
         0.00000E+00
         0.00000E+00
         0.00000E+00
         0.00000E+00
         0.00000E+00
         0.00000E+00
         0.00000E+00
         0.00000E+00
         0.00000E+00
         0.00000E+00
         0.00000E+00
         0.00000E+00
         0.00000E+00
         0.00000E+00
         0.00000E+00
         0.00000E+00
         0.00000E+00
         0.00000E+00
         0.00000E+00
         0.00000E+00
         0.00000E+00
         0.00000E+00
         0.00000E+00
         0.00000E+00
         0.00000E+00
         0.00000E+00
         0.00000E+00
         0.00000E+00
         0.00000E+00
         0.00000E+00
         0.00000E+00
         0.00000E+00
         0.00000E+00
         0.00000E+00
         0.00000E+00
         0.00000E+00
         0.00000E+00
         0.00000E+00
         0.00000E+00
         0.00000E+00
         0.00000E+00
         0.00000E+00
         0.00000E+00
         0.00000E+00
         0.00000E+00
         0.00000E+00
         0.00000E+00
         0.00000E+00
         0.00000E+00
         0.00000E+00
         0.00000E+00
         0.00000E+00
         0.00000E+00
         0.00000E+00
         0.00000E+00
         0.00000E+00
         0.00000E+00
         0.00000E+00
         0.00000E+00
         0.00000E+00
         0.00000E+00
         0.00000E+00
         0.00000E+00
         0.00000E+00
         0.00000E+00
         0.00000E+00
         0.00000E+00
         0.00000E+00
         0.00000E+00
         0.00000E+00
         0.00000E+00
         0.00000E+00
         0.00000E+00
         0.00000E+00
         0.00000E+00
         0.00000E+00
         0.00000E+00
         0.00000E+00
         0.00000E+00
         0.00000E+00
         0.00000E+00
         0.00000E+00
         0.00000E+00
         0.00000E+00
         0.00000E+00
         0.00000E+00
         0.00000E+00
         0.00000E+00
         0.00000E+00
         0.00000E+00
         0.00000E+00
         0.00000E+00
         0.00000E+00
         0.00000E+00
         0.00000E+00
         0.00000E+00
         0.00000E+00
         0.00000E+00
         0.00000E+00
         0.00000E+00
         0.00000E+00
         0.00000E+00
         0.00000E+00
         0.00000E+00
         0.00000E+00
         0.00000E+00
         0.00000E+00
         0.00000E+00
         0.00000E+00
         0.00000E+00
         0.00000E+00
         0.00000E+00
         0.00000E+00
         0.00000E+00
         0.00000E+00
         0.00000E+00
         0.00000E+00
         0.00000E+00
         0.00000E+00
         0.00000E+00
         0.00000E+00
         0.00000E+00
         0.00000E+00
         0.00000E+00
         0.00000E+00
         0.00000E+00
         0.00000E+00
         0.00000E+00
         0.00000E+00
         0.00000E+00
         0.00000E+00
         0.00000E+00
         0.00000E+00
         0.00000E+00
         0.00000E+00
         0.00000E+00
         0.00000E+00
         0.00000E+00
         0.00000E+00
         0.00000E+00
         0.00000E+00
         0.00000E+00
         0.00000E+00
         0.00000E+00
         0.00000E+00
         0.00000E+00
         0.00000E+00
         0.00000E+00
         0.00000E+00
         0.00000E+00
         0.00000E+00
         0.00000E+00
         0.00000E+00
         0.00000E+00
         0.00000E+00
         0.00000E+00
         0.00000E+00
         0.00000E+00
         0.00000E+00
         0.00000E+00
         0.00000E+00
         0.00000E+00
         0.00000E+00
         0.00000E+00
         0.00000E+00
         0.00000E+00
         0.00000E+00
         0.00000E+00
         0.00000E+00
         0.00000E+00
         0.00000E+00
         0.00000E+00
         0.00000E+00
         0.00000E+00
         0.00000E+00
         0.00000E+00
         0.00000E+00
         0.00000E+00
         0.00000E+00
         0.00000E+00
         0.00000E+00
         0.00000E+00
         0.00000E+00
         0.00000E+00
         0.00000E+00
         0.00000E+00
         0.00000E+00
         0.00000E+00
         0.00000E+00
         0.00000E+00
         0.00000E+00
         0.00000E+00
         0.00000E+00
         0.00000E+00
         0.00000E+00
         0.00000E+00
         0.00000E+00
         0.00000E+00
         0.00000E+00
         0.00000E+00
         0.00000E+00
         0.00000E+00
         0.00000E+00
         0.00000E+00
         0.00000E+00
         0.00000E+00
         0.00000E+00
         0.00000E+00
         0.00000E+00
         0.00000E+00
         0.00000E+00
         0.00000E+00
         0.00000E+00
         0.00000E+00
         0.00000E+00
         0.00000E+00
         0.00000E+00
         0.00000E+00
         0.00000E+00
         0.00000E+00
         0.00000E+00
         0.00000E+00
         0.00000E+00
         0.00000E+00
         0.00000E+00
         0.00000E+00
         0.00000E+00
         0.00000E+00
         0.00000E+00
         0.00000E+00
         0.00000E+00
         0.00000E+00
         0.00000E+00
         0.00000E+00
         0.00000E+00
         0.00000E+00
         0.00000E+00
         0.00000E+00
         0.00000E+00
         0.00000E+00
         0.00000E+00
         0.00000E+00
         0.00000E+00
         0.00000E+00
         0.00000E+00
         0.00000E+00
         0.00000E+00
         0.00000E+00
         0.00000E+00
         0.00000E+00
         0.00000E+00
         0.00000E+00
         0.00000E+00
         0.00000E+00
         0.00000E+00
         0.00000E+00
         0.00000E+00
         0.00000E+00
         0.00000E+00
         0.00000E+00
         0.00000E+00
         0.00000E+00
         0.00000E+00
         0.00000E+00
         0.00000E+00
         0.00000E+00
         0.00000E+00
         0.00000E+00
         0.00000E+00
         0.00000E+00
         0.00000E+00
         0.00000E+00
         0.00000E+00
         0.00000E+00
         0.00000E+00
         0.00000E+00
         0.00000E+00
         0.00000E+00
         0.00000E+00
         0.00000E+00
         0.00000E+00
         0.00000E+00
         0.00000E+00
         0.00000E+00
         0.00000E+00
         0.00000E+00
         0.00000E+00
         0.00000E+00
         0.00000E+00
         0.00000E+00
         0.00000E+00
         0.00000E+00
         0.00000E+00
         0.00000E+00
         0.00000E+00
         0.00000E+00
         0.00000E+00
         0.00000E+00
         0.00000E+00
         0.00000E+00
         0.00000E+00
         0.00000E+00
         0.00000E+00
         0.00000E+00
         0.00000E+00
         0.00000E+00
         0.00000E+00
         0.00000E+00
         0.00000E+00
         0.00000E+00
         0.00000E+00
         0.00000E+00
         0.00000E+00
         0.00000E+00
         0.00000E+00
         0.00000E+00
         0.00000E+00
         0.00000E+00
         0.00000E+00
         0.00000E+00
         0.00000E+00
         0.00000E+00
         0.00000E+00
         0.00000E+00
         0.00000E+00
         0.00000E+00
         0.00000E+00
         0.00000E+00
         0.00000E+00
         0.00000E+00
         0.00000E+00
         0.00000E+00
         0.00000E+00
         0.00000E+00
         0.00000E+00
         0.00000E+00
         0.00000E+00
         0.00000E+00
         0.00000E+00
         0.00000E+00
         0.00000E+00
         0.00000E+00
         0.00000E+00
         0.00000E+00
         0.00000E+00
         0.00000E+00
         0.00000E+00
         0.00000E+00
         0.00000E+00
         0.00000E+00
         0.00000E+00
         0.00000E+00
         0.00000E+00
         0.00000E+00
         0.00000E+00
         0.00000E+00
         0.00000E+00
         0.00000E+00
         0.00000E+00
         0.00000E+00
         0.00000E+00
         0.00000E+00
         0.00000E+00
         0.00000E+00
         0.00000E+00
         0.00000E+00
         0.00000E+00
         0.00000E+00
         0.00000E+00
         0.00000E+00
         0.00000E+00
         0.00000E+00
         0.00000E+00
         0.00000E+00
         0.00000E+00
         0.00000E+00
         0.00000E+00
         0.00000E+00
         0.00000E+00
         0.00000E+00
         0.00000E+00
         0.00000E+00
         0.00000E+00
         0.00000E+00
         0.00000E+00
         0.00000E+00
         0.00000E+00
         0.00000E+00
         0.00000E+00
         0.00000E+00
         0.00000E+00
         0.00000E+00
         0.00000E+00
         0.00000E+00
         0.00000E+00
         0.00000E+00
         0.00000E+00
         0.00000E+00
         0.00000E+00
         0.00000E+00
         0.00000E+00
         0.00000E+00
         0.00000E+00
         0.00000E+00
         0.00000E+00
         0.00000E+00
         0.00000E+00
         0.00000E+00
         0.00000E+00
         0.00000E+00
         0.00000E+00
         0.00000E+00
         0.00000E+00
         0.00000E+00
         0.00000E+00
         0.00000E+00
         0.00000E+00
         0.00000E+00
         0.00000E+00
         0.00000E+00
         0.00000E+00
         0.00000E+00
         0.00000E+00
         0.00000E+00
         0.00000E+00
         0.00000E+00
         0.00000E+00
         0.00000E+00
         0.00000E+00
         0.00000E+00
         0.00000E+00
         0.00000E+00
         0.00000E+00
         0.00000E+00
         0.00000E+00
         0.00000E+00
         0.00000E+00
         0.00000E+00
         0.00000E+00
         0.00000E+00
         0.00000E+00
         0.00000E+00
         0.00000E+00
         0.00000E+00
         0.00000E+00
         0.00000E+00
         0.00000E+00
         0.00000E+00
         0.00000E+00
         0.00000E+00
         0.00000E+00
         0.00000E+00
         0.00000E+00
         0.00000E+00
         0.00000E+00
         0.00000E+00
         0.00000E+00
         0.00000E+00
         0.00000E+00
         0.00000E+00
         0.00000E+00
         0.00000E+00
         0.00000E+00
         0.00000E+00
         0.00000E+00
         0.00000E+00
         0.00000E+00
         0.00000E+00
         0.00000E+00
         0.00000E+00
         0.00000E+00
         0.00000E+00
         0.00000E+00
         0.00000E+00
         0.00000E+00
         0.00000E+00
         0.00000E+00
         0.00000E+00
         0.00000E+00
         0.00000E+00
         0.00000E+00
         0.00000E+00
         0.00000E+00
         0.00000E+00
         0.00000E+00
         0.00000E+00
         0.00000E+00
         0.00000E+00
         0.00000E+00
         0.00000E+00
         0.00000E+00
         0.00000E+00
         0.00000E+00
         0.00000E+00
         0.00000E+00
         0.00000E+00
         0.00000E+00
         0.00000E+00
         0.00000E+00
         0.00000E+00
         0.00000E+00
         0.00000E+00
         0.00000E+00
         0.00000E+00
         0.00000E+00
         0.00000E+00
         0.00000E+00
         0.00000E+00
         0.00000E+00
         0.00000E+00
         0.00000E+00
         0.00000E+00
         0.00000E+00
         0.00000E+00
         0.00000E+00
         0.00000E+00
         0.00000E+00
         0.00000E+00
         0.00000E+00
         0.00000E+00
         0.00000E+00
         0.00000E+00
         0.00000E+00
         0.00000E+00
         0.00000E+00
         0.00000E+00
         0.00000E+00
         0.00000E+00
         0.00000E+00
         0.00000E+00
         0.00000E+00
         0.00000E+00
         0.00000E+00
         0.00000E+00
         0.00000E+00
         0.00000E+00
         0.00000E+00
         0.00000E+00
         0.00000E+00
         0.00000E+00
         0.00000E+00
         0.00000E+00
         0.00000E+00
         0.00000E+00
         0.00000E+00
         0.00000E+00
         0.00000E+00
         0.00000E+00
         0.00000E+00
         0.00000E+00
         0.00000E+00
         0.00000E+00
         0.00000E+00
         0.00000E+00
         0.00000E+00
         0.00000E+00
         0.00000E+00
         0.00000E+00
         0.00000E+00
         0.00000E+00
         0.00000E+00
         0.00000E+00
         0.00000E+00
         0.00000E+00
         0.00000E+00
         0.00000E+00
         0.00000E+00
         0.00000E+00
         0.00000E+00
         0.00000E+00
         0.00000E+00
         0.00000E+00
         0.00000E+00
         0.00000E+00
         0.00000E+00
         0.00000E+00
         0.00000E+00
         0.00000E+00
         0.00000E+00
         0.00000E+00
         0.00000E+00
         0.00000E+00
         0.00000E+00
         0.00000E+00
         0.00000E+00
         0.00000E+00
         0.00000E+00
         0.00000E+00
         0.00000E+00
         0.00000E+00
         0.00000E+00
         0.00000E+00
         0.00000E+00
         0.00000E+00
         0.00000E+00
         0.00000E+00
         0.00000E+00
         0.00000E+00
         0.00000E+00
         0.00000E+00
         0.00000E+00
         0.00000E+00
         0.00000E+00
         0.00000E+00
         0.00000E+00
         0.00000E+00
         0.00000E+00
         0.00000E+00
         0.00000E+00
         0.00000E+00
         0.00000E+00
         0.00000E+00
         0.00000E+00
         0.00000E+00
         0.00000E+00
         0.00000E+00
         0.00000E+00
         0.00000E+00
         0.00000E+00
         0.00000E+00
         0.00000E+00
         0.00000E+00
         0.00000E+00
         0.00000E+00
         0.00000E+00
         0.00000E+00
         0.00000E+00
         0.00000E+00
         0.00000E+00
         0.00000E+00
         0.00000E+00
         0.00000E+00
         0.00000E+00
         0.00000E+00
         0.00000E+00
         0.00000E+00
         0.00000E+00
         0.00000E+00
         0.00000E+00
         0.00000E+00
         0.00000E+00
         0.00000E+00
         0.00000E+00
         0.00000E+00
         0.00000E+00
         0.00000E+00
         0.00000E+00
         0.00000E+00
         0.00000E+00
         0.00000E+00
         0.00000E+00
         0.00000E+00
         0.00000E+00
         0.00000E+00
         0.00000E+00
         0.00000E+00
         0.00000E+00
         0.00000E+00
         0.00000E+00
         0.00000E+00
         0.00000E+00
         0.00000E+00
         0.00000E+00
         0.00000E+00
         0.00000E+00
         0.00000E+00
         0.00000E+00
         0.00000E+00
         0.00000E+00
         0.00000E+00
         0.00000E+00
         0.00000E+00
         0.00000E+00
         0.00000E+00
         0.00000E+00
         0.00000E+00
         0.00000E+00
         0.00000E+00
         0.00000E+00
         0.00000E+00
         0.00000E+00
         0.00000E+00
         0.00000E+00
         0.00000E+00
         0.00000E+00
         0.00000E+00
         0.00000E+00
         0.00000E+00
         0.00000E+00
         0.00000E+00
         0.00000E+00
         0.00000E+00
         0.00000E+00
         0.00000E+00
         0.00000E+00
         0.00000E+00
         0.00000E+00
         0.00000E+00
         0.00000E+00
         0.00000E+00
         0.00000E+00
         0.00000E+00
         0.00000E+00
         0.00000E+00
         0.00000E+00
         0.00000E+00
         0.00000E+00
         0.00000E+00
         0.00000E+00
         0.00000E+00
         0.00000E+00
         0.00000E+00
         0.00000E+00
         0.00000E+00
         0.00000E+00
         0.00000E+00
         0.00000E+00
         0.00000E+00
         0.00000E+00
         0.00000E+00
         0.00000E+00
         0.00000E+00
         0.00000E+00
         0.00000E+00
         0.00000E+00
         0.00000E+00
         0.00000E+00
         0.00000E+00
         0.00000E+00
         0.00000E+00
         0.00000E+00
         0.00000E+00
         0.00000E+00
         0.00000E+00
         0.00000E+00
         0.00000E+00
         0.00000E+00
         0.00000E+00
         0.00000E+00
         0.00000E+00
         0.00000E+00
         0.00000E+00
         0.00000E+00
         0.00000E+00
         0.00000E+00
         0.00000E+00
         0.00000E+00
         0.00000E+00
         0.00000E+00
         0.00000E+00
         0.00000E+00
         0.00000E+00
         0.00000E+00
         0.00000E+00
         0.00000E+00
         0.00000E+00
         0.00000E+00
         0.00000E+00
         0.00000E+00
         0.00000E+00
         0.00000E+00
         0.00000E+00
         0.00000E+00
         0.00000E+00
         0.00000E+00
         0.00000E+00
         0.00000E+00
         0.00000E+00
         0.00000E+00
         0.00000E+00
         0.00000E+00
         0.00000E+00
         0.00000E+00
         0.00000E+00
         0.00000E+00
         0.00000E+00
         0.00000E+00
         0.00000E+00
         0.00000E+00
         0.00000E+00
         0.00000E+00
         0.00000E+00
         0.00000E+00
         0.00000E+00
         0.00000E+00
         0.00000E+00
         0.00000E+00
         0.00000E+00
         0.00000E+00
         0.00000E+00
         0.00000E+00
         0.00000E+00
         0.00000E+00
         0.00000E+00
         0.00000E+00
         0.00000E+00
         0.00000E+00
         0.00000E+00
         0.00000E+00
         0.00000E+00
         0.00000E+00
         0.00000E+00
         0.00000E+00
         0.00000E+00
         0.00000E+00
         0.00000E+00
         0.00000E+00
         0.00000E+00
         0.00000E+00
         0.00000E+00
         0.00000E+00
         0.00000E+00
         0.00000E+00
         0.00000E+00
         0.00000E+00
         0.00000E+00
         0.00000E+00
         0.00000E+00
         0.00000E+00
         0.00000E+00
         0.00000E+00
         0.00000E+00
         0.00000E+00
         0.00000E+00
         0.00000E+00
         0.00000E+00
         0.00000E+00
         0.00000E+00
         0.00000E+00
         0.00000E+00
         0.00000E+00
         0.00000E+00
         0.00000E+00
         0.00000E+00
         0.00000E+00
         0.00000E+00
         0.00000E+00
         0.00000E+00
         0.00000E+00
         0.00000E+00
         0.00000E+00
         0.00000E+00
         0.00000E+00
         0.00000E+00
         0.00000E+00
         0.00000E+00
         0.00000E+00
         0.00000E+00
         0.00000E+00
         0.00000E+00
         0.00000E+00
         0.00000E+00
         0.00000E+00
         0.00000E+00
         0.00000E+00
         0.00000E+00
         0.00000E+00
         0.00000E+00
         0.00000E+00
         0.00000E+00
         0.00000E+00
         0.00000E+00
         0.00000E+00
         0.00000E+00
         0.00000E+00
         0.00000E+00
         0.00000E+00
         0.00000E+00
         0.00000E+00
         0.00000E+00
         0.00000E+00
         0.00000E+00
         0.00000E+00
         0.00000E+00
         0.00000E+00
         0.00000E+00
         0.00000E+00
         0.00000E+00
         0.00000E+00
         0.00000E+00
         0.00000E+00
         0.00000E+00
         0.00000E+00
         0.00000E+00
         0.00000E+00
         0.00000E+00
         0.00000E+00
         0.00000E+00
         0.00000E+00
         0.00000E+00
         0.00000E+00
         0.00000E+00
         0.00000E+00
         0.00000E+00
         0.00000E+00
         0.00000E+00
         0.00000E+00
         0.00000E+00
         0.00000E+00
  
SCALARS                init_velocity_z  double 1
LOOKUP_TABLE default
        -0.37300E+03
        -0.37300E+03
        -0.37300E+03
        -0.37300E+03
        -0.37300E+03
        -0.37300E+03
        -0.37300E+03
        -0.37300E+03
        -0.37300E+03
        -0.37300E+03
        -0.37300E+03
        -0.37300E+03
        -0.37300E+03
        -0.37300E+03
        -0.37300E+03
        -0.37300E+03
        -0.37300E+03
        -0.37300E+03
        -0.37300E+03
        -0.37300E+03
        -0.37300E+03
        -0.37300E+03
        -0.37300E+03
        -0.37300E+03
        -0.37300E+03
        -0.37300E+03
        -0.37300E+03
        -0.37300E+03
        -0.37300E+03
        -0.37300E+03
        -0.37300E+03
        -0.37300E+03
        -0.37300E+03
        -0.37300E+03
        -0.37300E+03
        -0.37300E+03
        -0.37300E+03
        -0.37300E+03
        -0.37300E+03
        -0.37300E+03
        -0.37300E+03
        -0.37300E+03
        -0.37300E+03
        -0.37300E+03
        -0.37300E+03
        -0.37300E+03
        -0.37300E+03
        -0.37300E+03
        -0.37300E+03
        -0.37300E+03
        -0.37300E+03
        -0.37300E+03
        -0.37300E+03
        -0.37300E+03
        -0.37300E+03
        -0.37300E+03
        -0.37300E+03
        -0.37300E+03
        -0.37300E+03
        -0.37300E+03
        -0.37300E+03
        -0.37300E+03
        -0.37300E+03
        -0.37300E+03
        -0.37300E+03
        -0.37300E+03
        -0.37300E+03
        -0.37300E+03
        -0.37300E+03
        -0.37300E+03
        -0.37300E+03
        -0.37300E+03
        -0.37300E+03
        -0.37300E+03
        -0.37300E+03
        -0.37300E+03
        -0.37300E+03
        -0.37300E+03
        -0.37300E+03
        -0.37300E+03
        -0.37300E+03
        -0.37300E+03
        -0.37300E+03
        -0.37300E+03
        -0.37300E+03
        -0.37300E+03
        -0.37300E+03
        -0.37300E+03
        -0.37300E+03
        -0.37300E+03
        -0.37300E+03
        -0.37300E+03
        -0.37300E+03
        -0.37300E+03
        -0.37300E+03
        -0.37300E+03
        -0.37300E+03
        -0.37300E+03
        -0.37300E+03
        -0.37300E+03
        -0.37300E+03
        -0.37300E+03
        -0.37300E+03
        -0.37300E+03
        -0.37300E+03
        -0.37300E+03
        -0.37300E+03
        -0.37300E+03
        -0.37300E+03
        -0.37300E+03
        -0.37300E+03
        -0.37300E+03
        -0.37300E+03
        -0.37300E+03
        -0.37300E+03
        -0.37300E+03
        -0.37300E+03
        -0.37300E+03
        -0.37300E+03
        -0.37300E+03
        -0.37300E+03
        -0.37300E+03
        -0.37300E+03
        -0.37300E+03
        -0.37300E+03
        -0.37300E+03
        -0.37300E+03
        -0.37300E+03
        -0.37300E+03
        -0.37300E+03
        -0.37300E+03
        -0.37300E+03
        -0.37300E+03
        -0.37300E+03
        -0.37300E+03
        -0.37300E+03
        -0.37300E+03
        -0.37300E+03
        -0.37300E+03
        -0.37300E+03
        -0.37300E+03
        -0.37300E+03
        -0.37300E+03
        -0.37300E+03
        -0.37300E+03
        -0.37300E+03
        -0.37300E+03
        -0.37300E+03
        -0.37300E+03
        -0.37300E+03
        -0.37300E+03
        -0.37300E+03
        -0.37300E+03
        -0.37300E+03
        -0.37300E+03
        -0.37300E+03
        -0.37300E+03
        -0.37300E+03
        -0.37300E+03
        -0.37300E+03
        -0.37300E+03
        -0.37300E+03
        -0.37300E+03
        -0.37300E+03
        -0.37300E+03
        -0.37300E+03
        -0.37300E+03
        -0.37300E+03
        -0.37300E+03
        -0.37300E+03
        -0.37300E+03
        -0.37300E+03
        -0.37300E+03
        -0.37300E+03
        -0.37300E+03
        -0.37300E+03
        -0.37300E+03
        -0.37300E+03
        -0.37300E+03
        -0.37300E+03
        -0.37300E+03
        -0.37300E+03
        -0.37300E+03
        -0.37300E+03
        -0.37300E+03
        -0.37300E+03
        -0.37300E+03
        -0.37300E+03
        -0.37300E+03
        -0.37300E+03
        -0.37300E+03
        -0.37300E+03
        -0.37300E+03
        -0.37300E+03
        -0.37300E+03
        -0.37300E+03
        -0.37300E+03
        -0.37300E+03
        -0.37300E+03
        -0.37300E+03
        -0.37300E+03
        -0.37300E+03
        -0.37300E+03
        -0.37300E+03
        -0.37300E+03
        -0.37300E+03
        -0.37300E+03
        -0.37300E+03
        -0.37300E+03
        -0.37300E+03
        -0.37300E+03
        -0.37300E+03
        -0.37300E+03
        -0.37300E+03
        -0.37300E+03
        -0.37300E+03
        -0.37300E+03
        -0.37300E+03
        -0.37300E+03
        -0.37300E+03
        -0.37300E+03
        -0.37300E+03
        -0.37300E+03
        -0.37300E+03
        -0.37300E+03
        -0.37300E+03
        -0.37300E+03
        -0.37300E+03
        -0.37300E+03
        -0.37300E+03
        -0.37300E+03
        -0.37300E+03
        -0.37300E+03
        -0.37300E+03
        -0.37300E+03
        -0.37300E+03
        -0.37300E+03
        -0.37300E+03
        -0.37300E+03
        -0.37300E+03
        -0.37300E+03
        -0.37300E+03
        -0.37300E+03
        -0.37300E+03
        -0.37300E+03
        -0.37300E+03
        -0.37300E+03
        -0.37300E+03
        -0.37300E+03
        -0.37300E+03
        -0.37300E+03
        -0.37300E+03
        -0.37300E+03
        -0.37300E+03
        -0.37300E+03
        -0.37300E+03
        -0.37300E+03
        -0.37300E+03
        -0.37300E+03
        -0.37300E+03
        -0.37300E+03
        -0.37300E+03
        -0.37300E+03
        -0.37300E+03
        -0.37300E+03
        -0.37300E+03
        -0.37300E+03
        -0.37300E+03
        -0.37300E+03
        -0.37300E+03
        -0.37300E+03
        -0.37300E+03
        -0.37300E+03
        -0.37300E+03
        -0.37300E+03
        -0.37300E+03
        -0.37300E+03
        -0.37300E+03
        -0.37300E+03
        -0.37300E+03
        -0.37300E+03
        -0.37300E+03
        -0.37300E+03
        -0.37300E+03
        -0.37300E+03
        -0.37300E+03
        -0.37300E+03
        -0.37300E+03
        -0.37300E+03
        -0.37300E+03
        -0.37300E+03
        -0.37300E+03
        -0.37300E+03
        -0.37300E+03
        -0.37300E+03
        -0.37300E+03
        -0.37300E+03
        -0.37300E+03
        -0.37300E+03
        -0.37300E+03
        -0.37300E+03
        -0.37300E+03
        -0.37300E+03
        -0.37300E+03
        -0.37300E+03
        -0.37300E+03
        -0.37300E+03
        -0.37300E+03
        -0.37300E+03
        -0.37300E+03
        -0.37300E+03
        -0.37300E+03
        -0.37300E+03
        -0.37300E+03
        -0.37300E+03
        -0.37300E+03
        -0.37300E+03
        -0.37300E+03
        -0.37300E+03
        -0.37300E+03
        -0.37300E+03
        -0.37300E+03
        -0.37300E+03
        -0.37300E+03
        -0.37300E+03
        -0.37300E+03
        -0.37300E+03
        -0.37300E+03
        -0.37300E+03
        -0.37300E+03
        -0.37300E+03
        -0.37300E+03
        -0.37300E+03
        -0.37300E+03
        -0.37300E+03
        -0.37300E+03
        -0.37300E+03
        -0.37300E+03
        -0.37300E+03
        -0.37300E+03
        -0.37300E+03
        -0.37300E+03
        -0.37300E+03
        -0.37300E+03
        -0.37300E+03
        -0.37300E+03
        -0.37300E+03
        -0.37300E+03
        -0.37300E+03
        -0.37300E+03
        -0.37300E+03
        -0.37300E+03
        -0.37300E+03
        -0.37300E+03
        -0.37300E+03
        -0.37300E+03
        -0.37300E+03
        -0.37300E+03
        -0.37300E+03
        -0.37300E+03
        -0.37300E+03
        -0.37300E+03
        -0.37300E+03
        -0.37300E+03
        -0.37300E+03
        -0.37300E+03
        -0.37300E+03
        -0.37300E+03
        -0.37300E+03
        -0.37300E+03
        -0.37300E+03
        -0.37300E+03
        -0.37300E+03
        -0.37300E+03
        -0.37300E+03
        -0.37300E+03
        -0.37300E+03
        -0.37300E+03
        -0.37300E+03
        -0.37300E+03
        -0.37300E+03
        -0.37300E+03
        -0.37300E+03
        -0.37300E+03
        -0.37300E+03
        -0.37300E+03
        -0.37300E+03
        -0.37300E+03
        -0.37300E+03
        -0.37300E+03
        -0.37300E+03
        -0.37300E+03
        -0.37300E+03
        -0.37300E+03
        -0.37300E+03
        -0.37300E+03
        -0.37300E+03
        -0.37300E+03
        -0.37300E+03
        -0.37300E+03
        -0.37300E+03
        -0.37300E+03
        -0.37300E+03
        -0.37300E+03
        -0.37300E+03
        -0.37300E+03
        -0.37300E+03
        -0.37300E+03
        -0.37300E+03
        -0.37300E+03
        -0.37300E+03
        -0.37300E+03
        -0.37300E+03
        -0.37300E+03
        -0.37300E+03
        -0.37300E+03
        -0.37300E+03
        -0.37300E+03
        -0.37300E+03
        -0.37300E+03
        -0.37300E+03
        -0.37300E+03
        -0.37300E+03
        -0.37300E+03
        -0.37300E+03
        -0.37300E+03
        -0.37300E+03
        -0.37300E+03
        -0.37300E+03
        -0.37300E+03
        -0.37300E+03
        -0.37300E+03
        -0.37300E+03
        -0.37300E+03
        -0.37300E+03
        -0.37300E+03
        -0.37300E+03
        -0.37300E+03
        -0.37300E+03
        -0.37300E+03
        -0.37300E+03
        -0.37300E+03
        -0.37300E+03
        -0.37300E+03
        -0.37300E+03
        -0.37300E+03
        -0.37300E+03
        -0.37300E+03
        -0.37300E+03
        -0.37300E+03
        -0.37300E+03
        -0.37300E+03
        -0.37300E+03
        -0.37300E+03
        -0.37300E+03
        -0.37300E+03
        -0.37300E+03
        -0.37300E+03
        -0.37300E+03
        -0.37300E+03
        -0.37300E+03
        -0.37300E+03
        -0.37300E+03
        -0.37300E+03
        -0.37300E+03
        -0.37300E+03
        -0.37300E+03
        -0.37300E+03
        -0.37300E+03
        -0.37300E+03
        -0.37300E+03
        -0.37300E+03
        -0.37300E+03
        -0.37300E+03
        -0.37300E+03
        -0.37300E+03
        -0.37300E+03
        -0.37300E+03
        -0.37300E+03
        -0.37300E+03
        -0.37300E+03
        -0.37300E+03
        -0.37300E+03
        -0.37300E+03
        -0.37300E+03
        -0.37300E+03
        -0.37300E+03
        -0.37300E+03
        -0.37300E+03
        -0.37300E+03
        -0.37300E+03
        -0.37300E+03
        -0.37300E+03
        -0.37300E+03
        -0.37300E+03
        -0.37300E+03
        -0.37300E+03
        -0.37300E+03
        -0.37300E+03
        -0.37300E+03
        -0.37300E+03
        -0.37300E+03
        -0.37300E+03
        -0.37300E+03
        -0.37300E+03
        -0.37300E+03
        -0.37300E+03
        -0.37300E+03
        -0.37300E+03
        -0.37300E+03
        -0.37300E+03
        -0.37300E+03
        -0.37300E+03
        -0.37300E+03
        -0.37300E+03
        -0.37300E+03
        -0.37300E+03
        -0.37300E+03
        -0.37300E+03
        -0.37300E+03
        -0.37300E+03
        -0.37300E+03
        -0.37300E+03
        -0.37300E+03
        -0.37300E+03
        -0.37300E+03
        -0.37300E+03
        -0.37300E+03
        -0.37300E+03
        -0.37300E+03
        -0.37300E+03
        -0.37300E+03
        -0.37300E+03
        -0.37300E+03
        -0.37300E+03
        -0.37300E+03
        -0.37300E+03
        -0.37300E+03
        -0.37300E+03
        -0.37300E+03
        -0.37300E+03
        -0.37300E+03
        -0.37300E+03
        -0.37300E+03
        -0.37300E+03
        -0.37300E+03
        -0.37300E+03
        -0.37300E+03
        -0.37300E+03
        -0.37300E+03
        -0.37300E+03
        -0.37300E+03
        -0.37300E+03
        -0.37300E+03
        -0.37300E+03
        -0.37300E+03
        -0.37300E+03
        -0.37300E+03
        -0.37300E+03
        -0.37300E+03
        -0.37300E+03
        -0.37300E+03
        -0.37300E+03
        -0.37300E+03
        -0.37300E+03
        -0.37300E+03
        -0.37300E+03
        -0.37300E+03
        -0.37300E+03
        -0.37300E+03
        -0.37300E+03
        -0.37300E+03
        -0.37300E+03
        -0.37300E+03
        -0.37300E+03
        -0.37300E+03
        -0.37300E+03
        -0.37300E+03
        -0.37300E+03
        -0.37300E+03
        -0.37300E+03
        -0.37300E+03
        -0.37300E+03
        -0.37300E+03
        -0.37300E+03
        -0.37300E+03
        -0.37300E+03
        -0.37300E+03
        -0.37300E+03
        -0.37300E+03
        -0.37300E+03
        -0.37300E+03
        -0.37300E+03
        -0.37300E+03
        -0.37300E+03
        -0.37300E+03
        -0.37300E+03
        -0.37300E+03
        -0.37300E+03
        -0.37300E+03
        -0.37300E+03
        -0.37300E+03
        -0.37300E+03
        -0.37300E+03
        -0.37300E+03
        -0.37300E+03
        -0.37300E+03
        -0.37300E+03
        -0.37300E+03
        -0.37300E+03
        -0.37300E+03
        -0.37300E+03
        -0.37300E+03
        -0.37300E+03
        -0.37300E+03
        -0.37300E+03
        -0.37300E+03
        -0.37300E+03
        -0.37300E+03
        -0.37300E+03
        -0.37300E+03
        -0.37300E+03
        -0.37300E+03
        -0.37300E+03
        -0.37300E+03
        -0.37300E+03
        -0.37300E+03
        -0.37300E+03
        -0.37300E+03
        -0.37300E+03
        -0.37300E+03
        -0.37300E+03
        -0.37300E+03
        -0.37300E+03
        -0.37300E+03
        -0.37300E+03
        -0.37300E+03
        -0.37300E+03
        -0.37300E+03
        -0.37300E+03
        -0.37300E+03
        -0.37300E+03
        -0.37300E+03
        -0.37300E+03
        -0.37300E+03
        -0.37300E+03
        -0.37300E+03
        -0.37300E+03
        -0.37300E+03
        -0.37300E+03
        -0.37300E+03
        -0.37300E+03
        -0.37300E+03
        -0.37300E+03
        -0.37300E+03
        -0.37300E+03
        -0.37300E+03
        -0.37300E+03
        -0.37300E+03
        -0.37300E+03
        -0.37300E+03
        -0.37300E+03
        -0.37300E+03
        -0.37300E+03
        -0.37300E+03
        -0.37300E+03
        -0.37300E+03
        -0.37300E+03
        -0.37300E+03
        -0.37300E+03
        -0.37300E+03
        -0.37300E+03
        -0.37300E+03
        -0.37300E+03
        -0.37300E+03
        -0.37300E+03
        -0.37300E+03
        -0.37300E+03
        -0.37300E+03
        -0.37300E+03
        -0.37300E+03
        -0.37300E+03
        -0.37300E+03
        -0.37300E+03
        -0.37300E+03
        -0.37300E+03
        -0.37300E+03
        -0.37300E+03
        -0.37300E+03
        -0.37300E+03
        -0.37300E+03
        -0.37300E+03
        -0.37300E+03
        -0.37300E+03
        -0.37300E+03
        -0.37300E+03
        -0.37300E+03
        -0.37300E+03
        -0.37300E+03
        -0.37300E+03
        -0.37300E+03
        -0.37300E+03
        -0.37300E+03
        -0.37300E+03
        -0.37300E+03
        -0.37300E+03
        -0.37300E+03
        -0.37300E+03
        -0.37300E+03
        -0.37300E+03
        -0.37300E+03
        -0.37300E+03
        -0.37300E+03
        -0.37300E+03
        -0.37300E+03
        -0.37300E+03
        -0.37300E+03
        -0.37300E+03
        -0.37300E+03
        -0.37300E+03
        -0.37300E+03
        -0.37300E+03
        -0.37300E+03
        -0.37300E+03
        -0.37300E+03
        -0.37300E+03
        -0.37300E+03
        -0.37300E+03
        -0.37300E+03
        -0.37300E+03
        -0.37300E+03
        -0.37300E+03
        -0.37300E+03
        -0.37300E+03
        -0.37300E+03
        -0.37300E+03
        -0.37300E+03
        -0.37300E+03
        -0.37300E+03
        -0.37300E+03
        -0.37300E+03
        -0.37300E+03
        -0.37300E+03
        -0.37300E+03
        -0.37300E+03
        -0.37300E+03
        -0.37300E+03
        -0.37300E+03
        -0.37300E+03
        -0.37300E+03
        -0.37300E+03
        -0.37300E+03
        -0.37300E+03
        -0.37300E+03
        -0.37300E+03
        -0.37300E+03
        -0.37300E+03
        -0.37300E+03
        -0.37300E+03
        -0.37300E+03
        -0.37300E+03
        -0.37300E+03
        -0.37300E+03
        -0.37300E+03
        -0.37300E+03
        -0.37300E+03
        -0.37300E+03
        -0.37300E+03
        -0.37300E+03
        -0.37300E+03
        -0.37300E+03
        -0.37300E+03
        -0.37300E+03
        -0.37300E+03
        -0.37300E+03
        -0.37300E+03
        -0.37300E+03
        -0.37300E+03
        -0.37300E+03
        -0.37300E+03
        -0.37300E+03
        -0.37300E+03
        -0.37300E+03
        -0.37300E+03
        -0.37300E+03
        -0.37300E+03
        -0.37300E+03
        -0.37300E+03
        -0.37300E+03
        -0.37300E+03
        -0.37300E+03
        -0.37300E+03
        -0.37300E+03
        -0.37300E+03
        -0.37300E+03
        -0.37300E+03
        -0.37300E+03
        -0.37300E+03
        -0.37300E+03
        -0.37300E+03
        -0.37300E+03
        -0.37300E+03
        -0.37300E+03
        -0.37300E+03
        -0.37300E+03
        -0.37300E+03
        -0.37300E+03
        -0.37300E+03
        -0.37300E+03
        -0.37300E+03
        -0.37300E+03
        -0.37300E+03
        -0.37300E+03
        -0.37300E+03
        -0.37300E+03
        -0.37300E+03
        -0.37300E+03
        -0.37300E+03
        -0.37300E+03
        -0.37300E+03
        -0.37300E+03
        -0.37300E+03
        -0.37300E+03
        -0.37300E+03
        -0.37300E+03
        -0.37300E+03
        -0.37300E+03
        -0.37300E+03
        -0.37300E+03
        -0.37300E+03
        -0.37300E+03
        -0.37300E+03
        -0.37300E+03
        -0.37300E+03
        -0.37300E+03
        -0.37300E+03
        -0.37300E+03
        -0.37300E+03
        -0.37300E+03
        -0.37300E+03
        -0.37300E+03
        -0.37300E+03
        -0.37300E+03
        -0.37300E+03
        -0.37300E+03
        -0.37300E+03
        -0.37300E+03
        -0.37300E+03
        -0.37300E+03
        -0.37300E+03
        -0.37300E+03
        -0.37300E+03
        -0.37300E+03
        -0.37300E+03
        -0.37300E+03
        -0.37300E+03
        -0.37300E+03
        -0.37300E+03
        -0.37300E+03
        -0.37300E+03
        -0.37300E+03
        -0.37300E+03
        -0.37300E+03
        -0.37300E+03
        -0.37300E+03
        -0.37300E+03
        -0.37300E+03
        -0.37300E+03
        -0.37300E+03
        -0.37300E+03
        -0.37300E+03
        -0.37300E+03
        -0.37300E+03
        -0.37300E+03
        -0.37300E+03
        -0.37300E+03
        -0.37300E+03
        -0.37300E+03
        -0.37300E+03
        -0.37300E+03
        -0.37300E+03
        -0.37300E+03
        -0.37300E+03
        -0.37300E+03
        -0.37300E+03
        -0.37300E+03
        -0.37300E+03
        -0.37300E+03
        -0.37300E+03
        -0.37300E+03
        -0.37300E+03
        -0.37300E+03
        -0.37300E+03
        -0.37300E+03
        -0.37300E+03
        -0.37300E+03
        -0.37300E+03
        -0.37300E+03
        -0.37300E+03
        -0.37300E+03
        -0.37300E+03
        -0.37300E+03
        -0.37300E+03
        -0.37300E+03
        -0.37300E+03
        -0.37300E+03
        -0.37300E+03
        -0.37300E+03
        -0.37300E+03
        -0.37300E+03
        -0.37300E+03
        -0.37300E+03
        -0.37300E+03
        -0.37300E+03
        -0.37300E+03
        -0.37300E+03
        -0.37300E+03
        -0.37300E+03
        -0.37300E+03
        -0.37300E+03
        -0.37300E+03
        -0.37300E+03
        -0.37300E+03
        -0.37300E+03
        -0.37300E+03
        -0.37300E+03
        -0.37300E+03
        -0.37300E+03
        -0.37300E+03
        -0.37300E+03
        -0.37300E+03
        -0.37300E+03
        -0.37300E+03
        -0.37300E+03
        -0.37300E+03
        -0.37300E+03
        -0.37300E+03
        -0.37300E+03
        -0.37300E+03
        -0.37300E+03
        -0.37300E+03
        -0.37300E+03
        -0.37300E+03
        -0.37300E+03
        -0.37300E+03
        -0.37300E+03
        -0.37300E+03
        -0.37300E+03
        -0.37300E+03
        -0.37300E+03
        -0.37300E+03
        -0.37300E+03
        -0.37300E+03
        -0.37300E+03
        -0.37300E+03
        -0.37300E+03
        -0.37300E+03
        -0.37300E+03
        -0.37300E+03
        -0.37300E+03
        -0.37300E+03
        -0.37300E+03
        -0.37300E+03
        -0.37300E+03
        -0.37300E+03
        -0.37300E+03
        -0.37300E+03
        -0.37300E+03
        -0.37300E+03
        -0.37300E+03
        -0.37300E+03
        -0.37300E+03
        -0.37300E+03
        -0.37300E+03
        -0.37300E+03
        -0.37300E+03
        -0.37300E+03
        -0.37300E+03
        -0.37300E+03
        -0.37300E+03
        -0.37300E+03
        -0.37300E+03
        -0.37300E+03
        -0.37300E+03
        -0.37300E+03
        -0.37300E+03
        -0.37300E+03
        -0.37300E+03
        -0.37300E+03
        -0.37300E+03
        -0.37300E+03
        -0.37300E+03
        -0.37300E+03
        -0.37300E+03
        -0.37300E+03
        -0.37300E+03
        -0.37300E+03
        -0.37300E+03
        -0.37300E+03
        -0.37300E+03
        -0.37300E+03
        -0.37300E+03
        -0.37300E+03
        -0.37300E+03
        -0.37300E+03
        -0.37300E+03
        -0.37300E+03
        -0.37300E+03
        -0.37300E+03
        -0.37300E+03
        -0.37300E+03
        -0.37300E+03
        -0.37300E+03
        -0.37300E+03
        -0.37300E+03
        -0.37300E+03
        -0.37300E+03
        -0.37300E+03
        -0.37300E+03
        -0.37300E+03
        -0.37300E+03
        -0.37300E+03
        -0.37300E+03
        -0.37300E+03
        -0.37300E+03
        -0.37300E+03
        -0.37300E+03
        -0.37300E+03
        -0.37300E+03
        -0.37300E+03
        -0.37300E+03
        -0.37300E+03
        -0.37300E+03
        -0.37300E+03
        -0.37300E+03
        -0.37300E+03
        -0.37300E+03
        -0.37300E+03
        -0.37300E+03
        -0.37300E+03
        -0.37300E+03
        -0.37300E+03
        -0.37300E+03
        -0.37300E+03
        -0.37300E+03
        -0.37300E+03
        -0.37300E+03
        -0.37300E+03
        -0.37300E+03
        -0.37300E+03
        -0.37300E+03
        -0.37300E+03
        -0.37300E+03
        -0.37300E+03
        -0.37300E+03
        -0.37300E+03
        -0.37300E+03
        -0.37300E+03
        -0.37300E+03
        -0.37300E+03
        -0.37300E+03
        -0.37300E+03
        -0.37300E+03
        -0.37300E+03
        -0.37300E+03
        -0.37300E+03
        -0.37300E+03
        -0.37300E+03
        -0.37300E+03
        -0.37300E+03
        -0.37300E+03
        -0.37300E+03
        -0.37300E+03
        -0.37300E+03
        -0.37300E+03
        -0.37300E+03
        -0.37300E+03
        -0.37300E+03
        -0.37300E+03
        -0.37300E+03
        -0.37300E+03
        -0.37300E+03
        -0.37300E+03
        -0.37300E+03
        -0.37300E+03
        -0.37300E+03
        -0.37300E+03
        -0.37300E+03
        -0.37300E+03
        -0.37300E+03
        -0.37300E+03
        -0.37300E+03
        -0.37300E+03
        -0.37300E+03
        -0.37300E+03
        -0.37300E+03
        -0.37300E+03
        -0.37300E+03
        -0.37300E+03
        -0.37300E+03
        -0.37300E+03
        -0.37300E+03
        -0.37300E+03
        -0.37300E+03
        -0.37300E+03
        -0.37300E+03
        -0.37300E+03
        -0.37300E+03
        -0.37300E+03
        -0.37300E+03
        -0.37300E+03
        -0.37300E+03
        -0.37300E+03
        -0.37300E+03
        -0.37300E+03
        -0.37300E+03
        -0.37300E+03
        -0.37300E+03
        -0.37300E+03
        -0.37300E+03
        -0.37300E+03
        -0.37300E+03
        -0.37300E+03
        -0.37300E+03
        -0.37300E+03
        -0.37300E+03
        -0.37300E+03
        -0.37300E+03
        -0.37300E+03
        -0.37300E+03
        -0.37300E+03
        -0.37300E+03
        -0.37300E+03
        -0.37300E+03
        -0.37300E+03
        -0.37300E+03
        -0.37300E+03
        -0.37300E+03
        -0.37300E+03
        -0.37300E+03
        -0.37300E+03
        -0.37300E+03
        -0.37300E+03
        -0.37300E+03
        -0.37300E+03
        -0.37300E+03
        -0.37300E+03
        -0.37300E+03
        -0.37300E+03
        -0.37300E+03
        -0.37300E+03
        -0.37300E+03
        -0.37300E+03
        -0.37300E+03
        -0.37300E+03
        -0.37300E+03
        -0.37300E+03
        -0.37300E+03
        -0.37300E+03
        -0.37300E+03
        -0.37300E+03
        -0.37300E+03
        -0.37300E+03
        -0.37300E+03
        -0.37300E+03
        -0.37300E+03
        -0.37300E+03
        -0.37300E+03
        -0.37300E+03
        -0.37300E+03
        -0.37300E+03
        -0.37300E+03
        -0.37300E+03
        -0.37300E+03
        -0.37300E+03
        -0.37300E+03
        -0.37300E+03
        -0.37300E+03
        -0.37300E+03
        -0.37300E+03
        -0.37300E+03
        -0.37300E+03
        -0.37300E+03
        -0.37300E+03
        -0.37300E+03
        -0.37300E+03
        -0.37300E+03
        -0.37300E+03
        -0.37300E+03
        -0.37300E+03
        -0.37300E+03
        -0.37300E+03
        -0.37300E+03
        -0.37300E+03
        -0.37300E+03
        -0.37300E+03
        -0.37300E+03
        -0.37300E+03
        -0.37300E+03
        -0.37300E+03
        -0.37300E+03
        -0.37300E+03
        -0.37300E+03
        -0.37300E+03
        -0.37300E+03
        -0.37300E+03
        -0.37300E+03
        -0.37300E+03
        -0.37300E+03
        -0.37300E+03
        -0.37300E+03
        -0.37300E+03
        -0.37300E+03
        -0.37300E+03
        -0.37300E+03
        -0.37300E+03
        -0.37300E+03
        -0.37300E+03
        -0.37300E+03
        -0.37300E+03
        -0.37300E+03
        -0.37300E+03
        -0.37300E+03
        -0.37300E+03
        -0.37300E+03
        -0.37300E+03
        -0.37300E+03
        -0.37300E+03
        -0.37300E+03
        -0.37300E+03
        -0.37300E+03
        -0.37300E+03
        -0.37300E+03
        -0.37300E+03
        -0.37300E+03
        -0.37300E+03
        -0.37300E+03
        -0.37300E+03
        -0.37300E+03
        -0.37300E+03
        -0.37300E+03
        -0.37300E+03
        -0.37300E+03
        -0.37300E+03
        -0.37300E+03
        -0.37300E+03
        -0.37300E+03
        -0.37300E+03
        -0.37300E+03
        -0.37300E+03
        -0.37300E+03
        -0.37300E+03
        -0.37300E+03
        -0.37300E+03
        -0.37300E+03
        -0.37300E+03
        -0.37300E+03
        -0.37300E+03
        -0.37300E+03
        -0.37300E+03
        -0.37300E+03
        -0.37300E+03
        -0.37300E+03
        -0.37300E+03
        -0.37300E+03
        -0.37300E+03
        -0.37300E+03
        -0.37300E+03
        -0.37300E+03
        -0.37300E+03
        -0.37300E+03
        -0.37300E+03
        -0.37300E+03
        -0.37300E+03
        -0.37300E+03
        -0.37300E+03
        -0.37300E+03
        -0.37300E+03
        -0.37300E+03
        -0.37300E+03
        -0.37300E+03
        -0.37300E+03
        -0.37300E+03
        -0.37300E+03
        -0.37300E+03
        -0.37300E+03
        -0.37300E+03
        -0.37300E+03
        -0.37300E+03
        -0.37300E+03
        -0.37300E+03
        -0.37300E+03
        -0.37300E+03
        -0.37300E+03
        -0.37300E+03
        -0.37300E+03
        -0.37300E+03
        -0.37300E+03
        -0.37300E+03
        -0.37300E+03
        -0.37300E+03
        -0.37300E+03
        -0.37300E+03
        -0.37300E+03
        -0.37300E+03
        -0.37300E+03
        -0.37300E+03
        -0.37300E+03
        -0.37300E+03
        -0.37300E+03
        -0.37300E+03
        -0.37300E+03
        -0.37300E+03
        -0.37300E+03
        -0.37300E+03
        -0.37300E+03
        -0.37300E+03
        -0.37300E+03
        -0.37300E+03
        -0.37300E+03
        -0.37300E+03
        -0.37300E+03
        -0.37300E+03
        -0.37300E+03
        -0.37300E+03
        -0.37300E+03
        -0.37300E+03
        -0.37300E+03
        -0.37300E+03
        -0.37300E+03
        -0.37300E+03
        -0.37300E+03
        -0.37300E+03
        -0.37300E+03
        -0.37300E+03
        -0.37300E+03
        -0.37300E+03
        -0.37300E+03
        -0.37300E+03
        -0.37300E+03
        -0.37300E+03
        -0.37300E+03
        -0.37300E+03
        -0.37300E+03
        -0.37300E+03
        -0.37300E+03
        -0.37300E+03
        -0.37300E+03
        -0.37300E+03
        -0.37300E+03
        -0.37300E+03
        -0.37300E+03
        -0.37300E+03
        -0.37300E+03
        -0.37300E+03
        -0.37300E+03
        -0.37300E+03
        -0.37300E+03
        -0.37300E+03
        -0.37300E+03
        -0.37300E+03
        -0.37300E+03
        -0.37300E+03
        -0.37300E+03
        -0.37300E+03
        -0.37300E+03
        -0.37300E+03
        -0.37300E+03
        -0.37300E+03
        -0.37300E+03
        -0.37300E+03
        -0.37300E+03
        -0.37300E+03
        -0.37300E+03
        -0.37300E+03
        -0.37300E+03
        -0.37300E+03
        -0.37300E+03
        -0.37300E+03
        -0.37300E+03
        -0.37300E+03
        -0.37300E+03
        -0.37300E+03
        -0.37300E+03
        -0.37300E+03
        -0.37300E+03
        -0.37300E+03
        -0.37300E+03
        -0.37300E+03
        -0.37300E+03
        -0.37300E+03
        -0.37300E+03
        -0.37300E+03
        -0.37300E+03
        -0.37300E+03
        -0.37300E+03
        -0.37300E+03
        -0.37300E+03
        -0.37300E+03
        -0.37300E+03
        -0.37300E+03
        -0.37300E+03
        -0.37300E+03
        -0.37300E+03
        -0.37300E+03
        -0.37300E+03
        -0.37300E+03
        -0.37300E+03
        -0.37300E+03
        -0.37300E+03
        -0.37300E+03
        -0.37300E+03
        -0.37300E+03
        -0.37300E+03
        -0.37300E+03
        -0.37300E+03
        -0.37300E+03
        -0.37300E+03
        -0.37300E+03
        -0.37300E+03
        -0.37300E+03
        -0.37300E+03
        -0.37300E+03
        -0.37300E+03
        -0.37300E+03
        -0.37300E+03
        -0.37300E+03
        -0.37300E+03
        -0.37300E+03
        -0.37300E+03
        -0.37300E+03
        -0.37300E+03
        -0.37300E+03
        -0.37300E+03
        -0.37300E+03
        -0.37300E+03
        -0.37300E+03
        -0.37300E+03
        -0.37300E+03
        -0.37300E+03
        -0.37300E+03
        -0.37300E+03
        -0.37300E+03
        -0.37300E+03
        -0.37300E+03
        -0.37300E+03
        -0.37300E+03
        -0.37300E+03
        -0.37300E+03
        -0.37300E+03
        -0.37300E+03
        -0.37300E+03
        -0.37300E+03
        -0.37300E+03
        -0.37300E+03
        -0.37300E+03
        -0.37300E+03
        -0.37300E+03
        -0.37300E+03
        -0.37300E+03
        -0.37300E+03
        -0.37300E+03
        -0.37300E+03
        -0.37300E+03
        -0.37300E+03
        -0.37300E+03
        -0.37300E+03
        -0.37300E+03
        -0.37300E+03
        -0.37300E+03
        -0.37300E+03
        -0.37300E+03
        -0.37300E+03
        -0.37300E+03
        -0.37300E+03
        -0.37300E+03
        -0.37300E+03
        -0.37300E+03
        -0.37300E+03
        -0.37300E+03
        -0.37300E+03
        -0.37300E+03
        -0.37300E+03
        -0.37300E+03
        -0.37300E+03
        -0.37300E+03
        -0.37300E+03
        -0.37300E+03
        -0.37300E+03
        -0.37300E+03
        -0.37300E+03
        -0.37300E+03
        -0.37300E+03
        -0.37300E+03
        -0.37300E+03
        -0.37300E+03
        -0.37300E+03
        -0.37300E+03
        -0.37300E+03
        -0.37300E+03
        -0.37300E+03
        -0.37300E+03
        -0.37300E+03
        -0.37300E+03
        -0.37300E+03
        -0.37300E+03
        -0.37300E+03
        -0.37300E+03
        -0.37300E+03
        -0.37300E+03
        -0.37300E+03
        -0.37300E+03
        -0.37300E+03
        -0.37300E+03
        -0.37300E+03
        -0.37300E+03
        -0.37300E+03
        -0.37300E+03
        -0.37300E+03
        -0.37300E+03
        -0.37300E+03
        -0.37300E+03
        -0.37300E+03
        -0.37300E+03
        -0.37300E+03
        -0.37300E+03
        -0.37300E+03
        -0.37300E+03
        -0.37300E+03
        -0.37300E+03
        -0.37300E+03
        -0.37300E+03
        -0.37300E+03
        -0.37300E+03
        -0.37300E+03
        -0.37300E+03
        -0.37300E+03
        -0.37300E+03
        -0.37300E+03
        -0.37300E+03
        -0.37300E+03
        -0.37300E+03
        -0.37300E+03
        -0.37300E+03
        -0.37300E+03
        -0.37300E+03
        -0.37300E+03
        -0.37300E+03
        -0.37300E+03
        -0.37300E+03
        -0.37300E+03
        -0.37300E+03
        -0.37300E+03
        -0.37300E+03
        -0.37300E+03
        -0.37300E+03
        -0.37300E+03
        -0.37300E+03
        -0.37300E+03
        -0.37300E+03
        -0.37300E+03
        -0.37300E+03
        -0.37300E+03
        -0.37300E+03
        -0.37300E+03
        -0.37300E+03
        -0.37300E+03
        -0.37300E+03
        -0.37300E+03
        -0.37300E+03
        -0.37300E+03
        -0.37300E+03
        -0.37300E+03
        -0.37300E+03
        -0.37300E+03
        -0.37300E+03
        -0.37300E+03
        -0.37300E+03
        -0.37300E+03
        -0.37300E+03
        -0.37300E+03
        -0.37300E+03
        -0.37300E+03
        -0.37300E+03
        -0.37300E+03
        -0.37300E+03
        -0.37300E+03
        -0.37300E+03
        -0.37300E+03
        -0.37300E+03
        -0.37300E+03
        -0.37300E+03
        -0.37300E+03
        -0.37300E+03
        -0.37300E+03
        -0.37300E+03
        -0.37300E+03
        -0.37300E+03
        -0.37300E+03
        -0.37300E+03
        -0.37300E+03
        -0.37300E+03
        -0.37300E+03
        -0.37300E+03
        -0.37300E+03
        -0.37300E+03
        -0.37300E+03
        -0.37300E+03
        -0.37300E+03
        -0.37300E+03
        -0.37300E+03
        -0.37300E+03
        -0.37300E+03
        -0.37300E+03
        -0.37300E+03
        -0.37300E+03
        -0.37300E+03
        -0.37300E+03
        -0.37300E+03
        -0.37300E+03
        -0.37300E+03
        -0.37300E+03
        -0.37300E+03
        -0.37300E+03
        -0.37300E+03
        -0.37300E+03
        -0.37300E+03
        -0.37300E+03
        -0.37300E+03
        -0.37300E+03
        -0.37300E+03
        -0.37300E+03
        -0.37300E+03
        -0.37300E+03
        -0.37300E+03
        -0.37300E+03
        -0.37300E+03
        -0.37300E+03
        -0.37300E+03
        -0.37300E+03
        -0.37300E+03
        -0.37300E+03
        -0.37300E+03
        -0.37300E+03
        -0.37300E+03
        -0.37300E+03
        -0.37300E+03
        -0.37300E+03
        -0.37300E+03
        -0.37300E+03
        -0.37300E+03
        -0.37300E+03
        -0.37300E+03
        -0.37300E+03
        -0.37300E+03
        -0.37300E+03
        -0.37300E+03
        -0.37300E+03
        -0.37300E+03
        -0.37300E+03
        -0.37300E+03
        -0.37300E+03
        -0.37300E+03
        -0.37300E+03
        -0.37300E+03
        -0.37300E+03
        -0.37300E+03
        -0.37300E+03
        -0.37300E+03
        -0.37300E+03
        -0.37300E+03
        -0.37300E+03
        -0.37300E+03
        -0.37300E+03
        -0.37300E+03
        -0.37300E+03
        -0.37300E+03
        -0.37300E+03
        -0.37300E+03
        -0.37300E+03
        -0.37300E+03
        -0.37300E+03
        -0.37300E+03
        -0.37300E+03
        -0.37300E+03
        -0.37300E+03
        -0.37300E+03
        -0.37300E+03
        -0.37300E+03
        -0.37300E+03
        -0.37300E+03
        -0.37300E+03
        -0.37300E+03
        -0.37300E+03
        -0.37300E+03
        -0.37300E+03
        -0.37300E+03
        -0.37300E+03
        -0.37300E+03
        -0.37300E+03
        -0.37300E+03
        -0.37300E+03
        -0.37300E+03
        -0.37300E+03
        -0.37300E+03
        -0.37300E+03
        -0.37300E+03
        -0.37300E+03
        -0.37300E+03
        -0.37300E+03
        -0.37300E+03
        -0.37300E+03
        -0.37300E+03
        -0.37300E+03
        -0.37300E+03
        -0.37300E+03
        -0.37300E+03
        -0.37300E+03
        -0.37300E+03
        -0.37300E+03
        -0.37300E+03
        -0.37300E+03
        -0.37300E+03
        -0.37300E+03
        -0.37300E+03
        -0.37300E+03
        -0.37300E+03
        -0.37300E+03
        -0.37300E+03
        -0.37300E+03
        -0.37300E+03
        -0.37300E+03
        -0.37300E+03
        -0.37300E+03
        -0.37300E+03
        -0.37300E+03
        -0.37300E+03
        -0.37300E+03
        -0.37300E+03
        -0.37300E+03
        -0.37300E+03
        -0.37300E+03
        -0.37300E+03
        -0.37300E+03
        -0.37300E+03
        -0.37300E+03
        -0.37300E+03
        -0.37300E+03
        -0.37300E+03
        -0.37300E+03
        -0.37300E+03
        -0.37300E+03
        -0.37300E+03
        -0.37300E+03
        -0.37300E+03
        -0.37300E+03
        -0.37300E+03
        -0.37300E+03
        -0.37300E+03
        -0.37300E+03
        -0.37300E+03
        -0.37300E+03
        -0.37300E+03
        -0.37300E+03
        -0.37300E+03
        -0.37300E+03
        -0.37300E+03
        -0.37300E+03
        -0.37300E+03
        -0.37300E+03
        -0.37300E+03
        -0.37300E+03
        -0.37300E+03
        -0.37300E+03
        -0.37300E+03
        -0.37300E+03
        -0.37300E+03
        -0.37300E+03
        -0.37300E+03
        -0.37300E+03
        -0.37300E+03
        -0.37300E+03
        -0.37300E+03
        -0.37300E+03
        -0.37300E+03
        -0.37300E+03
        -0.37300E+03
        -0.37300E+03
        -0.37300E+03
        -0.37300E+03
        -0.37300E+03
        -0.37300E+03
        -0.37300E+03
        -0.37300E+03
        -0.37300E+03
        -0.37300E+03
        -0.37300E+03
        -0.37300E+03
        -0.37300E+03
        -0.37300E+03
        -0.37300E+03
        -0.37300E+03
        -0.37300E+03
        -0.37300E+03
        -0.37300E+03
        -0.37300E+03
        -0.37300E+03
        -0.37300E+03
        -0.37300E+03
        -0.37300E+03
        -0.37300E+03
        -0.37300E+03
        -0.37300E+03
        -0.37300E+03
        -0.37300E+03
        -0.37300E+03
        -0.37300E+03
        -0.37300E+03
        -0.37300E+03
        -0.37300E+03
        -0.37300E+03
        -0.37300E+03
        -0.37300E+03
        -0.37300E+03
        -0.37300E+03
        -0.37300E+03
        -0.37300E+03
        -0.37300E+03
        -0.37300E+03
        -0.37300E+03
        -0.37300E+03
        -0.37300E+03
        -0.37300E+03
        -0.37300E+03
        -0.37300E+03
        -0.37300E+03
        -0.37300E+03
        -0.37300E+03
        -0.37300E+03
        -0.37300E+03
        -0.37300E+03
        -0.37300E+03
        -0.37300E+03
        -0.37300E+03
        -0.37300E+03
        -0.37300E+03
        -0.37300E+03
        -0.37300E+03
        -0.37300E+03
        -0.37300E+03
        -0.37300E+03
        -0.37300E+03
        -0.37300E+03
        -0.37300E+03
        -0.37300E+03
        -0.37300E+03
        -0.37300E+03
        -0.37300E+03
        -0.37300E+03
        -0.37300E+03
        -0.37300E+03
        -0.37300E+03
        -0.37300E+03
        -0.37300E+03
        -0.37300E+03
        -0.37300E+03
        -0.37300E+03
        -0.37300E+03
        -0.37300E+03
        -0.37300E+03
        -0.37300E+03
        -0.37300E+03
        -0.37300E+03
        -0.37300E+03
        -0.37300E+03
        -0.37300E+03
        -0.37300E+03
        -0.37300E+03
        -0.37300E+03
        -0.37300E+03
        -0.37300E+03
        -0.37300E+03
        -0.37300E+03
        -0.37300E+03
        -0.37300E+03
        -0.37300E+03
        -0.37300E+03
        -0.37300E+03
        -0.37300E+03
        -0.37300E+03
        -0.37300E+03
        -0.37300E+03
        -0.37300E+03
        -0.37300E+03
        -0.37300E+03
        -0.37300E+03
        -0.37300E+03
        -0.37300E+03
        -0.37300E+03
        -0.37300E+03
        -0.37300E+03
        -0.37300E+03
        -0.37300E+03
        -0.37300E+03
        -0.37300E+03
        -0.37300E+03
        -0.37300E+03
        -0.37300E+03
        -0.37300E+03
        -0.37300E+03
        -0.37300E+03
        -0.37300E+03
        -0.37300E+03
        -0.37300E+03
        -0.37300E+03
        -0.37300E+03
        -0.37300E+03
        -0.37300E+03
        -0.37300E+03
        -0.37300E+03
        -0.37300E+03
        -0.37300E+03
        -0.37300E+03
        -0.37300E+03
        -0.37300E+03
        -0.37300E+03
        -0.37300E+03
        -0.37300E+03
        -0.37300E+03
        -0.37300E+03
        -0.37300E+03
        -0.37300E+03
        -0.37300E+03
        -0.37300E+03
        -0.37300E+03
        -0.37300E+03
        -0.37300E+03
        -0.37300E+03
        -0.37300E+03
        -0.37300E+03
        -0.37300E+03
        -0.37300E+03
        -0.37300E+03
        -0.37300E+03
        -0.37300E+03
        -0.37300E+03
        -0.37300E+03
        -0.37300E+03
        -0.37300E+03
        -0.37300E+03
  
SCALARS              normalized_window  double 1
LOOKUP_TABLE default
         0.27500E+01
         0.27500E+01
         0.27500E+01
         0.27500E+01
         0.27500E+01
         0.27500E+01
         0.27500E+01
         0.27500E+01
         0.27500E+01
         0.27500E+01
         0.27500E+01
         0.27500E+01
         0.27500E+01
         0.27500E+01
         0.27500E+01
         0.27500E+01
         0.27500E+01
         0.27500E+01
         0.27500E+01
         0.27500E+01
         0.27500E+01
         0.27500E+01
         0.27500E+01
         0.27500E+01
         0.27500E+01
         0.27500E+01
         0.27500E+01
         0.27500E+01
         0.27500E+01
         0.27500E+01
         0.27500E+01
         0.27500E+01
         0.27500E+01
         0.27500E+01
         0.27500E+01
         0.27500E+01
         0.27500E+01
         0.27500E+01
         0.27500E+01
         0.27500E+01
         0.27500E+01
         0.27500E+01
         0.27500E+01
         0.27500E+01
         0.27500E+01
         0.27500E+01
         0.27500E+01
         0.27500E+01
         0.27500E+01
         0.27500E+01
         0.27500E+01
         0.27500E+01
         0.27500E+01
         0.27500E+01
         0.27500E+01
         0.27500E+01
         0.27500E+01
         0.27500E+01
         0.27500E+01
         0.27500E+01
         0.27500E+01
         0.27500E+01
         0.27500E+01
         0.27500E+01
         0.27500E+01
         0.27500E+01
         0.27500E+01
         0.27500E+01
         0.27500E+01
         0.27500E+01
         0.27500E+01
         0.27500E+01
         0.27500E+01
         0.27500E+01
         0.27500E+01
         0.27500E+01
         0.27500E+01
         0.27500E+01
         0.27500E+01
         0.27500E+01
         0.27500E+01
         0.27500E+01
         0.27500E+01
         0.27500E+01
         0.27500E+01
         0.27500E+01
         0.27500E+01
         0.27500E+01
         0.27500E+01
         0.27500E+01
         0.27500E+01
         0.27500E+01
         0.27500E+01
         0.27500E+01
         0.27500E+01
         0.27500E+01
         0.27500E+01
         0.27500E+01
         0.27500E+01
         0.27500E+01
         0.27500E+01
         0.27500E+01
         0.27500E+01
         0.27500E+01
         0.27500E+01
         0.27500E+01
         0.27500E+01
         0.27500E+01
         0.27500E+01
         0.27500E+01
         0.27500E+01
         0.27500E+01
         0.27500E+01
         0.27500E+01
         0.27500E+01
         0.27500E+01
         0.27500E+01
         0.27500E+01
         0.27500E+01
         0.27500E+01
         0.27500E+01
         0.27500E+01
         0.27500E+01
         0.27500E+01
         0.27500E+01
         0.27500E+01
         0.27500E+01
         0.27500E+01
         0.27500E+01
         0.27500E+01
         0.27500E+01
         0.27500E+01
         0.27500E+01
         0.27500E+01
         0.27500E+01
         0.27500E+01
         0.27500E+01
         0.27500E+01
         0.27500E+01
         0.27500E+01
         0.27500E+01
         0.27500E+01
         0.27500E+01
         0.27500E+01
         0.27500E+01
         0.27500E+01
         0.27500E+01
         0.27500E+01
         0.27500E+01
         0.27500E+01
         0.27500E+01
         0.27500E+01
         0.27500E+01
         0.27500E+01
         0.27500E+01
         0.27500E+01
         0.27500E+01
         0.27500E+01
         0.27500E+01
         0.27500E+01
         0.27500E+01
         0.27500E+01
         0.27500E+01
         0.27500E+01
         0.27500E+01
         0.27500E+01
         0.27500E+01
         0.27500E+01
         0.27500E+01
         0.27500E+01
         0.27500E+01
         0.27500E+01
         0.27500E+01
         0.27500E+01
         0.27500E+01
         0.27500E+01
         0.27500E+01
         0.27500E+01
         0.27500E+01
         0.27500E+01
         0.27500E+01
         0.27500E+01
         0.27500E+01
         0.27500E+01
         0.27500E+01
         0.27500E+01
         0.27500E+01
         0.27500E+01
         0.27500E+01
         0.27500E+01
         0.27500E+01
         0.27500E+01
         0.27500E+01
         0.27500E+01
         0.27500E+01
         0.27500E+01
         0.27500E+01
         0.27500E+01
         0.27500E+01
         0.27500E+01
         0.27500E+01
         0.27500E+01
         0.27500E+01
         0.27500E+01
         0.27500E+01
         0.27500E+01
         0.27500E+01
         0.27500E+01
         0.27500E+01
         0.27500E+01
         0.27500E+01
         0.27500E+01
         0.27500E+01
         0.27500E+01
         0.27500E+01
         0.27500E+01
         0.27500E+01
         0.27500E+01
         0.27500E+01
         0.27500E+01
         0.27500E+01
         0.27500E+01
         0.27500E+01
         0.27500E+01
         0.27500E+01
         0.27500E+01
         0.27500E+01
         0.27500E+01
         0.27500E+01
         0.27500E+01
         0.27500E+01
         0.27500E+01
         0.27500E+01
         0.27500E+01
         0.27500E+01
         0.27500E+01
         0.27500E+01
         0.27500E+01
         0.27500E+01
         0.27500E+01
         0.27500E+01
         0.27500E+01
         0.27500E+01
         0.27500E+01
         0.27500E+01
         0.27500E+01
         0.27500E+01
         0.27500E+01
         0.27500E+01
         0.27500E+01
         0.27500E+01
         0.27500E+01
         0.27500E+01
         0.27500E+01
         0.27500E+01
         0.27500E+01
         0.27500E+01
         0.27500E+01
         0.27500E+01
         0.27500E+01
         0.27500E+01
         0.27500E+01
         0.27500E+01
         0.27500E+01
         0.27500E+01
         0.27500E+01
         0.27500E+01
         0.27500E+01
         0.27500E+01
         0.27500E+01
         0.27500E+01
         0.27500E+01
         0.27500E+01
         0.27500E+01
         0.27500E+01
         0.27500E+01
         0.27500E+01
         0.27500E+01
         0.27500E+01
         0.27500E+01
         0.27500E+01
         0.27500E+01
         0.27500E+01
         0.27500E+01
         0.27500E+01
         0.27500E+01
         0.27500E+01
         0.27500E+01
         0.27500E+01
         0.27500E+01
         0.27500E+01
         0.27500E+01
         0.27500E+01
         0.27500E+01
         0.27500E+01
         0.27500E+01
         0.27500E+01
         0.27500E+01
         0.27500E+01
         0.27500E+01
         0.27500E+01
         0.27500E+01
         0.27500E+01
         0.27500E+01
         0.27500E+01
         0.27500E+01
         0.27500E+01
         0.27500E+01
         0.27500E+01
         0.27500E+01
         0.27500E+01
         0.27500E+01
         0.27500E+01
         0.27500E+01
         0.27500E+01
         0.27500E+01
         0.27500E+01
         0.27500E+01
         0.27500E+01
         0.27500E+01
         0.27500E+01
         0.27500E+01
         0.27500E+01
         0.27500E+01
         0.27500E+01
         0.27500E+01
         0.27500E+01
         0.27500E+01
         0.27500E+01
         0.27500E+01
         0.27500E+01
         0.27500E+01
         0.27500E+01
         0.27500E+01
         0.27500E+01
         0.27500E+01
         0.27500E+01
         0.27500E+01
         0.27500E+01
         0.27500E+01
         0.27500E+01
         0.27500E+01
         0.27500E+01
         0.27500E+01
         0.27500E+01
         0.27500E+01
         0.27500E+01
         0.27500E+01
         0.27500E+01
         0.27500E+01
         0.27500E+01
         0.27500E+01
         0.27500E+01
         0.27500E+01
         0.27500E+01
         0.27500E+01
         0.27500E+01
         0.27500E+01
         0.27500E+01
         0.27500E+01
         0.27500E+01
         0.27500E+01
         0.27500E+01
         0.27500E+01
         0.27500E+01
         0.27500E+01
         0.27500E+01
         0.27500E+01
         0.27500E+01
         0.27500E+01
         0.27500E+01
         0.27500E+01
         0.27500E+01
         0.27500E+01
         0.27500E+01
         0.27500E+01
         0.27500E+01
         0.27500E+01
         0.27500E+01
         0.27500E+01
         0.27500E+01
         0.27500E+01
         0.27500E+01
         0.27500E+01
         0.27500E+01
         0.27500E+01
         0.27500E+01
         0.27500E+01
         0.27500E+01
         0.27500E+01
         0.27500E+01
         0.27500E+01
         0.27500E+01
         0.27500E+01
         0.27500E+01
         0.27500E+01
         0.27500E+01
         0.27500E+01
         0.27500E+01
         0.27500E+01
         0.27500E+01
         0.27500E+01
         0.27500E+01
         0.27500E+01
         0.27500E+01
         0.27500E+01
         0.27500E+01
         0.27500E+01
         0.27500E+01
         0.27500E+01
         0.27500E+01
         0.27500E+01
         0.27500E+01
         0.27500E+01
         0.27500E+01
         0.27500E+01
         0.27500E+01
         0.27500E+01
         0.27500E+01
         0.27500E+01
         0.27500E+01
         0.27500E+01
         0.27500E+01
         0.27500E+01
         0.27500E+01
         0.27500E+01
         0.27500E+01
         0.27500E+01
         0.27500E+01
         0.27500E+01
         0.27500E+01
         0.27500E+01
         0.27500E+01
         0.27500E+01
         0.27500E+01
         0.27500E+01
         0.27500E+01
         0.27500E+01
         0.27500E+01
         0.27500E+01
         0.27500E+01
         0.27500E+01
         0.27500E+01
         0.27500E+01
         0.27500E+01
         0.27500E+01
         0.27500E+01
         0.27500E+01
         0.27500E+01
         0.27500E+01
         0.27500E+01
         0.27500E+01
         0.27500E+01
         0.27500E+01
         0.27500E+01
         0.27500E+01
         0.27500E+01
         0.27500E+01
         0.27500E+01
         0.27500E+01
         0.27500E+01
         0.27500E+01
         0.27500E+01
         0.27500E+01
         0.27500E+01
         0.27500E+01
         0.27500E+01
         0.27500E+01
         0.27500E+01
         0.27500E+01
         0.27500E+01
         0.27500E+01
         0.27500E+01
         0.27500E+01
         0.27500E+01
         0.27500E+01
         0.27500E+01
         0.27500E+01
         0.27500E+01
         0.27500E+01
         0.27500E+01
         0.27500E+01
         0.27500E+01
         0.27500E+01
         0.27500E+01
         0.27500E+01
         0.27500E+01
         0.27500E+01
         0.27500E+01
         0.27500E+01
         0.27500E+01
         0.27500E+01
         0.27500E+01
         0.27500E+01
         0.27500E+01
         0.27500E+01
         0.27500E+01
         0.27500E+01
         0.27500E+01
         0.27500E+01
         0.27500E+01
         0.27500E+01
         0.27500E+01
         0.27500E+01
         0.27500E+01
         0.27500E+01
         0.27500E+01
         0.27500E+01
         0.27500E+01
         0.27500E+01
         0.27500E+01
         0.27500E+01
         0.27500E+01
         0.27500E+01
         0.27500E+01
         0.27500E+01
         0.27500E+01
         0.27500E+01
         0.27500E+01
         0.27500E+01
         0.27500E+01
         0.27500E+01
         0.27500E+01
         0.27500E+01
         0.27500E+01
         0.27500E+01
         0.27500E+01
         0.27500E+01
         0.27500E+01
         0.27500E+01
         0.27500E+01
         0.27500E+01
         0.27500E+01
         0.27500E+01
         0.27500E+01
         0.27500E+01
         0.27500E+01
         0.27500E+01
         0.27500E+01
         0.27500E+01
         0.27500E+01
         0.27500E+01
         0.27500E+01
         0.27500E+01
         0.27500E+01
         0.27500E+01
         0.27500E+01
         0.27500E+01
         0.27500E+01
         0.27500E+01
         0.27500E+01
         0.27500E+01
         0.27500E+01
         0.27500E+01
         0.27500E+01
         0.27500E+01
         0.27500E+01
         0.27500E+01
         0.27500E+01
         0.27500E+01
         0.27500E+01
         0.27500E+01
         0.27500E+01
         0.27500E+01
         0.27500E+01
         0.27500E+01
         0.27500E+01
         0.27500E+01
         0.27500E+01
         0.27500E+01
         0.27500E+01
         0.27500E+01
         0.27500E+01
         0.27500E+01
         0.27500E+01
         0.27500E+01
         0.27500E+01
         0.27500E+01
         0.27500E+01
         0.27500E+01
         0.27500E+01
         0.27500E+01
         0.27500E+01
         0.27500E+01
         0.27500E+01
         0.27500E+01
         0.27500E+01
         0.27500E+01
         0.27500E+01
         0.27500E+01
         0.27500E+01
         0.27500E+01
         0.27500E+01
         0.27500E+01
         0.27500E+01
         0.27500E+01
         0.27500E+01
         0.27500E+01
         0.27500E+01
         0.27500E+01
         0.27500E+01
         0.27500E+01
         0.27500E+01
         0.27500E+01
         0.27500E+01
         0.27500E+01
         0.27500E+01
         0.27500E+01
         0.27500E+01
         0.27500E+01
         0.27500E+01
         0.27500E+01
         0.27500E+01
         0.27500E+01
         0.27500E+01
         0.27500E+01
         0.27500E+01
         0.27500E+01
         0.27500E+01
         0.27500E+01
         0.27500E+01
         0.27500E+01
         0.27500E+01
         0.27500E+01
         0.27500E+01
         0.27500E+01
         0.27500E+01
         0.27500E+01
         0.27500E+01
         0.27500E+01
         0.27500E+01
         0.27500E+01
         0.27500E+01
         0.27500E+01
         0.27500E+01
         0.27500E+01
         0.27500E+01
         0.27500E+01
         0.27500E+01
         0.27500E+01
         0.27500E+01
         0.27500E+01
         0.27500E+01
         0.27500E+01
         0.27500E+01
         0.27500E+01
         0.27500E+01
         0.27500E+01
         0.27500E+01
         0.27500E+01
         0.27500E+01
         0.27500E+01
         0.27500E+01
         0.27500E+01
         0.27500E+01
         0.27500E+01
         0.27500E+01
         0.27500E+01
         0.27500E+01
         0.27500E+01
         0.27500E+01
         0.27500E+01
         0.27500E+01
         0.27500E+01
         0.27500E+01
         0.27500E+01
         0.27500E+01
         0.27500E+01
         0.27500E+01
         0.27500E+01
         0.27500E+01
         0.27500E+01
         0.27500E+01
         0.27500E+01
         0.27500E+01
         0.27500E+01
         0.27500E+01
         0.27500E+01
         0.27500E+01
         0.27500E+01
         0.27500E+01
         0.27500E+01
         0.27500E+01
         0.27500E+01
         0.27500E+01
         0.27500E+01
         0.27500E+01
         0.27500E+01
         0.27500E+01
         0.27500E+01
         0.27500E+01
         0.27500E+01
         0.27500E+01
         0.27500E+01
         0.27500E+01
         0.27500E+01
         0.27500E+01
         0.27500E+01
         0.27500E+01
         0.27500E+01
         0.27500E+01
         0.27500E+01
         0.27500E+01
         0.27500E+01
         0.27500E+01
         0.27500E+01
         0.27500E+01
         0.27500E+01
         0.27500E+01
         0.27500E+01
         0.27500E+01
         0.27500E+01
         0.27500E+01
         0.27500E+01
         0.27500E+01
         0.27500E+01
         0.27500E+01
         0.27500E+01
         0.27500E+01
         0.27500E+01
         0.27500E+01
         0.27500E+01
         0.27500E+01
         0.27500E+01
         0.27500E+01
         0.27500E+01
         0.27500E+01
         0.27500E+01
         0.27500E+01
         0.27500E+01
         0.27500E+01
         0.27500E+01
         0.27500E+01
         0.27500E+01
         0.27500E+01
         0.27500E+01
         0.27500E+01
         0.27500E+01
         0.27500E+01
         0.27500E+01
         0.27500E+01
         0.27500E+01
         0.27500E+01
         0.27500E+01
         0.27500E+01
         0.27500E+01
         0.27500E+01
         0.27500E+01
         0.27500E+01
         0.27500E+01
         0.27500E+01
         0.27500E+01
         0.27500E+01
         0.27500E+01
         0.27500E+01
         0.27500E+01
         0.27500E+01
         0.27500E+01
         0.27500E+01
         0.27500E+01
         0.27500E+01
         0.27500E+01
         0.27500E+01
         0.27500E+01
         0.27500E+01
         0.27500E+01
         0.27500E+01
         0.27500E+01
         0.27500E+01
         0.27500E+01
         0.27500E+01
         0.27500E+01
         0.27500E+01
         0.27500E+01
         0.27500E+01
         0.27500E+01
         0.27500E+01
         0.27500E+01
         0.27500E+01
         0.27500E+01
         0.27500E+01
         0.27500E+01
         0.27500E+01
         0.27500E+01
         0.27500E+01
         0.27500E+01
         0.27500E+01
         0.27500E+01
         0.27500E+01
         0.27500E+01
         0.27500E+01
         0.27500E+01
         0.27500E+01
         0.27500E+01
         0.27500E+01
         0.27500E+01
         0.27500E+01
         0.27500E+01
         0.27500E+01
         0.27500E+01
         0.27500E+01
         0.27500E+01
         0.27500E+01
         0.27500E+01
         0.27500E+01
         0.27500E+01
         0.27500E+01
         0.27500E+01
         0.27500E+01
         0.27500E+01
         0.27500E+01
         0.27500E+01
         0.27500E+01
         0.27500E+01
         0.27500E+01
         0.27500E+01
         0.27500E+01
         0.27500E+01
         0.27500E+01
         0.27500E+01
         0.27500E+01
         0.27500E+01
         0.27500E+01
         0.27500E+01
         0.27500E+01
         0.27500E+01
         0.27500E+01
         0.27500E+01
         0.27500E+01
         0.27500E+01
         0.27500E+01
         0.27500E+01
         0.27500E+01
         0.27500E+01
         0.27500E+01
         0.27500E+01
         0.27500E+01
         0.27500E+01
         0.27500E+01
         0.27500E+01
         0.27500E+01
         0.27500E+01
         0.27500E+01
         0.27500E+01
         0.27500E+01
         0.27500E+01
         0.27500E+01
         0.27500E+01
         0.27500E+01
         0.27500E+01
         0.27500E+01
         0.27500E+01
         0.27500E+01
         0.27500E+01
         0.27500E+01
         0.27500E+01
         0.27500E+01
         0.27500E+01
         0.27500E+01
         0.27500E+01
         0.27500E+01
         0.27500E+01
         0.27500E+01
         0.27500E+01
         0.27500E+01
         0.27500E+01
         0.27500E+01
         0.27500E+01
         0.27500E+01
         0.27500E+01
         0.27500E+01
         0.27500E+01
         0.27500E+01
         0.27500E+01
         0.27500E+01
         0.27500E+01
         0.27500E+01
         0.27500E+01
         0.27500E+01
         0.27500E+01
         0.27500E+01
         0.27500E+01
         0.27500E+01
         0.27500E+01
         0.27500E+01
         0.27500E+01
         0.27500E+01
         0.27500E+01
         0.27500E+01
         0.27500E+01
         0.27500E+01
         0.27500E+01
         0.27500E+01
         0.27500E+01
         0.27500E+01
         0.27500E+01
         0.27500E+01
         0.27500E+01
         0.27500E+01
         0.27500E+01
         0.27500E+01
         0.27500E+01
         0.27500E+01
         0.27500E+01
         0.27500E+01
         0.27500E+01
         0.27500E+01
         0.27500E+01
         0.27500E+01
         0.27500E+01
         0.27500E+01
         0.27500E+01
         0.27500E+01
         0.27500E+01
         0.27500E+01
         0.27500E+01
         0.27500E+01
         0.27500E+01
         0.27500E+01
         0.27500E+01
         0.27500E+01
         0.27500E+01
         0.27500E+01
         0.27500E+01
         0.27500E+01
         0.27500E+01
         0.27500E+01
         0.27500E+01
         0.27500E+01
         0.27500E+01
         0.27500E+01
         0.27500E+01
         0.27500E+01
         0.27500E+01
         0.27500E+01
         0.27500E+01
         0.27500E+01
         0.27500E+01
         0.27500E+01
         0.27500E+01
         0.27500E+01
         0.27500E+01
         0.27500E+01
         0.27500E+01
         0.27500E+01
         0.27500E+01
         0.27500E+01
         0.27500E+01
         0.27500E+01
         0.27500E+01
         0.27500E+01
         0.27500E+01
         0.27500E+01
         0.27500E+01
         0.27500E+01
         0.27500E+01
         0.27500E+01
         0.27500E+01
         0.27500E+01
         0.27500E+01
         0.27500E+01
         0.27500E+01
         0.27500E+01
         0.27500E+01
         0.27500E+01
         0.27500E+01
         0.27500E+01
         0.27500E+01
         0.27500E+01
         0.27500E+01
         0.27500E+01
         0.27500E+01
         0.27500E+01
         0.27500E+01
         0.27500E+01
         0.27500E+01
         0.27500E+01
         0.27500E+01
         0.27500E+01
         0.27500E+01
         0.27500E+01
         0.27500E+01
         0.27500E+01
         0.27500E+01
         0.27500E+01
         0.27500E+01
         0.27500E+01
         0.27500E+01
         0.27500E+01
         0.27500E+01
         0.27500E+01
         0.27500E+01
         0.27500E+01
         0.27500E+01
         0.27500E+01
         0.27500E+01
         0.27500E+01
         0.27500E+01
         0.27500E+01
         0.27500E+01
         0.27500E+01
         0.27500E+01
         0.27500E+01
         0.27500E+01
         0.27500E+01
         0.27500E+01
         0.27500E+01
         0.27500E+01
         0.27500E+01
         0.27500E+01
         0.27500E+01
         0.27500E+01
         0.27500E+01
         0.27500E+01
         0.27500E+01
         0.27500E+01
         0.27500E+01
         0.27500E+01
         0.27500E+01
         0.27500E+01
         0.27500E+01
         0.27500E+01
         0.27500E+01
         0.27500E+01
         0.27500E+01
         0.27500E+01
         0.27500E+01
         0.27500E+01
         0.27500E+01
         0.27500E+01
         0.27500E+01
         0.27500E+01
         0.27500E+01
         0.27500E+01
         0.27500E+01
         0.27500E+01
         0.27500E+01
         0.27500E+01
         0.27500E+01
         0.27500E+01
         0.27500E+01
         0.27500E+01
         0.27500E+01
         0.27500E+01
         0.27500E+01
         0.27500E+01
         0.27500E+01
         0.27500E+01
         0.27500E+01
         0.27500E+01
         0.27500E+01
         0.27500E+01
         0.27500E+01
         0.27500E+01
         0.27500E+01
         0.27500E+01
         0.27500E+01
         0.27500E+01
         0.27500E+01
         0.27500E+01
         0.27500E+01
         0.27500E+01
         0.27500E+01
         0.27500E+01
         0.27500E+01
         0.27500E+01
         0.27500E+01
         0.27500E+01
         0.27500E+01
         0.27500E+01
         0.27500E+01
         0.27500E+01
         0.27500E+01
         0.27500E+01
         0.27500E+01
         0.27500E+01
         0.27500E+01
         0.27500E+01
         0.27500E+01
         0.27500E+01
         0.27500E+01
         0.27500E+01
         0.27500E+01
         0.27500E+01
         0.27500E+01
         0.27500E+01
         0.27500E+01
         0.27500E+01
         0.27500E+01
         0.27500E+01
         0.27500E+01
         0.27500E+01
         0.27500E+01
         0.27500E+01
         0.27500E+01
         0.27500E+01
         0.27500E+01
         0.27500E+01
         0.27500E+01
         0.27500E+01
         0.27500E+01
         0.27500E+01
         0.27500E+01
         0.27500E+01
         0.27500E+01
         0.27500E+01
         0.27500E+01
         0.27500E+01
         0.27500E+01
         0.27500E+01
         0.27500E+01
         0.27500E+01
         0.27500E+01
         0.27500E+01
         0.27500E+01
         0.27500E+01
         0.27500E+01
         0.27500E+01
         0.27500E+01
         0.27500E+01
         0.27500E+01
         0.27500E+01
         0.27500E+01
         0.27500E+01
         0.27500E+01
         0.27500E+01
         0.27500E+01
         0.27500E+01
         0.27500E+01
         0.27500E+01
         0.27500E+01
         0.27500E+01
         0.27500E+01
         0.27500E+01
         0.27500E+01
         0.27500E+01
         0.27500E+01
         0.27500E+01
         0.27500E+01
         0.27500E+01
         0.27500E+01
         0.27500E+01
         0.27500E+01
         0.27500E+01
         0.27500E+01
         0.27500E+01
         0.27500E+01
         0.27500E+01
         0.27500E+01
         0.27500E+01
         0.27500E+01
         0.27500E+01
         0.27500E+01
         0.27500E+01
         0.27500E+01
         0.27500E+01
         0.27500E+01
         0.27500E+01
         0.27500E+01
         0.27500E+01
         0.27500E+01
         0.27500E+01
         0.27500E+01
         0.27500E+01
         0.27500E+01
         0.27500E+01
         0.27500E+01
         0.27500E+01
         0.27500E+01
         0.27500E+01
         0.27500E+01
         0.27500E+01
         0.27500E+01
         0.27500E+01
         0.27500E+01
         0.27500E+01
         0.27500E+01
         0.27500E+01
         0.27500E+01
         0.27500E+01
         0.27500E+01
         0.27500E+01
         0.27500E+01
         0.27500E+01
         0.27500E+01
         0.27500E+01
         0.27500E+01
         0.27500E+01
         0.27500E+01
         0.27500E+01
         0.27500E+01
         0.27500E+01
         0.27500E+01
         0.27500E+01
         0.27500E+01
         0.27500E+01
         0.27500E+01
         0.27500E+01
         0.27500E+01
         0.27500E+01
         0.27500E+01
         0.27500E+01
         0.27500E+01
         0.27500E+01
         0.27500E+01
         0.27500E+01
         0.27500E+01
         0.27500E+01
         0.27500E+01
         0.27500E+01
         0.27500E+01
         0.27500E+01
         0.27500E+01
         0.27500E+01
         0.27500E+01
         0.27500E+01
         0.27500E+01
         0.27500E+01
         0.27500E+01
         0.27500E+01
         0.27500E+01
         0.27500E+01
         0.27500E+01
         0.27500E+01
         0.27500E+01
         0.27500E+01
         0.27500E+01
         0.27500E+01
         0.27500E+01
         0.27500E+01
         0.27500E+01
         0.27500E+01
         0.27500E+01
         0.27500E+01
         0.27500E+01
         0.27500E+01
         0.27500E+01
         0.27500E+01
         0.27500E+01
         0.27500E+01
         0.27500E+01
         0.27500E+01
         0.27500E+01
         0.27500E+01
         0.27500E+01
         0.27500E+01
         0.27500E+01
         0.27500E+01
         0.27500E+01
         0.27500E+01
         0.27500E+01
         0.27500E+01
         0.27500E+01
         0.27500E+01
         0.27500E+01
         0.27500E+01
         0.27500E+01
         0.27500E+01
         0.27500E+01
         0.27500E+01
         0.27500E+01
         0.27500E+01
         0.27500E+01
         0.27500E+01
         0.27500E+01
         0.27500E+01
         0.27500E+01
         0.27500E+01
         0.27500E+01
         0.27500E+01
         0.27500E+01
         0.27500E+01
         0.27500E+01
         0.27500E+01
         0.27500E+01
         0.27500E+01
         0.27500E+01
         0.27500E+01
         0.27500E+01
         0.27500E+01
         0.27500E+01
         0.27500E+01
         0.27500E+01
         0.27500E+01
         0.27500E+01
         0.27500E+01
         0.27500E+01
         0.27500E+01
         0.27500E+01
         0.27500E+01
         0.27500E+01
         0.27500E+01
         0.27500E+01
         0.27500E+01
         0.27500E+01
         0.27500E+01
         0.27500E+01
         0.27500E+01
         0.27500E+01
         0.27500E+01
         0.27500E+01
         0.27500E+01
         0.27500E+01
         0.27500E+01
         0.27500E+01
         0.27500E+01
         0.27500E+01
         0.27500E+01
         0.27500E+01
         0.27500E+01
         0.27500E+01
         0.27500E+01
         0.27500E+01
         0.27500E+01
         0.27500E+01
         0.27500E+01
         0.27500E+01
         0.27500E+01
         0.27500E+01
         0.27500E+01
         0.27500E+01
         0.27500E+01
         0.27500E+01
         0.27500E+01
         0.27500E+01
         0.27500E+01
         0.27500E+01
         0.27500E+01
         0.27500E+01
         0.27500E+01
         0.27500E+01
         0.27500E+01
         0.27500E+01
         0.27500E+01
         0.27500E+01
         0.27500E+01
         0.27500E+01
         0.27500E+01
         0.27500E+01
         0.27500E+01
         0.27500E+01
         0.27500E+01
         0.27500E+01
         0.27500E+01
         0.27500E+01
         0.27500E+01
         0.27500E+01
         0.27500E+01
         0.27500E+01
         0.27500E+01
         0.27500E+01
         0.27500E+01
         0.27500E+01
         0.27500E+01
         0.27500E+01
         0.27500E+01
         0.27500E+01
         0.27500E+01
         0.27500E+01
         0.27500E+01
         0.27500E+01
         0.27500E+01
         0.27500E+01
         0.27500E+01
         0.27500E+01
         0.27500E+01
         0.27500E+01
         0.27500E+01
         0.27500E+01
         0.27500E+01
         0.27500E+01
         0.27500E+01
         0.27500E+01
         0.27500E+01
         0.27500E+01
         0.27500E+01
         0.27500E+01
         0.27500E+01
         0.27500E+01
         0.27500E+01
         0.27500E+01
         0.27500E+01
         0.27500E+01
         0.27500E+01
         0.27500E+01
         0.27500E+01
         0.27500E+01
         0.27500E+01
         0.27500E+01
         0.27500E+01
         0.27500E+01
         0.27500E+01
         0.27500E+01
         0.27500E+01
         0.27500E+01
         0.27500E+01
         0.27500E+01
         0.27500E+01
         0.27500E+01
         0.27500E+01
         0.27500E+01
         0.27500E+01
         0.27500E+01
         0.27500E+01
         0.27500E+01
         0.27500E+01
         0.27500E+01
         0.27500E+01
         0.27500E+01
         0.27500E+01
         0.27500E+01
         0.27500E+01
         0.27500E+01
         0.27500E+01
         0.27500E+01
         0.27500E+01
         0.27500E+01
         0.27500E+01
         0.27500E+01
         0.27500E+01
         0.27500E+01
         0.27500E+01
         0.27500E+01
         0.27500E+01
         0.27500E+01
         0.27500E+01
         0.27500E+01
         0.27500E+01
         0.27500E+01
         0.27500E+01
         0.27500E+01
         0.27500E+01
         0.27500E+01
         0.27500E+01
         0.27500E+01
         0.27500E+01
         0.27500E+01
         0.27500E+01
         0.27500E+01
         0.27500E+01
         0.27500E+01
         0.27500E+01
         0.27500E+01
         0.27500E+01
         0.27500E+01
         0.27500E+01
         0.27500E+01
         0.27500E+01
         0.27500E+01
         0.27500E+01
         0.27500E+01
         0.27500E+01
         0.27500E+01
         0.27500E+01
         0.27500E+01
         0.27500E+01
         0.27500E+01
         0.27500E+01
         0.27500E+01
         0.27500E+01
         0.27500E+01
         0.27500E+01
         0.27500E+01
         0.27500E+01
         0.27500E+01
         0.27500E+01
         0.27500E+01
         0.27500E+01
         0.27500E+01
         0.27500E+01
         0.27500E+01
         0.27500E+01
         0.27500E+01
         0.27500E+01
         0.27500E+01
         0.27500E+01
         0.27500E+01
         0.27500E+01
         0.27500E+01
         0.27500E+01
         0.27500E+01
         0.27500E+01
         0.27500E+01
         0.27500E+01
         0.27500E+01
         0.27500E+01
         0.27500E+01
         0.27500E+01
         0.27500E+01
         0.27500E+01
         0.27500E+01
         0.27500E+01
         0.27500E+01
         0.27500E+01
         0.27500E+01
         0.27500E+01
         0.27500E+01
         0.27500E+01
         0.27500E+01
         0.27500E+01
         0.27500E+01
         0.27500E+01
         0.27500E+01
         0.27500E+01
         0.27500E+01
         0.27500E+01
         0.27500E+01
         0.27500E+01
         0.27500E+01
         0.27500E+01
         0.27500E+01
         0.27500E+01
         0.27500E+01
         0.27500E+01
         0.27500E+01
         0.27500E+01
         0.27500E+01
         0.27500E+01
         0.27500E+01
         0.27500E+01
         0.27500E+01
         0.27500E+01
         0.27500E+01
         0.27500E+01
         0.27500E+01
         0.27500E+01
         0.27500E+01
         0.27500E+01
         0.27500E+01
         0.27500E+01
         0.27500E+01
         0.27500E+01
         0.27500E+01
         0.27500E+01
         0.27500E+01
         0.27500E+01
         0.27500E+01
         0.27500E+01
         0.27500E+01
         0.27500E+01
         0.27500E+01
         0.27500E+01
         0.27500E+01
         0.27500E+01
         0.27500E+01
         0.27500E+01
         0.27500E+01
         0.27500E+01
         0.27500E+01
         0.27500E+01
         0.27500E+01
         0.27500E+01
         0.27500E+01
         0.27500E+01
         0.27500E+01
         0.27500E+01
         0.27500E+01
         0.27500E+01
         0.27500E+01
         0.27500E+01
         0.27500E+01
         0.27500E+01
         0.27500E+01
         0.27500E+01
         0.27500E+01
         0.27500E+01
         0.27500E+01
         0.27500E+01
         0.27500E+01
         0.27500E+01
         0.27500E+01
         0.27500E+01
         0.27500E+01
         0.27500E+01
         0.27500E+01
         0.27500E+01
         0.27500E+01
         0.27500E+01
         0.27500E+01
         0.27500E+01
         0.27500E+01
         0.27500E+01
         0.27500E+01
         0.27500E+01
         0.27500E+01
         0.27500E+01
         0.27500E+01
         0.27500E+01
         0.27500E+01
         0.27500E+01
         0.27500E+01
         0.27500E+01
         0.27500E+01
         0.27500E+01
         0.27500E+01
         0.27500E+01
         0.27500E+01
         0.27500E+01
         0.27500E+01
         0.27500E+01
         0.27500E+01
         0.27500E+01
         0.27500E+01
         0.27500E+01
         0.27500E+01
         0.27500E+01
         0.27500E+01
         0.27500E+01
         0.27500E+01
         0.27500E+01
         0.27500E+01
         0.27500E+01
         0.27500E+01
         0.27500E+01
         0.27500E+01
         0.27500E+01
         0.27500E+01
         0.27500E+01
         0.27500E+01
         0.27500E+01
         0.27500E+01
         0.27500E+01
         0.27500E+01
         0.27500E+01
         0.27500E+01
         0.27500E+01
         0.27500E+01
         0.27500E+01
         0.27500E+01
         0.27500E+01
         0.27500E+01
         0.27500E+01
         0.27500E+01
         0.27500E+01
         0.27500E+01
         0.27500E+01
         0.27500E+01
         0.27500E+01
         0.27500E+01
         0.27500E+01
         0.27500E+01
         0.27500E+01
         0.27500E+01
         0.27500E+01
         0.27500E+01
         0.27500E+01
         0.27500E+01
         0.27500E+01
         0.27500E+01
         0.27500E+01
         0.27500E+01
         0.27500E+01
         0.27500E+01
         0.27500E+01
         0.27500E+01
         0.27500E+01
         0.27500E+01
         0.27500E+01
         0.27500E+01
         0.27500E+01
         0.27500E+01
         0.27500E+01
         0.27500E+01
         0.27500E+01
         0.27500E+01
         0.27500E+01
         0.27500E+01
         0.27500E+01
         0.27500E+01
         0.27500E+01
         0.27500E+01
         0.27500E+01
         0.27500E+01
         0.27500E+01
         0.27500E+01
         0.27500E+01
         0.27500E+01
         0.27500E+01
         0.27500E+01
         0.27500E+01
         0.27500E+01
         0.27500E+01
         0.27500E+01
         0.27500E+01
         0.27500E+01
         0.27500E+01
         0.27500E+01
         0.27500E+01
         0.27500E+01
         0.27500E+01
         0.27500E+01
         0.27500E+01
         0.27500E+01
         0.27500E+01
         0.27500E+01
         0.27500E+01
         0.27500E+01
         0.27500E+01
         0.27500E+01
         0.27500E+01
         0.27500E+01
         0.27500E+01
         0.27500E+01
         0.27500E+01
         0.27500E+01
         0.27500E+01
         0.27500E+01
         0.27500E+01
         0.27500E+01
         0.27500E+01
         0.27500E+01
         0.27500E+01
         0.27500E+01
         0.27500E+01
         0.27500E+01
         0.27500E+01
         0.27500E+01
         0.27500E+01
         0.27500E+01
         0.27500E+01
         0.27500E+01
         0.27500E+01
         0.27500E+01
         0.27500E+01
         0.27500E+01
         0.27500E+01
         0.27500E+01
         0.27500E+01
         0.27500E+01
         0.27500E+01
         0.27500E+01
         0.27500E+01
         0.27500E+01
         0.27500E+01
         0.27500E+01
         0.27500E+01
         0.27500E+01
         0.27500E+01
         0.27500E+01
         0.27500E+01
         0.27500E+01
         0.27500E+01
         0.27500E+01
         0.27500E+01
         0.27500E+01
         0.27500E+01
         0.27500E+01
         0.27500E+01
         0.27500E+01
         0.27500E+01
         0.27500E+01
         0.27500E+01
         0.27500E+01
         0.27500E+01
         0.27500E+01
         0.27500E+01
         0.27500E+01
         0.27500E+01
         0.27500E+01
         0.27500E+01
         0.27500E+01
         0.27500E+01
         0.27500E+01
         0.27500E+01
         0.27500E+01
         0.27500E+01
         0.27500E+01
         0.27500E+01
         0.27500E+01
         0.27500E+01
         0.27500E+01
         0.27500E+01
         0.27500E+01
         0.27500E+01
         0.27500E+01
         0.27500E+01
         0.27500E+01
         0.27500E+01
         0.27500E+01
         0.27500E+01
         0.27500E+01
         0.27500E+01
         0.27500E+01
         0.27500E+01
         0.27500E+01
         0.27500E+01
         0.27500E+01
         0.27500E+01
         0.27500E+01
         0.27500E+01
         0.27500E+01
         0.27500E+01
         0.27500E+01
         0.27500E+01
         0.27500E+01
         0.27500E+01
         0.27500E+01
         0.27500E+01
         0.27500E+01
         0.27500E+01
         0.27500E+01
         0.27500E+01
         0.27500E+01
         0.27500E+01
         0.27500E+01
         0.27500E+01
         0.27500E+01
         0.27500E+01
         0.27500E+01
         0.27500E+01
         0.27500E+01
         0.27500E+01
         0.27500E+01
         0.27500E+01
         0.27500E+01
         0.27500E+01
         0.27500E+01
         0.27500E+01
         0.27500E+01
         0.27500E+01
         0.27500E+01
         0.27500E+01
         0.27500E+01
         0.27500E+01
         0.27500E+01
         0.27500E+01
         0.27500E+01
         0.27500E+01
         0.27500E+01
         0.27500E+01
         0.27500E+01
         0.27500E+01
         0.27500E+01
         0.27500E+01
         0.27500E+01
         0.27500E+01
         0.27500E+01
         0.27500E+01
         0.27500E+01
         0.27500E+01
         0.27500E+01
         0.27500E+01
         0.27500E+01
         0.27500E+01
         0.27500E+01
         0.27500E+01
         0.27500E+01
         0.27500E+01
         0.27500E+01
         0.27500E+01
         0.27500E+01
         0.27500E+01
         0.27500E+01
         0.27500E+01
         0.27500E+01
         0.27500E+01
         0.27500E+01
         0.27500E+01
         0.27500E+01
         0.27500E+01
         0.27500E+01
         0.27500E+01
         0.27500E+01
         0.27500E+01
         0.27500E+01
         0.27500E+01
         0.27500E+01
         0.27500E+01
         0.27500E+01
         0.27500E+01
         0.27500E+01
         0.27500E+01
         0.27500E+01
         0.27500E+01
         0.27500E+01
         0.27500E+01
         0.27500E+01
         0.27500E+01
         0.27500E+01
         0.27500E+01
         0.27500E+01
         0.27500E+01
         0.27500E+01
         0.27500E+01
         0.27500E+01
         0.27500E+01
         0.27500E+01
         0.27500E+01
         0.27500E+01
         0.27500E+01
         0.27500E+01
         0.27500E+01
         0.27500E+01
         0.27500E+01
         0.27500E+01
         0.27500E+01
         0.27500E+01
         0.27500E+01
         0.27500E+01
         0.27500E+01
         0.27500E+01
         0.27500E+01
         0.27500E+01
         0.27500E+01
         0.27500E+01
         0.27500E+01
         0.27500E+01
         0.27500E+01
         0.27500E+01
         0.27500E+01
         0.27500E+01
         0.27500E+01
         0.27500E+01
         0.27500E+01
         0.27500E+01
         0.27500E+01
         0.27500E+01
         0.27500E+01
         0.27500E+01
         0.27500E+01
         0.27500E+01
         0.27500E+01
         0.27500E+01
         0.27500E+01
         0.27500E+01
         0.27500E+01
         0.27500E+01
         0.27500E+01
         0.27500E+01
         0.27500E+01
         0.27500E+01
         0.27500E+01
         0.27500E+01
         0.27500E+01
         0.27500E+01
         0.27500E+01
         0.27500E+01
         0.27500E+01
         0.27500E+01
         0.27500E+01
         0.27500E+01
         0.27500E+01
         0.27500E+01
         0.27500E+01
         0.27500E+01
         0.27500E+01
         0.27500E+01
         0.27500E+01
         0.27500E+01
         0.27500E+01
  
SCALARS              physical_window_x  double 1
LOOKUP_TABLE default
         0.42419E-02
         0.35201E-02
         0.37624E-02
         0.42419E-02
         0.42417E-02
         0.35201E-02
         0.37618E-02
         0.42417E-02
         0.37624E-02
         0.37624E-02
         0.37618E-02
         0.37618E-02
         0.30086E-02
         0.32069E-02
         0.30084E-02
         0.32067E-02
         0.42419E-02
         0.32069E-02
         0.42417E-02
         0.32067E-02
         0.24180E-02
         0.29942E-02
         0.32396E-02
         0.24180E-02
         0.29933E-02
         0.32385E-02
         0.26608E-02
         0.27190E-02
         0.26608E-02
         0.27190E-02
         0.42687E-02
         0.36511E-02
         0.42687E-02
         0.42687E-02
         0.36511E-02
         0.42687E-02
         0.32069E-02
         0.29739E-02
         0.32066E-02
         0.29739E-02
         0.34652E-02
         0.32621E-02
         0.34652E-02
         0.32621E-02
         0.37123E-02
         0.32069E-02
         0.37123E-02
         0.32066E-02
         0.30844E-02
         0.30844E-02
         0.35191E-02
         0.35189E-02
         0.26925E-02
         0.26925E-02
         0.26925E-02
         0.26925E-02
         0.24643E-02
         0.27651E-02
         0.24643E-02
         0.27651E-02
         0.42687E-02
         0.35191E-02
         0.42687E-02
         0.35189E-02
         0.42687E-02
         0.42687E-02
         0.34658E-02
         0.34648E-02
         0.27274E-02
         0.31799E-02
         0.27273E-02
         0.31796E-02
         0.32396E-02
         0.32385E-02
         0.26964E-02
         0.26960E-02
         0.27828E-02
         0.27828E-02
         0.27828E-02
         0.27828E-02
         0.27004E-02
         0.31883E-02
         0.27003E-02
         0.31880E-02
         0.31883E-02
         0.31880E-02
         0.37123E-02
         0.37123E-02
         0.36245E-02
         0.36245E-02
         0.28253E-02
         0.31642E-02
         0.28253E-02
         0.31636E-02
         0.33485E-02
         0.33485E-02
         0.33485E-02
         0.33485E-02
         0.31978E-02
         0.31969E-02
         0.29849E-02
         0.32843E-02
         0.29849E-02
         0.32843E-02
         0.27274E-02
         0.31109E-02
         0.27273E-02
         0.31109E-02
         0.31799E-02
         0.31796E-02
         0.32396E-02
         0.32385E-02
         0.32396E-02
         0.32385E-02
         0.29942E-02
         0.29933E-02
         0.27190E-02
         0.27190E-02
         0.26964E-02
         0.26960E-02
         0.27828E-02
         0.27828E-02
         0.27828E-02
         0.27828E-02
         0.27004E-02
         0.27003E-02
         0.31883E-02
         0.31880E-02
         0.31883E-02
         0.31880E-02
         0.32621E-02
         0.32621E-02
         0.34652E-02
         0.34652E-02
         0.37123E-02
         0.37123E-02
         0.37123E-02
         0.37123E-02
         0.36245E-02
         0.36245E-02
         0.28253E-02
         0.28253E-02
         0.29097E-02
         0.29087E-02
         0.32389E-02
         0.32378E-02
         0.32389E-02
         0.32378E-02
         0.31978E-02
         0.31969E-02
         0.29849E-02
         0.29849E-02
         0.32843E-02
         0.32843E-02
         0.32843E-02
         0.32843E-02
         0.42420E-02
         0.35201E-02
         0.37629E-02
         0.42420E-02
         0.37629E-02
         0.37629E-02
         0.30087E-02
         0.32071E-02
         0.42420E-02
         0.32071E-02
         0.24178E-02
         0.29952E-02
         0.32407E-02
         0.26596E-02
         0.27191E-02
         0.42679E-02
         0.36502E-02
         0.42679E-02
         0.32071E-02
         0.29727E-02
         0.34648E-02
         0.32622E-02
         0.37119E-02
         0.32071E-02
         0.30833E-02
         0.35193E-02
         0.26910E-02
         0.26910E-02
         0.24638E-02
         0.27644E-02
         0.42679E-02
         0.35193E-02
         0.42679E-02
         0.34670E-02
         0.27274E-02
         0.31802E-02
         0.32407E-02
         0.26968E-02
         0.27828E-02
         0.27828E-02
         0.27005E-02
         0.31885E-02
         0.31885E-02
         0.37119E-02
         0.36244E-02
         0.28250E-02
         0.31647E-02
         0.33484E-02
         0.33484E-02
         0.31986E-02
         0.29848E-02
         0.32841E-02
         0.27274E-02
         0.31099E-02
         0.31802E-02
         0.32407E-02
         0.32407E-02
         0.29952E-02
         0.27191E-02
         0.26968E-02
         0.27828E-02
         0.27828E-02
         0.27005E-02
         0.31885E-02
         0.31885E-02
         0.32622E-02
         0.34648E-02
         0.37119E-02
         0.37119E-02
         0.36244E-02
         0.28250E-02
         0.29106E-02
         0.32401E-02
         0.32401E-02
         0.31986E-02
         0.29848E-02
         0.32841E-02
         0.32841E-02
         0.42421E-02
         0.35201E-02
         0.37634E-02
         0.42421E-02
         0.37634E-02
         0.37634E-02
         0.30089E-02
         0.32073E-02
         0.42421E-02
         0.32073E-02
         0.24177E-02
         0.29961E-02
         0.32418E-02
         0.26584E-02
         0.27191E-02
         0.42670E-02
         0.36493E-02
         0.42670E-02
         0.32073E-02
         0.29714E-02
         0.34644E-02
         0.32623E-02
         0.37115E-02
         0.32073E-02
         0.30822E-02
         0.35195E-02
         0.26896E-02
         0.26896E-02
         0.24633E-02
         0.27638E-02
         0.42670E-02
         0.35195E-02
         0.42670E-02
         0.34681E-02
         0.27275E-02
         0.31805E-02
         0.32418E-02
         0.26972E-02
         0.27828E-02
         0.27828E-02
         0.27006E-02
         0.31888E-02
         0.31888E-02
         0.37115E-02
         0.36243E-02
         0.28247E-02
         0.31652E-02
         0.33483E-02
         0.33483E-02
         0.31995E-02
         0.29847E-02
         0.32839E-02
         0.27275E-02
         0.31090E-02
         0.31805E-02
         0.32418E-02
         0.32418E-02
         0.29961E-02
         0.27191E-02
         0.26972E-02
         0.27828E-02
         0.27828E-02
         0.27006E-02
         0.31888E-02
         0.31888E-02
         0.32623E-02
         0.34644E-02
         0.37115E-02
         0.37115E-02
         0.36243E-02
         0.28247E-02
         0.29116E-02
         0.32412E-02
         0.32412E-02
         0.31995E-02
         0.29847E-02
         0.32839E-02
         0.32839E-02
         0.42423E-02
         0.35200E-02
         0.37639E-02
         0.42423E-02
         0.37639E-02
         0.37639E-02
         0.30091E-02
         0.32075E-02
         0.42423E-02
         0.32075E-02
         0.24176E-02
         0.29970E-02
         0.32428E-02
         0.26572E-02
         0.27192E-02
         0.42662E-02
         0.36483E-02
         0.42662E-02
         0.32075E-02
         0.29702E-02
         0.34639E-02
         0.32624E-02
         0.37111E-02
         0.32075E-02
         0.30811E-02
         0.35197E-02
         0.26881E-02
         0.26881E-02
         0.24628E-02
         0.27631E-02
         0.42662E-02
         0.35197E-02
         0.42662E-02
         0.34692E-02
         0.27276E-02
         0.31808E-02
         0.32428E-02
         0.26975E-02
         0.27828E-02
         0.27828E-02
         0.27007E-02
         0.31890E-02
         0.31890E-02
         0.37111E-02
         0.36242E-02
         0.28243E-02
         0.31658E-02
         0.33482E-02
         0.33482E-02
         0.32003E-02
         0.29846E-02
         0.32837E-02
         0.27276E-02
         0.31081E-02
         0.31808E-02
         0.32428E-02
         0.32428E-02
         0.29970E-02
         0.27192E-02
         0.26975E-02
         0.27828E-02
         0.27828E-02
         0.27007E-02
         0.31890E-02
         0.31890E-02
         0.32624E-02
         0.34639E-02
         0.37111E-02
         0.37111E-02
         0.36242E-02
         0.28243E-02
         0.29125E-02
         0.32423E-02
         0.32423E-02
         0.32003E-02
         0.29846E-02
         0.32837E-02
         0.32837E-02
         0.42424E-02
         0.35200E-02
         0.37644E-02
         0.42424E-02
         0.37644E-02
         0.37644E-02
         0.30093E-02
         0.32077E-02
         0.42424E-02
         0.32077E-02
         0.24174E-02
         0.29979E-02
         0.32439E-02
         0.26559E-02
         0.27192E-02
         0.42653E-02
         0.36474E-02
         0.42653E-02
         0.32077E-02
         0.29690E-02
         0.34635E-02
         0.32624E-02
         0.37108E-02
         0.32077E-02
         0.30799E-02
         0.35199E-02
         0.26867E-02
         0.26867E-02
         0.24623E-02
         0.27625E-02
         0.42653E-02
         0.35199E-02
         0.42653E-02
         0.34703E-02
         0.27276E-02
         0.31812E-02
         0.32439E-02
         0.26979E-02
         0.27828E-02
         0.27828E-02
         0.27008E-02
         0.31893E-02
         0.31893E-02
         0.37108E-02
         0.36241E-02
         0.28240E-02
         0.31663E-02
         0.33481E-02
         0.33481E-02
         0.32012E-02
         0.29844E-02
         0.32835E-02
         0.27276E-02
         0.31071E-02
         0.31812E-02
         0.32439E-02
         0.32439E-02
         0.29979E-02
         0.27192E-02
         0.26979E-02
         0.27828E-02
         0.27828E-02
         0.27008E-02
         0.31893E-02
         0.31893E-02
         0.32624E-02
         0.34635E-02
         0.37108E-02
         0.37108E-02
         0.36241E-02
         0.28240E-02
         0.29135E-02
         0.32434E-02
         0.32434E-02
         0.32012E-02
         0.29844E-02
         0.32835E-02
         0.32835E-02
         0.42425E-02
         0.35200E-02
         0.37649E-02
         0.42425E-02
         0.37649E-02
         0.37649E-02
         0.30095E-02
         0.32079E-02
         0.42425E-02
         0.32079E-02
         0.24173E-02
         0.29989E-02
         0.32450E-02
         0.26547E-02
         0.27193E-02
         0.42645E-02
         0.36465E-02
         0.42645E-02
         0.32079E-02
         0.29677E-02
         0.34631E-02
         0.32625E-02
         0.37104E-02
         0.32079E-02
         0.30788E-02
         0.35201E-02
         0.26852E-02
         0.26852E-02
         0.24618E-02
         0.27618E-02
         0.42645E-02
         0.35201E-02
         0.42645E-02
         0.34715E-02
         0.27277E-02
         0.31815E-02
         0.32450E-02
         0.26983E-02
         0.27828E-02
         0.27828E-02
         0.27009E-02
         0.31895E-02
         0.31895E-02
         0.37104E-02
         0.36239E-02
         0.28237E-02
         0.31668E-02
         0.33480E-02
         0.33480E-02
         0.32020E-02
         0.29843E-02
         0.32833E-02
         0.27277E-02
         0.31062E-02
         0.31815E-02
         0.32450E-02
         0.32450E-02
         0.29989E-02
         0.27193E-02
         0.26983E-02
         0.27828E-02
         0.27828E-02
         0.27009E-02
         0.31895E-02
         0.31895E-02
         0.32625E-02
         0.34631E-02
         0.37104E-02
         0.37104E-02
         0.36239E-02
         0.28237E-02
         0.29145E-02
         0.32445E-02
         0.32445E-02
         0.32020E-02
         0.29843E-02
         0.32833E-02
         0.32833E-02
         0.42427E-02
         0.35200E-02
         0.37654E-02
         0.42427E-02
         0.37654E-02
         0.37654E-02
         0.30097E-02
         0.32081E-02
         0.42427E-02
         0.32081E-02
         0.24171E-02
         0.29998E-02
         0.32461E-02
         0.26535E-02
         0.27193E-02
         0.42636E-02
         0.36455E-02
         0.42636E-02
         0.32081E-02
         0.29665E-02
         0.34626E-02
         0.32626E-02
         0.37100E-02
         0.32081E-02
         0.30777E-02
         0.35203E-02
         0.26838E-02
         0.26838E-02
         0.24613E-02
         0.27611E-02
         0.42636E-02
         0.35203E-02
         0.42636E-02
         0.34726E-02
         0.27278E-02
         0.31818E-02
         0.32461E-02
         0.26987E-02
         0.27827E-02
         0.27827E-02
         0.27010E-02
         0.31898E-02
         0.31898E-02
         0.37100E-02
         0.36238E-02
         0.28234E-02
         0.31673E-02
         0.33479E-02
         0.33479E-02
         0.32029E-02
         0.29842E-02
         0.32831E-02
         0.27278E-02
         0.31052E-02
         0.31818E-02
         0.32461E-02
         0.32461E-02
         0.29998E-02
         0.27193E-02
         0.26987E-02
         0.27827E-02
         0.27827E-02
         0.27010E-02
         0.31898E-02
         0.31898E-02
         0.32626E-02
         0.34626E-02
         0.37100E-02
         0.37100E-02
         0.36238E-02
         0.28234E-02
         0.29154E-02
         0.32457E-02
         0.32457E-02
         0.32029E-02
         0.29842E-02
         0.32831E-02
         0.32831E-02
         0.42428E-02
         0.35199E-02
         0.37660E-02
         0.42428E-02
         0.37660E-02
         0.37660E-02
         0.30099E-02
         0.32083E-02
         0.42428E-02
         0.32083E-02
         0.24170E-02
         0.30007E-02
         0.32471E-02
         0.26523E-02
         0.27194E-02
         0.42628E-02
         0.36446E-02
         0.42628E-02
         0.32083E-02
         0.29652E-02
         0.34622E-02
         0.32627E-02
         0.37096E-02
         0.32083E-02
         0.30766E-02
         0.35205E-02
         0.26823E-02
         0.26823E-02
         0.24608E-02
         0.27605E-02
         0.42628E-02
         0.35205E-02
         0.42628E-02
         0.34737E-02
         0.27279E-02
         0.31821E-02
         0.32471E-02
         0.26991E-02
         0.27827E-02
         0.27827E-02
         0.27011E-02
         0.31900E-02
         0.31900E-02
         0.37096E-02
         0.36237E-02
         0.28231E-02
         0.31679E-02
         0.33478E-02
         0.33478E-02
         0.32038E-02
         0.29841E-02
         0.32829E-02
         0.27279E-02
         0.31043E-02
         0.31821E-02
         0.32471E-02
         0.32471E-02
         0.30007E-02
         0.27194E-02
         0.26991E-02
         0.27827E-02
         0.27827E-02
         0.27011E-02
         0.31900E-02
         0.31900E-02
         0.32627E-02
         0.34622E-02
         0.37096E-02
         0.37096E-02
         0.36237E-02
         0.28231E-02
         0.29164E-02
         0.32468E-02
         0.32468E-02
         0.32038E-02
         0.29841E-02
         0.32829E-02
         0.32829E-02
         0.42429E-02
         0.35199E-02
         0.37665E-02
         0.42429E-02
         0.37665E-02
         0.37665E-02
         0.30101E-02
         0.32085E-02
         0.42429E-02
         0.32085E-02
         0.24168E-02
         0.30017E-02
         0.32482E-02
         0.26510E-02
         0.27194E-02
         0.42619E-02
         0.36437E-02
         0.42619E-02
         0.32085E-02
         0.29640E-02
         0.34618E-02
         0.32627E-02
         0.37092E-02
         0.32085E-02
         0.30755E-02
         0.35207E-02
         0.26808E-02
         0.26808E-02
         0.24603E-02
         0.27599E-02
         0.42619E-02
         0.35207E-02
         0.42619E-02
         0.34748E-02
         0.27279E-02
         0.31824E-02
         0.32482E-02
         0.26994E-02
         0.27827E-02
         0.27827E-02
         0.27012E-02
         0.31902E-02
         0.31902E-02
         0.37092E-02
         0.36236E-02
         0.28227E-02
         0.31684E-02
         0.33477E-02
         0.33477E-02
         0.32046E-02
         0.29840E-02
         0.32827E-02
         0.27279E-02
         0.31034E-02
         0.31824E-02
         0.32482E-02
         0.32482E-02
         0.30017E-02
         0.27194E-02
         0.26994E-02
         0.27827E-02
         0.27827E-02
         0.27012E-02
         0.31902E-02
         0.31902E-02
         0.32627E-02
         0.34618E-02
         0.37092E-02
         0.37092E-02
         0.36236E-02
         0.28227E-02
         0.29173E-02
         0.32479E-02
         0.32479E-02
         0.32046E-02
         0.29840E-02
         0.32827E-02
         0.32827E-02
         0.42431E-02
         0.35199E-02
         0.37670E-02
         0.42431E-02
         0.37670E-02
         0.37670E-02
         0.30102E-02
         0.32087E-02
         0.42431E-02
         0.32087E-02
         0.24167E-02
         0.30026E-02
         0.32493E-02
         0.26498E-02
         0.27194E-02
         0.42611E-02
         0.36427E-02
         0.42611E-02
         0.32087E-02
         0.29628E-02
         0.34613E-02
         0.32628E-02
         0.37089E-02
         0.32087E-02
         0.30744E-02
         0.35209E-02
         0.26794E-02
         0.26794E-02
         0.24598E-02
         0.27592E-02
         0.42611E-02
         0.35209E-02
         0.42611E-02
         0.34759E-02
         0.27280E-02
         0.31827E-02
         0.32493E-02
         0.26998E-02
         0.27827E-02
         0.27827E-02
         0.27013E-02
         0.31905E-02
         0.31905E-02
         0.37089E-02
         0.36235E-02
         0.28224E-02
         0.31689E-02
         0.33476E-02
         0.33476E-02
         0.32055E-02
         0.29839E-02
         0.32825E-02
         0.27280E-02
         0.31024E-02
         0.31827E-02
         0.32493E-02
         0.32493E-02
         0.30026E-02
         0.27194E-02
         0.26998E-02
         0.27827E-02
         0.27827E-02
         0.27013E-02
         0.31905E-02
         0.31905E-02
         0.32628E-02
         0.34613E-02
         0.37089E-02
         0.37089E-02
         0.36235E-02
         0.28224E-02
         0.29183E-02
         0.32490E-02
         0.32490E-02
         0.32055E-02
         0.29839E-02
         0.32825E-02
         0.32825E-02
         0.42432E-02
         0.35199E-02
         0.37675E-02
         0.42432E-02
         0.37675E-02
         0.37675E-02
         0.30104E-02
         0.32089E-02
         0.42432E-02
         0.32089E-02
         0.24166E-02
         0.30035E-02
         0.32504E-02
         0.26486E-02
         0.27195E-02
         0.42603E-02
         0.36418E-02
         0.42603E-02
         0.32089E-02
         0.29615E-02
         0.34609E-02
         0.32629E-02
         0.37085E-02
         0.32089E-02
         0.30732E-02
         0.35211E-02
         0.26779E-02
         0.26779E-02
         0.24593E-02
         0.27585E-02
         0.42603E-02
         0.35211E-02
         0.42603E-02
         0.34771E-02
         0.27281E-02
         0.31830E-02
         0.32504E-02
         0.27002E-02
         0.27827E-02
         0.27827E-02
         0.27014E-02
         0.31907E-02
         0.31907E-02
         0.37085E-02
         0.36233E-02
         0.28221E-02
         0.31694E-02
         0.33475E-02
         0.33475E-02
         0.32063E-02
         0.29838E-02
         0.32823E-02
         0.27281E-02
         0.31015E-02
         0.31830E-02
         0.32504E-02
         0.32504E-02
         0.30035E-02
         0.27195E-02
         0.27002E-02
         0.27827E-02
         0.27827E-02
         0.27014E-02
         0.31907E-02
         0.31907E-02
         0.32629E-02
         0.34609E-02
         0.37085E-02
         0.37085E-02
         0.36233E-02
         0.28221E-02
         0.29193E-02
         0.32501E-02
         0.32501E-02
         0.32063E-02
         0.29838E-02
         0.32823E-02
         0.32823E-02
         0.42433E-02
         0.35199E-02
         0.37680E-02
         0.42433E-02
         0.37680E-02
         0.37680E-02
         0.30106E-02
         0.32091E-02
         0.42433E-02
         0.32091E-02
         0.24164E-02
         0.30045E-02
         0.32514E-02
         0.26474E-02
         0.27195E-02
         0.42594E-02
         0.36409E-02
         0.42594E-02
         0.32091E-02
         0.29603E-02
         0.34605E-02
         0.32630E-02
         0.37081E-02
         0.32091E-02
         0.30721E-02
         0.35213E-02
         0.26765E-02
         0.26765E-02
         0.24588E-02
         0.27579E-02
         0.42594E-02
         0.35213E-02
         0.42594E-02
         0.34782E-02
         0.27281E-02
         0.31833E-02
         0.32514E-02
         0.27006E-02
         0.27826E-02
         0.27826E-02
         0.27015E-02
         0.31910E-02
         0.31910E-02
         0.37081E-02
         0.36232E-02
         0.28218E-02
         0.31700E-02
         0.33474E-02
         0.33474E-02
         0.32072E-02
         0.29836E-02
         0.32821E-02
         0.27281E-02
         0.31005E-02
         0.31833E-02
         0.32514E-02
         0.32514E-02
         0.30045E-02
         0.27195E-02
         0.27006E-02
         0.27826E-02
         0.27826E-02
         0.27015E-02
         0.31910E-02
         0.31910E-02
         0.32630E-02
         0.34605E-02
         0.37081E-02
         0.37081E-02
         0.36232E-02
         0.28218E-02
         0.29202E-02
         0.32512E-02
         0.32512E-02
         0.32072E-02
         0.29836E-02
         0.32821E-02
         0.32821E-02
         0.42435E-02
         0.35199E-02
         0.37685E-02
         0.42435E-02
         0.37685E-02
         0.37685E-02
         0.30108E-02
         0.32093E-02
         0.42435E-02
         0.32093E-02
         0.24163E-02
         0.30054E-02
         0.32525E-02
         0.26461E-02
         0.27196E-02
         0.42586E-02
         0.36399E-02
         0.42586E-02
         0.32093E-02
         0.29591E-02
         0.34601E-02
         0.32630E-02
         0.37077E-02
         0.32093E-02
         0.30710E-02
         0.35215E-02
         0.26750E-02
         0.26750E-02
         0.24583E-02
         0.27572E-02
         0.42586E-02
         0.35215E-02
         0.42586E-02
         0.34793E-02
         0.27282E-02
         0.31836E-02
         0.32525E-02
         0.27010E-02
         0.27826E-02
         0.27826E-02
         0.27016E-02
         0.31912E-02
         0.31912E-02
         0.37077E-02
         0.36231E-02
         0.28215E-02
         0.31705E-02
         0.33473E-02
         0.33473E-02
         0.32080E-02
         0.29835E-02
         0.32819E-02
         0.27282E-02
         0.30996E-02
         0.31836E-02
         0.32525E-02
         0.32525E-02
         0.30054E-02
         0.27196E-02
         0.27010E-02
         0.27826E-02
         0.27826E-02
         0.27016E-02
         0.31912E-02
         0.31912E-02
         0.32630E-02
         0.34601E-02
         0.37077E-02
         0.37077E-02
         0.36231E-02
         0.28215E-02
         0.29212E-02
         0.32524E-02
         0.32524E-02
         0.32080E-02
         0.29835E-02
         0.32819E-02
         0.32819E-02
         0.42436E-02
         0.35198E-02
         0.37690E-02
         0.42436E-02
         0.37690E-02
         0.37690E-02
         0.30110E-02
         0.32095E-02
         0.42436E-02
         0.32095E-02
         0.24162E-02
         0.30064E-02
         0.32536E-02
         0.26449E-02
         0.27196E-02
         0.42577E-02
         0.36390E-02
         0.42577E-02
         0.32096E-02
         0.29578E-02
         0.34596E-02
         0.32631E-02
         0.37074E-02
         0.32096E-02
         0.30699E-02
         0.35217E-02
         0.26735E-02
         0.26735E-02
         0.24578E-02
         0.27566E-02
         0.42577E-02
         0.35217E-02
         0.42577E-02
         0.34804E-02
         0.27283E-02
         0.31839E-02
         0.32536E-02
         0.27013E-02
         0.27826E-02
         0.27826E-02
         0.27017E-02
         0.31915E-02
         0.31915E-02
         0.37074E-02
         0.36230E-02
         0.28211E-02
         0.31710E-02
         0.33472E-02
         0.33472E-02
         0.32089E-02
         0.29834E-02
         0.32817E-02
         0.27283E-02
         0.30986E-02
         0.31839E-02
         0.32536E-02
         0.32536E-02
         0.30064E-02
         0.27196E-02
         0.27013E-02
         0.27826E-02
         0.27826E-02
         0.27017E-02
         0.31915E-02
         0.31915E-02
         0.32631E-02
         0.34596E-02
         0.37074E-02
         0.37074E-02
         0.36230E-02
         0.28211E-02
         0.29221E-02
         0.32535E-02
         0.32535E-02
         0.32089E-02
         0.29834E-02
         0.32817E-02
         0.32817E-02
         0.42437E-02
         0.35198E-02
         0.37695E-02
         0.42437E-02
         0.37695E-02
         0.37695E-02
         0.30112E-02
         0.32097E-02
         0.42437E-02
         0.32097E-02
         0.24160E-02
         0.30073E-02
         0.32547E-02
         0.26437E-02
         0.27197E-02
         0.42569E-02
         0.36381E-02
         0.42569E-02
         0.32098E-02
         0.29566E-02
         0.34592E-02
         0.32632E-02
         0.37070E-02
         0.32098E-02
         0.30688E-02
         0.35219E-02
         0.26721E-02
         0.26721E-02
         0.24573E-02
         0.27560E-02
         0.42569E-02
         0.35219E-02
         0.42569E-02
         0.34815E-02
         0.27284E-02
         0.31843E-02
         0.32547E-02
         0.27017E-02
         0.27826E-02
         0.27826E-02
         0.27018E-02
         0.31917E-02
         0.31917E-02
         0.37070E-02
         0.36229E-02
         0.28208E-02
         0.31716E-02
         0.33471E-02
         0.33471E-02
         0.32097E-02
         0.29833E-02
         0.32815E-02
         0.27284E-02
         0.30977E-02
         0.31843E-02
         0.32547E-02
         0.32547E-02
         0.30073E-02
         0.27197E-02
         0.27017E-02
         0.27826E-02
         0.27826E-02
         0.27018E-02
         0.31917E-02
         0.31917E-02
         0.32632E-02
         0.34592E-02
         0.37070E-02
         0.37070E-02
         0.36229E-02
         0.28208E-02
         0.29231E-02
         0.32546E-02
         0.32546E-02
         0.32097E-02
         0.29833E-02
         0.32815E-02
         0.32815E-02
         0.42439E-02
         0.35198E-02
         0.37701E-02
         0.42439E-02
         0.37701E-02
         0.37701E-02
         0.30113E-02
         0.32099E-02
         0.42439E-02
         0.32099E-02
         0.24159E-02
         0.30082E-02
         0.32558E-02
         0.26425E-02
         0.27197E-02
         0.42560E-02
         0.36371E-02
         0.42560E-02
         0.32100E-02
         0.29554E-02
         0.34588E-02
         0.32633E-02
         0.37066E-02
         0.32100E-02
         0.30677E-02
         0.35221E-02
         0.26706E-02
         0.26706E-02
         0.24568E-02
         0.27553E-02
         0.42560E-02
         0.35221E-02
         0.42560E-02
         0.34827E-02
         0.27284E-02
         0.31846E-02
         0.32558E-02
         0.27021E-02
         0.27826E-02
         0.27826E-02
         0.27019E-02
         0.31920E-02
         0.31920E-02
         0.37066E-02
         0.36227E-02
         0.28205E-02
         0.31721E-02
         0.33470E-02
         0.33470E-02
         0.32106E-02
         0.29831E-02
         0.32813E-02
         0.27284E-02
         0.30968E-02
         0.31846E-02
         0.32558E-02
         0.32558E-02
         0.30082E-02
         0.27197E-02
         0.27021E-02
         0.27826E-02
         0.27826E-02
         0.27019E-02
         0.31920E-02
         0.31920E-02
         0.32633E-02
         0.34588E-02
         0.37066E-02
         0.37066E-02
         0.36227E-02
         0.28205E-02
         0.29241E-02
         0.32557E-02
         0.32557E-02
         0.32106E-02
         0.29831E-02
         0.32813E-02
         0.32813E-02
         0.42440E-02
         0.35198E-02
         0.37706E-02
         0.42440E-02
         0.37706E-02
         0.37706E-02
         0.30115E-02
         0.32101E-02
         0.42440E-02
         0.32101E-02
         0.24158E-02
         0.30091E-02
         0.32568E-02
         0.26412E-02
         0.27198E-02
         0.42552E-02
         0.36362E-02
         0.42552E-02
         0.32102E-02
         0.29541E-02
         0.34583E-02
         0.32633E-02
         0.37062E-02
         0.32102E-02
         0.30665E-02
         0.35223E-02
         0.26692E-02
         0.26692E-02
         0.24563E-02
         0.27546E-02
         0.42552E-02
         0.35223E-02
         0.42552E-02
         0.34838E-02
         0.27285E-02
         0.31849E-02
         0.32568E-02
         0.27025E-02
         0.27826E-02
         0.27826E-02
         0.27020E-02
         0.31922E-02
         0.31922E-02
         0.37062E-02
         0.36226E-02
         0.28202E-02
         0.31726E-02
         0.33469E-02
         0.33469E-02
         0.32114E-02
         0.29830E-02
         0.32811E-02
         0.27285E-02
         0.30958E-02
         0.31849E-02
         0.32568E-02
         0.32568E-02
         0.30091E-02
         0.27198E-02
         0.27025E-02
         0.27826E-02
         0.27826E-02
         0.27020E-02
         0.31922E-02
         0.31922E-02
         0.32633E-02
         0.34583E-02
         0.37062E-02
         0.37062E-02
         0.36226E-02
         0.28202E-02
         0.29250E-02
         0.32568E-02
         0.32568E-02
         0.32114E-02
         0.29830E-02
         0.32811E-02
         0.32811E-02
         0.42441E-02
         0.35198E-02
         0.37711E-02
         0.42441E-02
         0.37711E-02
         0.37711E-02
         0.30117E-02
         0.32103E-02
         0.42441E-02
         0.32103E-02
         0.24156E-02
         0.30101E-02
         0.32579E-02
         0.26400E-02
         0.27198E-02
         0.42543E-02
         0.36353E-02
         0.42543E-02
         0.32104E-02
         0.29529E-02
         0.34579E-02
         0.32634E-02
         0.37058E-02
         0.32104E-02
         0.30654E-02
         0.35225E-02
         0.26677E-02
         0.26677E-02
         0.24558E-02
         0.27540E-02
         0.42543E-02
         0.35225E-02
         0.42543E-02
         0.34849E-02
         0.27286E-02
         0.31852E-02
         0.32579E-02
         0.27029E-02
         0.27826E-02
         0.27826E-02
         0.27021E-02
         0.31924E-02
         0.31924E-02
         0.37058E-02
         0.36225E-02
         0.28198E-02
         0.31731E-02
         0.33468E-02
         0.33468E-02
         0.32123E-02
         0.29829E-02
         0.32809E-02
         0.27286E-02
         0.30949E-02
         0.31852E-02
         0.32579E-02
         0.32579E-02
         0.30101E-02
         0.27198E-02
         0.27029E-02
         0.27826E-02
         0.27826E-02
         0.27021E-02
         0.31924E-02
         0.31924E-02
         0.32634E-02
         0.34579E-02
         0.37058E-02
         0.37058E-02
         0.36225E-02
         0.28198E-02
         0.29260E-02
         0.32579E-02
         0.32579E-02
         0.32123E-02
         0.29829E-02
         0.32809E-02
         0.32809E-02
         0.42443E-02
         0.35197E-02
         0.37716E-02
         0.42443E-02
         0.37716E-02
         0.37716E-02
         0.30119E-02
         0.32105E-02
         0.42443E-02
         0.32105E-02
         0.24155E-02
         0.30110E-02
         0.32590E-02
         0.26388E-02
         0.27199E-02
         0.42535E-02
         0.36343E-02
         0.42535E-02
         0.32106E-02
         0.29517E-02
         0.34575E-02
         0.32635E-02
         0.37055E-02
         0.32106E-02
         0.30643E-02
         0.35227E-02
         0.26663E-02
         0.26663E-02
         0.24553E-02
         0.27533E-02
         0.42535E-02
         0.35227E-02
         0.42535E-02
         0.34860E-02
         0.27286E-02
         0.31855E-02
         0.32590E-02
         0.27032E-02
         0.27826E-02
         0.27826E-02
         0.27022E-02
         0.31927E-02
         0.31927E-02
         0.37055E-02
         0.36224E-02
         0.28195E-02
         0.31737E-02
         0.33467E-02
         0.33467E-02
         0.32132E-02
         0.29828E-02
         0.32807E-02
         0.27286E-02
         0.30939E-02
         0.31855E-02
         0.32590E-02
         0.32590E-02
         0.30110E-02
         0.27199E-02
         0.27032E-02
         0.27826E-02
         0.27826E-02
         0.27022E-02
         0.31927E-02
         0.31927E-02
         0.32635E-02
         0.34575E-02
         0.37055E-02
         0.37055E-02
         0.36224E-02
         0.28195E-02
         0.29269E-02
         0.32591E-02
         0.32591E-02
         0.32132E-02
         0.29828E-02
         0.32807E-02
         0.32807E-02
         0.42444E-02
         0.35197E-02
         0.37721E-02
         0.42444E-02
         0.37721E-02
         0.37721E-02
         0.30121E-02
         0.32107E-02
         0.42444E-02
         0.32107E-02
         0.24154E-02
         0.30119E-02
         0.32601E-02
         0.26376E-02
         0.27199E-02
         0.42527E-02
         0.36334E-02
         0.42527E-02
         0.32108E-02
         0.29504E-02
         0.34571E-02
         0.32636E-02
         0.37051E-02
         0.32108E-02
         0.30632E-02
         0.35229E-02
         0.26648E-02
         0.26648E-02
         0.24552E-02
         0.27527E-02
         0.42527E-02
         0.35229E-02
         0.42527E-02
         0.34871E-02
         0.27287E-02
         0.31858E-02
         0.32601E-02
         0.27036E-02
         0.27825E-02
         0.27825E-02
         0.27023E-02
         0.31929E-02
         0.31929E-02
         0.37051E-02
         0.36223E-02
         0.28192E-02
         0.31742E-02
         0.33466E-02
         0.33466E-02
         0.32140E-02
         0.29827E-02
         0.32805E-02
         0.27287E-02
         0.30930E-02
         0.31858E-02
         0.32601E-02
         0.32601E-02
         0.30119E-02
         0.27199E-02
         0.27036E-02
         0.27825E-02
         0.27825E-02
         0.27023E-02
         0.31929E-02
         0.31929E-02
         0.32636E-02
         0.34571E-02
         0.37051E-02
         0.37051E-02
         0.36223E-02
         0.28192E-02
         0.29279E-02
         0.32602E-02
         0.32602E-02
         0.32140E-02
         0.29827E-02
         0.32805E-02
         0.32805E-02
         0.42445E-02
         0.35197E-02
         0.37726E-02
         0.42445E-02
         0.37726E-02
         0.37726E-02
         0.30123E-02
         0.32108E-02
         0.42445E-02
         0.32108E-02
         0.24152E-02
         0.30129E-02
         0.32611E-02
         0.26363E-02
         0.27200E-02
         0.42518E-02
         0.36325E-02
         0.42518E-02
         0.32110E-02
         0.29492E-02
         0.34566E-02
         0.32636E-02
         0.37047E-02
         0.32110E-02
         0.30621E-02
         0.35231E-02
         0.26633E-02
         0.26633E-02
         0.24554E-02
         0.27520E-02
         0.42518E-02
         0.35231E-02
         0.42518E-02
         0.34882E-02
         0.27288E-02
         0.31861E-02
         0.32611E-02
         0.27040E-02
         0.27825E-02
         0.27825E-02
         0.27024E-02
         0.31932E-02
         0.31932E-02
         0.37047E-02
         0.36222E-02
         0.28189E-02
         0.31747E-02
         0.33465E-02
         0.33465E-02
         0.32149E-02
         0.29826E-02
         0.32803E-02
         0.27288E-02
         0.30921E-02
         0.31861E-02
         0.32611E-02
         0.32611E-02
         0.30129E-02
         0.27200E-02
         0.27040E-02
         0.27825E-02
         0.27825E-02
         0.27024E-02
         0.31932E-02
         0.31932E-02
         0.32636E-02
         0.34566E-02
         0.37047E-02
         0.37047E-02
         0.36222E-02
         0.28189E-02
         0.29289E-02
         0.32613E-02
         0.32613E-02
         0.32149E-02
         0.29826E-02
         0.32803E-02
         0.32803E-02
         0.42447E-02
         0.35196E-02
         0.37732E-02
         0.42447E-02
         0.37732E-02
         0.37732E-02
         0.30125E-02
         0.32111E-02
         0.42447E-02
         0.32111E-02
         0.24151E-02
         0.30138E-02
         0.32622E-02
         0.26351E-02
         0.27200E-02
         0.42510E-02
         0.36315E-02
         0.42510E-02
         0.32112E-02
         0.29480E-02
         0.34562E-02
         0.32637E-02
         0.37043E-02
         0.32112E-02
         0.30610E-02
         0.35233E-02
         0.26619E-02
         0.26619E-02
         0.24557E-02
         0.27514E-02
         0.42510E-02
         0.35233E-02
         0.42510E-02
         0.34894E-02
         0.27289E-02
         0.31864E-02
         0.32622E-02
         0.27044E-02
         0.27825E-02
         0.27825E-02
         0.27025E-02
         0.31934E-02
         0.31934E-02
         0.37043E-02
         0.36220E-02
         0.28186E-02
         0.31753E-02
         0.33464E-02
         0.33464E-02
         0.32157E-02
         0.29824E-02
         0.32801E-02
         0.27289E-02
         0.30911E-02
         0.31864E-02
         0.32622E-02
         0.32622E-02
         0.30138E-02
         0.27200E-02
         0.27044E-02
         0.27825E-02
         0.27825E-02
         0.27025E-02
         0.31934E-02
         0.31934E-02
         0.32637E-02
         0.34562E-02
         0.37043E-02
         0.37043E-02
         0.36220E-02
         0.28186E-02
         0.29298E-02
         0.32624E-02
         0.32624E-02
         0.32157E-02
         0.29824E-02
         0.32801E-02
         0.32801E-02
         0.42448E-02
         0.35196E-02
         0.37737E-02
         0.42448E-02
         0.37737E-02
         0.37737E-02
         0.30126E-02
         0.32112E-02
         0.42448E-02
         0.32112E-02
         0.24150E-02
         0.30147E-02
         0.32633E-02
         0.26339E-02
         0.27200E-02
         0.42501E-02
         0.36306E-02
         0.42501E-02
         0.32114E-02
         0.29467E-02
         0.34558E-02
         0.32638E-02
         0.37039E-02
         0.32114E-02
         0.30598E-02
         0.35235E-02
         0.26604E-02
         0.26604E-02
         0.24559E-02
         0.27507E-02
         0.42501E-02
         0.35235E-02
         0.42501E-02
         0.34905E-02
         0.27289E-02
         0.31867E-02
         0.32633E-02
         0.27048E-02
         0.27825E-02
         0.27825E-02
         0.27026E-02
         0.31937E-02
         0.31937E-02
         0.37039E-02
         0.36219E-02
         0.28183E-02
         0.31758E-02
         0.33463E-02
         0.33463E-02
         0.32166E-02
         0.29823E-02
         0.32799E-02
         0.27289E-02
         0.30902E-02
         0.31867E-02
         0.32633E-02
         0.32633E-02
         0.30147E-02
         0.27200E-02
         0.27048E-02
         0.27825E-02
         0.27825E-02
         0.27026E-02
         0.31937E-02
         0.31937E-02
         0.32638E-02
         0.34558E-02
         0.37039E-02
         0.37039E-02
         0.36219E-02
         0.28183E-02
         0.29308E-02
         0.32635E-02
         0.32635E-02
         0.32166E-02
         0.29823E-02
         0.32799E-02
         0.32799E-02
         0.42448E-02
         0.35196E-02
         0.37737E-02
         0.42448E-02
         0.37737E-02
         0.37737E-02
         0.30126E-02
         0.32112E-02
         0.42448E-02
         0.32112E-02
         0.24148E-02
         0.30147E-02
         0.32633E-02
         0.26327E-02
         0.27200E-02
         0.42493E-02
         0.36297E-02
         0.42493E-02
         0.32114E-02
         0.29455E-02
         0.34553E-02
         0.32638E-02
         0.37036E-02
         0.32114E-02
         0.30587E-02
         0.35235E-02
         0.26590E-02
         0.26590E-02
         0.24559E-02
         0.27501E-02
         0.42493E-02
         0.35235E-02
         0.42493E-02
         0.34905E-02
         0.27289E-02
         0.31867E-02
         0.32633E-02
         0.27048E-02
         0.27825E-02
         0.27825E-02
         0.27026E-02
         0.31937E-02
         0.31937E-02
         0.37036E-02
         0.36218E-02
         0.28180E-02
         0.31758E-02
         0.33462E-02
         0.33462E-02
         0.32166E-02
         0.29822E-02
         0.32797E-02
         0.27289E-02
         0.30892E-02
         0.31867E-02
         0.32633E-02
         0.32633E-02
         0.30147E-02
         0.27200E-02
         0.27048E-02
         0.27825E-02
         0.27825E-02
         0.27026E-02
         0.31937E-02
         0.31937E-02
         0.32638E-02
         0.34553E-02
         0.37036E-02
         0.37036E-02
         0.36218E-02
         0.28180E-02
         0.29308E-02
         0.32635E-02
         0.32635E-02
         0.32166E-02
         0.29822E-02
         0.32797E-02
         0.32797E-02
  
SCALARS              physical_window_y  double 1
LOOKUP_TABLE default
         0.43155E-02
         0.43155E-02
         0.43155E-02
         0.43155E-02
         0.43155E-02
         0.43155E-02
         0.43155E-02
         0.43155E-02
         0.34883E-02
         0.34883E-02
         0.34882E-02
         0.34882E-02
         0.32826E-02
         0.32142E-02
         0.32826E-02
         0.32142E-02
         0.37863E-02
         0.31884E-02
         0.37863E-02
         0.31884E-02
         0.27172E-02
         0.33887E-02
         0.37164E-02
         0.27172E-02
         0.33887E-02
         0.37164E-02
         0.27582E-02
         0.28966E-02
         0.27582E-02
         0.28954E-02
         0.37007E-02
         0.35859E-02
         0.37863E-02
         0.37007E-02
         0.35824E-02
         0.37863E-02
         0.29875E-02
         0.29875E-02
         0.29867E-02
         0.29867E-02
         0.28561E-02
         0.26860E-02
         0.28556E-02
         0.26852E-02
         0.29518E-02
         0.28068E-02
         0.29517E-02
         0.28066E-02
         0.29975E-02
         0.29949E-02
         0.37007E-02
         0.37007E-02
         0.28693E-02
         0.28693E-02
         0.28693E-02
         0.28693E-02
         0.27602E-02
         0.26193E-02
         0.27602E-02
         0.26193E-02
         0.37007E-02
         0.37007E-02
         0.37007E-02
         0.37007E-02
         0.37685E-02
         0.37665E-02
         0.37685E-02
         0.37665E-02
         0.30230E-02
         0.37003E-02
         0.30229E-02
         0.37003E-02
         0.37164E-02
         0.37164E-02
         0.31934E-02
         0.31921E-02
         0.32777E-02
         0.32771E-02
         0.32777E-02
         0.32771E-02
         0.27006E-02
         0.25920E-02
         0.27006E-02
         0.25920E-02
         0.25916E-02
         0.25916E-02
         0.29715E-02
         0.29715E-02
         0.29715E-02
         0.29715E-02
         0.26477E-02
         0.29102E-02
         0.26477E-02
         0.29102E-02
         0.34085E-02
         0.34085E-02
         0.35350E-02
         0.35350E-02
         0.35350E-02
         0.35350E-02
         0.29766E-02
         0.32272E-02
         0.29763E-02
         0.32254E-02
         0.29087E-02
         0.29835E-02
         0.29087E-02
         0.29825E-02
         0.37003E-02
         0.37003E-02
         0.37164E-02
         0.37164E-02
         0.37164E-02
         0.37164E-02
         0.33887E-02
         0.33887E-02
         0.28966E-02
         0.28954E-02
         0.31934E-02
         0.31921E-02
         0.32777E-02
         0.32771E-02
         0.32777E-02
         0.32771E-02
         0.27006E-02
         0.27006E-02
         0.25920E-02
         0.25920E-02
         0.25916E-02
         0.25916E-02
         0.26860E-02
         0.26852E-02
         0.28561E-02
         0.28556E-02
         0.29518E-02
         0.29517E-02
         0.29715E-02
         0.29715E-02
         0.29715E-02
         0.29715E-02
         0.26477E-02
         0.26477E-02
         0.27685E-02
         0.27685E-02
         0.34085E-02
         0.34085E-02
         0.35350E-02
         0.35350E-02
         0.35350E-02
         0.35350E-02
         0.29766E-02
         0.29763E-02
         0.31381E-02
         0.31368E-02
         0.31381E-02
         0.31368E-02
         0.43153E-02
         0.43153E-02
         0.43153E-02
         0.43153E-02
         0.34883E-02
         0.34883E-02
         0.32812E-02
         0.32132E-02
         0.37858E-02
         0.31880E-02
         0.27155E-02
         0.33883E-02
         0.37163E-02
         0.27535E-02
         0.28978E-02
         0.37004E-02
         0.35894E-02
         0.37858E-02
         0.29882E-02
         0.29882E-02
         0.28566E-02
         0.26867E-02
         0.29519E-02
         0.28071E-02
         0.30001E-02
         0.37004E-02
         0.28667E-02
         0.28667E-02
         0.27589E-02
         0.26183E-02
         0.37004E-02
         0.37004E-02
         0.37706E-02
         0.37706E-02
         0.30232E-02
         0.36991E-02
         0.37163E-02
         0.31947E-02
         0.32784E-02
         0.32784E-02
         0.27006E-02
         0.25920E-02
         0.25909E-02
         0.29715E-02
         0.29715E-02
         0.26476E-02
         0.29101E-02
         0.34078E-02
         0.35344E-02
         0.35344E-02
         0.29769E-02
         0.32290E-02
         0.29059E-02
         0.29845E-02
         0.36991E-02
         0.37163E-02
         0.37163E-02
         0.33883E-02
         0.28978E-02
         0.31947E-02
         0.32784E-02
         0.32784E-02
         0.27006E-02
         0.25920E-02
         0.25909E-02
         0.26867E-02
         0.28566E-02
         0.29519E-02
         0.29715E-02
         0.29715E-02
         0.26476E-02
         0.27685E-02
         0.34078E-02
         0.35344E-02
         0.35344E-02
         0.29769E-02
         0.31395E-02
         0.31395E-02
         0.43150E-02
         0.43150E-02
         0.43150E-02
         0.43150E-02
         0.34884E-02
         0.34884E-02
         0.32798E-02
         0.32122E-02
         0.37853E-02
         0.31876E-02
         0.27137E-02
         0.33879E-02
         0.37162E-02
         0.27488E-02
         0.28990E-02
         0.37001E-02
         0.35930E-02
         0.37853E-02
         0.29889E-02
         0.29889E-02
         0.28571E-02
         0.26875E-02
         0.29521E-02
         0.28074E-02
         0.30027E-02
         0.37001E-02
         0.28641E-02
         0.28641E-02
         0.27576E-02
         0.26173E-02
         0.37001E-02
         0.37001E-02
         0.37727E-02
         0.37727E-02
         0.30234E-02
         0.36979E-02
         0.37162E-02
         0.31960E-02
         0.32790E-02
         0.32790E-02
         0.27006E-02
         0.25920E-02
         0.25902E-02
         0.29715E-02
         0.29715E-02
         0.26476E-02
         0.29100E-02
         0.34071E-02
         0.35339E-02
         0.35339E-02
         0.29772E-02
         0.32307E-02
         0.29032E-02
         0.29855E-02
         0.36979E-02
         0.37162E-02
         0.37162E-02
         0.33879E-02
         0.28990E-02
         0.31960E-02
         0.32790E-02
         0.32790E-02
         0.27006E-02
         0.25920E-02
         0.25902E-02
         0.26875E-02
         0.28571E-02
         0.29521E-02
         0.29715E-02
         0.29715E-02
         0.26476E-02
         0.27684E-02
         0.34071E-02
         0.35339E-02
         0.35339E-02
         0.29772E-02
         0.31408E-02
         0.31408E-02
         0.43148E-02
         0.43148E-02
         0.43148E-02
         0.43148E-02
         0.34885E-02
         0.34885E-02
         0.32783E-02
         0.32112E-02
         0.37849E-02
         0.31872E-02
         0.27120E-02
         0.33875E-02
         0.37161E-02
         0.27441E-02
         0.29003E-02
         0.36998E-02
         0.35965E-02
         0.37849E-02
         0.29896E-02
         0.29896E-02
         0.28575E-02
         0.26882E-02
         0.29522E-02
         0.28077E-02
         0.30053E-02
         0.36998E-02
         0.28615E-02
         0.28615E-02
         0.27563E-02
         0.26163E-02
         0.36998E-02
         0.36998E-02
         0.37747E-02
         0.37747E-02
         0.30236E-02
         0.36967E-02
         0.37161E-02
         0.31973E-02
         0.32796E-02
         0.32796E-02
         0.27006E-02
         0.25920E-02
         0.25895E-02
         0.29714E-02
         0.29714E-02
         0.26475E-02
         0.29099E-02
         0.34063E-02
         0.35333E-02
         0.35333E-02
         0.29775E-02
         0.32325E-02
         0.29004E-02
         0.29865E-02
         0.36967E-02
         0.37161E-02
         0.37161E-02
         0.33875E-02
         0.29003E-02
         0.31973E-02
         0.32796E-02
         0.32796E-02
         0.27006E-02
         0.25920E-02
         0.25895E-02
         0.26882E-02
         0.28575E-02
         0.29522E-02
         0.29714E-02
         0.29714E-02
         0.26475E-02
         0.27684E-02
         0.34063E-02
         0.35333E-02
         0.35333E-02
         0.29775E-02
         0.31422E-02
         0.31422E-02
         0.43145E-02
         0.43145E-02
         0.43145E-02
         0.43145E-02
         0.34886E-02
         0.34886E-02
         0.32769E-02
         0.32102E-02
         0.37844E-02
         0.31868E-02
         0.27103E-02
         0.33871E-02
         0.37160E-02
         0.27394E-02
         0.29015E-02
         0.36995E-02
         0.36000E-02
         0.37844E-02
         0.29903E-02
         0.29903E-02
         0.28580E-02
         0.26890E-02
         0.29523E-02
         0.28079E-02
         0.30079E-02
         0.36995E-02
         0.28589E-02
         0.28589E-02
         0.27550E-02
         0.26152E-02
         0.36995E-02
         0.36995E-02
         0.37768E-02
         0.37768E-02
         0.30238E-02
         0.36956E-02
         0.37160E-02
         0.31986E-02
         0.32802E-02
         0.32802E-02
         0.27006E-02
         0.25920E-02
         0.25887E-02
         0.29714E-02
         0.29714E-02
         0.26475E-02
         0.29098E-02
         0.34056E-02
         0.35327E-02
         0.35327E-02
         0.29778E-02
         0.32342E-02
         0.28977E-02
         0.29875E-02
         0.36956E-02
         0.37160E-02
         0.37160E-02
         0.33871E-02
         0.29015E-02
         0.31986E-02
         0.32802E-02
         0.32802E-02
         0.27006E-02
         0.25920E-02
         0.25887E-02
         0.26890E-02
         0.28580E-02
         0.29523E-02
         0.29714E-02
         0.29714E-02
         0.26475E-02
         0.27683E-02
         0.34056E-02
         0.35327E-02
         0.35327E-02
         0.29778E-02
         0.31435E-02
         0.31435E-02
         0.43143E-02
         0.43143E-02
         0.43143E-02
         0.43143E-02
         0.34887E-02
         0.34887E-02
         0.32755E-02
         0.32091E-02
         0.37839E-02
         0.31864E-02
         0.27086E-02
         0.33867E-02
         0.37159E-02
         0.27347E-02
         0.29027E-02
         0.36991E-02
         0.36036E-02
         0.37839E-02
         0.29920E-02
         0.29920E-02
         0.28585E-02
         0.26897E-02
         0.29525E-02
         0.28082E-02
         0.30105E-02
         0.36991E-02
         0.28563E-02
         0.28563E-02
         0.27537E-02
         0.26142E-02
         0.36991E-02
         0.36991E-02
         0.37789E-02
         0.37789E-02
         0.30240E-02
         0.36944E-02
         0.37159E-02
         0.31999E-02
         0.32808E-02
         0.32808E-02
         0.27006E-02
         0.25920E-02
         0.25880E-02
         0.29714E-02
         0.29714E-02
         0.26474E-02
         0.29097E-02
         0.34049E-02
         0.35322E-02
         0.35322E-02
         0.29781E-02
         0.32360E-02
         0.28949E-02
         0.29885E-02
         0.36944E-02
         0.37159E-02
         0.37159E-02
         0.33867E-02
         0.29027E-02
         0.31999E-02
         0.32808E-02
         0.32808E-02
         0.27006E-02
         0.25920E-02
         0.25880E-02
         0.26897E-02
         0.28585E-02
         0.29525E-02
         0.29714E-02
         0.29714E-02
         0.26474E-02
         0.27683E-02
         0.34049E-02
         0.35322E-02
         0.35322E-02
         0.29781E-02
         0.31449E-02
         0.31449E-02
         0.43140E-02
         0.43140E-02
         0.43140E-02
         0.43140E-02
         0.34888E-02
         0.34888E-02
         0.32740E-02
         0.32081E-02
         0.37834E-02
         0.31860E-02
         0.27069E-02
         0.33863E-02
         0.37158E-02
         0.27299E-02
         0.29039E-02
         0.36988E-02
         0.36071E-02
         0.37834E-02
         0.29946E-02
         0.29946E-02
         0.28589E-02
         0.26905E-02
         0.29526E-02
         0.28085E-02
         0.30131E-02
         0.36988E-02
         0.28538E-02
         0.28538E-02
         0.27524E-02
         0.26132E-02
         0.36988E-02
         0.36988E-02
         0.37809E-02
         0.37809E-02
         0.30241E-02
         0.36932E-02
         0.37158E-02
         0.32012E-02
         0.32814E-02
         0.32814E-02
         0.27006E-02
         0.25920E-02
         0.25873E-02
         0.29714E-02
         0.29714E-02
         0.26473E-02
         0.29097E-02
         0.34041E-02
         0.35316E-02
         0.35316E-02
         0.29784E-02
         0.32378E-02
         0.28921E-02
         0.29895E-02
         0.36932E-02
         0.37158E-02
         0.37158E-02
         0.33863E-02
         0.29039E-02
         0.32012E-02
         0.32814E-02
         0.32814E-02
         0.27006E-02
         0.25920E-02
         0.25873E-02
         0.26905E-02
         0.28589E-02
         0.29526E-02
         0.29714E-02
         0.29714E-02
         0.26473E-02
         0.27683E-02
         0.34041E-02
         0.35316E-02
         0.35316E-02
         0.29784E-02
         0.31463E-02
         0.31463E-02
         0.43138E-02
         0.43138E-02
         0.43138E-02
         0.43138E-02
         0.34888E-02
         0.34888E-02
         0.32726E-02
         0.32071E-02
         0.37830E-02
         0.31856E-02
         0.27051E-02
         0.33859E-02
         0.37157E-02
         0.27252E-02
         0.29051E-02
         0.36985E-02
         0.36106E-02
         0.37830E-02
         0.29972E-02
         0.29972E-02
         0.28594E-02
         0.26912E-02
         0.29528E-02
         0.28087E-02
         0.30156E-02
         0.36985E-02
         0.28512E-02
         0.28512E-02
         0.27512E-02
         0.26122E-02
         0.36985E-02
         0.36985E-02
         0.37830E-02
         0.37830E-02
         0.30243E-02
         0.36920E-02
         0.37157E-02
         0.32025E-02
         0.32821E-02
         0.32821E-02
         0.27006E-02
         0.25920E-02
         0.25866E-02
         0.29714E-02
         0.29714E-02
         0.26473E-02
         0.29096E-02
         0.34034E-02
         0.35310E-02
         0.35310E-02
         0.29787E-02
         0.32396E-02
         0.28894E-02
         0.29905E-02
         0.36920E-02
         0.37157E-02
         0.37157E-02
         0.33859E-02
         0.29051E-02
         0.32025E-02
         0.32821E-02
         0.32821E-02
         0.27006E-02
         0.25920E-02
         0.25866E-02
         0.26912E-02
         0.28594E-02
         0.29528E-02
         0.29714E-02
         0.29714E-02
         0.26473E-02
         0.27682E-02
         0.34034E-02
         0.35310E-02
         0.35310E-02
         0.29787E-02
         0.31476E-02
         0.31476E-02
         0.43135E-02
         0.43135E-02
         0.43135E-02
         0.43135E-02
         0.34889E-02
         0.34889E-02
         0.32712E-02
         0.32061E-02
         0.37825E-02
         0.31852E-02
         0.27034E-02
         0.33856E-02
         0.37156E-02
         0.27205E-02
         0.29063E-02
         0.36982E-02
         0.36142E-02
         0.37851E-02
         0.29998E-02
         0.29998E-02
         0.28599E-02
         0.26920E-02
         0.29529E-02
         0.28090E-02
         0.30182E-02
         0.36982E-02
         0.28486E-02
         0.28486E-02
         0.27499E-02
         0.26112E-02
         0.36982E-02
         0.36982E-02
         0.37851E-02
         0.37851E-02
         0.30245E-02
         0.36908E-02
         0.37156E-02
         0.32038E-02
         0.32827E-02
         0.32827E-02
         0.27006E-02
         0.25920E-02
         0.25859E-02
         0.29714E-02
         0.29714E-02
         0.26472E-02
         0.29095E-02
         0.34027E-02
         0.35304E-02
         0.35304E-02
         0.29790E-02
         0.32413E-02
         0.28866E-02
         0.29915E-02
         0.36908E-02
         0.37156E-02
         0.37156E-02
         0.33856E-02
         0.29063E-02
         0.32038E-02
         0.32827E-02
         0.32827E-02
         0.27006E-02
         0.25920E-02
         0.25859E-02
         0.26920E-02
         0.28599E-02
         0.29529E-02
         0.29714E-02
         0.29714E-02
         0.26472E-02
         0.27682E-02
         0.34027E-02
         0.35304E-02
         0.35304E-02
         0.29790E-02
         0.31490E-02
         0.31490E-02
         0.43133E-02
         0.43133E-02
         0.43133E-02
         0.43133E-02
         0.34890E-02
         0.34890E-02
         0.32698E-02
         0.32051E-02
         0.37820E-02
         0.31848E-02
         0.27017E-02
         0.33851E-02
         0.37155E-02
         0.27158E-02
         0.29075E-02
         0.36979E-02
         0.36177E-02
         0.37871E-02
         0.30024E-02
         0.30024E-02
         0.28603E-02
         0.26927E-02
         0.29530E-02
         0.28093E-02
         0.30208E-02
         0.36979E-02
         0.28460E-02
         0.28460E-02
         0.27486E-02
         0.26101E-02
         0.36979E-02
         0.36979E-02
         0.37871E-02
         0.37871E-02
         0.30247E-02
         0.36896E-02
         0.37155E-02
         0.32051E-02
         0.32833E-02
         0.32833E-02
         0.27006E-02
         0.25920E-02
         0.25851E-02
         0.29714E-02
         0.29714E-02
         0.26472E-02
         0.29094E-02
         0.34019E-02
         0.35299E-02
         0.35299E-02
         0.29793E-02
         0.32431E-02
         0.28838E-02
         0.29925E-02
         0.36896E-02
         0.37155E-02
         0.37155E-02
         0.33851E-02
         0.29075E-02
         0.32051E-02
         0.32833E-02
         0.32833E-02
         0.27006E-02
         0.25920E-02
         0.25851E-02
         0.26927E-02
         0.28603E-02
         0.29530E-02
         0.29714E-02
         0.29714E-02
         0.26472E-02
         0.27681E-02
         0.34019E-02
         0.35299E-02
         0.35299E-02
         0.29793E-02
         0.31503E-02
         0.31503E-02
         0.43130E-02
         0.43130E-02
         0.43130E-02
         0.43130E-02
         0.34891E-02
         0.34891E-02
         0.32683E-02
         0.32041E-02
         0.37816E-02
         0.31844E-02
         0.27000E-02
         0.33848E-02
         0.37154E-02
         0.27111E-02
         0.29087E-02
         0.36976E-02
         0.36213E-02
         0.37892E-02
         0.30050E-02
         0.30050E-02
         0.28608E-02
         0.26935E-02
         0.29532E-02
         0.28096E-02
         0.30234E-02
         0.36976E-02
         0.28434E-02
         0.28434E-02
         0.27472E-02
         0.26091E-02
         0.36976E-02
         0.36976E-02
         0.37892E-02
         0.37892E-02
         0.30249E-02
         0.36885E-02
         0.37154E-02
         0.32064E-02
         0.32839E-02
         0.32839E-02
         0.27006E-02
         0.25920E-02
         0.25844E-02
         0.29714E-02
         0.29714E-02
         0.26471E-02
         0.29094E-02
         0.34012E-02
         0.35293E-02
         0.35293E-02
         0.29797E-02
         0.32449E-02
         0.28811E-02
         0.29935E-02
         0.36885E-02
         0.37154E-02
         0.37154E-02
         0.33848E-02
         0.29087E-02
         0.32064E-02
         0.32839E-02
         0.32839E-02
         0.27006E-02
         0.25920E-02
         0.25844E-02
         0.26935E-02
         0.28608E-02
         0.29532E-02
         0.29714E-02
         0.29714E-02
         0.26471E-02
         0.27681E-02
         0.34012E-02
         0.35293E-02
         0.35293E-02
         0.29797E-02
         0.31517E-02
         0.31517E-02
         0.43128E-02
         0.43128E-02
         0.43128E-02
         0.43128E-02
         0.34892E-02
         0.34892E-02
         0.32669E-02
         0.32031E-02
         0.37811E-02
         0.31840E-02
         0.26982E-02
         0.33844E-02
         0.37152E-02
         0.27063E-02
         0.29099E-02
         0.36973E-02
         0.36248E-02
         0.37913E-02
         0.30076E-02
         0.30076E-02
         0.28613E-02
         0.26942E-02
         0.29533E-02
         0.28099E-02
         0.30260E-02
         0.36973E-02
         0.28408E-02
         0.28408E-02
         0.27460E-02
         0.26081E-02
         0.36973E-02
         0.36973E-02
         0.37913E-02
         0.37913E-02
         0.30250E-02
         0.36873E-02
         0.37152E-02
         0.32077E-02
         0.32845E-02
         0.32845E-02
         0.27006E-02
         0.25920E-02
         0.25837E-02
         0.29714E-02
         0.29714E-02
         0.26471E-02
         0.29093E-02
         0.34005E-02
         0.35287E-02
         0.35287E-02
         0.29800E-02
         0.32467E-02
         0.28783E-02
         0.29945E-02
         0.36873E-02
         0.37152E-02
         0.37152E-02
         0.33844E-02
         0.29099E-02
         0.32077E-02
         0.32845E-02
         0.32845E-02
         0.27006E-02
         0.25920E-02
         0.25837E-02
         0.26942E-02
         0.28613E-02
         0.29533E-02
         0.29714E-02
         0.29714E-02
         0.26471E-02
         0.27681E-02
         0.34005E-02
         0.35287E-02
         0.35287E-02
         0.29800E-02
         0.31530E-02
         0.31530E-02
         0.43125E-02
         0.43125E-02
         0.43125E-02
         0.43125E-02
         0.34893E-02
         0.34893E-02
         0.32655E-02
         0.32021E-02
         0.37806E-02
         0.31836E-02
         0.26965E-02
         0.33840E-02
         0.37151E-02
         0.27016E-02
         0.29111E-02
         0.36969E-02
         0.36283E-02
         0.37933E-02
         0.30102E-02
         0.30102E-02
         0.28617E-02
         0.26950E-02
         0.29535E-02
         0.28101E-02
         0.30286E-02
         0.36969E-02
         0.28382E-02
         0.28382E-02
         0.27447E-02
         0.26071E-02
         0.36969E-02
         0.36969E-02
         0.37933E-02
         0.37933E-02
         0.30252E-02
         0.36861E-02
         0.37151E-02
         0.32090E-02
         0.32852E-02
         0.32852E-02
         0.27006E-02
         0.25920E-02
         0.25830E-02
         0.29714E-02
         0.29714E-02
         0.26470E-02
         0.29092E-02
         0.33997E-02
         0.35282E-02
         0.35282E-02
         0.29803E-02
         0.32484E-02
         0.28755E-02
         0.29955E-02
         0.36861E-02
         0.37151E-02
         0.37151E-02
         0.33840E-02
         0.29111E-02
         0.32090E-02
         0.32852E-02
         0.32852E-02
         0.27006E-02
         0.25920E-02
         0.25830E-02
         0.26950E-02
         0.28617E-02
         0.29535E-02
         0.29714E-02
         0.29714E-02
         0.26470E-02
         0.27680E-02
         0.33997E-02
         0.35282E-02
         0.35282E-02
         0.29803E-02
         0.31544E-02
         0.31544E-02
         0.43123E-02
         0.43123E-02
         0.43123E-02
         0.43123E-02
         0.34893E-02
         0.34893E-02
         0.32640E-02
         0.32011E-02
         0.37801E-02
         0.31832E-02
         0.26948E-02
         0.33836E-02
         0.37150E-02
         0.26969E-02
         0.29123E-02
         0.36966E-02
         0.36319E-02
         0.37954E-02
         0.30128E-02
         0.30128E-02
         0.28622E-02
         0.26957E-02
         0.29536E-02
         0.28104E-02
         0.30312E-02
         0.36966E-02
         0.28357E-02
         0.28357E-02
         0.27434E-02
         0.26061E-02
         0.36966E-02
         0.36966E-02
         0.37954E-02
         0.37954E-02
         0.30254E-02
         0.36849E-02
         0.37150E-02
         0.32103E-02
         0.32858E-02
         0.32858E-02
         0.27006E-02
         0.25920E-02
         0.25823E-02
         0.29714E-02
         0.29714E-02
         0.26470E-02
         0.29091E-02
         0.33990E-02
         0.35276E-02
         0.35276E-02
         0.29806E-02
         0.32502E-02
         0.28728E-02
         0.29965E-02
         0.36849E-02
         0.37150E-02
         0.37150E-02
         0.33836E-02
         0.29123E-02
         0.32103E-02
         0.32858E-02
         0.32858E-02
         0.27006E-02
         0.25920E-02
         0.25823E-02
         0.26957E-02
         0.28622E-02
         0.29536E-02
         0.29714E-02
         0.29714E-02
         0.26470E-02
         0.27680E-02
         0.33990E-02
         0.35276E-02
         0.35276E-02
         0.29806E-02
         0.31557E-02
         0.31557E-02
         0.43120E-02
         0.43120E-02
         0.43120E-02
         0.43120E-02
         0.34894E-02
         0.34894E-02
         0.32626E-02
         0.32001E-02
         0.37797E-02
         0.31828E-02
         0.26931E-02
         0.33832E-02
         0.37149E-02
         0.26922E-02
         0.29135E-02
         0.36963E-02
         0.36354E-02
         0.37975E-02
         0.30154E-02
         0.30154E-02
         0.28627E-02
         0.26965E-02
         0.29537E-02
         0.28107E-02
         0.30338E-02
         0.36963E-02
         0.28331E-02
         0.28331E-02
         0.27421E-02
         0.26051E-02
         0.36963E-02
         0.36963E-02
         0.37975E-02
         0.37975E-02
         0.30256E-02
         0.36838E-02
         0.37149E-02
         0.32116E-02
         0.32864E-02
         0.32864E-02
         0.27006E-02
         0.25920E-02
         0.25815E-02
         0.29714E-02
         0.29714E-02
         0.26469E-02
         0.29090E-02
         0.33983E-02
         0.35270E-02
         0.35270E-02
         0.29809E-02
         0.32519E-02
         0.28700E-02
         0.29975E-02
         0.36838E-02
         0.37149E-02
         0.37149E-02
         0.33832E-02
         0.29135E-02
         0.32116E-02
         0.32864E-02
         0.32864E-02
         0.27006E-02
         0.25920E-02
         0.25815E-02
         0.26965E-02
         0.28627E-02
         0.29537E-02
         0.29714E-02
         0.29714E-02
         0.26469E-02
         0.27680E-02
         0.33983E-02
         0.35270E-02
         0.35270E-02
         0.29809E-02
         0.31571E-02
         0.31571E-02
         0.43118E-02
         0.43118E-02
         0.43118E-02
         0.43118E-02
         0.34895E-02
         0.34895E-02
         0.32612E-02
         0.31990E-02
         0.37792E-02
         0.31824E-02
         0.26913E-02
         0.33828E-02
         0.37148E-02
         0.26875E-02
         0.29148E-02
         0.36960E-02
         0.36390E-02
         0.37995E-02
         0.30180E-02
         0.30180E-02
         0.28631E-02
         0.26972E-02
         0.29539E-02
         0.28110E-02
         0.30364E-02
         0.36960E-02
         0.28305E-02
         0.28305E-02
         0.27408E-02
         0.26040E-02
         0.36960E-02
         0.36960E-02
         0.37995E-02
         0.37995E-02
         0.30258E-02
         0.36826E-02
         0.37148E-02
         0.32129E-02
         0.32870E-02
         0.32870E-02
         0.27006E-02
         0.25920E-02
         0.25808E-02
         0.29713E-02
         0.29713E-02
         0.26468E-02
         0.29089E-02
         0.33975E-02
         0.35264E-02
         0.35264E-02
         0.29812E-02
         0.32537E-02
         0.28672E-02
         0.29985E-02
         0.36826E-02
         0.37148E-02
         0.37148E-02
         0.33828E-02
         0.29148E-02
         0.32129E-02
         0.32870E-02
         0.32870E-02
         0.27006E-02
         0.25920E-02
         0.25808E-02
         0.26972E-02
         0.28631E-02
         0.29539E-02
         0.29713E-02
         0.29713E-02
         0.26468E-02
         0.27679E-02
         0.33975E-02
         0.35264E-02
         0.35264E-02
         0.29812E-02
         0.31585E-02
         0.31585E-02
         0.43115E-02
         0.43115E-02
         0.43115E-02
         0.43115E-02
         0.34896E-02
         0.34896E-02
         0.32597E-02
         0.31980E-02
         0.37787E-02
         0.31820E-02
         0.26896E-02
         0.33824E-02
         0.37147E-02
         0.26827E-02
         0.29160E-02
         0.36957E-02
         0.36425E-02
         0.38016E-02
         0.30206E-02
         0.30206E-02
         0.28636E-02
         0.26980E-02
         0.29540E-02
         0.28112E-02
         0.30390E-02
         0.36957E-02
         0.28279E-02
         0.28279E-02
         0.27395E-02
         0.26030E-02
         0.36957E-02
         0.36957E-02
         0.38016E-02
         0.38016E-02
         0.30260E-02
         0.36814E-02
         0.37147E-02
         0.32141E-02
         0.32876E-02
         0.32876E-02
         0.27006E-02
         0.25920E-02
         0.25801E-02
         0.29713E-02
         0.29713E-02
         0.26468E-02
         0.29089E-02
         0.33968E-02
         0.35259E-02
         0.35259E-02
         0.29815E-02
         0.32555E-02
         0.28645E-02
         0.29995E-02
         0.36814E-02
         0.37147E-02
         0.37147E-02
         0.33824E-02
         0.29160E-02
         0.32141E-02
         0.32876E-02
         0.32876E-02
         0.27006E-02
         0.25920E-02
         0.25801E-02
         0.26980E-02
         0.28636E-02
         0.29540E-02
         0.29713E-02
         0.29713E-02
         0.26468E-02
         0.27679E-02
         0.33968E-02
         0.35259E-02
         0.35259E-02
         0.29815E-02
         0.31598E-02
         0.31598E-02
         0.43113E-02
         0.43113E-02
         0.43113E-02
         0.43113E-02
         0.34897E-02
         0.34897E-02
         0.32583E-02
         0.31970E-02
         0.37783E-02
         0.31816E-02
         0.26879E-02
         0.33820E-02
         0.37146E-02
         0.26780E-02
         0.29172E-02
         0.36954E-02
         0.36460E-02
         0.38037E-02
         0.30232E-02
         0.30232E-02
         0.28641E-02
         0.26987E-02
         0.29542E-02
         0.28115E-02
         0.30416E-02
         0.36954E-02
         0.28253E-02
         0.28253E-02
         0.27382E-02
         0.26020E-02
         0.36954E-02
         0.36954E-02
         0.38037E-02
         0.38037E-02
         0.30261E-02
         0.36802E-02
         0.37146E-02
         0.32154E-02
         0.32882E-02
         0.32882E-02
         0.27006E-02
         0.25921E-02
         0.25794E-02
         0.29713E-02
         0.29713E-02
         0.26467E-02
         0.29088E-02
         0.33961E-02
         0.35253E-02
         0.35253E-02
         0.29818E-02
         0.32573E-02
         0.28617E-02
         0.30005E-02
         0.36802E-02
         0.37146E-02
         0.37146E-02
         0.33820E-02
         0.29172E-02
         0.32154E-02
         0.32882E-02
         0.32882E-02
         0.27006E-02
         0.25921E-02
         0.25794E-02
         0.26987E-02
         0.28641E-02
         0.29542E-02
         0.29713E-02
         0.29713E-02
         0.26467E-02
         0.27678E-02
         0.33961E-02
         0.35253E-02
         0.35253E-02
         0.29818E-02
         0.31612E-02
         0.31612E-02
         0.43110E-02
         0.43110E-02
         0.43110E-02
         0.43110E-02
         0.34898E-02
         0.34898E-02
         0.32569E-02
         0.31960E-02
         0.37778E-02
         0.31812E-02
         0.26862E-02
         0.33816E-02
         0.37145E-02
         0.26733E-02
         0.29184E-02
         0.36950E-02
         0.36495E-02
         0.38057E-02
         0.30258E-02
         0.30258E-02
         0.28645E-02
         0.26995E-02
         0.29543E-02
         0.28118E-02
         0.30442E-02
         0.36950E-02
         0.28227E-02
         0.28227E-02
         0.27369E-02
         0.26010E-02
         0.36950E-02
         0.36950E-02
         0.38057E-02
         0.38057E-02
         0.30263E-02
         0.36790E-02
         0.37145E-02
         0.32167E-02
         0.32889E-02
         0.32889E-02
         0.27006E-02
         0.25921E-02
         0.25787E-02
         0.29713E-02
         0.29713E-02
         0.26467E-02
         0.29087E-02
         0.33953E-02
         0.35247E-02
         0.35247E-02
         0.29821E-02
         0.32590E-02
         0.28589E-02
         0.30015E-02
         0.36790E-02
         0.37145E-02
         0.37145E-02
         0.33816E-02
         0.29184E-02
         0.32167E-02
         0.32889E-02
         0.32889E-02
         0.27006E-02
         0.25921E-02
         0.25787E-02
         0.26995E-02
         0.28645E-02
         0.29543E-02
         0.29713E-02
         0.29713E-02
         0.26467E-02
         0.27678E-02
         0.33953E-02
         0.35247E-02
         0.35247E-02
         0.29821E-02
         0.31625E-02
         0.31625E-02
         0.43108E-02
         0.43108E-02
         0.43108E-02
         0.43108E-02
         0.34898E-02
         0.34898E-02
         0.32555E-02
         0.31950E-02
         0.37773E-02
         0.31808E-02
         0.26845E-02
         0.33812E-02
         0.37144E-02
         0.26686E-02
         0.29196E-02
         0.36948E-02
         0.36531E-02
         0.38078E-02
         0.30285E-02
         0.30285E-02
         0.28650E-02
         0.27002E-02
         0.29544E-02
         0.28120E-02
         0.30467E-02
         0.36948E-02
         0.28201E-02
         0.28201E-02
         0.27356E-02
         0.26000E-02
         0.36948E-02
         0.36948E-02
         0.38078E-02
         0.38078E-02
         0.30265E-02
         0.36779E-02
         0.37144E-02
         0.32181E-02
         0.32895E-02
         0.32895E-02
         0.27006E-02
         0.25921E-02
         0.25779E-02
         0.29713E-02
         0.29713E-02
         0.26466E-02
         0.29086E-02
         0.33946E-02
         0.35242E-02
         0.35242E-02
         0.29824E-02
         0.32608E-02
         0.28562E-02
         0.30025E-02
         0.36779E-02
         0.37144E-02
         0.37144E-02
         0.33812E-02
         0.29196E-02
         0.32181E-02
         0.32895E-02
         0.32895E-02
         0.27006E-02
         0.25921E-02
         0.25779E-02
         0.27002E-02
         0.28650E-02
         0.29544E-02
         0.29713E-02
         0.29713E-02
         0.26466E-02
         0.27678E-02
         0.33946E-02
         0.35242E-02
         0.35242E-02
         0.29824E-02
         0.31639E-02
         0.31639E-02
         0.43105E-02
         0.43105E-02
         0.43105E-02
         0.43105E-02
         0.34899E-02
         0.34899E-02
         0.32540E-02
         0.31940E-02
         0.37768E-02
         0.31804E-02
         0.26827E-02
         0.33808E-02
         0.37143E-02
         0.26639E-02
         0.29208E-02
         0.36944E-02
         0.36566E-02
         0.38099E-02
         0.30311E-02
         0.30311E-02
         0.28655E-02
         0.27010E-02
         0.29546E-02
         0.28123E-02
         0.30493E-02
         0.36944E-02
         0.28175E-02
         0.28175E-02
         0.27343E-02
         0.25990E-02
         0.36944E-02
         0.36944E-02
         0.38099E-02
         0.38099E-02
         0.30267E-02
         0.36767E-02
         0.37143E-02
         0.32193E-02
         0.32901E-02
         0.32901E-02
         0.27006E-02
         0.25921E-02
         0.25772E-02
         0.29713E-02
         0.29713E-02
         0.26466E-02
         0.29085E-02
         0.33939E-02
         0.35236E-02
         0.35236E-02
         0.29827E-02
         0.32626E-02
         0.28534E-02
         0.30035E-02
         0.36767E-02
         0.37143E-02
         0.37143E-02
         0.33808E-02
         0.29208E-02
         0.32193E-02
         0.32901E-02
         0.32901E-02
         0.27006E-02
         0.25921E-02
         0.25772E-02
         0.27010E-02
         0.28655E-02
         0.29546E-02
         0.29713E-02
         0.29713E-02
         0.26466E-02
         0.27677E-02
         0.33939E-02
         0.35236E-02
         0.35236E-02
         0.29827E-02
         0.31652E-02
         0.31652E-02
         0.43103E-02
         0.43103E-02
         0.43103E-02
         0.43103E-02
         0.34900E-02
         0.34900E-02
         0.32526E-02
         0.31930E-02
         0.37764E-02
         0.31800E-02
         0.26810E-02
         0.33804E-02
         0.37142E-02
         0.26591E-02
         0.29220E-02
         0.36941E-02
         0.36602E-02
         0.38119E-02
         0.30337E-02
         0.30337E-02
         0.28660E-02
         0.27017E-02
         0.29547E-02
         0.28126E-02
         0.30519E-02
         0.36941E-02
         0.28150E-02
         0.28150E-02
         0.27330E-02
         0.25979E-02
         0.36941E-02
         0.36941E-02
         0.38119E-02
         0.38119E-02
         0.30269E-02
         0.36755E-02
         0.37142E-02
         0.32206E-02
         0.32907E-02
         0.32907E-02
         0.27006E-02
         0.25921E-02
         0.25765E-02
         0.29713E-02
         0.29713E-02
         0.26465E-02
         0.29085E-02
         0.33931E-02
         0.35230E-02
         0.35230E-02
         0.29830E-02
         0.32643E-02
         0.28507E-02
         0.30045E-02
         0.36755E-02
         0.37142E-02
         0.37142E-02
         0.33804E-02
         0.29220E-02
         0.32206E-02
         0.32907E-02
         0.32907E-02
         0.27006E-02
         0.25921E-02
         0.25765E-02
         0.27017E-02
         0.28660E-02
         0.29547E-02
         0.29713E-02
         0.29713E-02
         0.26465E-02
         0.27677E-02
         0.33931E-02
         0.35230E-02
         0.35230E-02
         0.29830E-02
         0.31666E-02
         0.31666E-02
         0.43100E-02
         0.43100E-02
         0.43100E-02
         0.43100E-02
         0.34901E-02
         0.34901E-02
         0.32512E-02
         0.31920E-02
         0.37759E-02
         0.31796E-02
         0.26793E-02
         0.33800E-02
         0.37141E-02
         0.26544E-02
         0.29232E-02
         0.36938E-02
         0.36637E-02
         0.38140E-02
         0.30363E-02
         0.30363E-02
         0.28664E-02
         0.27025E-02
         0.29548E-02
         0.28129E-02
         0.30545E-02
         0.36938E-02
         0.28124E-02
         0.28124E-02
         0.27317E-02
         0.25969E-02
         0.36938E-02
         0.36938E-02
         0.38140E-02
         0.38140E-02
         0.30271E-02
         0.36743E-02
         0.37141E-02
         0.32219E-02
         0.32913E-02
         0.32913E-02
         0.27006E-02
         0.25921E-02
         0.25758E-02
         0.29713E-02
         0.29713E-02
         0.26465E-02
         0.29084E-02
         0.33924E-02
         0.35224E-02
         0.35224E-02
         0.29833E-02
         0.32661E-02
         0.28479E-02
         0.30055E-02
         0.36743E-02
         0.37141E-02
         0.37141E-02
         0.33800E-02
         0.29232E-02
         0.32219E-02
         0.32913E-02
         0.32913E-02
         0.27006E-02
         0.25921E-02
         0.25758E-02
         0.27025E-02
         0.28664E-02
         0.29548E-02
         0.29713E-02
         0.29713E-02
         0.26465E-02
         0.27677E-02
         0.33924E-02
         0.35224E-02
         0.35224E-02
         0.29833E-02
         0.31680E-02
         0.31680E-02
         0.43098E-02
         0.43098E-02
         0.43098E-02
         0.43098E-02
         0.34901E-02
         0.34901E-02
         0.32498E-02
         0.31910E-02
         0.37754E-02
         0.31792E-02
         0.26776E-02
         0.33796E-02
         0.37140E-02
         0.26497E-02
         0.29232E-02
         0.36935E-02
         0.36637E-02
         0.38140E-02
         0.30363E-02
         0.30363E-02
         0.28664E-02
         0.27025E-02
         0.29548E-02
         0.28129E-02
         0.30545E-02
         0.36935E-02
         0.28098E-02
         0.28098E-02
         0.27304E-02
         0.25959E-02
         0.36935E-02
         0.36935E-02
         0.38140E-02
         0.38140E-02
         0.30271E-02
         0.36731E-02
         0.37140E-02
         0.32219E-02
         0.32913E-02
         0.32913E-02
         0.27006E-02
         0.25921E-02
         0.25751E-02
         0.29713E-02
         0.29713E-02
         0.26464E-02
         0.29083E-02
         0.33916E-02
         0.35219E-02
         0.35219E-02
         0.29833E-02
         0.32661E-02
         0.28451E-02
         0.30055E-02
         0.36731E-02
         0.37140E-02
         0.37140E-02
         0.33796E-02
         0.29232E-02
         0.32219E-02
         0.32913E-02
         0.32913E-02
         0.27006E-02
         0.25921E-02
         0.25751E-02
         0.27025E-02
         0.28664E-02
         0.29548E-02
         0.29713E-02
         0.29713E-02
         0.26464E-02
         0.27676E-02
         0.33916E-02
         0.35219E-02
         0.35219E-02
         0.29833E-02
         0.31680E-02
         0.31680E-02
  
SCALARS              physical_window_z  double 1
LOOKUP_TABLE default
         0.26928E-02
         0.26928E-02
         0.26928E-02
         0.26928E-02
         0.26928E-02
         0.26928E-02
         0.26928E-02
         0.26928E-02
         0.26928E-02
         0.26928E-02
         0.26928E-02
         0.26928E-02
         0.26928E-02
         0.26928E-02
         0.26928E-02
         0.26928E-02
         0.26928E-02
         0.26928E-02
         0.26928E-02
         0.26928E-02
         0.26928E-02
         0.26928E-02
         0.26928E-02
         0.26928E-02
         0.26928E-02
         0.26928E-02
         0.26928E-02
         0.26928E-02
         0.26928E-02
         0.26928E-02
         0.26928E-02
         0.26928E-02
         0.26928E-02
         0.26928E-02
         0.26928E-02
         0.26928E-02
         0.26928E-02
         0.26928E-02
         0.26928E-02
         0.26928E-02
         0.26928E-02
         0.26928E-02
         0.26928E-02
         0.26928E-02
         0.26928E-02
         0.26928E-02
         0.26928E-02
         0.26928E-02
         0.26928E-02
         0.26928E-02
         0.26928E-02
         0.26928E-02
         0.26928E-02
         0.26928E-02
         0.26928E-02
         0.26928E-02
         0.26928E-02
         0.26928E-02
         0.26928E-02
         0.26928E-02
         0.26928E-02
         0.26928E-02
         0.26928E-02
         0.26928E-02
         0.26928E-02
         0.26928E-02
         0.26928E-02
         0.26928E-02
         0.26928E-02
         0.26928E-02
         0.26928E-02
         0.26928E-02
         0.26928E-02
         0.26928E-02
         0.26928E-02
         0.26928E-02
         0.26928E-02
         0.26928E-02
         0.26928E-02
         0.26928E-02
         0.26928E-02
         0.26928E-02
         0.26928E-02
         0.26928E-02
         0.26928E-02
         0.26928E-02
         0.26928E-02
         0.26928E-02
         0.26928E-02
         0.26928E-02
         0.26928E-02
         0.26928E-02
         0.26928E-02
         0.26928E-02
         0.26928E-02
         0.26928E-02
         0.26928E-02
         0.26928E-02
         0.26928E-02
         0.26928E-02
         0.26928E-02
         0.26928E-02
         0.26928E-02
         0.26928E-02
         0.26928E-02
         0.26928E-02
         0.26928E-02
         0.26928E-02
         0.26928E-02
         0.26928E-02
         0.26928E-02
         0.26928E-02
         0.26928E-02
         0.26928E-02
         0.26928E-02
         0.26928E-02
         0.26928E-02
         0.26928E-02
         0.26928E-02
         0.26928E-02
         0.26928E-02
         0.26928E-02
         0.26928E-02
         0.26928E-02
         0.26928E-02
         0.26928E-02
         0.26928E-02
         0.26928E-02
         0.26928E-02
         0.26928E-02
         0.26928E-02
         0.26928E-02
         0.26928E-02
         0.26928E-02
         0.26928E-02
         0.26928E-02
         0.26928E-02
         0.26928E-02
         0.26928E-02
         0.26928E-02
         0.26928E-02
         0.26928E-02
         0.26928E-02
         0.26928E-02
         0.26928E-02
         0.26928E-02
         0.26928E-02
         0.26928E-02
         0.26928E-02
         0.26928E-02
         0.26928E-02
         0.26928E-02
         0.26928E-02
         0.26928E-02
         0.26928E-02
         0.26928E-02
         0.26927E-02
         0.26927E-02
         0.26927E-02
         0.26927E-02
         0.26927E-02
         0.26927E-02
         0.26927E-02
         0.26927E-02
         0.26927E-02
         0.26927E-02
         0.26927E-02
         0.26927E-02
         0.26927E-02
         0.26927E-02
         0.26927E-02
         0.26927E-02
         0.26927E-02
         0.26927E-02
         0.26927E-02
         0.26927E-02
         0.26927E-02
         0.26927E-02
         0.26927E-02
         0.26927E-02
         0.26927E-02
         0.26927E-02
         0.26927E-02
         0.26927E-02
         0.26927E-02
         0.26927E-02
         0.26927E-02
         0.26927E-02
         0.26927E-02
         0.26927E-02
         0.26927E-02
         0.26927E-02
         0.26927E-02
         0.26927E-02
         0.26927E-02
         0.26927E-02
         0.26927E-02
         0.26927E-02
         0.26927E-02
         0.26927E-02
         0.26927E-02
         0.26927E-02
         0.26927E-02
         0.26927E-02
         0.26927E-02
         0.26927E-02
         0.26927E-02
         0.26927E-02
         0.26927E-02
         0.26927E-02
         0.26927E-02
         0.26927E-02
         0.26927E-02
         0.26927E-02
         0.26927E-02
         0.26927E-02
         0.26927E-02
         0.26927E-02
         0.26927E-02
         0.26927E-02
         0.26927E-02
         0.26927E-02
         0.26927E-02
         0.26927E-02
         0.26927E-02
         0.26927E-02
         0.26927E-02
         0.26927E-02
         0.26927E-02
         0.26927E-02
         0.26927E-02
         0.26927E-02
         0.26927E-02
         0.26927E-02
         0.26927E-02
         0.26927E-02
         0.26927E-02
         0.26927E-02
         0.26927E-02
         0.26927E-02
         0.26927E-02
         0.26927E-02
         0.26927E-02
         0.26927E-02
         0.26927E-02
         0.26927E-02
         0.26927E-02
         0.26927E-02
         0.26927E-02
         0.26927E-02
         0.26927E-02
         0.26927E-02
         0.26927E-02
         0.26927E-02
         0.26927E-02
         0.26927E-02
         0.26927E-02
         0.26927E-02
         0.26927E-02
         0.26927E-02
         0.26927E-02
         0.26927E-02
         0.26927E-02
         0.26927E-02
         0.26927E-02
         0.26927E-02
         0.26927E-02
         0.26927E-02
         0.26927E-02
         0.26927E-02
         0.26927E-02
         0.26927E-02
         0.26927E-02
         0.26927E-02
         0.26927E-02
         0.26927E-02
         0.26927E-02
         0.26927E-02
         0.26927E-02
         0.26927E-02
         0.26927E-02
         0.26927E-02
         0.26927E-02
         0.26927E-02
         0.26927E-02
         0.26927E-02
         0.26927E-02
         0.26927E-02
         0.26927E-02
         0.26927E-02
         0.26927E-02
         0.26927E-02
         0.26927E-02
         0.26927E-02
         0.26927E-02
         0.26927E-02
         0.26927E-02
         0.26927E-02
         0.26927E-02
         0.26927E-02
         0.26927E-02
         0.26927E-02
         0.26927E-02
         0.26927E-02
         0.26927E-02
         0.26927E-02
         0.26927E-02
         0.26927E-02
         0.26927E-02
         0.26927E-02
         0.26927E-02
         0.26927E-02
         0.26927E-02
         0.26927E-02
         0.26927E-02
         0.26927E-02
         0.26927E-02
         0.26927E-02
         0.26927E-02
         0.26927E-02
         0.26927E-02
         0.26927E-02
         0.26927E-02
         0.26927E-02
         0.26927E-02
         0.26927E-02
         0.26927E-02
         0.26927E-02
         0.26927E-02
         0.26927E-02
         0.26927E-02
         0.26927E-02
         0.26927E-02
         0.26927E-02
         0.26927E-02
         0.26927E-02
         0.26927E-02
         0.26927E-02
         0.26927E-02
         0.26927E-02
         0.26927E-02
         0.26927E-02
         0.26927E-02
         0.26927E-02
         0.26927E-02
         0.26927E-02
         0.26927E-02
         0.26927E-02
         0.26927E-02
         0.26927E-02
         0.26927E-02
         0.26927E-02
         0.26927E-02
         0.26927E-02
         0.26927E-02
         0.26927E-02
         0.26927E-02
         0.26927E-02
         0.26927E-02
         0.26927E-02
         0.26927E-02
         0.26927E-02
         0.26927E-02
         0.26927E-02
         0.26927E-02
         0.26927E-02
         0.26927E-02
         0.26927E-02
         0.26927E-02
         0.26927E-02
         0.26927E-02
         0.26927E-02
         0.26927E-02
         0.26927E-02
         0.26927E-02
         0.26927E-02
         0.26927E-02
         0.26927E-02
         0.26927E-02
         0.26927E-02
         0.26927E-02
         0.26927E-02
         0.26927E-02
         0.26927E-02
         0.26927E-02
         0.26927E-02
         0.26927E-02
         0.26927E-02
         0.26927E-02
         0.26927E-02
         0.26927E-02
         0.26927E-02
         0.26927E-02
         0.26927E-02
         0.26927E-02
         0.26927E-02
         0.26927E-02
         0.26927E-02
         0.26927E-02
         0.26927E-02
         0.26927E-02
         0.26927E-02
         0.26927E-02
         0.26927E-02
         0.26927E-02
         0.26927E-02
         0.26927E-02
         0.26927E-02
         0.26927E-02
         0.26927E-02
         0.26927E-02
         0.26927E-02
         0.26927E-02
         0.26927E-02
         0.26927E-02
         0.26927E-02
         0.26927E-02
         0.26927E-02
         0.26927E-02
         0.26927E-02
         0.26927E-02
         0.26927E-02
         0.26927E-02
         0.26927E-02
         0.26927E-02
         0.26927E-02
         0.26927E-02
         0.26927E-02
         0.26927E-02
         0.26927E-02
         0.26927E-02
         0.26927E-02
         0.26927E-02
         0.26927E-02
         0.26927E-02
         0.26927E-02
         0.26927E-02
         0.26927E-02
         0.26927E-02
         0.26927E-02
         0.26927E-02
         0.26927E-02
         0.26927E-02
         0.26927E-02
         0.26927E-02
         0.26927E-02
         0.26927E-02
         0.26927E-02
         0.26927E-02
         0.26927E-02
         0.26927E-02
         0.26927E-02
         0.26927E-02
         0.26927E-02
         0.26927E-02
         0.26927E-02
         0.26927E-02
         0.26927E-02
         0.26927E-02
         0.26927E-02
         0.26927E-02
         0.26927E-02
         0.26927E-02
         0.26927E-02
         0.26927E-02
         0.26927E-02
         0.26927E-02
         0.26927E-02
         0.26927E-02
         0.26927E-02
         0.26927E-02
         0.26927E-02
         0.26927E-02
         0.26927E-02
         0.26927E-02
         0.26927E-02
         0.26927E-02
         0.26927E-02
         0.26927E-02
         0.26927E-02
         0.26927E-02
         0.26927E-02
         0.26927E-02
         0.26927E-02
         0.26927E-02
         0.26927E-02
         0.26927E-02
         0.26927E-02
         0.26927E-02
         0.26927E-02
         0.26927E-02
         0.26927E-02
         0.26927E-02
         0.26927E-02
         0.26927E-02
         0.26927E-02
         0.26927E-02
         0.26927E-02
         0.26927E-02
         0.26927E-02
         0.26927E-02
         0.26927E-02
         0.26927E-02
         0.26927E-02
         0.26927E-02
         0.26927E-02
         0.26927E-02
         0.26927E-02
         0.26927E-02
         0.26927E-02
         0.26927E-02
         0.26927E-02
         0.26927E-02
         0.26927E-02
         0.26927E-02
         0.26927E-02
         0.26927E-02
         0.26927E-02
         0.26927E-02
         0.26927E-02
         0.26927E-02
         0.26927E-02
         0.26927E-02
         0.26927E-02
         0.26927E-02
         0.26927E-02
         0.26927E-02
         0.26927E-02
         0.26927E-02
         0.26927E-02
         0.26927E-02
         0.26927E-02
         0.26927E-02
         0.26927E-02
         0.26927E-02
         0.26927E-02
         0.26927E-02
         0.26927E-02
         0.26927E-02
         0.26927E-02
         0.26927E-02
         0.26927E-02
         0.26927E-02
         0.26927E-02
         0.26927E-02
         0.26927E-02
         0.26927E-02
         0.26927E-02
         0.26927E-02
         0.26927E-02
         0.26927E-02
         0.26927E-02
         0.26927E-02
         0.26927E-02
         0.26927E-02
         0.26927E-02
         0.26927E-02
         0.26927E-02
         0.26927E-02
         0.26927E-02
         0.26927E-02
         0.26927E-02
         0.26927E-02
         0.26927E-02
         0.26927E-02
         0.26927E-02
         0.26927E-02
         0.26927E-02
         0.26927E-02
         0.26927E-02
         0.26927E-02
         0.26927E-02
         0.26927E-02
         0.26927E-02
         0.26927E-02
         0.26927E-02
         0.26927E-02
         0.26927E-02
         0.26927E-02
         0.26927E-02
         0.26927E-02
         0.26927E-02
         0.26927E-02
         0.26927E-02
         0.26927E-02
         0.26927E-02
         0.26927E-02
         0.26927E-02
         0.26927E-02
         0.26927E-02
         0.26927E-02
         0.26927E-02
         0.26927E-02
         0.26927E-02
         0.26927E-02
         0.26927E-02
         0.26927E-02
         0.26927E-02
         0.26927E-02
         0.26927E-02
         0.26927E-02
         0.26927E-02
         0.26927E-02
         0.26927E-02
         0.26927E-02
         0.26927E-02
         0.26927E-02
         0.26927E-02
         0.26927E-02
         0.26927E-02
         0.26927E-02
         0.26927E-02
         0.26927E-02
         0.26927E-02
         0.26927E-02
         0.26927E-02
         0.26927E-02
         0.26927E-02
         0.26927E-02
         0.26927E-02
         0.26927E-02
         0.26927E-02
         0.26927E-02
         0.26927E-02
         0.26927E-02
         0.26927E-02
         0.26927E-02
         0.26927E-02
         0.26927E-02
         0.26927E-02
         0.26927E-02
         0.26927E-02
         0.26927E-02
         0.26927E-02
         0.26927E-02
         0.26927E-02
         0.26927E-02
         0.26927E-02
         0.26927E-02
         0.26927E-02
         0.26927E-02
         0.26927E-02
         0.26927E-02
         0.26927E-02
         0.26927E-02
         0.26927E-02
         0.26927E-02
         0.26927E-02
         0.26927E-02
         0.26927E-02
         0.26927E-02
         0.26927E-02
         0.26927E-02
         0.26927E-02
         0.26927E-02
         0.26927E-02
         0.26927E-02
         0.26927E-02
         0.26927E-02
         0.26927E-02
         0.26927E-02
         0.26927E-02
         0.26927E-02
         0.26927E-02
         0.26927E-02
         0.26927E-02
         0.26927E-02
         0.26927E-02
         0.26927E-02
         0.26927E-02
         0.26927E-02
         0.26927E-02
         0.26927E-02
         0.26927E-02
         0.26927E-02
         0.26927E-02
         0.26927E-02
         0.26927E-02
         0.26927E-02
         0.26927E-02
         0.26927E-02
         0.26927E-02
         0.26927E-02
         0.26927E-02
         0.26927E-02
         0.26927E-02
         0.26927E-02
         0.26927E-02
         0.26927E-02
         0.26927E-02
         0.26927E-02
         0.26927E-02
         0.26927E-02
         0.26927E-02
         0.26927E-02
         0.26927E-02
         0.26927E-02
         0.26927E-02
         0.26927E-02
         0.26927E-02
         0.26927E-02
         0.26927E-02
         0.26927E-02
         0.26927E-02
         0.26927E-02
         0.26927E-02
         0.26927E-02
         0.26927E-02
         0.26927E-02
         0.26927E-02
         0.26927E-02
         0.26927E-02
         0.26927E-02
         0.26927E-02
         0.26927E-02
         0.26927E-02
         0.26927E-02
         0.26927E-02
         0.26927E-02
         0.26927E-02
         0.26927E-02
         0.26927E-02
         0.26927E-02
         0.26927E-02
         0.26927E-02
         0.26927E-02
         0.26927E-02
         0.26927E-02
         0.26927E-02
         0.26927E-02
         0.26927E-02
         0.26927E-02
         0.26927E-02
         0.26927E-02
         0.26927E-02
         0.26927E-02
         0.26927E-02
         0.26927E-02
         0.26927E-02
         0.26927E-02
         0.26927E-02
         0.26927E-02
         0.26927E-02
         0.26927E-02
         0.26927E-02
         0.26927E-02
         0.26927E-02
         0.26927E-02
         0.26927E-02
         0.26927E-02
         0.26927E-02
         0.26927E-02
         0.26927E-02
         0.26927E-02
         0.26927E-02
         0.26927E-02
         0.26927E-02
         0.26927E-02
         0.26927E-02
         0.26927E-02
         0.26927E-02
         0.26927E-02
         0.26927E-02
         0.26927E-02
         0.26927E-02
         0.26927E-02
         0.26927E-02
         0.26927E-02
         0.26927E-02
         0.26927E-02
         0.26927E-02
         0.26927E-02
         0.26927E-02
         0.26927E-02
         0.26927E-02
         0.26927E-02
         0.26927E-02
         0.26927E-02
         0.26927E-02
         0.26927E-02
         0.26927E-02
         0.26927E-02
         0.26927E-02
         0.26927E-02
         0.26927E-02
         0.26927E-02
         0.26927E-02
         0.26927E-02
         0.26927E-02
         0.26927E-02
         0.26927E-02
         0.26927E-02
         0.26927E-02
         0.26927E-02
         0.26927E-02
         0.26927E-02
         0.26927E-02
         0.26927E-02
         0.26927E-02
         0.26927E-02
         0.26927E-02
         0.26927E-02
         0.26927E-02
         0.26927E-02
         0.26927E-02
         0.26927E-02
         0.26927E-02
         0.26927E-02
         0.26927E-02
         0.26927E-02
         0.26927E-02
         0.26927E-02
         0.26927E-02
         0.26927E-02
         0.26927E-02
         0.26927E-02
         0.26927E-02
         0.26927E-02
         0.26927E-02
         0.26927E-02
         0.26927E-02
         0.26927E-02
         0.26927E-02
         0.26927E-02
         0.26927E-02
         0.26927E-02
         0.26927E-02
         0.26927E-02
         0.26927E-02
         0.26927E-02
         0.26927E-02
         0.26927E-02
         0.26927E-02
         0.26927E-02
         0.26927E-02
         0.26927E-02
         0.26927E-02
         0.26927E-02
         0.26927E-02
         0.26927E-02
         0.26927E-02
         0.26927E-02
         0.26927E-02
         0.26927E-02
         0.26927E-02
         0.26927E-02
         0.26927E-02
         0.26927E-02
         0.26927E-02
         0.26927E-02
         0.26927E-02
         0.26927E-02
         0.26927E-02
         0.26927E-02
         0.26927E-02
         0.26927E-02
         0.26927E-02
         0.26927E-02
         0.26927E-02
         0.26927E-02
         0.26927E-02
         0.26927E-02
         0.26927E-02
         0.26927E-02
         0.26927E-02
         0.26927E-02
         0.26927E-02
         0.26927E-02
         0.26927E-02
         0.26927E-02
         0.26927E-02
         0.26927E-02
         0.26927E-02
         0.26927E-02
         0.26927E-02
         0.26927E-02
         0.26927E-02
         0.26927E-02
         0.26927E-02
         0.26927E-02
         0.26927E-02
         0.26927E-02
         0.26927E-02
         0.26927E-02
         0.26927E-02
         0.26927E-02
         0.26927E-02
         0.26927E-02
         0.26927E-02
         0.26927E-02
         0.26927E-02
         0.26927E-02
         0.26927E-02
         0.26927E-02
         0.26927E-02
         0.26927E-02
         0.26927E-02
         0.26927E-02
         0.26927E-02
         0.26927E-02
         0.26927E-02
         0.26927E-02
         0.26927E-02
         0.26927E-02
         0.26927E-02
         0.26927E-02
         0.26927E-02
         0.26927E-02
         0.26927E-02
         0.26927E-02
         0.26927E-02
         0.26927E-02
         0.26927E-02
         0.26927E-02
         0.26927E-02
         0.26927E-02
         0.26927E-02
         0.26927E-02
         0.26927E-02
         0.26927E-02
         0.26927E-02
         0.26927E-02
         0.26927E-02
         0.26927E-02
         0.26927E-02
         0.26927E-02
         0.26927E-02
         0.26927E-02
         0.26927E-02
         0.26927E-02
         0.26927E-02
         0.26927E-02
         0.26927E-02
         0.26927E-02
         0.26927E-02
         0.26927E-02
         0.26927E-02
         0.26927E-02
         0.26927E-02
         0.26927E-02
         0.26927E-02
         0.26927E-02
         0.26927E-02
         0.26927E-02
         0.26927E-02
         0.26927E-02
         0.26927E-02
         0.26927E-02
         0.26927E-02
         0.26927E-02
         0.26927E-02
         0.26927E-02
         0.26927E-02
         0.26927E-02
         0.26927E-02
         0.26927E-02
         0.26927E-02
         0.26927E-02
         0.26927E-02
         0.26927E-02
         0.26927E-02
         0.26927E-02
         0.26927E-02
         0.26927E-02
         0.26927E-02
         0.26927E-02
         0.26927E-02
         0.26927E-02
         0.26927E-02
         0.26927E-02
         0.26927E-02
         0.26927E-02
         0.26927E-02
         0.26927E-02
         0.26927E-02
         0.26927E-02
         0.26927E-02
         0.26927E-02
         0.26927E-02
         0.26927E-02
         0.26927E-02
         0.26927E-02
         0.26927E-02
         0.26927E-02
         0.26927E-02
         0.26927E-02
         0.26927E-02
         0.26927E-02
         0.26927E-02
         0.26927E-02
         0.26927E-02
         0.26927E-02
         0.26927E-02
         0.26927E-02
         0.26927E-02
         0.26927E-02
         0.26927E-02
         0.26927E-02
         0.26927E-02
         0.26927E-02
         0.26927E-02
         0.26927E-02
         0.26927E-02
         0.26927E-02
         0.26927E-02
         0.26927E-02
         0.26927E-02
         0.26927E-02
         0.26927E-02
         0.26927E-02
         0.26927E-02
         0.26927E-02
         0.26927E-02
         0.26927E-02
         0.26927E-02
         0.26927E-02
         0.26927E-02
         0.26927E-02
         0.26927E-02
         0.26927E-02
         0.26927E-02
         0.26927E-02
         0.26927E-02
         0.26927E-02
         0.26927E-02
         0.26927E-02
         0.26927E-02
         0.26927E-02
         0.26927E-02
         0.26927E-02
         0.26927E-02
         0.26927E-02
         0.26927E-02
         0.26927E-02
         0.26927E-02
         0.26927E-02
         0.26927E-02
         0.26927E-02
         0.26927E-02
         0.26927E-02
         0.26927E-02
         0.26927E-02
         0.26927E-02
         0.26927E-02
         0.26927E-02
         0.26927E-02
         0.26927E-02
         0.26927E-02
         0.26927E-02
         0.26927E-02
         0.26927E-02
         0.26927E-02
         0.26927E-02
         0.26927E-02
         0.26927E-02
         0.26927E-02
         0.26927E-02
         0.26927E-02
         0.26927E-02
         0.26927E-02
         0.26927E-02
         0.26927E-02
         0.26927E-02
         0.26927E-02
         0.26927E-02
         0.26927E-02
         0.26927E-02
         0.26927E-02
         0.26927E-02
         0.26927E-02
         0.26927E-02
         0.26927E-02
         0.26927E-02
         0.26927E-02
         0.26927E-02
         0.26927E-02
         0.26927E-02
         0.26927E-02
         0.26927E-02
         0.26927E-02
         0.26927E-02
         0.26927E-02
         0.26927E-02
         0.26927E-02
         0.26927E-02
         0.26927E-02
         0.26927E-02
         0.26927E-02
         0.26927E-02
         0.26927E-02
         0.26927E-02
         0.26927E-02
         0.26927E-02
         0.26927E-02
         0.26927E-02
         0.26927E-02
         0.26927E-02
         0.26927E-02
         0.26927E-02
         0.26927E-02
         0.26927E-02
         0.26927E-02
         0.26927E-02
         0.26927E-02
         0.26927E-02
         0.26927E-02
         0.26927E-02
         0.26927E-02
         0.26927E-02
         0.26927E-02
         0.26927E-02
         0.26927E-02
         0.26927E-02
         0.26927E-02
         0.26927E-02
         0.26927E-02
         0.26927E-02
         0.26927E-02
         0.26927E-02
         0.26927E-02
         0.26927E-02
         0.26927E-02
         0.26927E-02
         0.26927E-02
         0.26927E-02
         0.26927E-02
         0.26927E-02
         0.26927E-02
         0.26927E-02
         0.26927E-02
         0.26927E-02
         0.26927E-02
         0.26927E-02
         0.26927E-02
         0.26927E-02
         0.26927E-02
         0.26927E-02
         0.26927E-02
         0.26927E-02
         0.26927E-02
         0.26927E-02
         0.26927E-02
         0.26927E-02
         0.26927E-02
         0.26927E-02
         0.26927E-02
         0.26927E-02
         0.26927E-02
         0.26927E-02
         0.26927E-02
         0.26927E-02
         0.26927E-02
         0.26927E-02
         0.26927E-02
         0.26927E-02
         0.26927E-02
         0.26927E-02
         0.26927E-02
         0.26927E-02
         0.26927E-02
         0.26927E-02
         0.26927E-02
         0.26927E-02
         0.26927E-02
         0.26927E-02
         0.26927E-02
         0.26927E-02
         0.26927E-02
         0.26927E-02
         0.26927E-02
         0.26927E-02
         0.26927E-02
         0.26927E-02
         0.26927E-02
         0.26927E-02
         0.26927E-02
         0.26927E-02
         0.26927E-02
         0.26927E-02
         0.26927E-02
         0.26927E-02
         0.26927E-02
         0.26927E-02
         0.26927E-02
         0.26927E-02
         0.26927E-02
         0.26927E-02
         0.26927E-02
         0.26927E-02
         0.26927E-02
         0.26927E-02
         0.26927E-02
         0.26927E-02
         0.26927E-02
         0.26927E-02
         0.26927E-02
         0.26927E-02
         0.26927E-02
         0.26927E-02
         0.26927E-02
         0.26927E-02
         0.26927E-02
         0.26927E-02
         0.26927E-02
         0.26927E-02
         0.26927E-02
         0.26927E-02
         0.26927E-02
         0.26927E-02
         0.26927E-02
         0.26927E-02
         0.26927E-02
         0.26927E-02
         0.26927E-02
         0.26927E-02
         0.26927E-02
         0.26927E-02
         0.26927E-02
         0.26927E-02
         0.26927E-02
         0.26927E-02
         0.26927E-02
         0.26927E-02
         0.26927E-02
         0.26927E-02
         0.26927E-02
         0.26927E-02
         0.26927E-02
         0.26927E-02
         0.26927E-02
         0.26927E-02
         0.26927E-02
         0.26927E-02
         0.26927E-02
         0.26927E-02
         0.26927E-02
         0.26927E-02
         0.26927E-02
         0.26927E-02
         0.26927E-02
         0.26927E-02
         0.26927E-02
         0.26927E-02
         0.26927E-02
         0.26927E-02
         0.26927E-02
         0.26927E-02
         0.26927E-02
         0.26927E-02
         0.26927E-02
         0.26927E-02
         0.26927E-02
         0.26927E-02
         0.26927E-02
         0.26927E-02
         0.26927E-02
         0.26927E-02
         0.26927E-02
         0.26927E-02
         0.26927E-02
         0.26927E-02
         0.26927E-02
         0.26927E-02
         0.26927E-02
         0.26927E-02
         0.26927E-02
         0.26927E-02
         0.26927E-02
         0.26927E-02
         0.26927E-02
         0.26927E-02
         0.26927E-02
         0.26927E-02
         0.26927E-02
         0.26927E-02
         0.26927E-02
         0.26927E-02
         0.26927E-02
         0.26927E-02
         0.26927E-02
         0.26927E-02
         0.26927E-02
         0.26927E-02
         0.26927E-02
         0.26927E-02
         0.26927E-02
         0.26927E-02
         0.26927E-02
         0.26927E-02
         0.26927E-02
         0.26927E-02
         0.26927E-02
         0.26927E-02
         0.26927E-02
         0.26927E-02
         0.26927E-02
         0.26927E-02
         0.26927E-02
         0.26927E-02
         0.26927E-02
         0.26927E-02
         0.26927E-02
         0.26927E-02
         0.26927E-02
         0.26927E-02
         0.26927E-02
         0.26927E-02
         0.26927E-02
         0.26927E-02
         0.26927E-02
         0.26927E-02
         0.26927E-02
         0.26927E-02
         0.26927E-02
         0.26927E-02
         0.26927E-02
         0.26927E-02
         0.26927E-02
         0.26927E-02
         0.26927E-02
         0.26927E-02
         0.26927E-02
         0.26927E-02
         0.26927E-02
         0.26927E-02
         0.26927E-02
         0.26927E-02
         0.26927E-02
         0.26927E-02
         0.26927E-02
         0.26927E-02
         0.26927E-02
         0.26927E-02
         0.26927E-02
         0.26927E-02
         0.26927E-02
         0.26927E-02
         0.26927E-02
         0.26927E-02
         0.26927E-02
         0.26927E-02
         0.26927E-02
         0.26927E-02
         0.26927E-02
         0.26927E-02
         0.26927E-02
         0.26927E-02
         0.26927E-02
         0.26927E-02
         0.26927E-02
         0.26927E-02
         0.26927E-02
         0.26927E-02
         0.26927E-02
         0.26927E-02
         0.26927E-02
         0.26927E-02
         0.26927E-02
         0.26927E-02
         0.26927E-02
         0.26927E-02
         0.26927E-02
         0.26927E-02
         0.26927E-02
         0.26927E-02
         0.26927E-02
         0.26927E-02
         0.26927E-02
         0.26927E-02
         0.26927E-02
         0.26927E-02
         0.26927E-02
         0.26927E-02
         0.26927E-02
         0.26927E-02
         0.26927E-02
         0.26927E-02
         0.26927E-02
         0.26927E-02
         0.26927E-02
         0.26927E-02
         0.26927E-02
         0.26927E-02
         0.26927E-02
         0.26927E-02
         0.26927E-02
         0.26927E-02
         0.26927E-02
         0.26927E-02
         0.26927E-02
         0.26927E-02
         0.26927E-02
         0.26927E-02
         0.26927E-02
         0.26927E-02
         0.26927E-02
         0.26927E-02
         0.26927E-02
         0.26927E-02
         0.26927E-02
         0.26927E-02
         0.26927E-02
         0.26927E-02
         0.26927E-02
         0.26927E-02
         0.26927E-02
         0.26927E-02
         0.26927E-02
         0.26927E-02
         0.26927E-02
         0.26927E-02
         0.26927E-02
         0.26927E-02
         0.26927E-02
         0.26927E-02
         0.26927E-02
         0.26927E-02
         0.26927E-02
         0.26927E-02
         0.26927E-02
         0.26927E-02
         0.26927E-02
         0.26927E-02
         0.26927E-02
         0.26927E-02
         0.26927E-02
         0.26927E-02
         0.26927E-02
         0.26927E-02
         0.26927E-02
         0.26927E-02
         0.26927E-02
         0.26927E-02
         0.26927E-02
         0.26927E-02
         0.26927E-02
         0.26927E-02
         0.26927E-02
         0.26927E-02
         0.26927E-02
         0.26927E-02
         0.26927E-02
         0.26927E-02
         0.26927E-02
         0.26927E-02
         0.26927E-02
         0.26927E-02
         0.26927E-02
         0.26927E-02
         0.26927E-02
         0.26927E-02
         0.26927E-02
         0.26927E-02
         0.26927E-02
         0.26927E-02
         0.26927E-02
         0.26927E-02
         0.26927E-02
         0.26927E-02
         0.26927E-02
         0.26927E-02
         0.26927E-02
         0.26927E-02
         0.26927E-02
         0.26927E-02
         0.26927E-02
         0.26927E-02
         0.26927E-02
         0.26927E-02
         0.26927E-02
         0.26927E-02
         0.26927E-02
         0.26927E-02
         0.26927E-02
         0.26927E-02
         0.26927E-02
         0.26927E-02
         0.26927E-02
         0.26927E-02
         0.26927E-02
         0.26927E-02
         0.26927E-02
         0.26927E-02
         0.26927E-02
         0.26927E-02
         0.26927E-02
         0.26927E-02
         0.26927E-02
         0.26927E-02
         0.26927E-02
         0.26927E-02
         0.26927E-02
         0.26927E-02
         0.26927E-02
         0.26927E-02
         0.26927E-02
         0.26927E-02
         0.26927E-02
         0.26927E-02
         0.26927E-02
         0.26927E-02
         0.26927E-02
         0.26927E-02
         0.26927E-02
         0.26927E-02
         0.26927E-02
         0.26927E-02
         0.26927E-02
         0.26927E-02
         0.26927E-02
         0.26927E-02
         0.26927E-02
         0.26927E-02
         0.26927E-02
         0.26927E-02
         0.26927E-02
         0.26927E-02
         0.26927E-02
         0.26927E-02
         0.26927E-02
         0.26927E-02
         0.26927E-02
         0.26927E-02
         0.26927E-02
         0.26927E-02
         0.26927E-02
         0.26927E-02
         0.26927E-02
         0.26927E-02
         0.26927E-02
         0.26927E-02
         0.26927E-02
         0.26927E-02
         0.26927E-02
         0.26927E-02
         0.26927E-02
         0.26927E-02
         0.26927E-02
         0.26927E-02
         0.26927E-02
         0.26927E-02
         0.26927E-02
         0.26927E-02
         0.26927E-02
         0.26927E-02
         0.26927E-02
         0.26927E-02
         0.26927E-02
         0.26927E-02
         0.26927E-02
         0.26927E-02
         0.26927E-02
         0.26927E-02
         0.26927E-02
         0.26927E-02
         0.26927E-02
         0.26927E-02
         0.26927E-02
         0.26927E-02
         0.26927E-02
         0.26927E-02
         0.26927E-02
         0.26927E-02
         0.26927E-02
         0.26927E-02
         0.26927E-02
         0.26927E-02
         0.26927E-02
         0.26927E-02
         0.26927E-02
         0.26927E-02
         0.26927E-02
         0.26927E-02
         0.26927E-02
         0.26927E-02
         0.26927E-02
         0.26927E-02
         0.26927E-02
         0.26927E-02
         0.26927E-02
         0.26927E-02
         0.26927E-02
         0.26927E-02
         0.26927E-02
         0.26927E-02
         0.26927E-02
         0.26927E-02
         0.26927E-02
         0.26927E-02
         0.26927E-02
         0.26927E-02
         0.26927E-02
         0.26927E-02
         0.26927E-02
         0.26927E-02
         0.26927E-02
         0.26927E-02
         0.26927E-02
         0.26927E-02
         0.26927E-02
         0.26927E-02
         0.26927E-02
         0.26927E-02
         0.26927E-02
         0.26927E-02
         0.26927E-02
         0.26927E-02
         0.26927E-02
         0.26927E-02
         0.26927E-02
         0.26927E-02
         0.26927E-02
         0.26927E-02
         0.26927E-02
         0.26927E-02
         0.26927E-02
         0.26927E-02
         0.26927E-02
         0.26927E-02
         0.26927E-02
         0.26927E-02
         0.26927E-02
         0.26927E-02
         0.26927E-02
         0.26927E-02
         0.26927E-02
         0.26927E-02
         0.26927E-02
         0.26927E-02
         0.26927E-02
         0.26927E-02
         0.26927E-02
         0.26927E-02
         0.26927E-02
         0.26927E-02
         0.26927E-02
         0.26927E-02
         0.26927E-02
         0.26927E-02
         0.26927E-02
         0.26927E-02
         0.26927E-02
         0.26927E-02
         0.26927E-02
         0.26927E-02
         0.26927E-02
         0.26927E-02
         0.26927E-02
         0.26927E-02
         0.26927E-02
         0.26927E-02
         0.26927E-02
         0.26927E-02
         0.26927E-02
         0.26927E-02
         0.26927E-02
         0.26927E-02
         0.26927E-02
         0.26927E-02
         0.26927E-02
         0.26927E-02
         0.26927E-02
         0.26927E-02
         0.26927E-02
         0.26927E-02
         0.26927E-02
         0.26927E-02
         0.26927E-02
         0.26927E-02
         0.26927E-02
         0.26927E-02
         0.26927E-02
         0.26927E-02
         0.26927E-02
         0.26927E-02
         0.26927E-02
         0.26927E-02
         0.26927E-02
         0.26927E-02
         0.26927E-02
         0.26927E-02
         0.26927E-02
         0.26927E-02
         0.26927E-02
         0.26927E-02
         0.26927E-02
         0.26927E-02
         0.26927E-02
         0.26927E-02
         0.26927E-02
         0.26927E-02
         0.26927E-02
         0.26927E-02
         0.26927E-02
         0.26927E-02
         0.26927E-02
         0.26927E-02
         0.26927E-02
         0.26927E-02
         0.26927E-02
         0.26927E-02
         0.26927E-02
         0.26927E-02
         0.26927E-02
         0.26927E-02
         0.26927E-02
         0.26927E-02
         0.26927E-02
         0.26927E-02
         0.26927E-02
         0.26927E-02
         0.26927E-02
         0.26927E-02
         0.26927E-02
         0.26927E-02
         0.26927E-02
         0.26927E-02
         0.26927E-02
         0.26927E-02
         0.26927E-02
         0.26927E-02
         0.26927E-02
         0.26927E-02
         0.26927E-02
         0.26927E-02
         0.26927E-02
         0.26927E-02
         0.26927E-02
         0.26927E-02
         0.26927E-02
         0.26927E-02
         0.26927E-02
         0.26927E-02
         0.26927E-02
         0.26927E-02
         0.26927E-02
         0.26927E-02
         0.26927E-02
         0.26927E-02
         0.26927E-02
         0.26927E-02
         0.26927E-02
         0.26927E-02
         0.26927E-02
         0.26927E-02
         0.26927E-02
         0.26927E-02
         0.26927E-02
         0.26927E-02
         0.26927E-02
         0.26927E-02
         0.26927E-02
         0.26927E-02
         0.26927E-02
         0.26927E-02
         0.26927E-02
         0.26927E-02
         0.26927E-02
         0.26927E-02
         0.26927E-02
         0.26927E-02
         0.26927E-02
         0.26927E-02
         0.26927E-02
         0.26927E-02
         0.26927E-02
         0.26927E-02
         0.26927E-02
         0.26927E-02
         0.26927E-02
         0.26927E-02
         0.26927E-02
         0.26927E-02
         0.26927E-02
         0.26927E-02
         0.26927E-02
         0.26927E-02
         0.26927E-02
         0.26927E-02
         0.26927E-02
         0.26927E-02
         0.26927E-02
         0.26927E-02
         0.26927E-02
         0.26927E-02
         0.26927E-02
         0.26927E-02
         0.26927E-02
         0.26927E-02
         0.26927E-02
         0.26927E-02
         0.26927E-02
         0.26927E-02
         0.26927E-02
         0.26928E-02
         0.26928E-02
         0.26928E-02
         0.26928E-02
         0.26928E-02
         0.26928E-02
         0.26928E-02
         0.26928E-02
         0.26928E-02
         0.26928E-02
         0.26928E-02
         0.26928E-02
         0.26928E-02
         0.26928E-02
         0.26928E-02
         0.26928E-02
         0.26928E-02
         0.26928E-02
         0.26928E-02
         0.26928E-02
         0.26928E-02
         0.26928E-02
         0.26928E-02
         0.26928E-02
         0.26928E-02
         0.26928E-02
         0.26928E-02
         0.26928E-02
         0.26928E-02
         0.26928E-02
         0.26928E-02
         0.26928E-02
         0.26928E-02
         0.26928E-02
         0.26928E-02
         0.26928E-02
         0.26928E-02
         0.26928E-02
         0.26928E-02
         0.26928E-02
         0.26928E-02
         0.26928E-02
         0.26928E-02
         0.26928E-02
         0.26928E-02
         0.26928E-02
         0.26928E-02
         0.26928E-02
         0.26928E-02
         0.26928E-02
         0.26928E-02
         0.26928E-02
         0.26928E-02
         0.26928E-02
         0.26928E-02
         0.26928E-02
         0.26928E-02
         0.26928E-02
         0.26928E-02
         0.26928E-02
         0.26928E-02
         0.26928E-02
         0.26928E-02
         0.26928E-02
         0.26928E-02
         0.26928E-02
         0.26928E-02
         0.26928E-02
         0.26928E-02
         0.26928E-02
         0.26928E-02
         0.26928E-02
         0.26928E-02
         0.26928E-02
         0.26928E-02
         0.26928E-02
         0.26928E-02
         0.26928E-02
         0.26928E-02
         0.26928E-02
         0.26928E-02
         0.26928E-02
         0.26928E-02
         0.26928E-02
         0.26928E-02
         0.26928E-02
         0.26928E-02
         0.26928E-02
         0.26928E-02
         0.26928E-02
         0.26928E-02
         0.26928E-02
         0.26928E-02
         0.26928E-02
         0.26928E-02
         0.26928E-02
         0.26928E-02
         0.26928E-02
         0.26928E-02
         0.26928E-02
         0.26928E-02
         0.26928E-02
         0.26928E-02
         0.26928E-02
         0.26928E-02
         0.26928E-02
         0.26928E-02
         0.26928E-02
         0.26928E-02
         0.26928E-02
         0.26928E-02
         0.26928E-02
         0.26928E-02
         0.26928E-02
         0.26928E-02
         0.26928E-02
         0.26928E-02
         0.26928E-02
         0.26928E-02
         0.26928E-02
         0.26928E-02
         0.26928E-02
         0.26928E-02
         0.26928E-02
         0.26928E-02
         0.26928E-02
         0.26928E-02
         0.26928E-02
         0.26928E-02
         0.26928E-02
         0.26928E-02
         0.26928E-02
         0.26928E-02
         0.26928E-02
         0.26928E-02
         0.26928E-02
         0.26928E-02
         0.26928E-02
         0.26928E-02
         0.26928E-02
         0.26928E-02
         0.26928E-02
         0.26928E-02
         0.26928E-02
         0.26928E-02
         0.26928E-02
         0.26928E-02
         0.26928E-02
         0.26928E-02
         0.26928E-02
         0.26928E-02
         0.26928E-02
         0.26928E-02
         0.26928E-02
         0.26928E-02
         0.26928E-02
  
SCALARS                   nodal_volume  double 1
LOOKUP_TABLE default
         0.91140E-09
         0.72412E-09
         0.77574E-09
         0.13316E-08
         0.45570E-09
         0.36211E-09
         0.38787E-09
         0.66566E-09
         0.71537E-09
         0.91211E-09
         0.35767E-09
         0.45600E-09
         0.51195E-09
         0.61532E-09
         0.25605E-09
         0.30776E-09
         0.10101E-08
         0.74536E-09
         0.50500E-09
         0.37281E-09
         0.30273E-09
         0.57012E-09
         0.62699E-09
         0.15144E-09
         0.28509E-09
         0.31352E-09
         0.51329E-09
         0.64933E-09
         0.25683E-09
         0.32471E-09
         0.12026E-08
         0.93909E-09
         0.11935E-08
         0.60122E-09
         0.46945E-09
         0.59663E-09
         0.70296E-09
         0.80270E-09
         0.35149E-09
         0.40134E-09
         0.75859E-09
         0.84013E-09
         0.37932E-09
         0.42007E-09
         0.64542E-09
         0.40086E-09
         0.32274E-09
         0.20045E-09
         0.76288E-09
         0.38153E-09
         0.63346E-09
         0.31675E-09
         0.66583E-09
         0.33318E-09
         0.68008E-09
         0.34022E-09
         0.58930E-09
         0.71738E-09
         0.29472E-09
         0.35874E-09
         0.90938E-09
         0.64302E-09
         0.45469E-09
         0.32154E-09
         0.10152E-08
         0.50747E-09
         0.88120E-09
         0.44042E-09
         0.40077E-09
         0.61872E-09
         0.20039E-09
         0.30940E-09
         0.70206E-09
         0.35106E-09
         0.74172E-09
         0.37089E-09
         0.71539E-09
         0.35770E-09
         0.56226E-09
         0.28113E-09
         0.35349E-09
         0.58452E-09
         0.17675E-09
         0.29229E-09
         0.77354E-09
         0.38679E-09
         0.62469E-09
         0.31238E-09
         0.54957E-09
         0.27483E-09
         0.36009E-09
         0.61365E-09
         0.18007E-09
         0.30685E-09
         0.83268E-09
         0.41635E-09
         0.87287E-09
         0.43642E-09
         0.70438E-09
         0.35217E-09
         0.43365E-09
         0.74413E-09
         0.21683E-09
         0.37198E-09
         0.27660E-09
         0.35144E-09
         0.13833E-09
         0.17573E-09
         0.32921E-09
         0.16465E-09
         0.38764E-09
         0.19382E-09
         0.37797E-09
         0.18897E-09
         0.36707E-09
         0.18352E-09
         0.39112E-09
         0.19552E-09
         0.41268E-09
         0.20627E-09
         0.38876E-09
         0.19433E-09
         0.30402E-09
         0.15200E-09
         0.24796E-09
         0.12398E-09
         0.31999E-09
         0.16000E-09
         0.42608E-09
         0.21303E-09
         0.46805E-09
         0.23401E-09
         0.44933E-09
         0.22466E-09
         0.40550E-09
         0.20276E-09
         0.36826E-09
         0.18414E-09
         0.29911E-09
         0.14956E-09
         0.25178E-09
         0.12591E-09
         0.32888E-09
         0.16445E-09
         0.43529E-09
         0.21765E-09
         0.44963E-09
         0.22482E-09
         0.36384E-09
         0.18194E-09
         0.29543E-09
         0.14774E-09
         0.36126E-09
         0.18063E-09
         0.42771E-09
         0.21386E-09
         0.91143E-09
         0.72396E-09
         0.77579E-09
         0.13322E-08
         0.71547E-09
         0.91237E-09
         0.51167E-09
         0.61494E-09
         0.10105E-08
         0.74486E-09
         0.30244E-09
         0.57001E-09
         0.62694E-09
         0.51257E-09
         0.64918E-09
         0.12029E-08
         0.93950E-09
         0.11941E-08
         0.70298E-09
         0.80279E-09
         0.75855E-09
         0.84015E-09
         0.64535E-09
         0.40081E-09
         0.76254E-09
         0.63339E-09
         0.66483E-09
         0.67941E-09
         0.58904E-09
         0.71721E-09
         0.90946E-09
         0.64293E-09
         0.10157E-08
         0.88199E-09
         0.40076E-09
         0.61859E-09
         0.70195E-09
         0.74166E-09
         0.71543E-09
         0.56228E-09
         0.35349E-09
         0.58443E-09
         0.77349E-09
         0.62459E-09
         0.54943E-09
         0.35999E-09
         0.61359E-09
         0.83268E-09
         0.87299E-09
         0.70451E-09
         0.43366E-09
         0.74449E-09
         0.27651E-09
         0.35143E-09
         0.32904E-09
         0.38765E-09
         0.37805E-09
         0.36714E-09
         0.39129E-09
         0.41297E-09
         0.38899E-09
         0.30408E-09
         0.24798E-09
         0.31999E-09
         0.42613E-09
         0.46815E-09
         0.44938E-09
         0.40548E-09
         0.36823E-09
         0.29908E-09
         0.25174E-09
         0.32885E-09
         0.43527E-09
         0.44962E-09
         0.36376E-09
         0.29536E-09
         0.36130E-09
         0.42769E-09
         0.91151E-09
         0.72383E-09
         0.77587E-09
         0.13329E-08
         0.71560E-09
         0.91267E-09
         0.51142E-09
         0.61459E-09
         0.10109E-08
         0.74439E-09
         0.30216E-09
         0.56992E-09
         0.62691E-09
         0.51187E-09
         0.64906E-09
         0.12033E-08
         0.93995E-09
         0.11947E-08
         0.70302E-09
         0.80291E-09
         0.75853E-09
         0.84020E-09
         0.64530E-09
         0.40078E-09
         0.76223E-09
         0.63335E-09
         0.66385E-09
         0.67875E-09
         0.58880E-09
         0.71706E-09
         0.90957E-09
         0.64286E-09
         0.10162E-08
         0.88281E-09
         0.40076E-09
         0.61849E-09
         0.70188E-09
         0.74162E-09
         0.71550E-09
         0.56232E-09
         0.35350E-09
         0.58436E-09
         0.77347E-09
         0.62452E-09
         0.54931E-09
         0.35990E-09
         0.61355E-09
         0.83270E-09
         0.87315E-09
         0.70467E-09
         0.43368E-09
         0.74487E-09
         0.27643E-09
         0.35143E-09
         0.32889E-09
         0.38767E-09
         0.37814E-09
         0.36723E-09
         0.39147E-09
         0.41328E-09
         0.38923E-09
         0.30416E-09
         0.24800E-09
         0.32001E-09
         0.42620E-09
         0.46826E-09
         0.44944E-09
         0.40548E-09
         0.36821E-09
         0.29906E-09
         0.25171E-09
         0.32883E-09
         0.43527E-09
         0.44963E-09
         0.36369E-09
         0.29530E-09
         0.36135E-09
         0.42769E-09
         0.91156E-09
         0.72368E-09
         0.77594E-09
         0.13335E-08
         0.71571E-09
         0.91295E-09
         0.51115E-09
         0.61422E-09
         0.10112E-08
         0.74389E-09
         0.30187E-09
         0.56982E-09
         0.62686E-09
         0.51116E-09
         0.64892E-09
         0.12036E-08
         0.94038E-09
         0.11953E-08
         0.70304E-09
         0.80300E-09
         0.75850E-09
         0.84023E-09
         0.64523E-09
         0.40073E-09
         0.76190E-09
         0.63330E-09
         0.66285E-09
         0.67809E-09
         0.58855E-09
         0.71689E-09
         0.90966E-09
         0.64278E-09
         0.10168E-08
         0.88361E-09
         0.40076E-09
         0.61837E-09
         0.70178E-09
         0.74156E-09
         0.71554E-09
         0.56234E-09
         0.35350E-09
         0.58428E-09
         0.77343E-09
         0.62442E-09
         0.54918E-09
         0.35981E-09
         0.61349E-09
         0.83271E-09
         0.87328E-09
         0.70481E-09
         0.43369E-09
         0.74524E-09
         0.27634E-09
         0.35142E-09
         0.32873E-09
         0.38768E-09
         0.37823E-09
         0.36731E-09
         0.39163E-09
         0.41358E-09
         0.38945E-09
         0.30422E-09
         0.24802E-09
         0.32001E-09
         0.42625E-09
         0.46837E-09
         0.44949E-09
         0.40546E-09
         0.36819E-09
         0.29904E-09
         0.25167E-09
         0.32881E-09
         0.43526E-09
         0.44963E-09
         0.36362E-09
         0.29523E-09
         0.36139E-09
         0.42768E-09
         0.91161E-09
         0.72353E-09
         0.77600E-09
         0.13341E-08
         0.71583E-09
         0.91323E-09
         0.51088E-09
         0.61386E-09
         0.10116E-08
         0.74341E-09
         0.30158E-09
         0.56972E-09
         0.62682E-09
         0.51045E-09
         0.64879E-09
         0.12040E-08
         0.94081E-09
         0.11959E-08
         0.70307E-09
         0.80310E-09
         0.75847E-09
         0.84027E-09
         0.64517E-09
         0.40069E-09
         0.76158E-09
         0.63325E-09
         0.66186E-09
         0.67742E-09
         0.58831E-09
         0.71673E-09
         0.90975E-09
         0.64270E-09
         0.10173E-08
         0.88441E-09
         0.40075E-09
         0.61825E-09
         0.70169E-09
         0.74151E-09
         0.71559E-09
         0.56237E-09
         0.35350E-09
         0.58420E-09
         0.77339E-09
         0.62433E-09
         0.54905E-09
         0.35972E-09
         0.61344E-09
         0.83272E-09
         0.87341E-09
         0.70496E-09
         0.43370E-09
         0.74562E-09
         0.27626E-09
         0.35142E-09
         0.32857E-09
         0.38770E-09
         0.37832E-09
         0.36739E-09
         0.39181E-09
         0.41387E-09
         0.38968E-09
         0.30429E-09
         0.24804E-09
         0.32002E-09
         0.42631E-09
         0.46847E-09
         0.44954E-09
         0.40545E-09
         0.36816E-09
         0.29901E-09
         0.25163E-09
         0.32878E-09
         0.43525E-09
         0.44963E-09
         0.36354E-09
         0.29517E-09
         0.36144E-09
         0.42766E-09
         0.91167E-09
         0.72338E-09
         0.77607E-09
         0.13348E-08
         0.71594E-09
         0.91351E-09
         0.51062E-09
         0.61349E-09
         0.10119E-08
         0.74292E-09
         0.30129E-09
         0.56962E-09
         0.62678E-09
         0.50974E-09
         0.64865E-09
         0.12044E-08
         0.94125E-09
         0.11965E-08
         0.70310E-09
         0.80321E-09
         0.75844E-09
         0.84031E-09
         0.64511E-09
         0.40065E-09
         0.76125E-09
         0.63320E-09
         0.66087E-09
         0.67676E-09
         0.58806E-09
         0.71657E-09
         0.90984E-09
         0.64263E-09
         0.10179E-08
         0.88522E-09
         0.40075E-09
         0.61813E-09
         0.70160E-09
         0.74146E-09
         0.71564E-09
         0.56240E-09
         0.35350E-09
         0.58412E-09
         0.77336E-09
         0.62425E-09
         0.54892E-09
         0.35963E-09
         0.61339E-09
         0.83274E-09
         0.87355E-09
         0.70511E-09
         0.43371E-09
         0.74599E-09
         0.27618E-09
         0.35141E-09
         0.32841E-09
         0.38771E-09
         0.37841E-09
         0.36747E-09
         0.39198E-09
         0.41417E-09
         0.38992E-09
         0.30436E-09
         0.24806E-09
         0.32003E-09
         0.42637E-09
         0.46858E-09
         0.44960E-09
         0.40544E-09
         0.36814E-09
         0.29899E-09
         0.25159E-09
         0.32876E-09
         0.43525E-09
         0.44963E-09
         0.36347E-09
         0.29511E-09
         0.36148E-09
         0.42766E-09
         0.91171E-09
         0.72323E-09
         0.77613E-09
         0.13354E-08
         0.71606E-09
         0.91379E-09
         0.51035E-09
         0.61313E-09
         0.10123E-08
         0.74243E-09
         0.30101E-09
         0.56952E-09
         0.62674E-09
         0.50903E-09
         0.64851E-09
         0.12047E-08
         0.94167E-09
         0.11971E-08
         0.70312E-09
         0.80331E-09
         0.75840E-09
         0.84034E-09
         0.64504E-09
         0.40061E-09
         0.76092E-09
         0.63314E-09
         0.65988E-09
         0.67609E-09
         0.58781E-09
         0.71641E-09
         0.90993E-09
         0.64255E-09
         0.10184E-08
         0.88601E-09
         0.40075E-09
         0.61801E-09
         0.70151E-09
         0.74140E-09
         0.71569E-09
         0.56243E-09
         0.35350E-09
         0.58404E-09
         0.77332E-09
         0.62416E-09
         0.54879E-09
         0.35953E-09
         0.61334E-09
         0.83274E-09
         0.87368E-09
         0.70525E-09
         0.43372E-09
         0.74636E-09
         0.27609E-09
         0.35141E-09
         0.32825E-09
         0.38772E-09
         0.37849E-09
         0.36754E-09
         0.39215E-09
         0.41447E-09
         0.39014E-09
         0.30443E-09
         0.24808E-09
         0.32004E-09
         0.42642E-09
         0.46868E-09
         0.44965E-09
         0.40543E-09
         0.36812E-09
         0.29897E-09
         0.25155E-09
         0.32874E-09
         0.43524E-09
         0.44963E-09
         0.36340E-09
         0.29504E-09
         0.36153E-09
         0.42764E-09
         0.91176E-09
         0.72308E-09
         0.77620E-09
         0.13360E-08
         0.71617E-09
         0.91407E-09
         0.51008E-09
         0.61276E-09
         0.10126E-08
         0.74195E-09
         0.30072E-09
         0.56942E-09
         0.62670E-09
         0.50832E-09
         0.64838E-09
         0.12051E-08
         0.94210E-09
         0.11977E-08
         0.70314E-09
         0.80341E-09
         0.75837E-09
         0.84038E-09
         0.64498E-09
         0.40056E-09
         0.76060E-09
         0.63309E-09
         0.65888E-09
         0.67542E-09
         0.58756E-09
         0.71624E-09
         0.91002E-09
         0.64247E-09
         0.10189E-08
         0.88682E-09
         0.40074E-09
         0.61790E-09
         0.70142E-09
         0.74135E-09
         0.71574E-09
         0.56245E-09
         0.35351E-09
         0.58396E-09
         0.77328E-09
         0.62407E-09
         0.54866E-09
         0.35944E-09
         0.61329E-09
         0.83275E-09
         0.87382E-09
         0.70539E-09
         0.43373E-09
         0.74673E-09
         0.27601E-09
         0.35140E-09
         0.32809E-09
         0.38774E-09
         0.37858E-09
         0.36762E-09
         0.39232E-09
         0.41477E-09
         0.39037E-09
         0.30450E-09
         0.24810E-09
         0.32005E-09
         0.42648E-09
         0.46879E-09
         0.44970E-09
         0.40541E-09
         0.36809E-09
         0.29894E-09
         0.25151E-09
         0.32871E-09
         0.43523E-09
         0.44963E-09
         0.36333E-09
         0.29497E-09
         0.36157E-09
         0.42763E-09
         0.91182E-09
         0.72293E-09
         0.77627E-09
         0.13367E-08
         0.71629E-09
         0.91436E-09
         0.50982E-09
         0.61240E-09
         0.10130E-08
         0.74146E-09
         0.30043E-09
         0.56932E-09
         0.62666E-09
         0.50762E-09
         0.64825E-09
         0.12054E-08
         0.94253E-09
         0.11983E-08
         0.70317E-09
         0.80351E-09
         0.75834E-09
         0.84041E-09
         0.64491E-09
         0.40053E-09
         0.76028E-09
         0.63304E-09
         0.65790E-09
         0.67476E-09
         0.58731E-09
         0.71609E-09
         0.91012E-09
         0.64239E-09
         0.10195E-08
         0.88762E-09
         0.40074E-09
         0.61778E-09
         0.70133E-09
         0.74130E-09
         0.71579E-09
         0.56249E-09
         0.35351E-09
         0.58388E-09
         0.77324E-09
         0.62398E-09
         0.54853E-09
         0.35935E-09
         0.61324E-09
         0.83277E-09
         0.87396E-09
         0.70554E-09
         0.43375E-09
         0.74711E-09
         0.27592E-09
         0.35140E-09
         0.32793E-09
         0.38775E-09
         0.37867E-09
         0.36770E-09
         0.39249E-09
         0.41507E-09
         0.39061E-09
         0.30457E-09
         0.24812E-09
         0.32006E-09
         0.42654E-09
         0.46890E-09
         0.44975E-09
         0.40540E-09
         0.36807E-09
         0.29892E-09
         0.25148E-09
         0.32869E-09
         0.43522E-09
         0.44963E-09
         0.36325E-09
         0.29491E-09
         0.36162E-09
         0.42762E-09
         0.91187E-09
         0.72278E-09
         0.77633E-09
         0.13373E-08
         0.71640E-09
         0.91463E-09
         0.50955E-09
         0.61204E-09
         0.10134E-08
         0.74098E-09
         0.30015E-09
         0.56922E-09
         0.62662E-09
         0.50691E-09
         0.64811E-09
         0.12058E-08
         0.94296E-09
         0.11989E-08
         0.70320E-09
         0.80361E-09
         0.75831E-09
         0.84045E-09
         0.64485E-09
         0.40048E-09
         0.75995E-09
         0.63298E-09
         0.65690E-09
         0.67409E-09
         0.58706E-09
         0.71592E-09
         0.91020E-09
         0.64231E-09
         0.10200E-08
         0.88843E-09
         0.40074E-09
         0.61766E-09
         0.70124E-09
         0.74124E-09
         0.71584E-09
         0.56251E-09
         0.35351E-09
         0.58380E-09
         0.77320E-09
         0.62389E-09
         0.54840E-09
         0.35926E-09
         0.61318E-09
         0.83277E-09
         0.87409E-09
         0.70568E-09
         0.43376E-09
         0.74748E-09
         0.27584E-09
         0.35139E-09
         0.32777E-09
         0.38777E-09
         0.37876E-09
         0.36778E-09
         0.39266E-09
         0.41536E-09
         0.39084E-09
         0.30464E-09
         0.24814E-09
         0.32006E-09
         0.42659E-09
         0.46900E-09
         0.44980E-09
         0.40539E-09
         0.36805E-09
         0.29890E-09
         0.25144E-09
         0.32867E-09
         0.43521E-09
         0.44963E-09
         0.36318E-09
         0.29485E-09
         0.36166E-09
         0.42761E-09
         0.91192E-09
         0.72263E-09
         0.77640E-09
         0.13380E-08
         0.71652E-09
         0.91491E-09
         0.50928E-09
         0.61167E-09
         0.10137E-08
         0.74049E-09
         0.29986E-09
         0.56912E-09
         0.62657E-09
         0.50620E-09
         0.64797E-09
         0.12061E-08
         0.94339E-09
         0.11995E-08
         0.70322E-09
         0.80371E-09
         0.75827E-09
         0.84048E-09
         0.64478E-09
         0.40044E-09
         0.75962E-09
         0.63293E-09
         0.65591E-09
         0.67343E-09
         0.58681E-09
         0.71576E-09
         0.91029E-09
         0.64223E-09
         0.10205E-08
         0.88923E-09
         0.40073E-09
         0.61754E-09
         0.70114E-09
         0.74119E-09
         0.71588E-09
         0.56254E-09
         0.35351E-09
         0.58372E-09
         0.77316E-09
         0.62380E-09
         0.54827E-09
         0.35917E-09
         0.61313E-09
         0.83278E-09
         0.87422E-09
         0.70582E-09
         0.43377E-09
         0.74785E-09
         0.27575E-09
         0.35138E-09
         0.32761E-09
         0.38778E-09
         0.37885E-09
         0.36786E-09
         0.39283E-09
         0.41566E-09
         0.39107E-09
         0.30470E-09
         0.24816E-09
         0.32007E-09
         0.42665E-09
         0.46911E-09
         0.44985E-09
         0.40538E-09
         0.36802E-09
         0.29887E-09
         0.25140E-09
         0.32864E-09
         0.43520E-09
         0.44963E-09
         0.36310E-09
         0.29478E-09
         0.36170E-09
         0.42760E-09
         0.91198E-09
         0.72248E-09
         0.77646E-09
         0.13386E-08
         0.71663E-09
         0.91520E-09
         0.50901E-09
         0.61131E-09
         0.10141E-08
         0.74000E-09
         0.29957E-09
         0.56902E-09
         0.62653E-09
         0.50549E-09
         0.64784E-09
         0.12065E-08
         0.94382E-09
         0.12002E-08
         0.70325E-09
         0.80381E-09
         0.75824E-09
         0.84052E-09
         0.64472E-09
         0.40040E-09
         0.75929E-09
         0.63288E-09
         0.65492E-09
         0.67276E-09
         0.58657E-09
         0.71560E-09
         0.91038E-09
         0.64216E-09
         0.10211E-08
         0.89003E-09
         0.40073E-09
         0.61742E-09
         0.70105E-09
         0.74114E-09
         0.71593E-09
         0.56257E-09
         0.35351E-09
         0.58364E-09
         0.77313E-09
         0.62371E-09
         0.54814E-09
         0.35908E-09
         0.61308E-09
         0.83280E-09
         0.87436E-09
         0.70597E-09
         0.43378E-09
         0.74823E-09
         0.27567E-09
         0.35138E-09
         0.32745E-09
         0.38779E-09
         0.37893E-09
         0.36794E-09
         0.39300E-09
         0.41596E-09
         0.39130E-09
         0.30477E-09
         0.24818E-09
         0.32008E-09
         0.42671E-09
         0.46921E-09
         0.44991E-09
         0.40537E-09
         0.36800E-09
         0.29885E-09
         0.25136E-09
         0.32862E-09
         0.43520E-09
         0.44963E-09
         0.36303E-09
         0.29472E-09
         0.36175E-09
         0.42759E-09
         0.91203E-09
         0.72233E-09
         0.77653E-09
         0.13392E-08
         0.71675E-09
         0.91547E-09
         0.50875E-09
         0.61094E-09
         0.10144E-08
         0.73952E-09
         0.29928E-09
         0.56892E-09
         0.62649E-09
         0.50478E-09
         0.64770E-09
         0.12068E-08
         0.94424E-09
         0.12008E-08
         0.70327E-09
         0.80391E-09
         0.75821E-09
         0.84055E-09
         0.64465E-09
         0.40035E-09
         0.75896E-09
         0.63282E-09
         0.65393E-09
         0.67210E-09
         0.58632E-09
         0.71543E-09
         0.91047E-09
         0.64208E-09
         0.10216E-08
         0.89084E-09
         0.40073E-09
         0.61730E-09
         0.70096E-09
         0.74108E-09
         0.71598E-09
         0.56259E-09
         0.35351E-09
         0.58356E-09
         0.77309E-09
         0.62362E-09
         0.54801E-09
         0.35898E-09
         0.61303E-09
         0.83281E-09
         0.87449E-09
         0.70611E-09
         0.43379E-09
         0.74860E-09
         0.27558E-09
         0.35137E-09
         0.32729E-09
         0.38781E-09
         0.37902E-09
         0.36802E-09
         0.39317E-09
         0.41625E-09
         0.39153E-09
         0.30484E-09
         0.24820E-09
         0.32009E-09
         0.42677E-09
         0.46932E-09
         0.44996E-09
         0.40536E-09
         0.36798E-09
         0.29883E-09
         0.25132E-09
         0.32859E-09
         0.43519E-09
         0.44963E-09
         0.36296E-09
         0.29465E-09
         0.36179E-09
         0.42758E-09
         0.91208E-09
         0.72218E-09
         0.77659E-09
         0.13399E-08
         0.71686E-09
         0.91576E-09
         0.50848E-09
         0.61058E-09
         0.10148E-08
         0.73903E-09
         0.29900E-09
         0.56882E-09
         0.62645E-09
         0.50408E-09
         0.64757E-09
         0.12072E-08
         0.94467E-09
         0.12014E-08
         0.70330E-09
         0.80401E-09
         0.75818E-09
         0.84059E-09
         0.64459E-09
         0.40031E-09
         0.75864E-09
         0.63277E-09
         0.65294E-09
         0.67143E-09
         0.58607E-09
         0.71527E-09
         0.91057E-09
         0.64200E-09
         0.10221E-08
         0.89164E-09
         0.40072E-09
         0.61719E-09
         0.70087E-09
         0.74103E-09
         0.71603E-09
         0.56262E-09
         0.35352E-09
         0.58348E-09
         0.77305E-09
         0.62354E-09
         0.54788E-09
         0.35889E-09
         0.61298E-09
         0.83282E-09
         0.87463E-09
         0.70626E-09
         0.43380E-09
         0.74897E-09
         0.27550E-09
         0.35137E-09
         0.32713E-09
         0.38782E-09
         0.37911E-09
         0.36810E-09
         0.39334E-09
         0.41655E-09
         0.39176E-09
         0.30491E-09
         0.24822E-09
         0.32010E-09
         0.42682E-09
         0.46942E-09
         0.45001E-09
         0.40534E-09
         0.36796E-09
         0.29881E-09
         0.25128E-09
         0.32857E-09
         0.43518E-09
         0.44963E-09
         0.36288E-09
         0.29459E-09
         0.36184E-09
         0.42757E-09
         0.91214E-09
         0.72204E-09
         0.77666E-09
         0.13405E-08
         0.71698E-09
         0.91604E-09
         0.50822E-09
         0.61022E-09
         0.10151E-08
         0.73855E-09
         0.29871E-09
         0.56872E-09
         0.62641E-09
         0.50337E-09
         0.64743E-09
         0.12075E-08
         0.94510E-09
         0.12020E-08
         0.70333E-09
         0.80411E-09
         0.75815E-09
         0.84063E-09
         0.64453E-09
         0.40027E-09
         0.75831E-09
         0.63272E-09
         0.65196E-09
         0.67077E-09
         0.58582E-09
         0.71511E-09
         0.91066E-09
         0.64192E-09
         0.10227E-08
         0.89245E-09
         0.40072E-09
         0.61707E-09
         0.70078E-09
         0.74098E-09
         0.71608E-09
         0.56265E-09
         0.35352E-09
         0.58340E-09
         0.77301E-09
         0.62345E-09
         0.54775E-09
         0.35880E-09
         0.61293E-09
         0.83283E-09
         0.87476E-09
         0.70641E-09
         0.43382E-09
         0.74935E-09
         0.27541E-09
         0.35136E-09
         0.32697E-09
         0.38784E-09
         0.37920E-09
         0.36818E-09
         0.39352E-09
         0.41685E-09
         0.39199E-09
         0.30498E-09
         0.24824E-09
         0.32011E-09
         0.42688E-09
         0.46953E-09
         0.45007E-09
         0.40533E-09
         0.36793E-09
         0.29878E-09
         0.25124E-09
         0.32855E-09
         0.43517E-09
         0.44963E-09
         0.36281E-09
         0.29452E-09
         0.36188E-09
         0.42756E-09
         0.91219E-09
         0.72188E-09
         0.77672E-09
         0.13412E-08
         0.71709E-09
         0.91632E-09
         0.50795E-09
         0.60986E-09
         0.10155E-08
         0.73806E-09
         0.29842E-09
         0.56862E-09
         0.62636E-09
         0.50266E-09
         0.64730E-09
         0.12079E-08
         0.94552E-09
         0.12026E-08
         0.70335E-09
         0.80421E-09
         0.75811E-09
         0.84066E-09
         0.64446E-09
         0.40023E-09
         0.75798E-09
         0.63267E-09
         0.65096E-09
         0.67010E-09
         0.58557E-09
         0.71494E-09
         0.91074E-09
         0.64184E-09
         0.10232E-08
         0.89325E-09
         0.40072E-09
         0.61695E-09
         0.70069E-09
         0.74092E-09
         0.71612E-09
         0.56268E-09
         0.35352E-09
         0.58332E-09
         0.77297E-09
         0.62336E-09
         0.54762E-09
         0.35871E-09
         0.61287E-09
         0.83284E-09
         0.87489E-09
         0.70655E-09
         0.43383E-09
         0.74972E-09
         0.27533E-09
         0.35136E-09
         0.32681E-09
         0.38785E-09
         0.37929E-09
         0.36825E-09
         0.39369E-09
         0.41715E-09
         0.39222E-09
         0.30505E-09
         0.24826E-09
         0.32011E-09
         0.42694E-09
         0.46963E-09
         0.45011E-09
         0.40532E-09
         0.36791E-09
         0.29876E-09
         0.25120E-09
         0.32853E-09
         0.43516E-09
         0.44962E-09
         0.36274E-09
         0.29445E-09
         0.36192E-09
         0.42755E-09
         0.91224E-09
         0.72173E-09
         0.77679E-09
         0.13418E-08
         0.71720E-09
         0.91660E-09
         0.50768E-09
         0.60949E-09
         0.10158E-08
         0.73758E-09
         0.29814E-09
         0.56852E-09
         0.62632E-09
         0.50195E-09
         0.64716E-09
         0.12082E-08
         0.94595E-09
         0.12032E-08
         0.70337E-09
         0.80431E-09
         0.75808E-09
         0.84069E-09
         0.64440E-09
         0.40018E-09
         0.75766E-09
         0.63262E-09
         0.64998E-09
         0.66943E-09
         0.58532E-09
         0.71478E-09
         0.91083E-09
         0.64176E-09
         0.10238E-08
         0.89406E-09
         0.40071E-09
         0.61683E-09
         0.70059E-09
         0.74087E-09
         0.71617E-09
         0.56270E-09
         0.35352E-09
         0.58324E-09
         0.77294E-09
         0.62327E-09
         0.54749E-09
         0.35861E-09
         0.61282E-09
         0.83284E-09
         0.87503E-09
         0.70669E-09
         0.43384E-09
         0.75009E-09
         0.27524E-09
         0.35135E-09
         0.32665E-09
         0.38786E-09
         0.37937E-09
         0.36833E-09
         0.39386E-09
         0.41745E-09
         0.39245E-09
         0.30512E-09
         0.24828E-09
         0.32012E-09
         0.42699E-09
         0.46974E-09
         0.45017E-09
         0.40531E-09
         0.36788E-09
         0.29873E-09
         0.25117E-09
         0.32850E-09
         0.43515E-09
         0.44962E-09
         0.36266E-09
         0.29439E-09
         0.36197E-09
         0.42754E-09
         0.91230E-09
         0.72159E-09
         0.77686E-09
         0.13425E-08
         0.71732E-09
         0.91688E-09
         0.50742E-09
         0.60913E-09
         0.10162E-08
         0.73710E-09
         0.29785E-09
         0.56842E-09
         0.62628E-09
         0.50125E-09
         0.64703E-09
         0.12086E-08
         0.94638E-09
         0.12038E-08
         0.70340E-09
         0.80441E-09
         0.75805E-09
         0.84073E-09
         0.64433E-09
         0.40014E-09
         0.75733E-09
         0.63257E-09
         0.64899E-09
         0.66877E-09
         0.58508E-09
         0.71462E-09
         0.91093E-09
         0.64169E-09
         0.10243E-08
         0.89487E-09
         0.40071E-09
         0.61671E-09
         0.70051E-09
         0.74082E-09
         0.71622E-09
         0.56273E-09
         0.35352E-09
         0.58316E-09
         0.77290E-09
         0.62318E-09
         0.54737E-09
         0.35852E-09
         0.61277E-09
         0.83286E-09
         0.87517E-09
         0.70684E-09
         0.43385E-09
         0.75047E-09
         0.27516E-09
         0.35135E-09
         0.32649E-09
         0.38788E-09
         0.37946E-09
         0.36841E-09
         0.39403E-09
         0.41775E-09
         0.39268E-09
         0.30519E-09
         0.24830E-09
         0.32013E-09
         0.42705E-09
         0.46985E-09
         0.45022E-09
         0.40530E-09
         0.36786E-09
         0.29871E-09
         0.25113E-09
         0.32848E-09
         0.43515E-09
         0.44962E-09
         0.36259E-09
         0.29433E-09
         0.36201E-09
         0.42753E-09
         0.91235E-09
         0.72143E-09
         0.77692E-09
         0.13431E-08
         0.71743E-09
         0.91716E-09
         0.50715E-09
         0.60877E-09
         0.10165E-08
         0.73661E-09
         0.29757E-09
         0.56832E-09
         0.62624E-09
         0.50054E-09
         0.64689E-09
         0.12089E-08
         0.94680E-09
         0.12044E-08
         0.70342E-09
         0.80450E-09
         0.75802E-09
         0.84076E-09
         0.64427E-09
         0.40010E-09
         0.75700E-09
         0.63251E-09
         0.64800E-09
         0.66810E-09
         0.58482E-09
         0.71445E-09
         0.91101E-09
         0.64161E-09
         0.10248E-08
         0.89567E-09
         0.40071E-09
         0.61659E-09
         0.70041E-09
         0.74077E-09
         0.71627E-09
         0.56276E-09
         0.35352E-09
         0.58308E-09
         0.77286E-09
         0.62309E-09
         0.54723E-09
         0.35843E-09
         0.61272E-09
         0.83287E-09
         0.87530E-09
         0.70698E-09
         0.43386E-09
         0.75084E-09
         0.27507E-09
         0.35134E-09
         0.32633E-09
         0.38789E-09
         0.37955E-09
         0.36849E-09
         0.39420E-09
         0.41804E-09
         0.39291E-09
         0.30525E-09
         0.24832E-09
         0.32014E-09
         0.42711E-09
         0.46995E-09
         0.45027E-09
         0.40528E-09
         0.36784E-09
         0.29869E-09
         0.25109E-09
         0.32845E-09
         0.43514E-09
         0.44962E-09
         0.36252E-09
         0.29426E-09
         0.36206E-09
         0.42751E-09
         0.91240E-09
         0.72128E-09
         0.77698E-09
         0.13437E-08
         0.71755E-09
         0.91744E-09
         0.50688E-09
         0.60841E-09
         0.10169E-08
         0.73612E-09
         0.29728E-09
         0.56822E-09
         0.62619E-09
         0.49984E-09
         0.64676E-09
         0.12093E-08
         0.94723E-09
         0.12050E-08
         0.70345E-09
         0.80460E-09
         0.75798E-09
         0.84080E-09
         0.64420E-09
         0.40006E-09
         0.75667E-09
         0.63246E-09
         0.64701E-09
         0.66744E-09
         0.58457E-09
         0.71429E-09
         0.91110E-09
         0.64153E-09
         0.10254E-08
         0.89648E-09
         0.40070E-09
         0.61647E-09
         0.70032E-09
         0.74071E-09
         0.71632E-09
         0.56279E-09
         0.35353E-09
         0.58300E-09
         0.77282E-09
         0.62300E-09
         0.54710E-09
         0.35834E-09
         0.61266E-09
         0.83288E-09
         0.87543E-09
         0.70713E-09
         0.43387E-09
         0.75122E-09
         0.27499E-09
         0.35133E-09
         0.32617E-09
         0.38790E-09
         0.37964E-09
         0.36857E-09
         0.39437E-09
         0.41834E-09
         0.39314E-09
         0.30532E-09
         0.24834E-09
         0.32014E-09
         0.42716E-09
         0.47005E-09
         0.45032E-09
         0.40527E-09
         0.36781E-09
         0.29866E-09
         0.25105E-09
         0.32843E-09
         0.43513E-09
         0.44962E-09
         0.36244E-09
         0.29419E-09
         0.36210E-09
         0.42750E-09
         0.91246E-09
         0.72114E-09
         0.77705E-09
         0.13444E-08
         0.71767E-09
         0.91773E-09
         0.50662E-09
         0.60805E-09
         0.10173E-08
         0.73564E-09
         0.29700E-09
         0.56812E-09
         0.62616E-09
         0.49914E-09
         0.64663E-09
         0.12097E-08
         0.94766E-09
         0.12056E-08
         0.70348E-09
         0.80471E-09
         0.75796E-09
         0.84084E-09
         0.64414E-09
         0.40002E-09
         0.75635E-09
         0.63241E-09
         0.64603E-09
         0.66678E-09
         0.58433E-09
         0.71413E-09
         0.91120E-09
         0.64146E-09
         0.10259E-08
         0.89729E-09
         0.40070E-09
         0.61636E-09
         0.70023E-09
         0.74067E-09
         0.71637E-09
         0.56282E-09
         0.35353E-09
         0.58293E-09
         0.77279E-09
         0.62291E-09
         0.54698E-09
         0.35825E-09
         0.61261E-09
         0.83289E-09
         0.87557E-09
         0.70728E-09
         0.43389E-09
         0.75160E-09
         0.27491E-09
         0.35133E-09
         0.32601E-09
         0.38792E-09
         0.37972E-09
         0.36865E-09
         0.39454E-09
         0.41864E-09
         0.39337E-09
         0.30539E-09
         0.24836E-09
         0.32015E-09
         0.42722E-09
         0.47016E-09
         0.45038E-09
         0.40526E-09
         0.36779E-09
         0.29864E-09
         0.25101E-09
         0.32841E-09
         0.43512E-09
         0.44962E-09
         0.36237E-09
         0.29413E-09
         0.36215E-09
         0.42750E-09
         0.91249E-09
         0.72097E-09
         0.77710E-09
         0.13450E-08
         0.71777E-09
         0.91799E-09
         0.50634E-09
         0.60767E-09
         0.10176E-08
         0.73514E-09
         0.29670E-09
         0.56801E-09
         0.62610E-09
         0.49842E-09
         0.64648E-09
         0.12100E-08
         0.94806E-09
         0.12062E-08
         0.70349E-09
         0.80479E-09
         0.75791E-09
         0.84086E-09
         0.64406E-09
         0.39997E-09
         0.75600E-09
         0.63234E-09
         0.64503E-09
         0.66610E-09
         0.58407E-09
         0.71395E-09
         0.91127E-09
         0.64136E-09
         0.10264E-08
         0.89808E-09
         0.40069E-09
         0.61622E-09
         0.70012E-09
         0.74060E-09
         0.71641E-09
         0.56283E-09
         0.35352E-09
         0.58283E-09
         0.77273E-09
         0.62281E-09
         0.54684E-09
         0.35815E-09
         0.61255E-09
         0.83288E-09
         0.87569E-09
         0.70741E-09
         0.43389E-09
         0.75195E-09
         0.27482E-09
         0.35132E-09
         0.32584E-09
         0.38793E-09
         0.37980E-09
         0.36872E-09
         0.39470E-09
         0.41893E-09
         0.39360E-09
         0.30545E-09
         0.24837E-09
         0.32016E-09
         0.42727E-09
         0.47026E-09
         0.45042E-09
         0.40524E-09
         0.36776E-09
         0.29861E-09
         0.25097E-09
         0.32838E-09
         0.43510E-09
         0.44961E-09
         0.36229E-09
         0.29406E-09
         0.36218E-09
         0.42748E-09
         0.91256E-09
         0.72083E-09
         0.77718E-09
         0.13457E-08
         0.71789E-09
         0.91829E-09
         0.50608E-09
         0.60732E-09
         0.10180E-08
         0.73467E-09
         0.29642E-09
         0.56792E-09
         0.62607E-09
         0.49772E-09
         0.64636E-09
         0.12103E-08
         0.94850E-09
         0.12068E-08
         0.70352E-09
         0.80490E-09
         0.75789E-09
         0.84091E-09
         0.64401E-09
         0.39993E-09
         0.75569E-09
         0.63230E-09
         0.64405E-09
         0.66544E-09
         0.58382E-09
         0.71379E-09
         0.91137E-09
         0.64129E-09
         0.10270E-08
         0.89890E-09
         0.40069E-09
         0.61611E-09
         0.70004E-09
         0.74056E-09
         0.71646E-09
         0.56287E-09
         0.35353E-09
         0.58276E-09
         0.77271E-09
         0.62273E-09
         0.54672E-09
         0.35806E-09
         0.61251E-09
         0.83291E-09
         0.87583E-09
         0.70756E-09
         0.43391E-09
         0.75234E-09
         0.27474E-09
         0.35132E-09
         0.32569E-09
         0.38794E-09
         0.37990E-09
         0.36881E-09
         0.39488E-09
         0.41923E-09
         0.39383E-09
         0.30553E-09
         0.24840E-09
         0.32017E-09
         0.42734E-09
         0.47037E-09
         0.45048E-09
         0.40524E-09
         0.36774E-09
         0.29859E-09
         0.25093E-09
         0.32836E-09
         0.43510E-09
         0.44962E-09
         0.36222E-09
         0.29400E-09
         0.36223E-09
         0.42747E-09
         0.45631E-09
         0.36039E-09
         0.38862E-09
         0.67302E-09
         0.35899E-09
         0.45923E-09
         0.25298E-09
         0.30358E-09
         0.50909E-09
         0.36723E-09
         0.14815E-09
         0.28394E-09
         0.31303E-09
         0.24869E-09
         0.32316E-09
         0.60528E-09
         0.47437E-09
         0.60357E-09
         0.35178E-09
         0.40249E-09
         0.37895E-09
         0.42048E-09
         0.32200E-09
         0.19996E-09
         0.37777E-09
         0.31615E-09
         0.32179E-09
         0.33257E-09
         0.29186E-09
         0.35687E-09
         0.45572E-09
         0.32064E-09
         0.51365E-09
         0.44967E-09
         0.20035E-09
         0.30804E-09
         0.35001E-09
         0.37028E-09
         0.35826E-09
         0.28145E-09
         0.17677E-09
         0.29137E-09
         0.38636E-09
         0.31135E-09
         0.27333E-09
         0.17901E-09
         0.30625E-09
         0.41647E-09
         0.43797E-09
         0.35383E-09
         0.21697E-09
         0.37628E-09
         0.13735E-09
         0.17566E-09
         0.16281E-09
         0.19398E-09
         0.18998E-09
         0.18443E-09
         0.19749E-09
         0.20970E-09
         0.19698E-09
         0.15279E-09
         0.12421E-09
         0.16009E-09
         0.21369E-09
         0.23522E-09
         0.22526E-09
         0.20262E-09
         0.18387E-09
         0.14930E-09
         0.12546E-09
         0.16418E-09
         0.21756E-09
         0.22482E-09
         0.18110E-09
         0.14699E-09
         0.18113E-09
         0.21374E-09
  
SCALARS               pre_disp_force_x  double 1
LOOKUP_TABLE default
         0.00000E+00
         0.00000E+00
         0.00000E+00
         0.00000E+00
         0.00000E+00
         0.00000E+00
         0.00000E+00
         0.00000E+00
         0.00000E+00
         0.00000E+00
         0.00000E+00
         0.00000E+00
         0.00000E+00
         0.00000E+00
         0.00000E+00
         0.00000E+00
         0.00000E+00
         0.00000E+00
         0.00000E+00
         0.00000E+00
         0.00000E+00
         0.00000E+00
         0.00000E+00
         0.00000E+00
         0.00000E+00
         0.00000E+00
         0.00000E+00
         0.00000E+00
         0.00000E+00
         0.00000E+00
         0.00000E+00
         0.00000E+00
         0.00000E+00
         0.00000E+00
         0.00000E+00
         0.00000E+00
         0.00000E+00
         0.00000E+00
         0.00000E+00
         0.00000E+00
         0.00000E+00
         0.00000E+00
         0.00000E+00
         0.00000E+00
         0.00000E+00
         0.00000E+00
         0.00000E+00
         0.00000E+00
         0.00000E+00
         0.00000E+00
         0.00000E+00
         0.00000E+00
         0.00000E+00
         0.00000E+00
         0.00000E+00
         0.00000E+00
         0.00000E+00
         0.00000E+00
         0.00000E+00
         0.00000E+00
         0.00000E+00
         0.00000E+00
         0.00000E+00
         0.00000E+00
         0.00000E+00
         0.00000E+00
         0.00000E+00
         0.00000E+00
         0.00000E+00
         0.00000E+00
         0.00000E+00
         0.00000E+00
         0.00000E+00
         0.00000E+00
         0.00000E+00
         0.00000E+00
         0.00000E+00
         0.00000E+00
         0.00000E+00
         0.00000E+00
         0.00000E+00
         0.00000E+00
         0.00000E+00
         0.00000E+00
         0.00000E+00
         0.00000E+00
         0.00000E+00
         0.00000E+00
         0.00000E+00
         0.00000E+00
         0.00000E+00
         0.00000E+00
         0.00000E+00
         0.00000E+00
         0.00000E+00
         0.00000E+00
         0.00000E+00
         0.00000E+00
         0.00000E+00
         0.00000E+00
         0.00000E+00
         0.00000E+00
         0.00000E+00
         0.00000E+00
         0.00000E+00
         0.00000E+00
         0.00000E+00
         0.00000E+00
         0.00000E+00
         0.00000E+00
         0.00000E+00
         0.00000E+00
         0.00000E+00
         0.00000E+00
         0.00000E+00
         0.00000E+00
         0.00000E+00
         0.00000E+00
         0.00000E+00
         0.00000E+00
         0.00000E+00
         0.00000E+00
         0.00000E+00
         0.00000E+00
         0.00000E+00
         0.00000E+00
         0.00000E+00
         0.00000E+00
         0.00000E+00
         0.00000E+00
         0.00000E+00
         0.00000E+00
         0.00000E+00
         0.00000E+00
         0.00000E+00
         0.00000E+00
         0.00000E+00
         0.00000E+00
         0.00000E+00
         0.00000E+00
         0.00000E+00
         0.00000E+00
         0.00000E+00
         0.00000E+00
         0.00000E+00
         0.00000E+00
         0.00000E+00
         0.00000E+00
         0.00000E+00
         0.00000E+00
         0.00000E+00
         0.00000E+00
         0.00000E+00
         0.00000E+00
         0.00000E+00
         0.00000E+00
         0.00000E+00
         0.00000E+00
         0.00000E+00
         0.00000E+00
         0.00000E+00
         0.00000E+00
         0.00000E+00
         0.00000E+00
         0.00000E+00
         0.00000E+00
         0.00000E+00
         0.00000E+00
         0.00000E+00
         0.00000E+00
         0.00000E+00
         0.00000E+00
         0.00000E+00
         0.00000E+00
         0.00000E+00
         0.00000E+00
         0.00000E+00
         0.00000E+00
         0.00000E+00
         0.00000E+00
         0.00000E+00
         0.00000E+00
         0.00000E+00
         0.00000E+00
         0.00000E+00
         0.00000E+00
         0.00000E+00
         0.00000E+00
         0.00000E+00
         0.00000E+00
         0.00000E+00
         0.00000E+00
         0.00000E+00
         0.00000E+00
         0.00000E+00
         0.00000E+00
         0.00000E+00
         0.00000E+00
         0.00000E+00
         0.00000E+00
         0.00000E+00
         0.00000E+00
         0.00000E+00
         0.00000E+00
         0.00000E+00
         0.00000E+00
         0.00000E+00
         0.00000E+00
         0.00000E+00
         0.00000E+00
         0.00000E+00
         0.00000E+00
         0.00000E+00
         0.00000E+00
         0.00000E+00
         0.00000E+00
         0.00000E+00
         0.00000E+00
         0.00000E+00
         0.00000E+00
         0.00000E+00
         0.00000E+00
         0.00000E+00
         0.00000E+00
         0.00000E+00
         0.00000E+00
         0.00000E+00
         0.00000E+00
         0.00000E+00
         0.00000E+00
         0.00000E+00
         0.00000E+00
         0.00000E+00
         0.00000E+00
         0.00000E+00
         0.00000E+00
         0.00000E+00
         0.00000E+00
         0.00000E+00
         0.00000E+00
         0.00000E+00
         0.00000E+00
         0.00000E+00
         0.00000E+00
         0.00000E+00
         0.00000E+00
         0.00000E+00
         0.00000E+00
         0.00000E+00
         0.00000E+00
         0.00000E+00
         0.00000E+00
         0.00000E+00
         0.00000E+00
         0.00000E+00
         0.00000E+00
         0.00000E+00
         0.00000E+00
         0.00000E+00
         0.00000E+00
         0.00000E+00
         0.00000E+00
         0.00000E+00
         0.00000E+00
         0.00000E+00
         0.00000E+00
         0.00000E+00
         0.00000E+00
         0.00000E+00
         0.00000E+00
         0.00000E+00
         0.00000E+00
         0.00000E+00
         0.00000E+00
         0.00000E+00
         0.00000E+00
         0.00000E+00
         0.00000E+00
         0.00000E+00
         0.00000E+00
         0.00000E+00
         0.00000E+00
         0.00000E+00
         0.00000E+00
         0.00000E+00
         0.00000E+00
         0.00000E+00
         0.00000E+00
         0.00000E+00
         0.00000E+00
         0.00000E+00
         0.00000E+00
         0.00000E+00
         0.00000E+00
         0.00000E+00
         0.00000E+00
         0.00000E+00
         0.00000E+00
         0.00000E+00
         0.00000E+00
         0.00000E+00
         0.00000E+00
         0.00000E+00
         0.00000E+00
         0.00000E+00
         0.00000E+00
         0.00000E+00
         0.00000E+00
         0.00000E+00
         0.00000E+00
         0.00000E+00
         0.00000E+00
         0.00000E+00
         0.00000E+00
         0.00000E+00
         0.00000E+00
         0.00000E+00
         0.00000E+00
         0.00000E+00
         0.00000E+00
         0.00000E+00
         0.00000E+00
         0.00000E+00
         0.00000E+00
         0.00000E+00
         0.00000E+00
         0.00000E+00
         0.00000E+00
         0.00000E+00
         0.00000E+00
         0.00000E+00
         0.00000E+00
         0.00000E+00
         0.00000E+00
         0.00000E+00
         0.00000E+00
         0.00000E+00
         0.00000E+00
         0.00000E+00
         0.00000E+00
         0.00000E+00
         0.00000E+00
         0.00000E+00
         0.00000E+00
         0.00000E+00
         0.00000E+00
         0.00000E+00
         0.00000E+00
         0.00000E+00
         0.00000E+00
         0.00000E+00
         0.00000E+00
         0.00000E+00
         0.00000E+00
         0.00000E+00
         0.00000E+00
         0.00000E+00
         0.00000E+00
         0.00000E+00
         0.00000E+00
         0.00000E+00
         0.00000E+00
         0.00000E+00
         0.00000E+00
         0.00000E+00
         0.00000E+00
         0.00000E+00
         0.00000E+00
         0.00000E+00
         0.00000E+00
         0.00000E+00
         0.00000E+00
         0.00000E+00
         0.00000E+00
         0.00000E+00
         0.00000E+00
         0.00000E+00
         0.00000E+00
         0.00000E+00
         0.00000E+00
         0.00000E+00
         0.00000E+00
         0.00000E+00
         0.00000E+00
         0.00000E+00
         0.00000E+00
         0.00000E+00
         0.00000E+00
         0.00000E+00
         0.00000E+00
         0.00000E+00
         0.00000E+00
         0.00000E+00
         0.00000E+00
         0.00000E+00
         0.00000E+00
         0.00000E+00
         0.00000E+00
         0.00000E+00
         0.00000E+00
         0.00000E+00
         0.00000E+00
         0.00000E+00
         0.00000E+00
         0.00000E+00
         0.00000E+00
         0.00000E+00
         0.00000E+00
         0.00000E+00
         0.00000E+00
         0.00000E+00
         0.00000E+00
         0.00000E+00
         0.00000E+00
         0.00000E+00
         0.00000E+00
         0.00000E+00
         0.00000E+00
         0.00000E+00
         0.00000E+00
         0.00000E+00
         0.00000E+00
         0.00000E+00
         0.00000E+00
         0.00000E+00
         0.00000E+00
         0.00000E+00
         0.00000E+00
         0.00000E+00
         0.00000E+00
         0.00000E+00
         0.00000E+00
         0.00000E+00
         0.00000E+00
         0.00000E+00
         0.00000E+00
         0.00000E+00
         0.00000E+00
         0.00000E+00
         0.00000E+00
         0.00000E+00
         0.00000E+00
         0.00000E+00
         0.00000E+00
         0.00000E+00
         0.00000E+00
         0.00000E+00
         0.00000E+00
         0.00000E+00
         0.00000E+00
         0.00000E+00
         0.00000E+00
         0.00000E+00
         0.00000E+00
         0.00000E+00
         0.00000E+00
         0.00000E+00
         0.00000E+00
         0.00000E+00
         0.00000E+00
         0.00000E+00
         0.00000E+00
         0.00000E+00
         0.00000E+00
         0.00000E+00
         0.00000E+00
         0.00000E+00
         0.00000E+00
         0.00000E+00
         0.00000E+00
         0.00000E+00
         0.00000E+00
         0.00000E+00
         0.00000E+00
         0.00000E+00
         0.00000E+00
         0.00000E+00
         0.00000E+00
         0.00000E+00
         0.00000E+00
         0.00000E+00
         0.00000E+00
         0.00000E+00
         0.00000E+00
         0.00000E+00
         0.00000E+00
         0.00000E+00
         0.00000E+00
         0.00000E+00
         0.00000E+00
         0.00000E+00
         0.00000E+00
         0.00000E+00
         0.00000E+00
         0.00000E+00
         0.00000E+00
         0.00000E+00
         0.00000E+00
         0.00000E+00
         0.00000E+00
         0.00000E+00
         0.00000E+00
         0.00000E+00
         0.00000E+00
         0.00000E+00
         0.00000E+00
         0.00000E+00
         0.00000E+00
         0.00000E+00
         0.00000E+00
         0.00000E+00
         0.00000E+00
         0.00000E+00
         0.00000E+00
         0.00000E+00
         0.00000E+00
         0.00000E+00
         0.00000E+00
         0.00000E+00
         0.00000E+00
         0.00000E+00
         0.00000E+00
         0.00000E+00
         0.00000E+00
         0.00000E+00
         0.00000E+00
         0.00000E+00
         0.00000E+00
         0.00000E+00
         0.00000E+00
         0.00000E+00
         0.00000E+00
         0.00000E+00
         0.00000E+00
         0.00000E+00
         0.00000E+00
         0.00000E+00
         0.00000E+00
         0.00000E+00
         0.00000E+00
         0.00000E+00
         0.00000E+00
         0.00000E+00
         0.00000E+00
         0.00000E+00
         0.00000E+00
         0.00000E+00
         0.00000E+00
         0.00000E+00
         0.00000E+00
         0.00000E+00
         0.00000E+00
         0.00000E+00
         0.00000E+00
         0.00000E+00
         0.00000E+00
         0.00000E+00
         0.00000E+00
         0.00000E+00
         0.00000E+00
         0.00000E+00
         0.00000E+00
         0.00000E+00
         0.00000E+00
         0.00000E+00
         0.00000E+00
         0.00000E+00
         0.00000E+00
         0.00000E+00
         0.00000E+00
         0.00000E+00
         0.00000E+00
         0.00000E+00
         0.00000E+00
         0.00000E+00
         0.00000E+00
         0.00000E+00
         0.00000E+00
         0.00000E+00
         0.00000E+00
         0.00000E+00
         0.00000E+00
         0.00000E+00
         0.00000E+00
         0.00000E+00
         0.00000E+00
         0.00000E+00
         0.00000E+00
         0.00000E+00
         0.00000E+00
         0.00000E+00
         0.00000E+00
         0.00000E+00
         0.00000E+00
         0.00000E+00
         0.00000E+00
         0.00000E+00
         0.00000E+00
         0.00000E+00
         0.00000E+00
         0.00000E+00
         0.00000E+00
         0.00000E+00
         0.00000E+00
         0.00000E+00
         0.00000E+00
         0.00000E+00
         0.00000E+00
         0.00000E+00
         0.00000E+00
         0.00000E+00
         0.00000E+00
         0.00000E+00
         0.00000E+00
         0.00000E+00
         0.00000E+00
         0.00000E+00
         0.00000E+00
         0.00000E+00
         0.00000E+00
         0.00000E+00
         0.00000E+00
         0.00000E+00
         0.00000E+00
         0.00000E+00
         0.00000E+00
         0.00000E+00
         0.00000E+00
         0.00000E+00
         0.00000E+00
         0.00000E+00
         0.00000E+00
         0.00000E+00
         0.00000E+00
         0.00000E+00
         0.00000E+00
         0.00000E+00
         0.00000E+00
         0.00000E+00
         0.00000E+00
         0.00000E+00
         0.00000E+00
         0.00000E+00
         0.00000E+00
         0.00000E+00
         0.00000E+00
         0.00000E+00
         0.00000E+00
         0.00000E+00
         0.00000E+00
         0.00000E+00
         0.00000E+00
         0.00000E+00
         0.00000E+00
         0.00000E+00
         0.00000E+00
         0.00000E+00
         0.00000E+00
         0.00000E+00
         0.00000E+00
         0.00000E+00
         0.00000E+00
         0.00000E+00
         0.00000E+00
         0.00000E+00
         0.00000E+00
         0.00000E+00
         0.00000E+00
         0.00000E+00
         0.00000E+00
         0.00000E+00
         0.00000E+00
         0.00000E+00
         0.00000E+00
         0.00000E+00
         0.00000E+00
         0.00000E+00
         0.00000E+00
         0.00000E+00
         0.00000E+00
         0.00000E+00
         0.00000E+00
         0.00000E+00
         0.00000E+00
         0.00000E+00
         0.00000E+00
         0.00000E+00
         0.00000E+00
         0.00000E+00
         0.00000E+00
         0.00000E+00
         0.00000E+00
         0.00000E+00
         0.00000E+00
         0.00000E+00
         0.00000E+00
         0.00000E+00
         0.00000E+00
         0.00000E+00
         0.00000E+00
         0.00000E+00
         0.00000E+00
         0.00000E+00
         0.00000E+00
         0.00000E+00
         0.00000E+00
         0.00000E+00
         0.00000E+00
         0.00000E+00
         0.00000E+00
         0.00000E+00
         0.00000E+00
         0.00000E+00
         0.00000E+00
         0.00000E+00
         0.00000E+00
         0.00000E+00
         0.00000E+00
         0.00000E+00
         0.00000E+00
         0.00000E+00
         0.00000E+00
         0.00000E+00
         0.00000E+00
         0.00000E+00
         0.00000E+00
         0.00000E+00
         0.00000E+00
         0.00000E+00
         0.00000E+00
         0.00000E+00
         0.00000E+00
         0.00000E+00
         0.00000E+00
         0.00000E+00
         0.00000E+00
         0.00000E+00
         0.00000E+00
         0.00000E+00
         0.00000E+00
         0.00000E+00
         0.00000E+00
         0.00000E+00
         0.00000E+00
         0.00000E+00
         0.00000E+00
         0.00000E+00
         0.00000E+00
         0.00000E+00
         0.00000E+00
         0.00000E+00
         0.00000E+00
         0.00000E+00
         0.00000E+00
         0.00000E+00
         0.00000E+00
         0.00000E+00
         0.00000E+00
         0.00000E+00
         0.00000E+00
         0.00000E+00
         0.00000E+00
         0.00000E+00
         0.00000E+00
         0.00000E+00
         0.00000E+00
         0.00000E+00
         0.00000E+00
         0.00000E+00
         0.00000E+00
         0.00000E+00
         0.00000E+00
         0.00000E+00
         0.00000E+00
         0.00000E+00
         0.00000E+00
         0.00000E+00
         0.00000E+00
         0.00000E+00
         0.00000E+00
         0.00000E+00
         0.00000E+00
         0.00000E+00
         0.00000E+00
         0.00000E+00
         0.00000E+00
         0.00000E+00
         0.00000E+00
         0.00000E+00
         0.00000E+00
         0.00000E+00
         0.00000E+00
         0.00000E+00
         0.00000E+00
         0.00000E+00
         0.00000E+00
         0.00000E+00
         0.00000E+00
         0.00000E+00
         0.00000E+00
         0.00000E+00
         0.00000E+00
         0.00000E+00
         0.00000E+00
         0.00000E+00
         0.00000E+00
         0.00000E+00
         0.00000E+00
         0.00000E+00
         0.00000E+00
         0.00000E+00
         0.00000E+00
         0.00000E+00
         0.00000E+00
         0.00000E+00
         0.00000E+00
         0.00000E+00
         0.00000E+00
         0.00000E+00
         0.00000E+00
         0.00000E+00
         0.00000E+00
         0.00000E+00
         0.00000E+00
         0.00000E+00
         0.00000E+00
         0.00000E+00
         0.00000E+00
         0.00000E+00
         0.00000E+00
         0.00000E+00
         0.00000E+00
         0.00000E+00
         0.00000E+00
         0.00000E+00
         0.00000E+00
         0.00000E+00
         0.00000E+00
         0.00000E+00
         0.00000E+00
         0.00000E+00
         0.00000E+00
         0.00000E+00
         0.00000E+00
         0.00000E+00
         0.00000E+00
         0.00000E+00
         0.00000E+00
         0.00000E+00
         0.00000E+00
         0.00000E+00
         0.00000E+00
         0.00000E+00
         0.00000E+00
         0.00000E+00
         0.00000E+00
         0.00000E+00
         0.00000E+00
         0.00000E+00
         0.00000E+00
         0.00000E+00
         0.00000E+00
         0.00000E+00
         0.00000E+00
         0.00000E+00
         0.00000E+00
         0.00000E+00
         0.00000E+00
         0.00000E+00
         0.00000E+00
         0.00000E+00
         0.00000E+00
         0.00000E+00
         0.00000E+00
         0.00000E+00
         0.00000E+00
         0.00000E+00
         0.00000E+00
         0.00000E+00
         0.00000E+00
         0.00000E+00
         0.00000E+00
         0.00000E+00
         0.00000E+00
         0.00000E+00
         0.00000E+00
         0.00000E+00
         0.00000E+00
         0.00000E+00
         0.00000E+00
         0.00000E+00
         0.00000E+00
         0.00000E+00
         0.00000E+00
         0.00000E+00
         0.00000E+00
         0.00000E+00
         0.00000E+00
         0.00000E+00
         0.00000E+00
         0.00000E+00
         0.00000E+00
         0.00000E+00
         0.00000E+00
         0.00000E+00
         0.00000E+00
         0.00000E+00
         0.00000E+00
         0.00000E+00
         0.00000E+00
         0.00000E+00
         0.00000E+00
         0.00000E+00
         0.00000E+00
         0.00000E+00
         0.00000E+00
         0.00000E+00
         0.00000E+00
         0.00000E+00
         0.00000E+00
         0.00000E+00
         0.00000E+00
         0.00000E+00
         0.00000E+00
         0.00000E+00
         0.00000E+00
         0.00000E+00
         0.00000E+00
         0.00000E+00
         0.00000E+00
         0.00000E+00
         0.00000E+00
         0.00000E+00
         0.00000E+00
         0.00000E+00
         0.00000E+00
         0.00000E+00
         0.00000E+00
         0.00000E+00
         0.00000E+00
         0.00000E+00
         0.00000E+00
         0.00000E+00
         0.00000E+00
         0.00000E+00
         0.00000E+00
         0.00000E+00
         0.00000E+00
         0.00000E+00
         0.00000E+00
         0.00000E+00
         0.00000E+00
         0.00000E+00
         0.00000E+00
         0.00000E+00
         0.00000E+00
         0.00000E+00
         0.00000E+00
         0.00000E+00
         0.00000E+00
         0.00000E+00
         0.00000E+00
         0.00000E+00
         0.00000E+00
         0.00000E+00
         0.00000E+00
         0.00000E+00
         0.00000E+00
         0.00000E+00
         0.00000E+00
         0.00000E+00
         0.00000E+00
         0.00000E+00
         0.00000E+00
         0.00000E+00
         0.00000E+00
         0.00000E+00
         0.00000E+00
         0.00000E+00
         0.00000E+00
         0.00000E+00
         0.00000E+00
         0.00000E+00
         0.00000E+00
         0.00000E+00
         0.00000E+00
         0.00000E+00
         0.00000E+00
         0.00000E+00
         0.00000E+00
         0.00000E+00
         0.00000E+00
         0.00000E+00
         0.00000E+00
         0.00000E+00
         0.00000E+00
         0.00000E+00
         0.00000E+00
         0.00000E+00
         0.00000E+00
         0.00000E+00
         0.00000E+00
         0.00000E+00
         0.00000E+00
         0.00000E+00
         0.00000E+00
         0.00000E+00
         0.00000E+00
         0.00000E+00
         0.00000E+00
         0.00000E+00
         0.00000E+00
         0.00000E+00
         0.00000E+00
         0.00000E+00
         0.00000E+00
         0.00000E+00
         0.00000E+00
         0.00000E+00
         0.00000E+00
         0.00000E+00
         0.00000E+00
         0.00000E+00
         0.00000E+00
         0.00000E+00
         0.00000E+00
         0.00000E+00
         0.00000E+00
         0.00000E+00
         0.00000E+00
         0.00000E+00
         0.00000E+00
         0.00000E+00
         0.00000E+00
         0.00000E+00
         0.00000E+00
         0.00000E+00
         0.00000E+00
         0.00000E+00
         0.00000E+00
         0.00000E+00
         0.00000E+00
         0.00000E+00
         0.00000E+00
         0.00000E+00
         0.00000E+00
         0.00000E+00
         0.00000E+00
         0.00000E+00
         0.00000E+00
         0.00000E+00
         0.00000E+00
         0.00000E+00
         0.00000E+00
         0.00000E+00
         0.00000E+00
         0.00000E+00
         0.00000E+00
         0.00000E+00
         0.00000E+00
         0.00000E+00
         0.00000E+00
         0.00000E+00
         0.00000E+00
         0.00000E+00
         0.00000E+00
         0.00000E+00
         0.00000E+00
         0.00000E+00
         0.00000E+00
         0.00000E+00
         0.00000E+00
         0.00000E+00
         0.00000E+00
         0.00000E+00
         0.00000E+00
         0.00000E+00
         0.00000E+00
         0.00000E+00
         0.00000E+00
         0.00000E+00
         0.00000E+00
         0.00000E+00
         0.00000E+00
         0.00000E+00
         0.00000E+00
         0.00000E+00
         0.00000E+00
         0.00000E+00
         0.00000E+00
         0.00000E+00
         0.00000E+00
         0.00000E+00
         0.00000E+00
         0.00000E+00
         0.00000E+00
         0.00000E+00
         0.00000E+00
         0.00000E+00
         0.00000E+00
         0.00000E+00
         0.00000E+00
         0.00000E+00
         0.00000E+00
         0.00000E+00
         0.00000E+00
         0.00000E+00
         0.00000E+00
         0.00000E+00
         0.00000E+00
         0.00000E+00
         0.00000E+00
         0.00000E+00
         0.00000E+00
         0.00000E+00
         0.00000E+00
         0.00000E+00
         0.00000E+00
         0.00000E+00
         0.00000E+00
         0.00000E+00
         0.00000E+00
         0.00000E+00
         0.00000E+00
         0.00000E+00
         0.00000E+00
         0.00000E+00
         0.00000E+00
         0.00000E+00
         0.00000E+00
         0.00000E+00
         0.00000E+00
         0.00000E+00
         0.00000E+00
         0.00000E+00
         0.00000E+00
         0.00000E+00
         0.00000E+00
         0.00000E+00
         0.00000E+00
         0.00000E+00
         0.00000E+00
         0.00000E+00
         0.00000E+00
         0.00000E+00
         0.00000E+00
         0.00000E+00
         0.00000E+00
         0.00000E+00
         0.00000E+00
         0.00000E+00
         0.00000E+00
         0.00000E+00
         0.00000E+00
         0.00000E+00
         0.00000E+00
         0.00000E+00
         0.00000E+00
         0.00000E+00
         0.00000E+00
         0.00000E+00
         0.00000E+00
         0.00000E+00
         0.00000E+00
         0.00000E+00
         0.00000E+00
         0.00000E+00
         0.00000E+00
         0.00000E+00
         0.00000E+00
         0.00000E+00
         0.00000E+00
         0.00000E+00
         0.00000E+00
         0.00000E+00
         0.00000E+00
         0.00000E+00
         0.00000E+00
         0.00000E+00
         0.00000E+00
         0.00000E+00
         0.00000E+00
         0.00000E+00
         0.00000E+00
         0.00000E+00
         0.00000E+00
         0.00000E+00
         0.00000E+00
         0.00000E+00
         0.00000E+00
         0.00000E+00
         0.00000E+00
         0.00000E+00
         0.00000E+00
         0.00000E+00
         0.00000E+00
         0.00000E+00
         0.00000E+00
         0.00000E+00
         0.00000E+00
         0.00000E+00
         0.00000E+00
         0.00000E+00
         0.00000E+00
         0.00000E+00
         0.00000E+00
         0.00000E+00
         0.00000E+00
         0.00000E+00
         0.00000E+00
         0.00000E+00
         0.00000E+00
         0.00000E+00
         0.00000E+00
         0.00000E+00
         0.00000E+00
         0.00000E+00
         0.00000E+00
         0.00000E+00
         0.00000E+00
         0.00000E+00
         0.00000E+00
         0.00000E+00
         0.00000E+00
         0.00000E+00
         0.00000E+00
         0.00000E+00
         0.00000E+00
         0.00000E+00
         0.00000E+00
         0.00000E+00
         0.00000E+00
         0.00000E+00
         0.00000E+00
         0.00000E+00
         0.00000E+00
         0.00000E+00
         0.00000E+00
         0.00000E+00
         0.00000E+00
         0.00000E+00
         0.00000E+00
         0.00000E+00
         0.00000E+00
         0.00000E+00
         0.00000E+00
         0.00000E+00
         0.00000E+00
         0.00000E+00
         0.00000E+00
         0.00000E+00
         0.00000E+00
         0.00000E+00
         0.00000E+00
         0.00000E+00
         0.00000E+00
         0.00000E+00
         0.00000E+00
         0.00000E+00
         0.00000E+00
         0.00000E+00
         0.00000E+00
         0.00000E+00
         0.00000E+00
         0.00000E+00
         0.00000E+00
         0.00000E+00
         0.00000E+00
         0.00000E+00
         0.00000E+00
         0.00000E+00
         0.00000E+00
         0.00000E+00
         0.00000E+00
         0.00000E+00
         0.00000E+00
         0.00000E+00
         0.00000E+00
         0.00000E+00
         0.00000E+00
         0.00000E+00
         0.00000E+00
         0.00000E+00
         0.00000E+00
         0.00000E+00
         0.00000E+00
         0.00000E+00
         0.00000E+00
         0.00000E+00
         0.00000E+00
         0.00000E+00
         0.00000E+00
         0.00000E+00
         0.00000E+00
         0.00000E+00
         0.00000E+00
         0.00000E+00
         0.00000E+00
         0.00000E+00
         0.00000E+00
         0.00000E+00
         0.00000E+00
         0.00000E+00
         0.00000E+00
         0.00000E+00
         0.00000E+00
         0.00000E+00
         0.00000E+00
         0.00000E+00
         0.00000E+00
         0.00000E+00
         0.00000E+00
         0.00000E+00
         0.00000E+00
         0.00000E+00
         0.00000E+00
         0.00000E+00
         0.00000E+00
         0.00000E+00
         0.00000E+00
         0.00000E+00
         0.00000E+00
         0.00000E+00
         0.00000E+00
         0.00000E+00
         0.00000E+00
         0.00000E+00
         0.00000E+00
         0.00000E+00
         0.00000E+00
         0.00000E+00
         0.00000E+00
         0.00000E+00
         0.00000E+00
         0.00000E+00
         0.00000E+00
         0.00000E+00
         0.00000E+00
         0.00000E+00
         0.00000E+00
         0.00000E+00
         0.00000E+00
         0.00000E+00
         0.00000E+00
         0.00000E+00
         0.00000E+00
         0.00000E+00
         0.00000E+00
         0.00000E+00
         0.00000E+00
         0.00000E+00
         0.00000E+00
         0.00000E+00
         0.00000E+00
         0.00000E+00
         0.00000E+00
         0.00000E+00
         0.00000E+00
         0.00000E+00
         0.00000E+00
         0.00000E+00
         0.00000E+00
         0.00000E+00
         0.00000E+00
         0.00000E+00
         0.00000E+00
         0.00000E+00
         0.00000E+00
         0.00000E+00
         0.00000E+00
         0.00000E+00
         0.00000E+00
         0.00000E+00
         0.00000E+00
         0.00000E+00
         0.00000E+00
         0.00000E+00
         0.00000E+00
         0.00000E+00
         0.00000E+00
         0.00000E+00
         0.00000E+00
         0.00000E+00
         0.00000E+00
         0.00000E+00
         0.00000E+00
         0.00000E+00
         0.00000E+00
         0.00000E+00
         0.00000E+00
         0.00000E+00
         0.00000E+00
         0.00000E+00
         0.00000E+00
         0.00000E+00
         0.00000E+00
         0.00000E+00
         0.00000E+00
         0.00000E+00
         0.00000E+00
         0.00000E+00
         0.00000E+00
         0.00000E+00
         0.00000E+00
         0.00000E+00
         0.00000E+00
         0.00000E+00
         0.00000E+00
         0.00000E+00
         0.00000E+00
         0.00000E+00
         0.00000E+00
         0.00000E+00
         0.00000E+00
         0.00000E+00
         0.00000E+00
         0.00000E+00
         0.00000E+00
         0.00000E+00
         0.00000E+00
         0.00000E+00
         0.00000E+00
         0.00000E+00
         0.00000E+00
         0.00000E+00
         0.00000E+00
         0.00000E+00
         0.00000E+00
         0.00000E+00
         0.00000E+00
         0.00000E+00
         0.00000E+00
         0.00000E+00
         0.00000E+00
         0.00000E+00
         0.00000E+00
         0.00000E+00
         0.00000E+00
         0.00000E+00
         0.00000E+00
         0.00000E+00
         0.00000E+00
         0.00000E+00
         0.00000E+00
         0.00000E+00
         0.00000E+00
         0.00000E+00
         0.00000E+00
         0.00000E+00
         0.00000E+00
         0.00000E+00
         0.00000E+00
         0.00000E+00
         0.00000E+00
         0.00000E+00
         0.00000E+00
         0.00000E+00
         0.00000E+00
         0.00000E+00
         0.00000E+00
         0.00000E+00
         0.00000E+00
         0.00000E+00
         0.00000E+00
         0.00000E+00
         0.00000E+00
         0.00000E+00
         0.00000E+00
         0.00000E+00
         0.00000E+00
         0.00000E+00
         0.00000E+00
         0.00000E+00
         0.00000E+00
         0.00000E+00
         0.00000E+00
         0.00000E+00
         0.00000E+00
         0.00000E+00
         0.00000E+00
         0.00000E+00
         0.00000E+00
         0.00000E+00
         0.00000E+00
         0.00000E+00
         0.00000E+00
         0.00000E+00
         0.00000E+00
         0.00000E+00
         0.00000E+00
         0.00000E+00
         0.00000E+00
         0.00000E+00
         0.00000E+00
         0.00000E+00
         0.00000E+00
         0.00000E+00
         0.00000E+00
         0.00000E+00
         0.00000E+00
         0.00000E+00
         0.00000E+00
         0.00000E+00
         0.00000E+00
         0.00000E+00
         0.00000E+00
         0.00000E+00
         0.00000E+00
         0.00000E+00
         0.00000E+00
         0.00000E+00
         0.00000E+00
         0.00000E+00
         0.00000E+00
         0.00000E+00
         0.00000E+00
         0.00000E+00
         0.00000E+00
         0.00000E+00
         0.00000E+00
         0.00000E+00
         0.00000E+00
         0.00000E+00
         0.00000E+00
         0.00000E+00
         0.00000E+00
         0.00000E+00
         0.00000E+00
         0.00000E+00
         0.00000E+00
         0.00000E+00
         0.00000E+00
         0.00000E+00
         0.00000E+00
         0.00000E+00
         0.00000E+00
         0.00000E+00
         0.00000E+00
         0.00000E+00
         0.00000E+00
         0.00000E+00
         0.00000E+00
         0.00000E+00
         0.00000E+00
         0.00000E+00
         0.00000E+00
         0.00000E+00
         0.00000E+00
         0.00000E+00
         0.00000E+00
         0.00000E+00
         0.00000E+00
         0.00000E+00
         0.00000E+00
         0.00000E+00
         0.00000E+00
         0.00000E+00
         0.00000E+00
         0.00000E+00
         0.00000E+00
         0.00000E+00
         0.00000E+00
         0.00000E+00
         0.00000E+00
         0.00000E+00
         0.00000E+00
         0.00000E+00
         0.00000E+00
         0.00000E+00
         0.00000E+00
         0.00000E+00
         0.00000E+00
         0.00000E+00
         0.00000E+00
         0.00000E+00
         0.00000E+00
         0.00000E+00
         0.00000E+00
         0.00000E+00
         0.00000E+00
         0.00000E+00
         0.00000E+00
         0.00000E+00
         0.00000E+00
         0.00000E+00
         0.00000E+00
         0.00000E+00
         0.00000E+00
         0.00000E+00
         0.00000E+00
         0.00000E+00
         0.00000E+00
         0.00000E+00
         0.00000E+00
         0.00000E+00
         0.00000E+00
         0.00000E+00
         0.00000E+00
         0.00000E+00
         0.00000E+00
         0.00000E+00
         0.00000E+00
         0.00000E+00
         0.00000E+00
         0.00000E+00
         0.00000E+00
         0.00000E+00
         0.00000E+00
         0.00000E+00
         0.00000E+00
         0.00000E+00
         0.00000E+00
         0.00000E+00
         0.00000E+00
         0.00000E+00
         0.00000E+00
         0.00000E+00
         0.00000E+00
         0.00000E+00
         0.00000E+00
         0.00000E+00
         0.00000E+00
         0.00000E+00
         0.00000E+00
         0.00000E+00
         0.00000E+00
         0.00000E+00
         0.00000E+00
         0.00000E+00
         0.00000E+00
         0.00000E+00
         0.00000E+00
         0.00000E+00
         0.00000E+00
         0.00000E+00
         0.00000E+00
         0.00000E+00
         0.00000E+00
         0.00000E+00
         0.00000E+00
         0.00000E+00
         0.00000E+00
         0.00000E+00
         0.00000E+00
         0.00000E+00
         0.00000E+00
         0.00000E+00
         0.00000E+00
         0.00000E+00
         0.00000E+00
         0.00000E+00
         0.00000E+00
         0.00000E+00
         0.00000E+00
         0.00000E+00
         0.00000E+00
         0.00000E+00
         0.00000E+00
         0.00000E+00
         0.00000E+00
         0.00000E+00
         0.00000E+00
         0.00000E+00
         0.00000E+00
         0.00000E+00
         0.00000E+00
         0.00000E+00
         0.00000E+00
         0.00000E+00
         0.00000E+00
         0.00000E+00
         0.00000E+00
         0.00000E+00
         0.00000E+00
         0.00000E+00
         0.00000E+00
         0.00000E+00
         0.00000E+00
         0.00000E+00
         0.00000E+00
         0.00000E+00
         0.00000E+00
         0.00000E+00
         0.00000E+00
         0.00000E+00
         0.00000E+00
         0.00000E+00
         0.00000E+00
         0.00000E+00
         0.00000E+00
         0.00000E+00
         0.00000E+00
         0.00000E+00
         0.00000E+00
         0.00000E+00
         0.00000E+00
         0.00000E+00
         0.00000E+00
         0.00000E+00
         0.00000E+00
         0.00000E+00
         0.00000E+00
         0.00000E+00
         0.00000E+00
         0.00000E+00
         0.00000E+00
         0.00000E+00
         0.00000E+00
         0.00000E+00
         0.00000E+00
         0.00000E+00
         0.00000E+00
         0.00000E+00
         0.00000E+00
         0.00000E+00
         0.00000E+00
         0.00000E+00
         0.00000E+00
         0.00000E+00
         0.00000E+00
         0.00000E+00
         0.00000E+00
         0.00000E+00
         0.00000E+00
         0.00000E+00
         0.00000E+00
         0.00000E+00
         0.00000E+00
         0.00000E+00
         0.00000E+00
         0.00000E+00
         0.00000E+00
         0.00000E+00
         0.00000E+00
         0.00000E+00
         0.00000E+00
         0.00000E+00
         0.00000E+00
         0.00000E+00
         0.00000E+00
         0.00000E+00
         0.00000E+00
         0.00000E+00
         0.00000E+00
         0.00000E+00
         0.00000E+00
         0.00000E+00
         0.00000E+00
         0.00000E+00
         0.00000E+00
         0.00000E+00
         0.00000E+00
         0.00000E+00
         0.00000E+00
         0.00000E+00
         0.00000E+00
         0.00000E+00
         0.00000E+00
         0.00000E+00
         0.00000E+00
         0.00000E+00
         0.00000E+00
         0.00000E+00
         0.00000E+00
         0.00000E+00
         0.00000E+00
         0.00000E+00
         0.00000E+00
         0.00000E+00
         0.00000E+00
         0.00000E+00
         0.00000E+00
         0.00000E+00
         0.00000E+00
         0.00000E+00
         0.00000E+00
         0.00000E+00
         0.00000E+00
         0.00000E+00
         0.00000E+00
         0.00000E+00
         0.00000E+00
         0.00000E+00
         0.00000E+00
         0.00000E+00
         0.00000E+00
         0.00000E+00
         0.00000E+00
         0.00000E+00
         0.00000E+00
         0.00000E+00
         0.00000E+00
         0.00000E+00
         0.00000E+00
         0.00000E+00
         0.00000E+00
         0.00000E+00
         0.00000E+00
         0.00000E+00
         0.00000E+00
         0.00000E+00
         0.00000E+00
         0.00000E+00
         0.00000E+00
         0.00000E+00
         0.00000E+00
         0.00000E+00
         0.00000E+00
         0.00000E+00
         0.00000E+00
         0.00000E+00
         0.00000E+00
         0.00000E+00
         0.00000E+00
         0.00000E+00
         0.00000E+00
         0.00000E+00
         0.00000E+00
         0.00000E+00
         0.00000E+00
         0.00000E+00
         0.00000E+00
         0.00000E+00
         0.00000E+00
         0.00000E+00
         0.00000E+00
         0.00000E+00
         0.00000E+00
         0.00000E+00
         0.00000E+00
         0.00000E+00
         0.00000E+00
         0.00000E+00
         0.00000E+00
         0.00000E+00
         0.00000E+00
         0.00000E+00
         0.00000E+00
         0.00000E+00
         0.00000E+00
         0.00000E+00
         0.00000E+00
         0.00000E+00
         0.00000E+00
         0.00000E+00
         0.00000E+00
         0.00000E+00
         0.00000E+00
         0.00000E+00
         0.00000E+00
         0.00000E+00
         0.00000E+00
         0.00000E+00
         0.00000E+00
         0.00000E+00
         0.00000E+00
         0.00000E+00
         0.00000E+00
         0.00000E+00
         0.00000E+00
         0.00000E+00
         0.00000E+00
         0.00000E+00
         0.00000E+00
         0.00000E+00
         0.00000E+00
         0.00000E+00
         0.00000E+00
         0.00000E+00
         0.00000E+00
         0.00000E+00
         0.00000E+00
         0.00000E+00
         0.00000E+00
         0.00000E+00
         0.00000E+00
         0.00000E+00
         0.00000E+00
         0.00000E+00
         0.00000E+00
         0.00000E+00
         0.00000E+00
         0.00000E+00
         0.00000E+00
         0.00000E+00
         0.00000E+00
         0.00000E+00
         0.00000E+00
         0.00000E+00
         0.00000E+00
         0.00000E+00
         0.00000E+00
         0.00000E+00
         0.00000E+00
         0.00000E+00
         0.00000E+00
         0.00000E+00
         0.00000E+00
         0.00000E+00
         0.00000E+00
         0.00000E+00
         0.00000E+00
         0.00000E+00
         0.00000E+00
         0.00000E+00
         0.00000E+00
         0.00000E+00
         0.00000E+00
         0.00000E+00
         0.00000E+00
         0.00000E+00
         0.00000E+00
         0.00000E+00
         0.00000E+00
         0.00000E+00
         0.00000E+00
         0.00000E+00
         0.00000E+00
         0.00000E+00
         0.00000E+00
         0.00000E+00
         0.00000E+00
         0.00000E+00
         0.00000E+00
         0.00000E+00
         0.00000E+00
         0.00000E+00
         0.00000E+00
         0.00000E+00
         0.00000E+00
         0.00000E+00
         0.00000E+00
         0.00000E+00
         0.00000E+00
         0.00000E+00
         0.00000E+00
         0.00000E+00
         0.00000E+00
         0.00000E+00
         0.00000E+00
         0.00000E+00
         0.00000E+00
         0.00000E+00
         0.00000E+00
         0.00000E+00
         0.00000E+00
         0.00000E+00
         0.00000E+00
         0.00000E+00
         0.00000E+00
  
SCALARS               pre_disp_force_y  double 1
LOOKUP_TABLE default
         0.00000E+00
         0.00000E+00
         0.00000E+00
         0.00000E+00
         0.00000E+00
         0.00000E+00
         0.00000E+00
         0.00000E+00
         0.00000E+00
         0.00000E+00
         0.00000E+00
         0.00000E+00
         0.00000E+00
         0.00000E+00
         0.00000E+00
         0.00000E+00
         0.00000E+00
         0.00000E+00
         0.00000E+00
         0.00000E+00
         0.00000E+00
         0.00000E+00
         0.00000E+00
         0.00000E+00
         0.00000E+00
         0.00000E+00
         0.00000E+00
         0.00000E+00
         0.00000E+00
         0.00000E+00
         0.00000E+00
         0.00000E+00
         0.00000E+00
         0.00000E+00
         0.00000E+00
         0.00000E+00
         0.00000E+00
         0.00000E+00
         0.00000E+00
         0.00000E+00
         0.00000E+00
         0.00000E+00
         0.00000E+00
         0.00000E+00
         0.00000E+00
         0.00000E+00
         0.00000E+00
         0.00000E+00
         0.00000E+00
         0.00000E+00
         0.00000E+00
         0.00000E+00
         0.00000E+00
         0.00000E+00
         0.00000E+00
         0.00000E+00
         0.00000E+00
         0.00000E+00
         0.00000E+00
         0.00000E+00
         0.00000E+00
         0.00000E+00
         0.00000E+00
         0.00000E+00
         0.00000E+00
         0.00000E+00
         0.00000E+00
         0.00000E+00
         0.00000E+00
         0.00000E+00
         0.00000E+00
         0.00000E+00
         0.00000E+00
         0.00000E+00
         0.00000E+00
         0.00000E+00
         0.00000E+00
         0.00000E+00
         0.00000E+00
         0.00000E+00
         0.00000E+00
         0.00000E+00
         0.00000E+00
         0.00000E+00
         0.00000E+00
         0.00000E+00
         0.00000E+00
         0.00000E+00
         0.00000E+00
         0.00000E+00
         0.00000E+00
         0.00000E+00
         0.00000E+00
         0.00000E+00
         0.00000E+00
         0.00000E+00
         0.00000E+00
         0.00000E+00
         0.00000E+00
         0.00000E+00
         0.00000E+00
         0.00000E+00
         0.00000E+00
         0.00000E+00
         0.00000E+00
         0.00000E+00
         0.00000E+00
         0.00000E+00
         0.00000E+00
         0.00000E+00
         0.00000E+00
         0.00000E+00
         0.00000E+00
         0.00000E+00
         0.00000E+00
         0.00000E+00
         0.00000E+00
         0.00000E+00
         0.00000E+00
         0.00000E+00
         0.00000E+00
         0.00000E+00
         0.00000E+00
         0.00000E+00
         0.00000E+00
         0.00000E+00
         0.00000E+00
         0.00000E+00
         0.00000E+00
         0.00000E+00
         0.00000E+00
         0.00000E+00
         0.00000E+00
         0.00000E+00
         0.00000E+00
         0.00000E+00
         0.00000E+00
         0.00000E+00
         0.00000E+00
         0.00000E+00
         0.00000E+00
         0.00000E+00
         0.00000E+00
         0.00000E+00
         0.00000E+00
         0.00000E+00
         0.00000E+00
         0.00000E+00
         0.00000E+00
         0.00000E+00
         0.00000E+00
         0.00000E+00
         0.00000E+00
         0.00000E+00
         0.00000E+00
         0.00000E+00
         0.00000E+00
         0.00000E+00
         0.00000E+00
         0.00000E+00
         0.00000E+00
         0.00000E+00
         0.00000E+00
         0.00000E+00
         0.00000E+00
         0.00000E+00
         0.00000E+00
         0.00000E+00
         0.00000E+00
         0.00000E+00
         0.00000E+00
         0.00000E+00
         0.00000E+00
         0.00000E+00
         0.00000E+00
         0.00000E+00
         0.00000E+00
         0.00000E+00
         0.00000E+00
         0.00000E+00
         0.00000E+00
         0.00000E+00
         0.00000E+00
         0.00000E+00
         0.00000E+00
         0.00000E+00
         0.00000E+00
         0.00000E+00
         0.00000E+00
         0.00000E+00
         0.00000E+00
         0.00000E+00
         0.00000E+00
         0.00000E+00
         0.00000E+00
         0.00000E+00
         0.00000E+00
         0.00000E+00
         0.00000E+00
         0.00000E+00
         0.00000E+00
         0.00000E+00
         0.00000E+00
         0.00000E+00
         0.00000E+00
         0.00000E+00
         0.00000E+00
         0.00000E+00
         0.00000E+00
         0.00000E+00
         0.00000E+00
         0.00000E+00
         0.00000E+00
         0.00000E+00
         0.00000E+00
         0.00000E+00
         0.00000E+00
         0.00000E+00
         0.00000E+00
         0.00000E+00
         0.00000E+00
         0.00000E+00
         0.00000E+00
         0.00000E+00
         0.00000E+00
         0.00000E+00
         0.00000E+00
         0.00000E+00
         0.00000E+00
         0.00000E+00
         0.00000E+00
         0.00000E+00
         0.00000E+00
         0.00000E+00
         0.00000E+00
         0.00000E+00
         0.00000E+00
         0.00000E+00
         0.00000E+00
         0.00000E+00
         0.00000E+00
         0.00000E+00
         0.00000E+00
         0.00000E+00
         0.00000E+00
         0.00000E+00
         0.00000E+00
         0.00000E+00
         0.00000E+00
         0.00000E+00
         0.00000E+00
         0.00000E+00
         0.00000E+00
         0.00000E+00
         0.00000E+00
         0.00000E+00
         0.00000E+00
         0.00000E+00
         0.00000E+00
         0.00000E+00
         0.00000E+00
         0.00000E+00
         0.00000E+00
         0.00000E+00
         0.00000E+00
         0.00000E+00
         0.00000E+00
         0.00000E+00
         0.00000E+00
         0.00000E+00
         0.00000E+00
         0.00000E+00
         0.00000E+00
         0.00000E+00
         0.00000E+00
         0.00000E+00
         0.00000E+00
         0.00000E+00
         0.00000E+00
         0.00000E+00
         0.00000E+00
         0.00000E+00
         0.00000E+00
         0.00000E+00
         0.00000E+00
         0.00000E+00
         0.00000E+00
         0.00000E+00
         0.00000E+00
         0.00000E+00
         0.00000E+00
         0.00000E+00
         0.00000E+00
         0.00000E+00
         0.00000E+00
         0.00000E+00
         0.00000E+00
         0.00000E+00
         0.00000E+00
         0.00000E+00
         0.00000E+00
         0.00000E+00
         0.00000E+00
         0.00000E+00
         0.00000E+00
         0.00000E+00
         0.00000E+00
         0.00000E+00
         0.00000E+00
         0.00000E+00
         0.00000E+00
         0.00000E+00
         0.00000E+00
         0.00000E+00
         0.00000E+00
         0.00000E+00
         0.00000E+00
         0.00000E+00
         0.00000E+00
         0.00000E+00
         0.00000E+00
         0.00000E+00
         0.00000E+00
         0.00000E+00
         0.00000E+00
         0.00000E+00
         0.00000E+00
         0.00000E+00
         0.00000E+00
         0.00000E+00
         0.00000E+00
         0.00000E+00
         0.00000E+00
         0.00000E+00
         0.00000E+00
         0.00000E+00
         0.00000E+00
         0.00000E+00
         0.00000E+00
         0.00000E+00
         0.00000E+00
         0.00000E+00
         0.00000E+00
         0.00000E+00
         0.00000E+00
         0.00000E+00
         0.00000E+00
         0.00000E+00
         0.00000E+00
         0.00000E+00
         0.00000E+00
         0.00000E+00
         0.00000E+00
         0.00000E+00
         0.00000E+00
         0.00000E+00
         0.00000E+00
         0.00000E+00
         0.00000E+00
         0.00000E+00
         0.00000E+00
         0.00000E+00
         0.00000E+00
         0.00000E+00
         0.00000E+00
         0.00000E+00
         0.00000E+00
         0.00000E+00
         0.00000E+00
         0.00000E+00
         0.00000E+00
         0.00000E+00
         0.00000E+00
         0.00000E+00
         0.00000E+00
         0.00000E+00
         0.00000E+00
         0.00000E+00
         0.00000E+00
         0.00000E+00
         0.00000E+00
         0.00000E+00
         0.00000E+00
         0.00000E+00
         0.00000E+00
         0.00000E+00
         0.00000E+00
         0.00000E+00
         0.00000E+00
         0.00000E+00
         0.00000E+00
         0.00000E+00
         0.00000E+00
         0.00000E+00
         0.00000E+00
         0.00000E+00
         0.00000E+00
         0.00000E+00
         0.00000E+00
         0.00000E+00
         0.00000E+00
         0.00000E+00
         0.00000E+00
         0.00000E+00
         0.00000E+00
         0.00000E+00
         0.00000E+00
         0.00000E+00
         0.00000E+00
         0.00000E+00
         0.00000E+00
         0.00000E+00
         0.00000E+00
         0.00000E+00
         0.00000E+00
         0.00000E+00
         0.00000E+00
         0.00000E+00
         0.00000E+00
         0.00000E+00
         0.00000E+00
         0.00000E+00
         0.00000E+00
         0.00000E+00
         0.00000E+00
         0.00000E+00
         0.00000E+00
         0.00000E+00
         0.00000E+00
         0.00000E+00
         0.00000E+00
         0.00000E+00
         0.00000E+00
         0.00000E+00
         0.00000E+00
         0.00000E+00
         0.00000E+00
         0.00000E+00
         0.00000E+00
         0.00000E+00
         0.00000E+00
         0.00000E+00
         0.00000E+00
         0.00000E+00
         0.00000E+00
         0.00000E+00
         0.00000E+00
         0.00000E+00
         0.00000E+00
         0.00000E+00
         0.00000E+00
         0.00000E+00
         0.00000E+00
         0.00000E+00
         0.00000E+00
         0.00000E+00
         0.00000E+00
         0.00000E+00
         0.00000E+00
         0.00000E+00
         0.00000E+00
         0.00000E+00
         0.00000E+00
         0.00000E+00
         0.00000E+00
         0.00000E+00
         0.00000E+00
         0.00000E+00
         0.00000E+00
         0.00000E+00
         0.00000E+00
         0.00000E+00
         0.00000E+00
         0.00000E+00
         0.00000E+00
         0.00000E+00
         0.00000E+00
         0.00000E+00
         0.00000E+00
         0.00000E+00
         0.00000E+00
         0.00000E+00
         0.00000E+00
         0.00000E+00
         0.00000E+00
         0.00000E+00
         0.00000E+00
         0.00000E+00
         0.00000E+00
         0.00000E+00
         0.00000E+00
         0.00000E+00
         0.00000E+00
         0.00000E+00
         0.00000E+00
         0.00000E+00
         0.00000E+00
         0.00000E+00
         0.00000E+00
         0.00000E+00
         0.00000E+00
         0.00000E+00
         0.00000E+00
         0.00000E+00
         0.00000E+00
         0.00000E+00
         0.00000E+00
         0.00000E+00
         0.00000E+00
         0.00000E+00
         0.00000E+00
         0.00000E+00
         0.00000E+00
         0.00000E+00
         0.00000E+00
         0.00000E+00
         0.00000E+00
         0.00000E+00
         0.00000E+00
         0.00000E+00
         0.00000E+00
         0.00000E+00
         0.00000E+00
         0.00000E+00
         0.00000E+00
         0.00000E+00
         0.00000E+00
         0.00000E+00
         0.00000E+00
         0.00000E+00
         0.00000E+00
         0.00000E+00
         0.00000E+00
         0.00000E+00
         0.00000E+00
         0.00000E+00
         0.00000E+00
         0.00000E+00
         0.00000E+00
         0.00000E+00
         0.00000E+00
         0.00000E+00
         0.00000E+00
         0.00000E+00
         0.00000E+00
         0.00000E+00
         0.00000E+00
         0.00000E+00
         0.00000E+00
         0.00000E+00
         0.00000E+00
         0.00000E+00
         0.00000E+00
         0.00000E+00
         0.00000E+00
         0.00000E+00
         0.00000E+00
         0.00000E+00
         0.00000E+00
         0.00000E+00
         0.00000E+00
         0.00000E+00
         0.00000E+00
         0.00000E+00
         0.00000E+00
         0.00000E+00
         0.00000E+00
         0.00000E+00
         0.00000E+00
         0.00000E+00
         0.00000E+00
         0.00000E+00
         0.00000E+00
         0.00000E+00
         0.00000E+00
         0.00000E+00
         0.00000E+00
         0.00000E+00
         0.00000E+00
         0.00000E+00
         0.00000E+00
         0.00000E+00
         0.00000E+00
         0.00000E+00
         0.00000E+00
         0.00000E+00
         0.00000E+00
         0.00000E+00
         0.00000E+00
         0.00000E+00
         0.00000E+00
         0.00000E+00
         0.00000E+00
         0.00000E+00
         0.00000E+00
         0.00000E+00
         0.00000E+00
         0.00000E+00
         0.00000E+00
         0.00000E+00
         0.00000E+00
         0.00000E+00
         0.00000E+00
         0.00000E+00
         0.00000E+00
         0.00000E+00
         0.00000E+00
         0.00000E+00
         0.00000E+00
         0.00000E+00
         0.00000E+00
         0.00000E+00
         0.00000E+00
         0.00000E+00
         0.00000E+00
         0.00000E+00
         0.00000E+00
         0.00000E+00
         0.00000E+00
         0.00000E+00
         0.00000E+00
         0.00000E+00
         0.00000E+00
         0.00000E+00
         0.00000E+00
         0.00000E+00
         0.00000E+00
         0.00000E+00
         0.00000E+00
         0.00000E+00
         0.00000E+00
         0.00000E+00
         0.00000E+00
         0.00000E+00
         0.00000E+00
         0.00000E+00
         0.00000E+00
         0.00000E+00
         0.00000E+00
         0.00000E+00
         0.00000E+00
         0.00000E+00
         0.00000E+00
         0.00000E+00
         0.00000E+00
         0.00000E+00
         0.00000E+00
         0.00000E+00
         0.00000E+00
         0.00000E+00
         0.00000E+00
         0.00000E+00
         0.00000E+00
         0.00000E+00
         0.00000E+00
         0.00000E+00
         0.00000E+00
         0.00000E+00
         0.00000E+00
         0.00000E+00
         0.00000E+00
         0.00000E+00
         0.00000E+00
         0.00000E+00
         0.00000E+00
         0.00000E+00
         0.00000E+00
         0.00000E+00
         0.00000E+00
         0.00000E+00
         0.00000E+00
         0.00000E+00
         0.00000E+00
         0.00000E+00
         0.00000E+00
         0.00000E+00
         0.00000E+00
         0.00000E+00
         0.00000E+00
         0.00000E+00
         0.00000E+00
         0.00000E+00
         0.00000E+00
         0.00000E+00
         0.00000E+00
         0.00000E+00
         0.00000E+00
         0.00000E+00
         0.00000E+00
         0.00000E+00
         0.00000E+00
         0.00000E+00
         0.00000E+00
         0.00000E+00
         0.00000E+00
         0.00000E+00
         0.00000E+00
         0.00000E+00
         0.00000E+00
         0.00000E+00
         0.00000E+00
         0.00000E+00
         0.00000E+00
         0.00000E+00
         0.00000E+00
         0.00000E+00
         0.00000E+00
         0.00000E+00
         0.00000E+00
         0.00000E+00
         0.00000E+00
         0.00000E+00
         0.00000E+00
         0.00000E+00
         0.00000E+00
         0.00000E+00
         0.00000E+00
         0.00000E+00
         0.00000E+00
         0.00000E+00
         0.00000E+00
         0.00000E+00
         0.00000E+00
         0.00000E+00
         0.00000E+00
         0.00000E+00
         0.00000E+00
         0.00000E+00
         0.00000E+00
         0.00000E+00
         0.00000E+00
         0.00000E+00
         0.00000E+00
         0.00000E+00
         0.00000E+00
         0.00000E+00
         0.00000E+00
         0.00000E+00
         0.00000E+00
         0.00000E+00
         0.00000E+00
         0.00000E+00
         0.00000E+00
         0.00000E+00
         0.00000E+00
         0.00000E+00
         0.00000E+00
         0.00000E+00
         0.00000E+00
         0.00000E+00
         0.00000E+00
         0.00000E+00
         0.00000E+00
         0.00000E+00
         0.00000E+00
         0.00000E+00
         0.00000E+00
         0.00000E+00
         0.00000E+00
         0.00000E+00
         0.00000E+00
         0.00000E+00
         0.00000E+00
         0.00000E+00
         0.00000E+00
         0.00000E+00
         0.00000E+00
         0.00000E+00
         0.00000E+00
         0.00000E+00
         0.00000E+00
         0.00000E+00
         0.00000E+00
         0.00000E+00
         0.00000E+00
         0.00000E+00
         0.00000E+00
         0.00000E+00
         0.00000E+00
         0.00000E+00
         0.00000E+00
         0.00000E+00
         0.00000E+00
         0.00000E+00
         0.00000E+00
         0.00000E+00
         0.00000E+00
         0.00000E+00
         0.00000E+00
         0.00000E+00
         0.00000E+00
         0.00000E+00
         0.00000E+00
         0.00000E+00
         0.00000E+00
         0.00000E+00
         0.00000E+00
         0.00000E+00
         0.00000E+00
         0.00000E+00
         0.00000E+00
         0.00000E+00
         0.00000E+00
         0.00000E+00
         0.00000E+00
         0.00000E+00
         0.00000E+00
         0.00000E+00
         0.00000E+00
         0.00000E+00
         0.00000E+00
         0.00000E+00
         0.00000E+00
         0.00000E+00
         0.00000E+00
         0.00000E+00
         0.00000E+00
         0.00000E+00
         0.00000E+00
         0.00000E+00
         0.00000E+00
         0.00000E+00
         0.00000E+00
         0.00000E+00
         0.00000E+00
         0.00000E+00
         0.00000E+00
         0.00000E+00
         0.00000E+00
         0.00000E+00
         0.00000E+00
         0.00000E+00
         0.00000E+00
         0.00000E+00
         0.00000E+00
         0.00000E+00
         0.00000E+00
         0.00000E+00
         0.00000E+00
         0.00000E+00
         0.00000E+00
         0.00000E+00
         0.00000E+00
         0.00000E+00
         0.00000E+00
         0.00000E+00
         0.00000E+00
         0.00000E+00
         0.00000E+00
         0.00000E+00
         0.00000E+00
         0.00000E+00
         0.00000E+00
         0.00000E+00
         0.00000E+00
         0.00000E+00
         0.00000E+00
         0.00000E+00
         0.00000E+00
         0.00000E+00
         0.00000E+00
         0.00000E+00
         0.00000E+00
         0.00000E+00
         0.00000E+00
         0.00000E+00
         0.00000E+00
         0.00000E+00
         0.00000E+00
         0.00000E+00
         0.00000E+00
         0.00000E+00
         0.00000E+00
         0.00000E+00
         0.00000E+00
         0.00000E+00
         0.00000E+00
         0.00000E+00
         0.00000E+00
         0.00000E+00
         0.00000E+00
         0.00000E+00
         0.00000E+00
         0.00000E+00
         0.00000E+00
         0.00000E+00
         0.00000E+00
         0.00000E+00
         0.00000E+00
         0.00000E+00
         0.00000E+00
         0.00000E+00
         0.00000E+00
         0.00000E+00
         0.00000E+00
         0.00000E+00
         0.00000E+00
         0.00000E+00
         0.00000E+00
         0.00000E+00
         0.00000E+00
         0.00000E+00
         0.00000E+00
         0.00000E+00
         0.00000E+00
         0.00000E+00
         0.00000E+00
         0.00000E+00
         0.00000E+00
         0.00000E+00
         0.00000E+00
         0.00000E+00
         0.00000E+00
         0.00000E+00
         0.00000E+00
         0.00000E+00
         0.00000E+00
         0.00000E+00
         0.00000E+00
         0.00000E+00
         0.00000E+00
         0.00000E+00
         0.00000E+00
         0.00000E+00
         0.00000E+00
         0.00000E+00
         0.00000E+00
         0.00000E+00
         0.00000E+00
         0.00000E+00
         0.00000E+00
         0.00000E+00
         0.00000E+00
         0.00000E+00
         0.00000E+00
         0.00000E+00
         0.00000E+00
         0.00000E+00
         0.00000E+00
         0.00000E+00
         0.00000E+00
         0.00000E+00
         0.00000E+00
         0.00000E+00
         0.00000E+00
         0.00000E+00
         0.00000E+00
         0.00000E+00
         0.00000E+00
         0.00000E+00
         0.00000E+00
         0.00000E+00
         0.00000E+00
         0.00000E+00
         0.00000E+00
         0.00000E+00
         0.00000E+00
         0.00000E+00
         0.00000E+00
         0.00000E+00
         0.00000E+00
         0.00000E+00
         0.00000E+00
         0.00000E+00
         0.00000E+00
         0.00000E+00
         0.00000E+00
         0.00000E+00
         0.00000E+00
         0.00000E+00
         0.00000E+00
         0.00000E+00
         0.00000E+00
         0.00000E+00
         0.00000E+00
         0.00000E+00
         0.00000E+00
         0.00000E+00
         0.00000E+00
         0.00000E+00
         0.00000E+00
         0.00000E+00
         0.00000E+00
         0.00000E+00
         0.00000E+00
         0.00000E+00
         0.00000E+00
         0.00000E+00
         0.00000E+00
         0.00000E+00
         0.00000E+00
         0.00000E+00
         0.00000E+00
         0.00000E+00
         0.00000E+00
         0.00000E+00
         0.00000E+00
         0.00000E+00
         0.00000E+00
         0.00000E+00
         0.00000E+00
         0.00000E+00
         0.00000E+00
         0.00000E+00
         0.00000E+00
         0.00000E+00
         0.00000E+00
         0.00000E+00
         0.00000E+00
         0.00000E+00
         0.00000E+00
         0.00000E+00
         0.00000E+00
         0.00000E+00
         0.00000E+00
         0.00000E+00
         0.00000E+00
         0.00000E+00
         0.00000E+00
         0.00000E+00
         0.00000E+00
         0.00000E+00
         0.00000E+00
         0.00000E+00
         0.00000E+00
         0.00000E+00
         0.00000E+00
         0.00000E+00
         0.00000E+00
         0.00000E+00
         0.00000E+00
         0.00000E+00
         0.00000E+00
         0.00000E+00
         0.00000E+00
         0.00000E+00
         0.00000E+00
         0.00000E+00
         0.00000E+00
         0.00000E+00
         0.00000E+00
         0.00000E+00
         0.00000E+00
         0.00000E+00
         0.00000E+00
         0.00000E+00
         0.00000E+00
         0.00000E+00
         0.00000E+00
         0.00000E+00
         0.00000E+00
         0.00000E+00
         0.00000E+00
         0.00000E+00
         0.00000E+00
         0.00000E+00
         0.00000E+00
         0.00000E+00
         0.00000E+00
         0.00000E+00
         0.00000E+00
         0.00000E+00
         0.00000E+00
         0.00000E+00
         0.00000E+00
         0.00000E+00
         0.00000E+00
         0.00000E+00
         0.00000E+00
         0.00000E+00
         0.00000E+00
         0.00000E+00
         0.00000E+00
         0.00000E+00
         0.00000E+00
         0.00000E+00
         0.00000E+00
         0.00000E+00
         0.00000E+00
         0.00000E+00
         0.00000E+00
         0.00000E+00
         0.00000E+00
         0.00000E+00
         0.00000E+00
         0.00000E+00
         0.00000E+00
         0.00000E+00
         0.00000E+00
         0.00000E+00
         0.00000E+00
         0.00000E+00
         0.00000E+00
         0.00000E+00
         0.00000E+00
         0.00000E+00
         0.00000E+00
         0.00000E+00
         0.00000E+00
         0.00000E+00
         0.00000E+00
         0.00000E+00
         0.00000E+00
         0.00000E+00
         0.00000E+00
         0.00000E+00
         0.00000E+00
         0.00000E+00
         0.00000E+00
         0.00000E+00
         0.00000E+00
         0.00000E+00
         0.00000E+00
         0.00000E+00
         0.00000E+00
         0.00000E+00
         0.00000E+00
         0.00000E+00
         0.00000E+00
         0.00000E+00
         0.00000E+00
         0.00000E+00
         0.00000E+00
         0.00000E+00
         0.00000E+00
         0.00000E+00
         0.00000E+00
         0.00000E+00
         0.00000E+00
         0.00000E+00
         0.00000E+00
         0.00000E+00
         0.00000E+00
         0.00000E+00
         0.00000E+00
         0.00000E+00
         0.00000E+00
         0.00000E+00
         0.00000E+00
         0.00000E+00
         0.00000E+00
         0.00000E+00
         0.00000E+00
         0.00000E+00
         0.00000E+00
         0.00000E+00
         0.00000E+00
         0.00000E+00
         0.00000E+00
         0.00000E+00
         0.00000E+00
         0.00000E+00
         0.00000E+00
         0.00000E+00
         0.00000E+00
         0.00000E+00
         0.00000E+00
         0.00000E+00
         0.00000E+00
         0.00000E+00
         0.00000E+00
         0.00000E+00
         0.00000E+00
         0.00000E+00
         0.00000E+00
         0.00000E+00
         0.00000E+00
         0.00000E+00
         0.00000E+00
         0.00000E+00
         0.00000E+00
         0.00000E+00
         0.00000E+00
         0.00000E+00
         0.00000E+00
         0.00000E+00
         0.00000E+00
         0.00000E+00
         0.00000E+00
         0.00000E+00
         0.00000E+00
         0.00000E+00
         0.00000E+00
         0.00000E+00
         0.00000E+00
         0.00000E+00
         0.00000E+00
         0.00000E+00
         0.00000E+00
         0.00000E+00
         0.00000E+00
         0.00000E+00
         0.00000E+00
         0.00000E+00
         0.00000E+00
         0.00000E+00
         0.00000E+00
         0.00000E+00
         0.00000E+00
         0.00000E+00
         0.00000E+00
         0.00000E+00
         0.00000E+00
         0.00000E+00
         0.00000E+00
         0.00000E+00
         0.00000E+00
         0.00000E+00
         0.00000E+00
         0.00000E+00
         0.00000E+00
         0.00000E+00
         0.00000E+00
         0.00000E+00
         0.00000E+00
         0.00000E+00
         0.00000E+00
         0.00000E+00
         0.00000E+00
         0.00000E+00
         0.00000E+00
         0.00000E+00
         0.00000E+00
         0.00000E+00
         0.00000E+00
         0.00000E+00
         0.00000E+00
         0.00000E+00
         0.00000E+00
         0.00000E+00
         0.00000E+00
         0.00000E+00
         0.00000E+00
         0.00000E+00
         0.00000E+00
         0.00000E+00
         0.00000E+00
         0.00000E+00
         0.00000E+00
         0.00000E+00
         0.00000E+00
         0.00000E+00
         0.00000E+00
         0.00000E+00
         0.00000E+00
         0.00000E+00
         0.00000E+00
         0.00000E+00
         0.00000E+00
         0.00000E+00
         0.00000E+00
         0.00000E+00
         0.00000E+00
         0.00000E+00
         0.00000E+00
         0.00000E+00
         0.00000E+00
         0.00000E+00
         0.00000E+00
         0.00000E+00
         0.00000E+00
         0.00000E+00
         0.00000E+00
         0.00000E+00
         0.00000E+00
         0.00000E+00
         0.00000E+00
         0.00000E+00
         0.00000E+00
         0.00000E+00
         0.00000E+00
         0.00000E+00
         0.00000E+00
         0.00000E+00
         0.00000E+00
         0.00000E+00
         0.00000E+00
         0.00000E+00
         0.00000E+00
         0.00000E+00
         0.00000E+00
         0.00000E+00
         0.00000E+00
         0.00000E+00
         0.00000E+00
         0.00000E+00
         0.00000E+00
         0.00000E+00
         0.00000E+00
         0.00000E+00
         0.00000E+00
         0.00000E+00
         0.00000E+00
         0.00000E+00
         0.00000E+00
         0.00000E+00
         0.00000E+00
         0.00000E+00
         0.00000E+00
         0.00000E+00
         0.00000E+00
         0.00000E+00
         0.00000E+00
         0.00000E+00
         0.00000E+00
         0.00000E+00
         0.00000E+00
         0.00000E+00
         0.00000E+00
         0.00000E+00
         0.00000E+00
         0.00000E+00
         0.00000E+00
         0.00000E+00
         0.00000E+00
         0.00000E+00
         0.00000E+00
         0.00000E+00
         0.00000E+00
         0.00000E+00
         0.00000E+00
         0.00000E+00
         0.00000E+00
         0.00000E+00
         0.00000E+00
         0.00000E+00
         0.00000E+00
         0.00000E+00
         0.00000E+00
         0.00000E+00
         0.00000E+00
         0.00000E+00
         0.00000E+00
         0.00000E+00
         0.00000E+00
         0.00000E+00
         0.00000E+00
         0.00000E+00
         0.00000E+00
         0.00000E+00
         0.00000E+00
         0.00000E+00
         0.00000E+00
         0.00000E+00
         0.00000E+00
         0.00000E+00
         0.00000E+00
         0.00000E+00
         0.00000E+00
         0.00000E+00
         0.00000E+00
         0.00000E+00
         0.00000E+00
         0.00000E+00
         0.00000E+00
         0.00000E+00
         0.00000E+00
         0.00000E+00
         0.00000E+00
         0.00000E+00
         0.00000E+00
         0.00000E+00
         0.00000E+00
         0.00000E+00
         0.00000E+00
         0.00000E+00
         0.00000E+00
         0.00000E+00
         0.00000E+00
         0.00000E+00
         0.00000E+00
         0.00000E+00
         0.00000E+00
         0.00000E+00
         0.00000E+00
         0.00000E+00
         0.00000E+00
         0.00000E+00
         0.00000E+00
         0.00000E+00
         0.00000E+00
         0.00000E+00
         0.00000E+00
         0.00000E+00
         0.00000E+00
         0.00000E+00
         0.00000E+00
         0.00000E+00
         0.00000E+00
         0.00000E+00
         0.00000E+00
         0.00000E+00
         0.00000E+00
         0.00000E+00
         0.00000E+00
         0.00000E+00
         0.00000E+00
         0.00000E+00
         0.00000E+00
         0.00000E+00
         0.00000E+00
         0.00000E+00
         0.00000E+00
         0.00000E+00
         0.00000E+00
         0.00000E+00
         0.00000E+00
         0.00000E+00
         0.00000E+00
         0.00000E+00
         0.00000E+00
         0.00000E+00
         0.00000E+00
         0.00000E+00
         0.00000E+00
         0.00000E+00
         0.00000E+00
         0.00000E+00
         0.00000E+00
         0.00000E+00
         0.00000E+00
         0.00000E+00
         0.00000E+00
         0.00000E+00
         0.00000E+00
         0.00000E+00
         0.00000E+00
         0.00000E+00
         0.00000E+00
         0.00000E+00
         0.00000E+00
         0.00000E+00
         0.00000E+00
         0.00000E+00
         0.00000E+00
         0.00000E+00
         0.00000E+00
         0.00000E+00
         0.00000E+00
         0.00000E+00
         0.00000E+00
         0.00000E+00
         0.00000E+00
         0.00000E+00
         0.00000E+00
         0.00000E+00
         0.00000E+00
         0.00000E+00
         0.00000E+00
         0.00000E+00
         0.00000E+00
         0.00000E+00
         0.00000E+00
         0.00000E+00
         0.00000E+00
         0.00000E+00
         0.00000E+00
         0.00000E+00
         0.00000E+00
         0.00000E+00
         0.00000E+00
         0.00000E+00
         0.00000E+00
         0.00000E+00
         0.00000E+00
         0.00000E+00
         0.00000E+00
         0.00000E+00
         0.00000E+00
         0.00000E+00
         0.00000E+00
         0.00000E+00
         0.00000E+00
         0.00000E+00
         0.00000E+00
         0.00000E+00
         0.00000E+00
         0.00000E+00
         0.00000E+00
         0.00000E+00
         0.00000E+00
         0.00000E+00
         0.00000E+00
         0.00000E+00
         0.00000E+00
         0.00000E+00
         0.00000E+00
         0.00000E+00
         0.00000E+00
         0.00000E+00
         0.00000E+00
         0.00000E+00
         0.00000E+00
         0.00000E+00
         0.00000E+00
         0.00000E+00
         0.00000E+00
         0.00000E+00
         0.00000E+00
         0.00000E+00
         0.00000E+00
         0.00000E+00
         0.00000E+00
         0.00000E+00
         0.00000E+00
         0.00000E+00
         0.00000E+00
         0.00000E+00
         0.00000E+00
         0.00000E+00
         0.00000E+00
         0.00000E+00
         0.00000E+00
         0.00000E+00
         0.00000E+00
         0.00000E+00
         0.00000E+00
         0.00000E+00
         0.00000E+00
         0.00000E+00
         0.00000E+00
         0.00000E+00
         0.00000E+00
         0.00000E+00
         0.00000E+00
         0.00000E+00
         0.00000E+00
         0.00000E+00
         0.00000E+00
         0.00000E+00
         0.00000E+00
         0.00000E+00
         0.00000E+00
         0.00000E+00
         0.00000E+00
         0.00000E+00
         0.00000E+00
         0.00000E+00
         0.00000E+00
         0.00000E+00
         0.00000E+00
         0.00000E+00
         0.00000E+00
         0.00000E+00
         0.00000E+00
         0.00000E+00
         0.00000E+00
         0.00000E+00
         0.00000E+00
         0.00000E+00
         0.00000E+00
         0.00000E+00
         0.00000E+00
         0.00000E+00
         0.00000E+00
         0.00000E+00
         0.00000E+00
         0.00000E+00
         0.00000E+00
         0.00000E+00
         0.00000E+00
         0.00000E+00
         0.00000E+00
         0.00000E+00
         0.00000E+00
         0.00000E+00
         0.00000E+00
         0.00000E+00
         0.00000E+00
         0.00000E+00
         0.00000E+00
         0.00000E+00
         0.00000E+00
         0.00000E+00
         0.00000E+00
         0.00000E+00
         0.00000E+00
         0.00000E+00
         0.00000E+00
         0.00000E+00
         0.00000E+00
         0.00000E+00
         0.00000E+00
         0.00000E+00
         0.00000E+00
         0.00000E+00
         0.00000E+00
         0.00000E+00
         0.00000E+00
         0.00000E+00
         0.00000E+00
         0.00000E+00
         0.00000E+00
         0.00000E+00
         0.00000E+00
         0.00000E+00
         0.00000E+00
         0.00000E+00
         0.00000E+00
         0.00000E+00
         0.00000E+00
         0.00000E+00
         0.00000E+00
         0.00000E+00
         0.00000E+00
         0.00000E+00
         0.00000E+00
         0.00000E+00
         0.00000E+00
         0.00000E+00
         0.00000E+00
         0.00000E+00
         0.00000E+00
         0.00000E+00
         0.00000E+00
         0.00000E+00
         0.00000E+00
         0.00000E+00
         0.00000E+00
         0.00000E+00
         0.00000E+00
         0.00000E+00
         0.00000E+00
         0.00000E+00
         0.00000E+00
         0.00000E+00
         0.00000E+00
         0.00000E+00
         0.00000E+00
         0.00000E+00
         0.00000E+00
         0.00000E+00
         0.00000E+00
         0.00000E+00
         0.00000E+00
         0.00000E+00
         0.00000E+00
         0.00000E+00
         0.00000E+00
         0.00000E+00
         0.00000E+00
         0.00000E+00
         0.00000E+00
         0.00000E+00
         0.00000E+00
         0.00000E+00
         0.00000E+00
         0.00000E+00
         0.00000E+00
         0.00000E+00
         0.00000E+00
         0.00000E+00
         0.00000E+00
         0.00000E+00
         0.00000E+00
         0.00000E+00
         0.00000E+00
         0.00000E+00
         0.00000E+00
         0.00000E+00
         0.00000E+00
         0.00000E+00
         0.00000E+00
         0.00000E+00
         0.00000E+00
         0.00000E+00
         0.00000E+00
         0.00000E+00
         0.00000E+00
         0.00000E+00
         0.00000E+00
         0.00000E+00
         0.00000E+00
         0.00000E+00
         0.00000E+00
         0.00000E+00
         0.00000E+00
         0.00000E+00
         0.00000E+00
         0.00000E+00
         0.00000E+00
         0.00000E+00
         0.00000E+00
         0.00000E+00
         0.00000E+00
         0.00000E+00
         0.00000E+00
         0.00000E+00
         0.00000E+00
         0.00000E+00
         0.00000E+00
         0.00000E+00
         0.00000E+00
         0.00000E+00
         0.00000E+00
         0.00000E+00
         0.00000E+00
         0.00000E+00
         0.00000E+00
         0.00000E+00
         0.00000E+00
         0.00000E+00
         0.00000E+00
         0.00000E+00
         0.00000E+00
         0.00000E+00
         0.00000E+00
         0.00000E+00
         0.00000E+00
         0.00000E+00
         0.00000E+00
         0.00000E+00
         0.00000E+00
         0.00000E+00
         0.00000E+00
         0.00000E+00
         0.00000E+00
         0.00000E+00
         0.00000E+00
         0.00000E+00
         0.00000E+00
         0.00000E+00
         0.00000E+00
         0.00000E+00
         0.00000E+00
         0.00000E+00
         0.00000E+00
         0.00000E+00
         0.00000E+00
         0.00000E+00
         0.00000E+00
         0.00000E+00
         0.00000E+00
         0.00000E+00
         0.00000E+00
         0.00000E+00
         0.00000E+00
         0.00000E+00
         0.00000E+00
         0.00000E+00
         0.00000E+00
         0.00000E+00
         0.00000E+00
         0.00000E+00
         0.00000E+00
         0.00000E+00
         0.00000E+00
         0.00000E+00
         0.00000E+00
         0.00000E+00
         0.00000E+00
         0.00000E+00
         0.00000E+00
         0.00000E+00
         0.00000E+00
         0.00000E+00
         0.00000E+00
         0.00000E+00
         0.00000E+00
         0.00000E+00
         0.00000E+00
         0.00000E+00
         0.00000E+00
         0.00000E+00
         0.00000E+00
         0.00000E+00
         0.00000E+00
         0.00000E+00
         0.00000E+00
         0.00000E+00
         0.00000E+00
         0.00000E+00
         0.00000E+00
         0.00000E+00
         0.00000E+00
         0.00000E+00
         0.00000E+00
         0.00000E+00
         0.00000E+00
         0.00000E+00
         0.00000E+00
         0.00000E+00
         0.00000E+00
         0.00000E+00
         0.00000E+00
         0.00000E+00
         0.00000E+00
         0.00000E+00
         0.00000E+00
         0.00000E+00
         0.00000E+00
         0.00000E+00
         0.00000E+00
         0.00000E+00
         0.00000E+00
         0.00000E+00
         0.00000E+00
         0.00000E+00
         0.00000E+00
         0.00000E+00
         0.00000E+00
         0.00000E+00
         0.00000E+00
         0.00000E+00
         0.00000E+00
         0.00000E+00
         0.00000E+00
         0.00000E+00
         0.00000E+00
         0.00000E+00
         0.00000E+00
         0.00000E+00
         0.00000E+00
         0.00000E+00
         0.00000E+00
         0.00000E+00
         0.00000E+00
         0.00000E+00
         0.00000E+00
         0.00000E+00
         0.00000E+00
         0.00000E+00
         0.00000E+00
         0.00000E+00
         0.00000E+00
         0.00000E+00
         0.00000E+00
         0.00000E+00
         0.00000E+00
         0.00000E+00
         0.00000E+00
         0.00000E+00
         0.00000E+00
         0.00000E+00
         0.00000E+00
         0.00000E+00
         0.00000E+00
         0.00000E+00
         0.00000E+00
         0.00000E+00
         0.00000E+00
         0.00000E+00
         0.00000E+00
         0.00000E+00
         0.00000E+00
         0.00000E+00
         0.00000E+00
         0.00000E+00
         0.00000E+00
         0.00000E+00
         0.00000E+00
         0.00000E+00
         0.00000E+00
         0.00000E+00
         0.00000E+00
         0.00000E+00
         0.00000E+00
         0.00000E+00
         0.00000E+00
         0.00000E+00
         0.00000E+00
         0.00000E+00
         0.00000E+00
         0.00000E+00
         0.00000E+00
         0.00000E+00
         0.00000E+00
         0.00000E+00
         0.00000E+00
         0.00000E+00
         0.00000E+00
         0.00000E+00
         0.00000E+00
         0.00000E+00
         0.00000E+00
         0.00000E+00
         0.00000E+00
         0.00000E+00
         0.00000E+00
         0.00000E+00
         0.00000E+00
         0.00000E+00
         0.00000E+00
         0.00000E+00
         0.00000E+00
         0.00000E+00
         0.00000E+00
         0.00000E+00
         0.00000E+00
         0.00000E+00
         0.00000E+00
         0.00000E+00
         0.00000E+00
         0.00000E+00
         0.00000E+00
         0.00000E+00
         0.00000E+00
         0.00000E+00
         0.00000E+00
         0.00000E+00
         0.00000E+00
         0.00000E+00
         0.00000E+00
         0.00000E+00
         0.00000E+00
         0.00000E+00
         0.00000E+00
         0.00000E+00
         0.00000E+00
         0.00000E+00
         0.00000E+00
         0.00000E+00
         0.00000E+00
         0.00000E+00
         0.00000E+00
         0.00000E+00
         0.00000E+00
         0.00000E+00
         0.00000E+00
         0.00000E+00
         0.00000E+00
         0.00000E+00
         0.00000E+00
         0.00000E+00
         0.00000E+00
         0.00000E+00
         0.00000E+00
         0.00000E+00
         0.00000E+00
         0.00000E+00
         0.00000E+00
         0.00000E+00
         0.00000E+00
         0.00000E+00
         0.00000E+00
         0.00000E+00
         0.00000E+00
         0.00000E+00
         0.00000E+00
         0.00000E+00
         0.00000E+00
         0.00000E+00
         0.00000E+00
         0.00000E+00
         0.00000E+00
         0.00000E+00
         0.00000E+00
         0.00000E+00
         0.00000E+00
         0.00000E+00
  
SCALARS               pre_disp_force_z  double 1
LOOKUP_TABLE default
         0.00000E+00
         0.00000E+00
         0.00000E+00
         0.00000E+00
        -0.00000E+00
        -0.00000E+00
        -0.00000E+00
        -0.00000E+00
         0.00000E+00
         0.00000E+00
        -0.00000E+00
        -0.00000E+00
         0.00000E+00
         0.00000E+00
        -0.00000E+00
        -0.00000E+00
         0.00000E+00
         0.00000E+00
        -0.00000E+00
        -0.00000E+00
         0.00000E+00
         0.00000E+00
         0.00000E+00
        -0.00000E+00
        -0.00000E+00
        -0.00000E+00
         0.00000E+00
         0.00000E+00
        -0.00000E+00
        -0.00000E+00
         0.00000E+00
         0.00000E+00
         0.00000E+00
        -0.00000E+00
        -0.00000E+00
        -0.00000E+00
         0.00000E+00
         0.00000E+00
        -0.00000E+00
        -0.00000E+00
         0.00000E+00
         0.00000E+00
        -0.00000E+00
        -0.00000E+00
         0.00000E+00
         0.00000E+00
        -0.00000E+00
        -0.00000E+00
         0.00000E+00
        -0.00000E+00
         0.00000E+00
        -0.00000E+00
         0.00000E+00
        -0.00000E+00
         0.00000E+00
        -0.00000E+00
         0.00000E+00
         0.00000E+00
        -0.00000E+00
        -0.00000E+00
         0.00000E+00
         0.00000E+00
        -0.00000E+00
        -0.00000E+00
         0.00000E+00
        -0.00000E+00
         0.00000E+00
        -0.00000E+00
         0.00000E+00
         0.00000E+00
        -0.00000E+00
        -0.00000E+00
         0.00000E+00
        -0.00000E+00
         0.00000E+00
        -0.00000E+00
         0.00000E+00
        -0.00000E+00
         0.00000E+00
        -0.00000E+00
         0.00000E+00
         0.00000E+00
        -0.00000E+00
        -0.00000E+00
         0.00000E+00
        -0.00000E+00
         0.00000E+00
        -0.00000E+00
         0.00000E+00
        -0.00000E+00
         0.00000E+00
         0.00000E+00
        -0.00000E+00
        -0.00000E+00
         0.00000E+00
        -0.00000E+00
         0.00000E+00
        -0.00000E+00
         0.00000E+00
        -0.00000E+00
         0.00000E+00
         0.00000E+00
        -0.00000E+00
        -0.00000E+00
         0.00000E+00
         0.00000E+00
        -0.00000E+00
        -0.00000E+00
         0.00000E+00
        -0.00000E+00
         0.00000E+00
        -0.00000E+00
         0.00000E+00
        -0.00000E+00
         0.00000E+00
        -0.00000E+00
         0.00000E+00
        -0.00000E+00
         0.00000E+00
        -0.00000E+00
         0.00000E+00
        -0.00000E+00
         0.00000E+00
        -0.00000E+00
         0.00000E+00
        -0.00000E+00
         0.00000E+00
        -0.00000E+00
         0.00000E+00
        -0.00000E+00
         0.00000E+00
        -0.00000E+00
         0.00000E+00
        -0.00000E+00
         0.00000E+00
        -0.00000E+00
         0.00000E+00
        -0.00000E+00
         0.00000E+00
        -0.00000E+00
         0.00000E+00
        -0.00000E+00
         0.00000E+00
        -0.00000E+00
         0.00000E+00
        -0.00000E+00
         0.00000E+00
        -0.00000E+00
         0.00000E+00
        -0.00000E+00
         0.00000E+00
        -0.00000E+00
         0.00000E+00
        -0.00000E+00
         0.00000E+00
        -0.00000E+00
         0.00000E+00
         0.00000E+00
         0.00000E+00
         0.00000E+00
         0.00000E+00
         0.00000E+00
         0.00000E+00
         0.00000E+00
         0.00000E+00
         0.00000E+00
         0.00000E+00
         0.00000E+00
         0.00000E+00
         0.00000E+00
         0.00000E+00
         0.00000E+00
         0.00000E+00
         0.00000E+00
         0.00000E+00
         0.00000E+00
         0.00000E+00
         0.00000E+00
         0.00000E+00
         0.00000E+00
         0.00000E+00
         0.00000E+00
         0.00000E+00
         0.00000E+00
         0.00000E+00
         0.00000E+00
         0.00000E+00
         0.00000E+00
         0.00000E+00
         0.00000E+00
         0.00000E+00
         0.00000E+00
         0.00000E+00
         0.00000E+00
         0.00000E+00
         0.00000E+00
         0.00000E+00
         0.00000E+00
         0.00000E+00
         0.00000E+00
         0.00000E+00
         0.00000E+00
         0.00000E+00
         0.00000E+00
         0.00000E+00
         0.00000E+00
         0.00000E+00
         0.00000E+00
         0.00000E+00
         0.00000E+00
         0.00000E+00
         0.00000E+00
         0.00000E+00
         0.00000E+00
         0.00000E+00
         0.00000E+00
         0.00000E+00
         0.00000E+00
         0.00000E+00
         0.00000E+00
         0.00000E+00
         0.00000E+00
         0.00000E+00
         0.00000E+00
         0.00000E+00
         0.00000E+00
         0.00000E+00
         0.00000E+00
         0.00000E+00
         0.00000E+00
         0.00000E+00
         0.00000E+00
         0.00000E+00
         0.00000E+00
         0.00000E+00
         0.00000E+00
         0.00000E+00
         0.00000E+00
         0.00000E+00
         0.00000E+00
         0.00000E+00
         0.00000E+00
         0.00000E+00
         0.00000E+00
         0.00000E+00
         0.00000E+00
         0.00000E+00
         0.00000E+00
         0.00000E+00
         0.00000E+00
         0.00000E+00
         0.00000E+00
         0.00000E+00
         0.00000E+00
         0.00000E+00
         0.00000E+00
         0.00000E+00
         0.00000E+00
         0.00000E+00
         0.00000E+00
         0.00000E+00
         0.00000E+00
         0.00000E+00
         0.00000E+00
         0.00000E+00
         0.00000E+00
         0.00000E+00
         0.00000E+00
         0.00000E+00
         0.00000E+00
         0.00000E+00
         0.00000E+00
         0.00000E+00
         0.00000E+00
         0.00000E+00
         0.00000E+00
         0.00000E+00
         0.00000E+00
         0.00000E+00
         0.00000E+00
         0.00000E+00
         0.00000E+00
         0.00000E+00
         0.00000E+00
         0.00000E+00
         0.00000E+00
         0.00000E+00
         0.00000E+00
         0.00000E+00
         0.00000E+00
         0.00000E+00
         0.00000E+00
         0.00000E+00
         0.00000E+00
         0.00000E+00
         0.00000E+00
         0.00000E+00
         0.00000E+00
         0.00000E+00
         0.00000E+00
         0.00000E+00
         0.00000E+00
         0.00000E+00
         0.00000E+00
         0.00000E+00
         0.00000E+00
         0.00000E+00
         0.00000E+00
         0.00000E+00
         0.00000E+00
         0.00000E+00
         0.00000E+00
         0.00000E+00
         0.00000E+00
         0.00000E+00
         0.00000E+00
         0.00000E+00
         0.00000E+00
         0.00000E+00
         0.00000E+00
         0.00000E+00
         0.00000E+00
         0.00000E+00
         0.00000E+00
         0.00000E+00
         0.00000E+00
         0.00000E+00
         0.00000E+00
         0.00000E+00
         0.00000E+00
         0.00000E+00
         0.00000E+00
         0.00000E+00
         0.00000E+00
         0.00000E+00
         0.00000E+00
         0.00000E+00
         0.00000E+00
         0.00000E+00
         0.00000E+00
         0.00000E+00
         0.00000E+00
         0.00000E+00
         0.00000E+00
         0.00000E+00
         0.00000E+00
         0.00000E+00
         0.00000E+00
         0.00000E+00
         0.00000E+00
         0.00000E+00
         0.00000E+00
         0.00000E+00
         0.00000E+00
         0.00000E+00
         0.00000E+00
         0.00000E+00
         0.00000E+00
         0.00000E+00
         0.00000E+00
         0.00000E+00
         0.00000E+00
         0.00000E+00
         0.00000E+00
         0.00000E+00
         0.00000E+00
         0.00000E+00
         0.00000E+00
         0.00000E+00
         0.00000E+00
         0.00000E+00
         0.00000E+00
         0.00000E+00
         0.00000E+00
         0.00000E+00
         0.00000E+00
         0.00000E+00
         0.00000E+00
         0.00000E+00
         0.00000E+00
         0.00000E+00
         0.00000E+00
         0.00000E+00
         0.00000E+00
         0.00000E+00
         0.00000E+00
         0.00000E+00
         0.00000E+00
         0.00000E+00
         0.00000E+00
         0.00000E+00
         0.00000E+00
         0.00000E+00
         0.00000E+00
         0.00000E+00
         0.00000E+00
         0.00000E+00
         0.00000E+00
         0.00000E+00
         0.00000E+00
         0.00000E+00
         0.00000E+00
         0.00000E+00
         0.00000E+00
         0.00000E+00
         0.00000E+00
         0.00000E+00
         0.00000E+00
         0.00000E+00
         0.00000E+00
         0.00000E+00
         0.00000E+00
         0.00000E+00
         0.00000E+00
         0.00000E+00
         0.00000E+00
         0.00000E+00
         0.00000E+00
         0.00000E+00
         0.00000E+00
         0.00000E+00
         0.00000E+00
         0.00000E+00
         0.00000E+00
         0.00000E+00
         0.00000E+00
         0.00000E+00
         0.00000E+00
         0.00000E+00
         0.00000E+00
         0.00000E+00
         0.00000E+00
         0.00000E+00
         0.00000E+00
         0.00000E+00
         0.00000E+00
         0.00000E+00
         0.00000E+00
         0.00000E+00
         0.00000E+00
         0.00000E+00
         0.00000E+00
         0.00000E+00
         0.00000E+00
         0.00000E+00
         0.00000E+00
         0.00000E+00
         0.00000E+00
         0.00000E+00
         0.00000E+00
         0.00000E+00
         0.00000E+00
         0.00000E+00
         0.00000E+00
         0.00000E+00
         0.00000E+00
         0.00000E+00
         0.00000E+00
         0.00000E+00
         0.00000E+00
         0.00000E+00
         0.00000E+00
         0.00000E+00
         0.00000E+00
         0.00000E+00
         0.00000E+00
         0.00000E+00
         0.00000E+00
         0.00000E+00
         0.00000E+00
         0.00000E+00
         0.00000E+00
         0.00000E+00
         0.00000E+00
         0.00000E+00
         0.00000E+00
         0.00000E+00
         0.00000E+00
         0.00000E+00
         0.00000E+00
         0.00000E+00
         0.00000E+00
         0.00000E+00
         0.00000E+00
         0.00000E+00
         0.00000E+00
         0.00000E+00
         0.00000E+00
         0.00000E+00
         0.00000E+00
         0.00000E+00
         0.00000E+00
         0.00000E+00
         0.00000E+00
         0.00000E+00
         0.00000E+00
         0.00000E+00
         0.00000E+00
         0.00000E+00
         0.00000E+00
         0.00000E+00
         0.00000E+00
         0.00000E+00
         0.00000E+00
         0.00000E+00
         0.00000E+00
         0.00000E+00
         0.00000E+00
         0.00000E+00
         0.00000E+00
         0.00000E+00
         0.00000E+00
         0.00000E+00
         0.00000E+00
         0.00000E+00
         0.00000E+00
         0.00000E+00
         0.00000E+00
         0.00000E+00
         0.00000E+00
         0.00000E+00
         0.00000E+00
         0.00000E+00
         0.00000E+00
         0.00000E+00
         0.00000E+00
         0.00000E+00
         0.00000E+00
         0.00000E+00
         0.00000E+00
         0.00000E+00
         0.00000E+00
         0.00000E+00
         0.00000E+00
         0.00000E+00
         0.00000E+00
         0.00000E+00
         0.00000E+00
         0.00000E+00
         0.00000E+00
         0.00000E+00
         0.00000E+00
         0.00000E+00
         0.00000E+00
         0.00000E+00
         0.00000E+00
         0.00000E+00
         0.00000E+00
         0.00000E+00
         0.00000E+00
         0.00000E+00
         0.00000E+00
         0.00000E+00
         0.00000E+00
         0.00000E+00
         0.00000E+00
         0.00000E+00
         0.00000E+00
         0.00000E+00
         0.00000E+00
         0.00000E+00
         0.00000E+00
         0.00000E+00
         0.00000E+00
         0.00000E+00
         0.00000E+00
         0.00000E+00
         0.00000E+00
         0.00000E+00
         0.00000E+00
         0.00000E+00
         0.00000E+00
         0.00000E+00
         0.00000E+00
         0.00000E+00
         0.00000E+00
         0.00000E+00
         0.00000E+00
         0.00000E+00
         0.00000E+00
         0.00000E+00
         0.00000E+00
         0.00000E+00
         0.00000E+00
         0.00000E+00
         0.00000E+00
         0.00000E+00
         0.00000E+00
         0.00000E+00
         0.00000E+00
         0.00000E+00
         0.00000E+00
         0.00000E+00
         0.00000E+00
         0.00000E+00
         0.00000E+00
         0.00000E+00
         0.00000E+00
         0.00000E+00
         0.00000E+00
         0.00000E+00
         0.00000E+00
         0.00000E+00
         0.00000E+00
         0.00000E+00
         0.00000E+00
         0.00000E+00
         0.00000E+00
         0.00000E+00
         0.00000E+00
         0.00000E+00
         0.00000E+00
         0.00000E+00
         0.00000E+00
         0.00000E+00
         0.00000E+00
         0.00000E+00
         0.00000E+00
         0.00000E+00
         0.00000E+00
         0.00000E+00
         0.00000E+00
         0.00000E+00
         0.00000E+00
         0.00000E+00
         0.00000E+00
         0.00000E+00
         0.00000E+00
         0.00000E+00
         0.00000E+00
         0.00000E+00
         0.00000E+00
         0.00000E+00
         0.00000E+00
         0.00000E+00
         0.00000E+00
         0.00000E+00
         0.00000E+00
         0.00000E+00
         0.00000E+00
         0.00000E+00
         0.00000E+00
         0.00000E+00
         0.00000E+00
         0.00000E+00
         0.00000E+00
         0.00000E+00
         0.00000E+00
         0.00000E+00
         0.00000E+00
         0.00000E+00
         0.00000E+00
         0.00000E+00
         0.00000E+00
         0.00000E+00
         0.00000E+00
         0.00000E+00
         0.00000E+00
         0.00000E+00
         0.00000E+00
         0.00000E+00
         0.00000E+00
         0.00000E+00
         0.00000E+00
         0.00000E+00
         0.00000E+00
         0.00000E+00
         0.00000E+00
         0.00000E+00
         0.00000E+00
         0.00000E+00
         0.00000E+00
         0.00000E+00
         0.00000E+00
         0.00000E+00
         0.00000E+00
         0.00000E+00
         0.00000E+00
         0.00000E+00
         0.00000E+00
         0.00000E+00
         0.00000E+00
         0.00000E+00
         0.00000E+00
         0.00000E+00
         0.00000E+00
         0.00000E+00
         0.00000E+00
         0.00000E+00
         0.00000E+00
         0.00000E+00
         0.00000E+00
         0.00000E+00
         0.00000E+00
         0.00000E+00
         0.00000E+00
         0.00000E+00
         0.00000E+00
         0.00000E+00
         0.00000E+00
         0.00000E+00
         0.00000E+00
         0.00000E+00
         0.00000E+00
         0.00000E+00
         0.00000E+00
         0.00000E+00
         0.00000E+00
         0.00000E+00
         0.00000E+00
         0.00000E+00
         0.00000E+00
         0.00000E+00
         0.00000E+00
         0.00000E+00
         0.00000E+00
         0.00000E+00
         0.00000E+00
         0.00000E+00
         0.00000E+00
         0.00000E+00
         0.00000E+00
         0.00000E+00
         0.00000E+00
         0.00000E+00
         0.00000E+00
         0.00000E+00
         0.00000E+00
         0.00000E+00
         0.00000E+00
         0.00000E+00
         0.00000E+00
         0.00000E+00
         0.00000E+00
         0.00000E+00
         0.00000E+00
         0.00000E+00
         0.00000E+00
         0.00000E+00
         0.00000E+00
         0.00000E+00
         0.00000E+00
         0.00000E+00
         0.00000E+00
         0.00000E+00
         0.00000E+00
         0.00000E+00
         0.00000E+00
         0.00000E+00
         0.00000E+00
         0.00000E+00
         0.00000E+00
         0.00000E+00
         0.00000E+00
         0.00000E+00
         0.00000E+00
         0.00000E+00
         0.00000E+00
         0.00000E+00
         0.00000E+00
         0.00000E+00
         0.00000E+00
         0.00000E+00
         0.00000E+00
         0.00000E+00
         0.00000E+00
         0.00000E+00
         0.00000E+00
         0.00000E+00
         0.00000E+00
         0.00000E+00
         0.00000E+00
         0.00000E+00
         0.00000E+00
         0.00000E+00
         0.00000E+00
         0.00000E+00
         0.00000E+00
         0.00000E+00
         0.00000E+00
         0.00000E+00
         0.00000E+00
         0.00000E+00
         0.00000E+00
         0.00000E+00
         0.00000E+00
         0.00000E+00
         0.00000E+00
         0.00000E+00
         0.00000E+00
         0.00000E+00
         0.00000E+00
         0.00000E+00
         0.00000E+00
         0.00000E+00
         0.00000E+00
         0.00000E+00
         0.00000E+00
         0.00000E+00
         0.00000E+00
         0.00000E+00
         0.00000E+00
         0.00000E+00
         0.00000E+00
         0.00000E+00
         0.00000E+00
         0.00000E+00
         0.00000E+00
         0.00000E+00
         0.00000E+00
         0.00000E+00
         0.00000E+00
         0.00000E+00
         0.00000E+00
         0.00000E+00
         0.00000E+00
         0.00000E+00
         0.00000E+00
         0.00000E+00
         0.00000E+00
         0.00000E+00
         0.00000E+00
         0.00000E+00
         0.00000E+00
         0.00000E+00
         0.00000E+00
         0.00000E+00
         0.00000E+00
         0.00000E+00
         0.00000E+00
         0.00000E+00
         0.00000E+00
         0.00000E+00
         0.00000E+00
         0.00000E+00
         0.00000E+00
         0.00000E+00
         0.00000E+00
         0.00000E+00
         0.00000E+00
         0.00000E+00
         0.00000E+00
         0.00000E+00
         0.00000E+00
         0.00000E+00
         0.00000E+00
         0.00000E+00
         0.00000E+00
         0.00000E+00
         0.00000E+00
         0.00000E+00
         0.00000E+00
         0.00000E+00
         0.00000E+00
         0.00000E+00
         0.00000E+00
         0.00000E+00
         0.00000E+00
         0.00000E+00
         0.00000E+00
         0.00000E+00
         0.00000E+00
         0.00000E+00
         0.00000E+00
         0.00000E+00
         0.00000E+00
         0.00000E+00
         0.00000E+00
         0.00000E+00
         0.00000E+00
         0.00000E+00
         0.00000E+00
         0.00000E+00
         0.00000E+00
         0.00000E+00
         0.00000E+00
         0.00000E+00
         0.00000E+00
         0.00000E+00
         0.00000E+00
         0.00000E+00
         0.00000E+00
         0.00000E+00
         0.00000E+00
         0.00000E+00
         0.00000E+00
         0.00000E+00
         0.00000E+00
         0.00000E+00
         0.00000E+00
         0.00000E+00
         0.00000E+00
         0.00000E+00
         0.00000E+00
         0.00000E+00
         0.00000E+00
         0.00000E+00
         0.00000E+00
         0.00000E+00
         0.00000E+00
         0.00000E+00
         0.00000E+00
         0.00000E+00
         0.00000E+00
         0.00000E+00
         0.00000E+00
         0.00000E+00
         0.00000E+00
         0.00000E+00
         0.00000E+00
         0.00000E+00
         0.00000E+00
         0.00000E+00
         0.00000E+00
         0.00000E+00
         0.00000E+00
         0.00000E+00
         0.00000E+00
         0.00000E+00
         0.00000E+00
         0.00000E+00
         0.00000E+00
         0.00000E+00
         0.00000E+00
         0.00000E+00
         0.00000E+00
         0.00000E+00
         0.00000E+00
         0.00000E+00
         0.00000E+00
         0.00000E+00
         0.00000E+00
         0.00000E+00
         0.00000E+00
         0.00000E+00
         0.00000E+00
         0.00000E+00
         0.00000E+00
         0.00000E+00
         0.00000E+00
         0.00000E+00
         0.00000E+00
         0.00000E+00
         0.00000E+00
         0.00000E+00
         0.00000E+00
         0.00000E+00
         0.00000E+00
         0.00000E+00
         0.00000E+00
         0.00000E+00
         0.00000E+00
         0.00000E+00
         0.00000E+00
         0.00000E+00
         0.00000E+00
         0.00000E+00
         0.00000E+00
         0.00000E+00
         0.00000E+00
         0.00000E+00
         0.00000E+00
         0.00000E+00
         0.00000E+00
         0.00000E+00
         0.00000E+00
         0.00000E+00
         0.00000E+00
         0.00000E+00
         0.00000E+00
         0.00000E+00
         0.00000E+00
         0.00000E+00
         0.00000E+00
         0.00000E+00
         0.00000E+00
         0.00000E+00
         0.00000E+00
         0.00000E+00
         0.00000E+00
         0.00000E+00
         0.00000E+00
         0.00000E+00
         0.00000E+00
         0.00000E+00
         0.00000E+00
         0.00000E+00
         0.00000E+00
         0.00000E+00
         0.00000E+00
         0.00000E+00
         0.00000E+00
         0.00000E+00
         0.00000E+00
         0.00000E+00
         0.00000E+00
         0.00000E+00
         0.00000E+00
         0.00000E+00
         0.00000E+00
         0.00000E+00
         0.00000E+00
         0.00000E+00
         0.00000E+00
         0.00000E+00
         0.00000E+00
         0.00000E+00
         0.00000E+00
         0.00000E+00
         0.00000E+00
         0.00000E+00
         0.00000E+00
         0.00000E+00
         0.00000E+00
         0.00000E+00
         0.00000E+00
         0.00000E+00
         0.00000E+00
         0.00000E+00
         0.00000E+00
         0.00000E+00
         0.00000E+00
         0.00000E+00
         0.00000E+00
         0.00000E+00
         0.00000E+00
         0.00000E+00
         0.00000E+00
         0.00000E+00
         0.00000E+00
         0.00000E+00
         0.00000E+00
         0.00000E+00
         0.00000E+00
         0.00000E+00
         0.00000E+00
         0.00000E+00
         0.00000E+00
         0.00000E+00
         0.00000E+00
         0.00000E+00
         0.00000E+00
         0.00000E+00
         0.00000E+00
         0.00000E+00
         0.00000E+00
         0.00000E+00
         0.00000E+00
         0.00000E+00
         0.00000E+00
         0.00000E+00
         0.00000E+00
         0.00000E+00
         0.00000E+00
         0.00000E+00
         0.00000E+00
         0.00000E+00
         0.00000E+00
         0.00000E+00
         0.00000E+00
         0.00000E+00
         0.00000E+00
         0.00000E+00
         0.00000E+00
         0.00000E+00
         0.00000E+00
         0.00000E+00
         0.00000E+00
         0.00000E+00
         0.00000E+00
         0.00000E+00
         0.00000E+00
         0.00000E+00
         0.00000E+00
         0.00000E+00
         0.00000E+00
         0.00000E+00
         0.00000E+00
         0.00000E+00
         0.00000E+00
         0.00000E+00
         0.00000E+00
         0.00000E+00
         0.00000E+00
         0.00000E+00
         0.00000E+00
         0.00000E+00
         0.00000E+00
         0.00000E+00
         0.00000E+00
         0.00000E+00
         0.00000E+00
         0.00000E+00
         0.00000E+00
         0.00000E+00
         0.00000E+00
         0.00000E+00
         0.00000E+00
         0.00000E+00
         0.00000E+00
         0.00000E+00
         0.00000E+00
         0.00000E+00
         0.00000E+00
         0.00000E+00
         0.00000E+00
         0.00000E+00
         0.00000E+00
         0.00000E+00
         0.00000E+00
         0.00000E+00
         0.00000E+00
         0.00000E+00
         0.00000E+00
         0.00000E+00
         0.00000E+00
         0.00000E+00
         0.00000E+00
         0.00000E+00
         0.00000E+00
         0.00000E+00
         0.00000E+00
         0.00000E+00
         0.00000E+00
         0.00000E+00
         0.00000E+00
         0.00000E+00
         0.00000E+00
         0.00000E+00
         0.00000E+00
         0.00000E+00
         0.00000E+00
         0.00000E+00
         0.00000E+00
         0.00000E+00
         0.00000E+00
         0.00000E+00
         0.00000E+00
         0.00000E+00
         0.00000E+00
         0.00000E+00
         0.00000E+00
         0.00000E+00
         0.00000E+00
         0.00000E+00
         0.00000E+00
         0.00000E+00
         0.00000E+00
         0.00000E+00
         0.00000E+00
         0.00000E+00
         0.00000E+00
         0.00000E+00
         0.00000E+00
         0.00000E+00
         0.00000E+00
         0.00000E+00
         0.00000E+00
         0.00000E+00
         0.00000E+00
         0.00000E+00
         0.00000E+00
         0.00000E+00
         0.00000E+00
         0.00000E+00
         0.00000E+00
         0.00000E+00
         0.00000E+00
         0.00000E+00
         0.00000E+00
         0.00000E+00
         0.00000E+00
         0.00000E+00
         0.00000E+00
         0.00000E+00
         0.00000E+00
         0.00000E+00
         0.00000E+00
         0.00000E+00
         0.00000E+00
         0.00000E+00
         0.00000E+00
         0.00000E+00
         0.00000E+00
         0.00000E+00
         0.00000E+00
         0.00000E+00
         0.00000E+00
         0.00000E+00
         0.00000E+00
         0.00000E+00
         0.00000E+00
         0.00000E+00
         0.00000E+00
         0.00000E+00
         0.00000E+00
         0.00000E+00
         0.00000E+00
         0.00000E+00
         0.00000E+00
         0.00000E+00
         0.00000E+00
         0.00000E+00
         0.00000E+00
         0.00000E+00
         0.00000E+00
         0.00000E+00
         0.00000E+00
         0.00000E+00
         0.00000E+00
         0.00000E+00
         0.00000E+00
         0.00000E+00
         0.00000E+00
         0.00000E+00
         0.00000E+00
         0.00000E+00
         0.00000E+00
         0.00000E+00
         0.00000E+00
         0.00000E+00
         0.00000E+00
         0.00000E+00
         0.00000E+00
         0.00000E+00
         0.00000E+00
         0.00000E+00
         0.00000E+00
         0.00000E+00
         0.00000E+00
         0.00000E+00
         0.00000E+00
         0.00000E+00
         0.00000E+00
         0.00000E+00
         0.00000E+00
         0.00000E+00
         0.00000E+00
         0.00000E+00
         0.00000E+00
         0.00000E+00
         0.00000E+00
         0.00000E+00
         0.00000E+00
         0.00000E+00
         0.00000E+00
         0.00000E+00
         0.00000E+00
         0.00000E+00
         0.00000E+00
         0.00000E+00
         0.00000E+00
         0.00000E+00
         0.00000E+00
         0.00000E+00
         0.00000E+00
         0.00000E+00
         0.00000E+00
         0.00000E+00
         0.00000E+00
         0.00000E+00
         0.00000E+00
         0.00000E+00
         0.00000E+00
         0.00000E+00
         0.00000E+00
         0.00000E+00
         0.00000E+00
         0.00000E+00
         0.00000E+00
         0.00000E+00
         0.00000E+00
         0.00000E+00
         0.00000E+00
         0.00000E+00
         0.00000E+00
         0.00000E+00
         0.00000E+00
         0.00000E+00
         0.00000E+00
         0.00000E+00
         0.00000E+00
         0.00000E+00
         0.00000E+00
         0.00000E+00
         0.00000E+00
         0.00000E+00
         0.00000E+00
         0.00000E+00
         0.00000E+00
         0.00000E+00
         0.00000E+00
         0.00000E+00
         0.00000E+00
         0.00000E+00
         0.00000E+00
         0.00000E+00
         0.00000E+00
         0.00000E+00
         0.00000E+00
         0.00000E+00
         0.00000E+00
         0.00000E+00
         0.00000E+00
         0.00000E+00
         0.00000E+00
         0.00000E+00
         0.00000E+00
         0.00000E+00
         0.00000E+00
         0.00000E+00
         0.00000E+00
         0.00000E+00
         0.00000E+00
         0.00000E+00
         0.00000E+00
         0.00000E+00
         0.00000E+00
         0.00000E+00
         0.00000E+00
         0.00000E+00
         0.00000E+00
         0.00000E+00
         0.00000E+00
         0.00000E+00
         0.00000E+00
         0.00000E+00
         0.00000E+00
         0.00000E+00
         0.00000E+00
         0.00000E+00
         0.00000E+00
         0.00000E+00
         0.00000E+00
         0.00000E+00
         0.00000E+00
         0.00000E+00
         0.00000E+00
         0.00000E+00
         0.00000E+00
         0.00000E+00
         0.00000E+00
         0.00000E+00
         0.00000E+00
         0.00000E+00
         0.00000E+00
         0.00000E+00
         0.00000E+00
         0.00000E+00
         0.00000E+00
         0.00000E+00
         0.00000E+00
         0.00000E+00
         0.00000E+00
         0.00000E+00
         0.00000E+00
         0.00000E+00
         0.00000E+00
         0.00000E+00
         0.00000E+00
         0.00000E+00
         0.00000E+00
         0.00000E+00
         0.00000E+00
         0.00000E+00
         0.00000E+00
         0.00000E+00
         0.00000E+00
         0.00000E+00
         0.00000E+00
         0.00000E+00
         0.00000E+00
         0.00000E+00
         0.00000E+00
         0.00000E+00
         0.00000E+00
         0.00000E+00
         0.00000E+00
         0.00000E+00
         0.00000E+00
         0.00000E+00
         0.00000E+00
         0.00000E+00
         0.00000E+00
         0.00000E+00
         0.00000E+00
         0.00000E+00
         0.00000E+00
         0.00000E+00
         0.00000E+00
         0.00000E+00
         0.00000E+00
         0.00000E+00
         0.00000E+00
         0.00000E+00
         0.00000E+00
         0.00000E+00
         0.00000E+00
         0.00000E+00
         0.00000E+00
         0.00000E+00
         0.00000E+00
         0.00000E+00
         0.00000E+00
         0.00000E+00
         0.00000E+00
         0.00000E+00
         0.00000E+00
         0.00000E+00
         0.00000E+00
         0.00000E+00
         0.00000E+00
         0.00000E+00
         0.00000E+00
         0.00000E+00
         0.00000E+00
         0.00000E+00
         0.00000E+00
         0.00000E+00
         0.00000E+00
         0.00000E+00
         0.00000E+00
         0.00000E+00
         0.00000E+00
         0.00000E+00
         0.00000E+00
         0.00000E+00
         0.00000E+00
         0.00000E+00
         0.00000E+00
         0.00000E+00
         0.00000E+00
         0.00000E+00
         0.00000E+00
         0.00000E+00
         0.00000E+00
         0.00000E+00
         0.00000E+00
         0.00000E+00
         0.00000E+00
         0.00000E+00
         0.00000E+00
         0.00000E+00
         0.00000E+00
         0.00000E+00
         0.00000E+00
         0.00000E+00
         0.00000E+00
         0.00000E+00
         0.00000E+00
         0.00000E+00
         0.00000E+00
         0.00000E+00
         0.00000E+00
         0.00000E+00
         0.00000E+00
         0.00000E+00
         0.00000E+00
         0.00000E+00
         0.00000E+00
         0.00000E+00
         0.00000E+00
         0.00000E+00
         0.00000E+00
         0.00000E+00
         0.00000E+00
         0.00000E+00
         0.00000E+00
         0.00000E+00
         0.00000E+00
         0.00000E+00
         0.00000E+00
         0.00000E+00
         0.00000E+00
         0.00000E+00
         0.00000E+00
         0.00000E+00
         0.00000E+00
         0.00000E+00
         0.00000E+00
         0.00000E+00
         0.00000E+00
         0.00000E+00
         0.00000E+00
         0.00000E+00
         0.00000E+00
         0.00000E+00
         0.00000E+00
         0.00000E+00
         0.00000E+00
         0.00000E+00
         0.00000E+00
         0.00000E+00
         0.00000E+00
         0.00000E+00
         0.00000E+00
         0.00000E+00
         0.00000E+00
         0.00000E+00
         0.00000E+00
         0.00000E+00
         0.00000E+00
         0.00000E+00
         0.00000E+00
         0.00000E+00
         0.00000E+00
         0.00000E+00
         0.00000E+00
         0.00000E+00
         0.00000E+00
         0.00000E+00
         0.00000E+00
         0.00000E+00
         0.00000E+00
         0.00000E+00
         0.00000E+00
         0.00000E+00
         0.00000E+00
         0.00000E+00
         0.00000E+00
         0.00000E+00
         0.00000E+00
         0.00000E+00
         0.00000E+00
         0.00000E+00
         0.00000E+00
         0.00000E+00
         0.00000E+00
         0.00000E+00
         0.00000E+00
         0.00000E+00
         0.00000E+00
         0.00000E+00
         0.00000E+00
         0.00000E+00
         0.00000E+00
         0.00000E+00
         0.00000E+00
         0.00000E+00
         0.00000E+00
         0.00000E+00
         0.00000E+00
         0.00000E+00
         0.00000E+00
         0.00000E+00
         0.00000E+00
         0.00000E+00
         0.00000E+00
         0.00000E+00
         0.00000E+00
         0.00000E+00
         0.00000E+00
         0.00000E+00
         0.00000E+00
         0.00000E+00
         0.00000E+00
         0.00000E+00
         0.00000E+00
         0.00000E+00
         0.00000E+00
         0.00000E+00
         0.00000E+00
         0.00000E+00
         0.00000E+00
         0.00000E+00
         0.00000E+00
         0.00000E+00
         0.00000E+00
         0.00000E+00
         0.00000E+00
         0.00000E+00
         0.00000E+00
         0.00000E+00
         0.00000E+00
         0.00000E+00
         0.00000E+00
         0.00000E+00
         0.00000E+00
         0.00000E+00
         0.00000E+00
         0.00000E+00
         0.00000E+00
         0.00000E+00
         0.00000E+00
         0.00000E+00
         0.00000E+00
         0.00000E+00
         0.00000E+00
         0.00000E+00
         0.00000E+00
         0.00000E+00
         0.00000E+00
         0.00000E+00
         0.00000E+00
         0.00000E+00
         0.00000E+00
         0.00000E+00
         0.00000E+00
         0.00000E+00
         0.00000E+00
         0.00000E+00
         0.00000E+00
         0.00000E+00
         0.00000E+00
         0.00000E+00
         0.00000E+00
         0.00000E+00
         0.00000E+00
         0.00000E+00
         0.00000E+00
         0.00000E+00
         0.00000E+00
         0.00000E+00
         0.00000E+00
         0.00000E+00
         0.00000E+00
         0.00000E+00
         0.00000E+00
         0.00000E+00
         0.00000E+00
         0.00000E+00
         0.00000E+00
         0.00000E+00
         0.00000E+00
         0.00000E+00
         0.00000E+00
         0.00000E+00
         0.00000E+00
         0.00000E+00
         0.00000E+00
         0.00000E+00
         0.00000E+00
         0.00000E+00
         0.00000E+00
         0.00000E+00
         0.00000E+00
         0.00000E+00
         0.00000E+00
         0.00000E+00
         0.00000E+00
         0.00000E+00
         0.00000E+00
         0.00000E+00
         0.00000E+00
         0.00000E+00
         0.00000E+00
         0.00000E+00
         0.00000E+00
         0.00000E+00
         0.00000E+00
         0.00000E+00
         0.00000E+00
         0.00000E+00
         0.00000E+00
         0.00000E+00
         0.00000E+00
         0.00000E+00
         0.00000E+00
         0.00000E+00
         0.00000E+00
         0.00000E+00
         0.00000E+00
         0.00000E+00
         0.00000E+00
         0.00000E+00
         0.00000E+00
         0.00000E+00
         0.00000E+00
         0.00000E+00
         0.00000E+00
         0.00000E+00
         0.00000E+00
         0.00000E+00
         0.00000E+00
         0.00000E+00
         0.00000E+00
         0.00000E+00
         0.00000E+00
         0.00000E+00
         0.00000E+00
         0.00000E+00
         0.00000E+00
         0.00000E+00
         0.00000E+00
         0.00000E+00
         0.00000E+00
         0.00000E+00
         0.00000E+00
         0.00000E+00
         0.00000E+00
         0.00000E+00
         0.00000E+00
         0.00000E+00
         0.00000E+00
         0.00000E+00
         0.00000E+00
         0.00000E+00
         0.00000E+00
         0.00000E+00
         0.00000E+00
         0.00000E+00
         0.00000E+00
         0.00000E+00
         0.00000E+00
         0.00000E+00
         0.00000E+00
         0.00000E+00
         0.00000E+00
         0.00000E+00
         0.00000E+00
         0.00000E+00
         0.00000E+00
         0.00000E+00
         0.00000E+00
         0.00000E+00
         0.00000E+00
         0.00000E+00
         0.00000E+00
         0.00000E+00
         0.00000E+00
         0.00000E+00
         0.00000E+00
         0.00000E+00
         0.00000E+00
         0.00000E+00
         0.00000E+00
         0.00000E+00
         0.00000E+00
         0.00000E+00
         0.00000E+00
         0.00000E+00
         0.00000E+00
         0.00000E+00
         0.00000E+00
         0.00000E+00
         0.00000E+00
         0.00000E+00
         0.00000E+00
         0.00000E+00
         0.00000E+00
         0.00000E+00
         0.00000E+00
         0.00000E+00
         0.00000E+00
         0.00000E+00
         0.00000E+00
         0.00000E+00
         0.00000E+00
         0.00000E+00
         0.00000E+00
         0.00000E+00
         0.00000E+00
         0.00000E+00
         0.00000E+00
         0.00000E+00
         0.00000E+00
         0.00000E+00
         0.00000E+00
         0.00000E+00
         0.00000E+00
         0.00000E+00
         0.00000E+00
         0.00000E+00
         0.00000E+00
         0.00000E+00
         0.00000E+00
         0.00000E+00
         0.00000E+00
         0.00000E+00
         0.00000E+00
         0.00000E+00
         0.00000E+00
         0.00000E+00
         0.00000E+00
         0.00000E+00
         0.00000E+00
         0.00000E+00
         0.00000E+00
         0.00000E+00
         0.00000E+00
         0.00000E+00
         0.00000E+00
         0.00000E+00
         0.00000E+00
         0.00000E+00
         0.00000E+00
         0.00000E+00
         0.00000E+00
         0.00000E+00
         0.00000E+00
         0.00000E+00
         0.00000E+00
         0.00000E+00
         0.00000E+00
         0.00000E+00
         0.00000E+00
         0.00000E+00
         0.00000E+00
         0.00000E+00
         0.00000E+00
         0.00000E+00
         0.00000E+00
         0.00000E+00
         0.00000E+00
         0.00000E+00
         0.00000E+00
         0.00000E+00
         0.00000E+00
         0.00000E+00
         0.00000E+00
         0.00000E+00
         0.00000E+00
         0.00000E+00
         0.00000E+00
         0.00000E+00
         0.00000E+00
         0.00000E+00
         0.00000E+00
         0.00000E+00
         0.00000E+00
         0.00000E+00
         0.00000E+00
         0.00000E+00
         0.00000E+00
         0.00000E+00
         0.00000E+00
         0.00000E+00
         0.00000E+00
         0.00000E+00
         0.00000E+00
         0.00000E+00
         0.00000E+00
         0.00000E+00
         0.00000E+00
         0.00000E+00
         0.00000E+00
         0.00000E+00
         0.00000E+00
         0.00000E+00
         0.00000E+00
         0.00000E+00
         0.00000E+00
         0.00000E+00
         0.00000E+00
         0.00000E+00
         0.00000E+00
         0.00000E+00
         0.00000E+00
         0.00000E+00
         0.00000E+00
         0.00000E+00
         0.00000E+00
         0.00000E+00
         0.00000E+00
         0.00000E+00
         0.00000E+00
         0.00000E+00
         0.00000E+00
         0.00000E+00
         0.00000E+00
         0.00000E+00
         0.00000E+00
         0.00000E+00
         0.00000E+00
         0.00000E+00
         0.00000E+00
         0.00000E+00
         0.00000E+00
         0.00000E+00
         0.00000E+00
         0.00000E+00
         0.00000E+00
         0.00000E+00
         0.00000E+00
         0.00000E+00
         0.00000E+00
         0.00000E+00
         0.00000E+00
         0.00000E+00
         0.00000E+00
         0.00000E+00
         0.00000E+00
         0.00000E+00
         0.00000E+00
         0.00000E+00
         0.00000E+00
         0.00000E+00
         0.00000E+00
         0.00000E+00
         0.00000E+00
         0.00000E+00
         0.00000E+00
         0.00000E+00
         0.00000E+00
         0.00000E+00
         0.00000E+00
         0.00000E+00
         0.00000E+00
         0.00000E+00
         0.00000E+00
         0.00000E+00
         0.00000E+00
         0.00000E+00
         0.00000E+00
         0.00000E+00
         0.00000E+00
         0.00000E+00
         0.00000E+00
         0.00000E+00
         0.00000E+00
         0.00000E+00
         0.00000E+00
         0.00000E+00
         0.00000E+00
         0.00000E+00
         0.00000E+00
         0.00000E+00
         0.00000E+00
         0.00000E+00
         0.00000E+00
         0.00000E+00
         0.00000E+00
         0.00000E+00
         0.00000E+00
         0.00000E+00
         0.00000E+00
         0.00000E+00
         0.00000E+00
         0.00000E+00
         0.00000E+00
         0.00000E+00
         0.00000E+00
         0.00000E+00
         0.00000E+00
         0.00000E+00
         0.00000E+00
         0.00000E+00
         0.00000E+00
         0.00000E+00
         0.00000E+00
         0.00000E+00
         0.00000E+00
         0.00000E+00
         0.00000E+00
         0.00000E+00
         0.00000E+00
         0.00000E+00
         0.00000E+00
         0.00000E+00
         0.00000E+00
  
SCALARS                      stress_xx  double 1
LOOKUP_TABLE default
         0.27054E+12
         0.26628E+12
         0.26898E+12
         0.27382E+12
        -0.10409E+03
        -0.11673E+03
        -0.11177E+03
        -0.10154E+03
         0.26613E+12
         0.26757E+12
        -0.10497E+03
        -0.10158E+03
         0.26011E+12
         0.25988E+12
        -0.12472E+03
        -0.11727E+03
         0.27311E+12
         0.26022E+12
        -0.92156E+02
        -0.10221E+03
         0.25548E+12
         0.25180E+12
         0.25765E+12
        -0.12361E+03
        -0.10795E+03
        -0.11147E+03
         0.25194E+12
         0.24657E+12
        -0.11859E+03
        -0.10001E+03
         0.27288E+12
         0.26727E+12
         0.27831E+12
        -0.10120E+03
        -0.94079E+02
        -0.91469E+02
         0.26963E+12
         0.26249E+12
        -0.10706E+03
        -0.97696E+02
         0.26680E+12
         0.26129E+12
        -0.92533E+02
        -0.81918E+02
         0.27147E+12
         0.27354E+12
        -0.10140E+03
        -0.11330E+03
         0.25686E+12
        -0.99063E+02
         0.27314E+12
        -0.11640E+03
         0.25039E+12
        -0.10461E+03
         0.24870E+12
        -0.10035E+03
         0.24873E+12
         0.25473E+12
        -0.10224E+03
        -0.99571E+02
         0.27276E+12
         0.27061E+12
        -0.10252E+03
        -0.11590E+03
         0.27411E+12
        -0.98926E+02
         0.27155E+12
        -0.10797E+03
         0.26480E+12
         0.26413E+12
        -0.10393E+03
        -0.10890E+03
         0.26260E+12
        -0.10981E+03
         0.24466E+12
        -0.86758E+02
         0.24371E+12
        -0.84212E+02
         0.24418E+12
        -0.88794E+02
         0.24678E+12
         0.24949E+12
        -0.84600E+02
        -0.88201E+02
         0.25493E+12
        -0.82147E+02
         0.27136E+12
        -0.10772E+03
         0.26880E+12
        -0.11025E+03
         0.26669E+12
         0.26554E+12
        -0.10588E+03
        -0.10711E+03
         0.26696E+12
        -0.97292E+02
         0.26797E+12
        -0.95903E+02
         0.26706E+12
        -0.10267E+03
         0.26674E+12
         0.26766E+12
        -0.10068E+03
        -0.10363E+03
         0.26166E+12
         0.26409E+12
        -0.78167E+02
        -0.73521E+02
         0.26120E+12
        -0.74640E+02
         0.26401E+12
        -0.71567E+02
         0.26124E+12
        -0.70570E+02
         0.25510E+12
        -0.66689E+02
         0.24914E+12
        -0.59246E+02
         0.24558E+12
        -0.53348E+02
         0.24521E+12
        -0.52977E+02
         0.24532E+12
        -0.57451E+02
         0.24919E+12
        -0.60379E+02
         0.25642E+12
        -0.55132E+02
         0.26435E+12
        -0.49696E+02
         0.26900E+12
        -0.49639E+02
         0.27359E+12
        -0.55485E+02
         0.27662E+12
        -0.63265E+02
         0.27651E+12
        -0.67966E+02
         0.26914E+12
        -0.73403E+02
         0.26401E+12
        -0.78640E+02
         0.26225E+12
        -0.72040E+02
         0.26500E+12
        -0.63199E+02
         0.26643E+12
        -0.63003E+02
         0.26403E+12
        -0.68933E+02
         0.26406E+12
        -0.73488E+02
         0.26588E+12
        -0.69739E+02
         0.26825E+12
        -0.67421E+02
        -0.30426E+11
        -0.30652E+11
        -0.30622E+11
        -0.30324E+11
        -0.30854E+11
        -0.30597E+11
        -0.30912E+11
        -0.30752E+11
        -0.30373E+11
        -0.30615E+11
        -0.31073E+11
        -0.31119E+11
        -0.30992E+11
        -0.30983E+11
        -0.31067E+11
        -0.30339E+11
        -0.30396E+11
        -0.30233E+11
        -0.30675E+11
        -0.30599E+11
        -0.30707E+11
        -0.30636E+11
        -0.30766E+11
        -0.30733E+11
        -0.30606E+11
        -0.30615E+11
        -0.30828E+11
        -0.30810E+11
        -0.30959E+11
        -0.30730E+11
        -0.30367E+11
        -0.30655E+11
        -0.30370E+11
        -0.30561E+11
        -0.31151E+11
        -0.30977E+11
        -0.30889E+11
        -0.30992E+11
        -0.31005E+11
        -0.31163E+11
        -0.31270E+11
        -0.30998E+11
        -0.30703E+11
        -0.30745E+11
        -0.30898E+11
        -0.31145E+11
        -0.30936E+11
        -0.30690E+11
        -0.30708E+11
        -0.30899E+11
        -0.31080E+11
        -0.30832E+11
        -0.31506E+11
        -0.31332E+11
        -0.31362E+11
        -0.31320E+11
        -0.31331E+11
        -0.31427E+11
        -0.31520E+11
        -0.31549E+11
        -0.31537E+11
        -0.31546E+11
        -0.31583E+11
        -0.31340E+11
        -0.31239E+11
        -0.31198E+11
        -0.31127E+11
        -0.31071E+11
        -0.31074E+11
        -0.31168E+11
        -0.31450E+11
        -0.31387E+11
        -0.31291E+11
        -0.31292E+11
        -0.31309E+11
        -0.31400E+11
        -0.31265E+11
        -0.31212E+11
         0.71222E+06
         0.31159E+06
         0.38768E+06
         0.43527E+06
         0.14097E+06
         0.36449E+06
        -0.25396E+06
        -0.60859E+06
         0.87612E+06
        -0.66270E+06
        -0.67225E+06
        -0.34511E+05
        -0.14886E+06
        -0.22602E+07
        -0.73786E+06
        -0.25341E+06
         0.20166E+06
         0.50579E+06
        -0.17465E+05
        -0.35553E+05
        -0.10157E+07
        -0.60419E+06
        -0.13455E+07
        -0.36499E+06
        -0.68588E+06
        -0.95257E+05
        -0.28316E+07
        -0.15606E+07
        -0.89910E+06
        -0.69582E+06
        -0.14768E+06
        -0.21760E+06
         0.39774E+06
         0.77679E+06
        -0.87939E+06
        -0.55575E+06
        -0.33219E+06
        -0.94515E+06
        -0.57148E+06
        -0.38011E+06
        -0.70761E+06
        -0.11285E+07
        -0.98087E+06
        -0.10728E+07
        -0.79077E+06
        -0.32589E+06
        -0.18463E+06
        -0.23540E+06
         0.37944E+06
         0.63797E+06
         0.11351E+06
         0.16343E+06
        -0.22379E+07
        -0.70120E+06
        -0.13479E+07
         0.10322E+06
         0.13591E+07
         0.22634E+07
         0.18825E+07
         0.20333E+07
         0.16014E+07
         0.79383E+06
        -0.19178E+05
        -0.62932E+06
        -0.10940E+07
        -0.48208E+06
        -0.15404E+07
        -0.21996E+07
        -0.18199E+07
        -0.15696E+07
        -0.79133E+06
         0.39824E+06
         0.37777E+06
         0.13218E+05
        -0.67322E+06
        -0.11753E+07
        -0.94351E+06
        -0.35324E+06
         0.66717E+06
         0.27010E+06
         0.34744E+06
         0.40111E+06
         0.87666E+05
         0.31830E+06
        -0.29644E+06
        -0.65937E+06
         0.83368E+06
        -0.71796E+06
        -0.71842E+06
        -0.10704E+06
        -0.21093E+06
        -0.23115E+07
        -0.80968E+06
        -0.29963E+06
         0.15686E+06
         0.47266E+06
        -0.62520E+05
        -0.81730E+05
        -0.10770E+07
        -0.66381E+06
        -0.14084E+07
        -0.41043E+06
        -0.74181E+06
        -0.13865E+06
        -0.28829E+07
        -0.16068E+07
        -0.95075E+06
        -0.75413E+06
        -0.19067E+06
        -0.25854E+06
         0.36461E+06
         0.74222E+06
        -0.94199E+06
        -0.60592E+06
        -0.38509E+06
        -0.10175E+07
        -0.63776E+06
        -0.44509E+06
        -0.77880E+06
        -0.11978E+07
        -0.10465E+07
        -0.11324E+07
        -0.84646E+06
        -0.38906E+06
        -0.24000E+06
        -0.28660E+06
         0.33491E+06
         0.59145E+06
         0.56271E+05
         0.11376E+06
        -0.23571E+07
        -0.81746E+06
        -0.14624E+07
        -0.65072E+04
         0.12430E+07
         0.21340E+07
         0.17533E+07
         0.19027E+07
         0.14696E+07
         0.65895E+06
        -0.15343E+06
        -0.75340E+06
        -0.11974E+07
        -0.57859E+06
        -0.16417E+07
        -0.23078E+07
        -0.19304E+07
        -0.16853E+07
        -0.90738E+06
         0.27543E+06
         0.26207E+06
        -0.91265E+05
        -0.77781E+06
        -0.12825E+07
        -0.10519E+07
        -0.46368E+06
         0.67759E+06
         0.27823E+06
         0.35599E+06
         0.40985E+06
         0.10233E+06
         0.33138E+06
        -0.28884E+06
        -0.64696E+06
         0.84127E+06
        -0.71531E+06
        -0.70846E+06
        -0.93303E+05
        -0.19937E+06
        -0.22961E+07
        -0.79169E+06
        -0.30936E+06
         0.15341E+06
         0.48224E+06
        -0.73583E+05
        -0.90151E+05
        -0.10869E+07
        -0.66758E+06
        -0.14496E+07
        -0.44321E+06
        -0.76642E+06
        -0.16910E+06
        -0.28731E+07
        -0.16124E+07
        -0.97247E+06
        -0.79497E+06
        -0.19125E+06
        -0.26780E+06
         0.37569E+06
         0.75343E+06
        -0.92604E+06
        -0.59286E+06
        -0.37315E+06
        -0.10054E+07
        -0.62762E+06
        -0.44204E+06
        -0.78070E+06
        -0.12232E+07
        -0.10818E+07
        -0.11723E+07
        -0.85579E+06
        -0.38026E+06
        -0.22985E+06
        -0.27542E+06
         0.34712E+06
         0.60569E+06
         0.72769E+05
         0.12830E+06
        -0.23215E+07
        -0.78550E+06
        -0.14269E+07
         0.20683E+05
         0.12633E+07
         0.21541E+07
         0.17789E+07
         0.19283E+07
         0.14957E+07
         0.68601E+06
        -0.13755E+06
        -0.75397E+06
        -0.11957E+07
        -0.56078E+06
        -0.16299E+07
        -0.23297E+07
        -0.19542E+07
        -0.16792E+07
        -0.87540E+06
         0.31236E+06
         0.29515E+06
        -0.57892E+05
        -0.74020E+06
        -0.12509E+07
        -0.10263E+07
        -0.43902E+06
         0.67108E+06
         0.27469E+06
         0.35262E+06
         0.40418E+06
         0.97807E+05
         0.32791E+06
        -0.29332E+06
        -0.65294E+06
         0.82933E+06
        -0.73882E+06
        -0.71278E+06
        -0.10090E+06
        -0.20454E+06
        -0.23002E+07
        -0.80037E+06
        -0.34632E+06
         0.12648E+06
         0.47672E+06
        -0.11299E+06
        -0.12894E+06
        -0.11333E+07
        -0.70876E+06
        -0.15457E+07
        -0.51651E+06
        -0.83296E+06
        -0.23832E+06
        -0.28872E+07
        -0.16497E+07
        -0.10356E+07
        -0.89268E+06
        -0.21256E+06
        -0.30477E+06
         0.37203E+06
         0.74772E+06
        -0.93436E+06
        -0.59761E+06
        -0.37722E+06
        -0.10190E+07
        -0.64426E+06
        -0.47185E+06
        -0.82106E+06
        -0.13017E+07
        -0.11778E+07
        -0.12664E+07
        -0.90176E+06
        -0.40563E+06
        -0.24760E+06
        -0.28518E+06
         0.33957E+06
         0.59685E+06
         0.64315E+05
         0.12322E+06
        -0.23382E+07
        -0.79688E+06
        -0.14449E+07
         0.48521E+04
         0.12527E+07
         0.21418E+07
         0.17583E+07
         0.19059E+07
         0.14743E+07
         0.65994E+06
        -0.17891E+06
        -0.82070E+06
        -0.12584E+07
        -0.59046E+06
        -0.16634E+07
        -0.24218E+07
        -0.20516E+07
        -0.17249E+07
        -0.89705E+06
         0.29166E+06
         0.27947E+06
        -0.76453E+05
        -0.75945E+06
        -0.12641E+07
        -0.10364E+07
        -0.44905E+06
         0.65933E+06
         0.26753E+06
         0.34676E+06
         0.39834E+06
         0.92503E+05
         0.32288E+06
        -0.29982E+06
        -0.66334E+06
         0.81494E+06
        -0.76330E+06
        -0.71745E+06
        -0.10568E+06
        -0.21029E+06
        -0.23049E+07
        -0.80437E+06
        -0.37156E+06
         0.10485E+06
         0.47163E+06
        -0.13891E+06
        -0.15675E+06
        -0.11631E+07
        -0.73834E+06
        -0.16047E+07
        -0.56193E+06
        -0.88133E+06
        -0.28271E+06
        -0.28994E+07
        -0.16764E+07
        -0.10797E+07
        -0.95769E+06
        -0.23485E+06
        -0.33168E+06
         0.36324E+06
         0.73980E+06
        -0.94295E+06
        -0.60377E+06
        -0.38342E+06
        -0.10293E+07
        -0.65814E+06
        -0.49459E+06
        -0.84952E+06
        -0.13547E+07
        -0.12408E+07
        -0.13261E+07
        -0.93188E+06
        -0.42232E+06
        -0.26333E+06
        -0.30065E+06
         0.32642E+06
         0.58380E+06
         0.50999E+05
         0.11473E+06
        -0.23531E+07
        -0.80680E+06
        -0.14602E+07
        -0.74633E+04
         0.12478E+07
         0.21382E+07
         0.17495E+07
         0.18911E+07
         0.14561E+07
         0.64382E+06
        -0.20407E+06
        -0.86686E+06
        -0.13011E+07
        -0.61339E+06
        -0.16871E+07
        -0.24814E+07
        -0.21200E+07
        -0.17575E+07
        -0.90685E+06
         0.27285E+06
         0.25867E+06
        -0.97756E+05
        -0.78430E+06
        -0.12855E+07
        -0.10496E+07
        -0.45906E+06
         0.63104E+06
         0.25382E+06
         0.34097E+06
         0.40272E+06
         0.10035E+06
         0.33216E+06
        -0.30463E+06
        -0.68212E+06
         0.79455E+06
        -0.79653E+06
        -0.71299E+06
        -0.89604E+05
        -0.20433E+06
        -0.23004E+07
        -0.78377E+06
        -0.36775E+06
         0.98825E+05
         0.48143E+06
        -0.13357E+06
        -0.15220E+06
        -0.11542E+07
        -0.72786E+06
        -0.16034E+07
        -0.56284E+06
        -0.90265E+06
        -0.28903E+06
        -0.29024E+07
        -0.16788E+07
        -0.10789E+07
        -0.96027E+06
        -0.26135E+06
        -0.34588E+06
         0.34737E+06
         0.73779E+06
        -0.93609E+06
        -0.60276E+06
        -0.38442E+06
        -0.10170E+07
        -0.64782E+06
        -0.48320E+06
        -0.83574E+06
        -0.13468E+07
        -0.12341E+07
        -0.13296E+07
        -0.93541E+06
        -0.42500E+06
        -0.27692E+06
        -0.33148E+06
         0.29417E+06
         0.56608E+06
         0.46753E+05
         0.11931E+06
        -0.23238E+07
        -0.77653E+06
        -0.14354E+07
         0.90149E+04
         0.12652E+07
         0.21617E+07
         0.17761E+07
         0.19166E+07
         0.14855E+07
         0.68268E+06
        -0.17014E+06
        -0.84636E+06
        -0.12785E+07
        -0.58987E+06
        -0.16644E+07
        -0.24633E+07
        -0.21068E+07
        -0.17444E+07
        -0.89102E+06
         0.28373E+06
         0.25637E+06
        -0.11256E+06
        -0.79393E+06
        -0.12804E+07
        -0.10350E+07
        -0.43811E+06
         0.58803E+06
         0.22956E+06
         0.32711E+06
         0.39907E+06
         0.95106E+05
         0.33217E+06
        -0.32239E+06
        -0.71947E+06
         0.75979E+06
        -0.84579E+06
        -0.72373E+06
        -0.95904E+05
        -0.21454E+06
        -0.23152E+07
        -0.78788E+06
        -0.37579E+06
         0.80877E+05
         0.48024E+06
        -0.13810E+06
        -0.15831E+06
        -0.11581E+07
        -0.73072E+06
        -0.16081E+07
        -0.56838E+06
        -0.93234E+06
        -0.30031E+06
        -0.29232E+07
        -0.16921E+07
        -0.10850E+07
        -0.96833E+06
        -0.29808E+06
        -0.36906E+06
         0.32227E+06
         0.72727E+06
        -0.94611E+06
        -0.61301E+06
        -0.39675E+06
        -0.10278E+07
        -0.65801E+06
        -0.48898E+06
        -0.83824E+06
        -0.13484E+07
        -0.12348E+07
        -0.13385E+07
        -0.95193E+06
        -0.44869E+06
        -0.30831E+06
        -0.37761E+06
         0.24819E+06
         0.53519E+06
         0.28862E+05
         0.11368E+06
        -0.23360E+07
        -0.78594E+06
        -0.14426E+07
         0.70465E+03
         0.12533E+07
         0.21473E+07
         0.17641E+07
         0.19063E+07
         0.14753E+07
         0.67504E+06
        -0.17625E+06
        -0.85378E+06
        -0.12798E+07
        -0.59169E+06
        -0.16695E+07
        -0.24662E+07
        -0.21125E+07
        -0.17651E+07
        -0.92168E+06
         0.24983E+06
         0.21838E+06
        -0.15951E+06
        -0.83504E+06
        -0.13022E+07
        -0.10467E+07
        -0.44741E+06
         0.57540E+06
         0.22051E+06
         0.32143E+06
         0.39425E+06
         0.89414E+05
         0.32731E+06
        -0.33192E+06
        -0.73186E+06
         0.74987E+06
        -0.86041E+06
        -0.73126E+06
        -0.10472E+06
        -0.22460E+06
        -0.23222E+07
        -0.79505E+06
        -0.38309E+06
         0.72896E+05
         0.47640E+06
        -0.14225E+06
        -0.16303E+06
        -0.11645E+07
        -0.73749E+06
        -0.16142E+07
        -0.57261E+06
        -0.94361E+06
        -0.30675E+06
        -0.29322E+07
        -0.16989E+07
        -0.10945E+07
        -0.97604E+06
        -0.31058E+06
        -0.37817E+06
         0.31541E+06
         0.72136E+06
        -0.95464E+06
        -0.61843E+06
        -0.40421E+06
        -0.10412E+07
        -0.66972E+06
        -0.50069E+06
        -0.85023E+06
        -0.13582E+07
        -0.12409E+07
        -0.13464E+07
        -0.96167E+06
        -0.45973E+06
        -0.31857E+06
        -0.38921E+06
         0.23687E+06
         0.52444E+06
         0.17859E+05
         0.10653E+06
        -0.23527E+07
        -0.80233E+06
        -0.14537E+07
        -0.10781E+05
         0.12394E+07
         0.21351E+07
         0.17516E+07
         0.18888E+07
         0.14524E+07
         0.65098E+06
        -0.19806E+06
        -0.86363E+06
        -0.12876E+07
        -0.60837E+06
        -0.16871E+07
        -0.24830E+07
        -0.21341E+07
        -0.17859E+07
        -0.93912E+06
         0.23564E+06
         0.20686E+06
        -0.17514E+06
        -0.85563E+06
        -0.13215E+07
        -0.10630E+07
        -0.46358E+06
         0.58322E+06
         0.22652E+06
         0.32581E+06
         0.39544E+06
         0.96690E+05
         0.32949E+06
        -0.32717E+06
        -0.72143E+06
         0.75704E+06
        -0.85075E+06
        -0.72523E+06
        -0.96058E+05
        -0.21847E+06
        -0.23102E+07
        -0.78087E+06
        -0.37511E+06
         0.78097E+05
         0.48118E+06
        -0.13439E+06
        -0.15591E+06
        -0.11553E+07
        -0.72909E+06
        -0.16052E+07
        -0.56516E+06
        -0.93739E+06
        -0.29981E+06
        -0.29197E+07
        -0.16895E+07
        -0.10898E+07
        -0.96931E+06
        -0.30450E+06
        -0.37282E+06
         0.32150E+06
         0.72336E+06
        -0.94564E+06
        -0.61157E+06
        -0.39813E+06
        -0.10321E+07
        -0.66284E+06
        -0.49471E+06
        -0.84214E+06
        -0.13498E+07
        -0.12319E+07
        -0.13382E+07
        -0.95478E+06
        -0.45254E+06
        -0.31161E+06
        -0.38146E+06
         0.24449E+06
         0.53039E+06
         0.22749E+05
         0.10875E+06
        -0.23277E+07
        -0.77771E+06
        -0.14389E+07
        -0.47657E+04
         0.12517E+07
         0.21541E+07
         0.17728E+07
         0.19039E+07
         0.14583E+07
         0.65997E+06
        -0.18194E+06
        -0.84073E+06
        -0.12677E+07
        -0.59542E+06
        -0.16750E+07
        -0.24689E+07
        -0.21197E+07
        -0.17682E+07
        -0.92223E+06
         0.25538E+06
         0.22729E+06
        -0.15695E+06
        -0.84028E+06
        -0.13079E+07
        -0.10495E+07
        -0.44901E+06
         0.58106E+06
         0.22592E+06
         0.32468E+06
         0.39214E+06
         0.95933E+05
         0.32712E+06
        -0.32927E+06
        -0.72416E+06
         0.75234E+06
        -0.85625E+06
        -0.72821E+06
        -0.10144E+06
        -0.22018E+06
        -0.23125E+07
        -0.78843E+06
        -0.37987E+06
         0.72496E+05
         0.47702E+06
        -0.13782E+06
        -0.15949E+06
        -0.11585E+07
        -0.73339E+06
        -0.16084E+07
        -0.56796E+06
        -0.94147E+06
        -0.30252E+06
        -0.29227E+07
        -0.16897E+07
        -0.10936E+07
        -0.97308E+06
        -0.30892E+06
        -0.37555E+06
         0.31856E+06
         0.71899E+06
        -0.94896E+06
        -0.61385E+06
        -0.39974E+06
        -0.10438E+07
        -0.66962E+06
        -0.50090E+06
        -0.84801E+06
        -0.13539E+07
        -0.12371E+07
        -0.13402E+07
        -0.95679E+06
        -0.45601E+06
        -0.31629E+06
        -0.38686E+06
         0.24009E+06
         0.52615E+06
         0.18521E+05
         0.10481E+06
        -0.23348E+07
        -0.78334E+06
        -0.14505E+07
        -0.14718E+05
         0.12504E+07
         0.21471E+07
         0.17564E+07
         0.18856E+07
         0.14478E+07
         0.64398E+06
        -0.19942E+06
        -0.84942E+06
        -0.12779E+07
        -0.60104E+06
        -0.16804E+07
        -0.24739E+07
        -0.21204E+07
        -0.17717E+07
        -0.92716E+06
         0.24202E+06
         0.21084E+06
        -0.16964E+06
        -0.84658E+06
        -0.13110E+07
        -0.10568E+07
        -0.45937E+06
         0.57519E+06
         0.22127E+06
         0.32142E+06
         0.39015E+06
         0.92090E+05
         0.32580E+06
        -0.33380E+06
        -0.72860E+06
         0.74810E+06
        -0.86175E+06
        -0.73163E+06
        -0.10856E+06
        -0.22487E+06
        -0.23138E+07
        -0.79617E+06
        -0.38624E+06
         0.67806E+05
         0.47485E+06
        -0.14204E+06
        -0.16207E+06
        -0.11627E+07
        -0.73777E+06
        -0.16133E+07
        -0.57232E+06
        -0.94548E+06
        -0.30757E+06
        -0.29249E+07
        -0.16909E+07
        -0.10976E+07
        -0.97592E+06
        -0.31494E+06
        -0.38009E+06
         0.31766E+06
         0.71821E+06
        -0.95651E+06
        -0.61804E+06
        -0.40368E+06
        -0.10551E+07
        -0.67714E+06
        -0.50637E+06
        -0.85139E+06
        -0.13574E+07
        -0.12419E+07
        -0.13444E+07
        -0.96063E+06
        -0.46071E+06
        -0.32064E+06
        -0.39156E+06
         0.23590E+06
         0.52242E+06
         0.14512E+05
         0.10327E+06
        -0.23493E+07
        -0.79531E+06
        -0.14593E+07
        -0.17738E+05
         0.12465E+07
         0.21329E+07
         0.17359E+07
         0.18691E+07
         0.14368E+07
         0.63248E+06
        -0.20656E+06
        -0.85800E+06
        -0.12903E+07
        -0.60941E+06
        -0.16893E+07
        -0.24842E+07
        -0.21271E+07
        -0.17797E+07
        -0.93697E+06
         0.23100E+06
         0.19837E+06
        -0.18263E+06
        -0.85577E+06
        -0.13198E+07
        -0.10679E+07
        -0.47115E+06
         0.57883E+06
         0.22310E+06
         0.32305E+06
         0.39251E+06
         0.97180E+05
         0.33037E+06
        -0.33113E+06
        -0.72111E+06
         0.75164E+06
        -0.85754E+06
        -0.72594E+06
        -0.10267E+06
        -0.22314E+06
        -0.23025E+07
        -0.78301E+06
        -0.38205E+06
         0.69131E+05
         0.47960E+06
        -0.13730E+06
        -0.15630E+06
        -0.11553E+07
        -0.73025E+06
        -0.16072E+07
        -0.56775E+06
        -0.94310E+06
        -0.30320E+06
        -0.29170E+07
        -0.16847E+07
        -0.10922E+07
        -0.96853E+06
        -0.31029E+06
        -0.37642E+06
         0.32464E+06
         0.72311E+06
        -0.95108E+06
        -0.61353E+06
        -0.40104E+06
        -0.10479E+07
        -0.67030E+06
        -0.49735E+06
        -0.84236E+06
        -0.13511E+07
        -0.12347E+07
        -0.13392E+07
        -0.95631E+06
        -0.45668E+06
        -0.31634E+06
        -0.38693E+06
         0.24095E+06
         0.52748E+06
         0.19637E+05
         0.10876E+06
        -0.23310E+07
        -0.77546E+06
        -0.14406E+07
        -0.86181E+04
         0.12436E+07
         0.21338E+07
         0.17506E+07
         0.18853E+07
         0.14479E+07
         0.64919E+06
        -0.19072E+06
        -0.85046E+06
        -0.12769E+07
        -0.59585E+06
        -0.16770E+07
        -0.24748E+07
        -0.21206E+07
        -0.17716E+07
        -0.92927E+06
         0.24287E+06
         0.21248E+06
        -0.16910E+06
        -0.84390E+06
        -0.13098E+07
        -0.10533E+07
        -0.45404E+06
         0.57605E+06
         0.21936E+06
         0.31989E+06
         0.38883E+06
         0.93262E+05
         0.32679E+06
        -0.33659E+06
        -0.72505E+06
         0.74833E+06
        -0.86435E+06
        -0.73105E+06
        -0.11149E+06
        -0.23240E+06
        -0.23062E+07
        -0.78843E+06
        -0.38732E+06
         0.63446E+05
         0.47514E+06
        -0.14247E+06
        -0.16058E+06
        -0.11630E+07
        -0.73820E+06
        -0.16155E+07
        -0.57279E+06
        -0.95020E+06
        -0.30764E+06
        -0.29247E+07
        -0.16911E+07
        -0.10997E+07
        -0.97334E+06
        -0.31596E+06
        -0.38069E+06
         0.32070E+06
         0.71917E+06
        -0.95830E+06
        -0.61849E+06
        -0.40764E+06
        -0.10602E+07
        -0.68210E+06
        -0.50755E+06
        -0.85357E+06
        -0.13618E+07
        -0.12428E+07
        -0.13480E+07
        -0.96367E+06
        -0.46354E+06
        -0.32263E+06
        -0.39420E+06
         0.23551E+06
         0.52330E+06
         0.14247E+05
         0.10422E+06
        -0.23452E+07
        -0.78772E+06
        -0.14545E+07
        -0.24877E+05
         0.12247E+07
         0.21157E+07
         0.17395E+07
         0.18709E+07
         0.14293E+07
         0.63069E+06
        -0.21329E+06
        -0.87273E+06
        -0.12917E+07
        -0.61113E+06
        -0.16903E+07
        -0.24899E+07
        -0.21439E+07
        -0.17925E+07
        -0.93967E+06
         0.22832E+06
         0.19760E+06
        -0.17674E+06
        -0.84897E+06
        -0.13208E+07
        -0.10683E+07
        -0.46904E+06
         0.57546E+06
         0.21808E+06
         0.31895E+06
         0.38753E+06
         0.93263E+05
         0.32615E+06
        -0.33841E+06
        -0.72460E+06
         0.74901E+06
        -0.86433E+06
        -0.73153E+06
        -0.11278E+06
        -0.23407E+06
        -0.23032E+07
        -0.78772E+06
        -0.38885E+06
         0.62392E+05
         0.47460E+06
        -0.14296E+06
        -0.16056E+06
        -0.11645E+07
        -0.73937E+06
        -0.16173E+07
        -0.57376E+06
        -0.95184E+06
        -0.30897E+06
        -0.29233E+07
        -0.16915E+07
        -0.11030E+07
        -0.97463E+06
        -0.31933E+06
        -0.38233E+06
         0.32015E+06
         0.71836E+06
        -0.96024E+06
        -0.61985E+06
        -0.40951E+06
        -0.10662E+07
        -0.68905E+06
        -0.51197E+06
        -0.85487E+06
        -0.13631E+07
        -0.12440E+07
        -0.13492E+07
        -0.96473E+06
        -0.46512E+06
        -0.32453E+06
        -0.39716E+06
         0.23345E+06
         0.52239E+06
         0.13361E+05
         0.10342E+06
        -0.23455E+07
        -0.78737E+06
        -0.14582E+07
        -0.31144E+05
         0.12244E+07
         0.21153E+07
         0.17350E+07
         0.18589E+07
         0.14159E+07
         0.62330E+06
        -0.21401E+06
        -0.87490E+06
        -0.12954E+07
        -0.61705E+06
        -0.16972E+07
        -0.24949E+07
        -0.21470E+07
        -0.17953E+07
        -0.94256E+06
         0.22306E+06
         0.19108E+06
        -0.18092E+06
        -0.84924E+06
        -0.13221E+07
        -0.10750E+07
        -0.47516E+06
         0.58719E+06
         0.22957E+06
         0.32849E+06
         0.39406E+06
         0.10715E+06
         0.33601E+06
        -0.32708E+06
        -0.70974E+06
         0.75750E+06
        -0.85324E+06
        -0.71848E+06
        -0.93920E+05
        -0.21801E+06
        -0.22857E+07
        -0.76824E+06
        -0.37903E+06
         0.69940E+05
         0.48302E+06
        -0.13260E+06
        -0.14910E+06
        -0.11484E+07
        -0.72455E+06
        -0.16024E+07
        -0.56383E+06
        -0.94075E+06
        -0.29916E+06
        -0.29075E+07
        -0.16760E+07
        -0.10907E+07
        -0.96068E+06
        -0.30916E+06
        -0.37215E+06
         0.32995E+06
         0.72490E+06
        -0.94513E+06
        -0.60738E+06
        -0.39634E+06
        -0.10546E+07
        -0.67502E+06
        -0.49693E+06
        -0.83971E+06
        -0.13483E+07
        -0.12305E+07
        -0.13339E+07
        -0.94948E+06
        -0.44940E+06
        -0.31113E+06
        -0.38515E+06
         0.24353E+06
         0.53154E+06
         0.23882E+05
         0.11269E+06
        -0.23123E+07
        -0.75425E+06
        -0.14303E+07
        -0.10983E+05
         0.12491E+07
         0.21466E+07
         0.17611E+07
         0.18787E+07
         0.14383E+07
         0.64775E+06
        -0.19199E+06
        -0.84908E+06
        -0.12750E+07
        -0.59437E+06
        -0.16714E+07
        -0.24680E+07
        -0.21165E+07
        -0.17625E+07
        -0.91437E+06
         0.25243E+06
         0.21617E+06
        -0.16229E+06
        -0.82853E+06
        -0.12976E+07
        -0.10484E+07
        -0.44843E+06
         0.58213E+06
         0.22619E+06
         0.32555E+06
         0.38958E+06
         0.10209E+06
         0.33229E+06
        -0.33207E+06
        -0.71509E+06
         0.75256E+06
        -0.86181E+06
        -0.72353E+06
        -0.10072E+06
        -0.22222E+06
        -0.22898E+07
        -0.77617E+06
        -0.38563E+06
         0.63091E+05
         0.47946E+06
        -0.13945E+06
        -0.15447E+06
        -0.11535E+07
        -0.73180E+06
        -0.16075E+07
        -0.56990E+06
        -0.94892E+06
        -0.30540E+06
        -0.29144E+07
        -0.16803E+07
        -0.10936E+07
        -0.96416E+06
        -0.31350E+06
        -0.37702E+06
         0.32776E+06
         0.72011E+06
        -0.95434E+06
        -0.61183E+06
        -0.39946E+06
        -0.10685E+07
        -0.68473E+06
        -0.50171E+06
        -0.84679E+06
        -0.13567E+07
        -0.12398E+07
        -0.13403E+07
        -0.95583E+06
        -0.45586E+06
        -0.31633E+06
        -0.38930E+06
         0.23899E+06
         0.52528E+06
         0.17389E+05
         0.10802E+06
        -0.23333E+07
        -0.77197E+06
        -0.14464E+07
        -0.19571E+05
         0.12463E+07
         0.21385E+07
         0.17432E+07
         0.18572E+07
         0.14176E+07
         0.62933E+06
        -0.21374E+06
        -0.87397E+06
        -0.12926E+07
        -0.60308E+06
        -0.16756E+07
        -0.24706E+07
        -0.21249E+07
        -0.17773E+07
        -0.92528E+06
         0.23934E+06
         0.20427E+06
        -0.17572E+06
        -0.84280E+06
        -0.13066E+07
        -0.10570E+07
        -0.46261E+06
         0.57374E+06
         0.21768E+06
         0.31748E+06
         0.38367E+06
         0.93661E+05
         0.32480E+06
        -0.33967E+06
        -0.72161E+06
         0.74527E+06
        -0.87721E+06
        -0.72975E+06
        -0.11168E+06
        -0.23128E+06
        -0.22939E+07
        -0.78630E+06
        -0.39359E+06
         0.53313E+05
         0.47525E+06
        -0.14506E+06
        -0.15681E+06
        -0.11598E+07
        -0.74028E+06
        -0.16137E+07
        -0.57512E+06
        -0.96268E+06
        -0.31154E+06
        -0.29302E+07
        -0.16876E+07
        -0.10788E+07
        -0.95430E+06
        -0.32075E+06
        -0.38391E+06
         0.32559E+06
         0.71680E+06
        -0.96467E+06
        -0.61939E+06
        -0.40722E+06
        -0.10888E+07
        -0.69430E+06
        -0.48787E+06
        -0.84746E+06
        -0.13657E+07
        -0.12522E+07
        -0.13473E+07
        -0.96401E+06
        -0.46626E+06
        -0.32553E+06
        -0.39658E+06
         0.23372E+06
         0.52024E+06
         0.11664E+05
         0.10219E+06
        -0.23474E+07
        -0.78485E+06
        -0.14574E+07
        -0.29238E+05
         0.12329E+07
         0.21165E+07
         0.17181E+07
         0.18332E+07
         0.13968E+07
         0.62453E+06
        -0.25171E+06
        -0.93366E+06
        -0.13173E+07
        -0.61677E+06
        -0.16879E+07
        -0.24817E+07
        -0.21384E+07
        -0.17928E+07
        -0.94327E+06
         0.21887E+06
         0.19059E+06
        -0.18856E+06
        -0.85735E+06
        -0.13174E+07
        -0.10737E+07
        -0.48148E+06
         0.58490E+06
         0.22823E+06
         0.32784E+06
         0.39166E+06
         0.10838E+06
         0.33541E+06
        -0.32988E+06
        -0.70697E+06
         0.75128E+06
        -0.87953E+06
        -0.71801E+06
        -0.97610E+05
        -0.21944E+06
        -0.22773E+07
        -0.76885E+06
        -0.38365E+06
         0.58095E+05
         0.48318E+06
        -0.13311E+06
        -0.13829E+06
        -0.11465E+07
        -0.72733E+06
        -0.16018E+07
        -0.56440E+06
        -0.96067E+06
        -0.30085E+06
        -0.29328E+07
        -0.16777E+07
        -0.10291E+07
        -0.91057E+06
        -0.31219E+06
        -0.37356E+06
         0.33519E+06
         0.72548E+06
        -0.94845E+06
        -0.60552E+06
        -0.39478E+06
        -0.10880E+07
        -0.67813E+06
        -0.43428E+06
        -0.81823E+06
        -0.13507E+07
        -0.12443E+07
        -0.13340E+07
        -0.94909E+06
        -0.44879E+06
        -0.31156E+06
        -0.38561E+06
         0.24476E+06
         0.53270E+06
         0.25616E+05
         0.11309E+06
        -0.23132E+07
        -0.75120E+06
        -0.14229E+07
        -0.52204E+04
         0.12483E+07
         0.21342E+07
         0.17426E+07
         0.18579E+07
         0.14242E+07
         0.67772E+06
        -0.26400E+06
        -0.98169E+06
        -0.13155E+07
        -0.59797E+06
        -0.16722E+07
        -0.24685E+07
        -0.21219E+07
        -0.17654E+07
        -0.90959E+06
         0.25029E+06
         0.21780E+06
        -0.16057E+06
        -0.82565E+06
        -0.12882E+07
        -0.10501E+07
        -0.45673E+06
         0.54276E+06
         0.18914E+06
         0.29058E+06
         0.35814E+06
         0.58465E+05
         0.29157E+06
        -0.37024E+06
        -0.75528E+06
         0.70996E+06
        -0.93993E+06
        -0.76179E+06
        -0.16504E+06
        -0.28141E+06
        -0.23271E+07
        -0.83732E+06
        -0.42412E+06
         0.16575E+05
         0.45016E+06
        -0.17318E+06
        -0.17511E+06
        -0.12041E+07
        -0.78375E+06
        -0.16574E+07
        -0.60239E+06
        -0.10142E+07
        -0.33692E+06
        -0.29946E+07
        -0.17223E+07
        -0.10513E+07
        -0.94069E+06
        -0.35101E+06
        -0.41083E+06
         0.30181E+06
         0.68846E+06
        -0.10095E+07
        -0.65500E+06
        -0.44895E+06
        -0.11667E+07
        -0.73919E+06
        -0.47015E+06
        -0.87559E+06
        -0.14125E+07
        -0.13061E+07
        -0.13872E+07
        -0.10039E+07
        -0.51394E+06
        -0.36507E+06
        -0.43302E+06
         0.20079E+06
         0.48306E+06
        -0.35949E+05
         0.62329E+05
        -0.24321E+07
        -0.86661E+06
        -0.15430E+07
        -0.12758E+06
         0.11263E+07
         0.20166E+07
         0.16230E+07
         0.17296E+07
         0.13041E+07
         0.56823E+06
        -0.41654E+06
        -0.11477E+07
        -0.14328E+07
        -0.69522E+06
        -0.17744E+07
        -0.25748E+07
        -0.22315E+07
        -0.18882E+07
        -0.10357E+07
         0.12928E+06
         0.10578E+06
        -0.26780E+06
        -0.93537E+06
        -0.14010E+07
        -0.11585E+07
        -0.56449E+06
         0.56671E+06
         0.19177E+06
         0.29755E+06
         0.37054E+06
         0.75905E+05
         0.30656E+06
        -0.36569E+06
        -0.72461E+06
         0.73764E+06
        -0.89598E+06
        -0.74940E+06
        -0.16387E+06
        -0.29739E+06
        -0.22909E+07
        -0.80596E+06
        -0.39374E+06
         0.41534E+05
         0.46883E+06
        -0.15152E+06
        -0.15259E+06
        -0.11776E+07
        -0.76430E+06
        -0.16175E+07
        -0.57400E+06
        -0.96920E+06
        -0.31053E+06
        -0.29418E+07
        -0.16698E+07
        -0.10101E+07
        -0.89646E+06
        -0.32830E+06
        -0.39429E+06
         0.31341E+06
         0.68305E+06
        -0.10006E+07
        -0.65849E+06
        -0.46420E+06
        -0.11308E+07
        -0.69648E+06
        -0.43315E+06
        -0.84971E+06
        -0.13780E+07
        -0.12692E+07
        -0.13506E+07
        -0.98347E+06
        -0.50386E+06
        -0.35683E+06
        -0.41302E+06
         0.21566E+06
         0.48388E+06
        -0.31832E+05
         0.63721E+05
        -0.23863E+07
        -0.80700E+06
        -0.15278E+07
        -0.15398E+06
         0.10716E+07
         0.19831E+07
         0.16777E+07
         0.17857E+07
         0.13488E+07
         0.59482E+06
        -0.40909E+06
        -0.11249E+07
        -0.13885E+07
        -0.67326E+06
        -0.17281E+07
        -0.25085E+07
        -0.21749E+07
        -0.18449E+07
        -0.10169E+07
         0.12709E+06
         0.13077E+06
        -0.23215E+06
        -0.87863E+06
        -0.13323E+07
        -0.11044E+07
        -0.50851E+06
         0.16586E+09
         0.15737E+09
         0.15457E+09
         0.12803E+09
         0.19896E+09
         0.17498E+09
         0.15046E+09
         0.18818E+09
         0.15032E+09
         0.18793E+09
         0.18071E+09
         0.25795E+09
         0.22586E+09
         0.20158E+09
         0.26613E+09
         0.15020E+09
         0.14059E+09
         0.12114E+09
         0.15575E+09
         0.15045E+09
         0.20729E+09
         0.20798E+09
         0.19658E+09
         0.13718E+09
         0.17564E+09
         0.13165E+09
         0.19858E+09
         0.16485E+09
         0.16564E+09
         0.18330E+09
         0.14709E+09
         0.13609E+09
         0.12788E+09
         0.13327E+09
         0.22794E+09
         0.19025E+09
         0.19828E+09
         0.24844E+09
         0.23390E+09
         0.22826E+09
         0.24263E+09
         0.22660E+09
         0.21477E+09
         0.18766E+09
         0.19339E+09
         0.23159E+09
         0.19913E+09
         0.18043E+09
         0.16974E+09
         0.18229E+09
         0.21675E+09
         0.18693E+09
         0.43334E+09
         0.42469E+09
         0.43289E+09
         0.41937E+09
         0.43323E+09
         0.45503E+09
         0.45681E+09
         0.45125E+09
         0.45460E+09
         0.46733E+09
         0.45251E+09
         0.42616E+09
         0.37705E+09
         0.35569E+09
         0.36133E+09
         0.37011E+09
         0.37533E+09
         0.40958E+09
         0.43897E+09
         0.44128E+09
         0.40423E+09
         0.38962E+09
         0.40363E+09
         0.39879E+09
         0.39588E+09
         0.39667E+09
         0.19799E+10
         0.20726E+10
         0.20424E+10
         0.18614E+10
         0.22977E+10
         0.21562E+10
         0.22427E+10
         0.22627E+10
         0.19339E+10
         0.22614E+10
         0.24645E+10
         0.27677E+10
         0.25073E+10
         0.25369E+10
         0.28648E+10
         0.18951E+10
         0.20367E+10
         0.17744E+10
         0.21043E+10
         0.22144E+10
         0.22961E+10
         0.23460E+10
         0.22032E+10
         0.20228E+10
         0.22866E+10
         0.19508E+10
         0.25277E+10
         0.24837E+10
         0.24952E+10
         0.23680E+10
         0.19151E+10
         0.20138E+10
         0.18763E+10
         0.19631E+10
         0.25176E+10
         0.23074E+10
         0.23160E+10
         0.27729E+10
         0.27005E+10
         0.26677E+10
         0.27165E+10
         0.25790E+10
         0.24389E+10
         0.21498E+10
         0.22383E+10
         0.25172E+10
         0.23254E+10
         0.21854E+10
         0.21412E+10
         0.22210E+10
         0.24141E+10
         0.22279E+10
         0.39987E+10
         0.38969E+10
         0.39783E+10
         0.38546E+10
         0.39692E+10
         0.41722E+10
         0.42388E+10
         0.42289E+10
         0.42583E+10
         0.43554E+10
         0.42298E+10
         0.39780E+10
         0.35669E+10
         0.33717E+10
         0.33815E+10
         0.34251E+10
         0.34586E+10
         0.37497E+10
         0.40163E+10
         0.40328E+10
         0.37335E+10
         0.36183E+10
         0.37376E+10
         0.37106E+10
         0.36687E+10
         0.36584E+10
  
SCALARS                      stress_yy  double 1
LOOKUP_TABLE default
         0.27054E+12
         0.26628E+12
         0.26898E+12
         0.27382E+12
        -0.10409E+03
        -0.11673E+03
        -0.11177E+03
        -0.10154E+03
         0.26613E+12
         0.26757E+12
        -0.10497E+03
        -0.10158E+03
         0.26011E+12
         0.25988E+12
        -0.12472E+03
        -0.11727E+03
         0.27311E+12
         0.26022E+12
        -0.92156E+02
        -0.10221E+03
         0.25548E+12
         0.25180E+12
         0.25765E+12
        -0.12361E+03
        -0.10795E+03
        -0.11147E+03
         0.25194E+12
         0.24657E+12
        -0.11859E+03
        -0.10001E+03
         0.27288E+12
         0.26727E+12
         0.27831E+12
        -0.10120E+03
        -0.94079E+02
        -0.91469E+02
         0.26963E+12
         0.26249E+12
        -0.10706E+03
        -0.97696E+02
         0.26680E+12
         0.26129E+12
        -0.92533E+02
        -0.81918E+02
         0.27147E+12
         0.27354E+12
        -0.10140E+03
        -0.11330E+03
         0.25686E+12
        -0.99063E+02
         0.27314E+12
        -0.11640E+03
         0.25039E+12
        -0.10461E+03
         0.24870E+12
        -0.10035E+03
         0.24873E+12
         0.25473E+12
        -0.10224E+03
        -0.99571E+02
         0.27276E+12
         0.27061E+12
        -0.10252E+03
        -0.11590E+03
         0.27411E+12
        -0.98926E+02
         0.27155E+12
        -0.10797E+03
         0.26480E+12
         0.26413E+12
        -0.10393E+03
        -0.10890E+03
         0.26260E+12
        -0.10981E+03
         0.24466E+12
        -0.86758E+02
         0.24371E+12
        -0.84212E+02
         0.24418E+12
        -0.88794E+02
         0.24678E+12
         0.24949E+12
        -0.84600E+02
        -0.88201E+02
         0.25493E+12
        -0.82147E+02
         0.27136E+12
        -0.10772E+03
         0.26880E+12
        -0.11025E+03
         0.26669E+12
         0.26554E+12
        -0.10588E+03
        -0.10711E+03
         0.26696E+12
        -0.97292E+02
         0.26797E+12
        -0.95903E+02
         0.26706E+12
        -0.10267E+03
         0.26674E+12
         0.26766E+12
        -0.10068E+03
        -0.10363E+03
         0.26166E+12
         0.26409E+12
        -0.78167E+02
        -0.73521E+02
         0.26120E+12
        -0.74640E+02
         0.26401E+12
        -0.71567E+02
         0.26124E+12
        -0.70570E+02
         0.25510E+12
        -0.66689E+02
         0.24914E+12
        -0.59246E+02
         0.24558E+12
        -0.53348E+02
         0.24521E+12
        -0.52977E+02
         0.24532E+12
        -0.57451E+02
         0.24919E+12
        -0.60379E+02
         0.25642E+12
        -0.55132E+02
         0.26435E+12
        -0.49696E+02
         0.26900E+12
        -0.49639E+02
         0.27359E+12
        -0.55485E+02
         0.27662E+12
        -0.63265E+02
         0.27651E+12
        -0.67966E+02
         0.26914E+12
        -0.73403E+02
         0.26401E+12
        -0.78640E+02
         0.26225E+12
        -0.72040E+02
         0.26500E+12
        -0.63199E+02
         0.26643E+12
        -0.63003E+02
         0.26403E+12
        -0.68933E+02
         0.26406E+12
        -0.73488E+02
         0.26588E+12
        -0.69739E+02
         0.26825E+12
        -0.67421E+02
        -0.30426E+11
        -0.30652E+11
        -0.30622E+11
        -0.30324E+11
        -0.30854E+11
        -0.30597E+11
        -0.30912E+11
        -0.30752E+11
        -0.30373E+11
        -0.30615E+11
        -0.31073E+11
        -0.31119E+11
        -0.30992E+11
        -0.30983E+11
        -0.31067E+11
        -0.30339E+11
        -0.30396E+11
        -0.30233E+11
        -0.30675E+11
        -0.30599E+11
        -0.30707E+11
        -0.30636E+11
        -0.30766E+11
        -0.30733E+11
        -0.30606E+11
        -0.30615E+11
        -0.30828E+11
        -0.30810E+11
        -0.30959E+11
        -0.30730E+11
        -0.30367E+11
        -0.30655E+11
        -0.30370E+11
        -0.30561E+11
        -0.31151E+11
        -0.30977E+11
        -0.30889E+11
        -0.30992E+11
        -0.31005E+11
        -0.31163E+11
        -0.31270E+11
        -0.30998E+11
        -0.30703E+11
        -0.30745E+11
        -0.30898E+11
        -0.31145E+11
        -0.30936E+11
        -0.30690E+11
        -0.30708E+11
        -0.30899E+11
        -0.31080E+11
        -0.30832E+11
        -0.31506E+11
        -0.31332E+11
        -0.31362E+11
        -0.31320E+11
        -0.31331E+11
        -0.31427E+11
        -0.31520E+11
        -0.31549E+11
        -0.31537E+11
        -0.31546E+11
        -0.31583E+11
        -0.31340E+11
        -0.31239E+11
        -0.31198E+11
        -0.31127E+11
        -0.31071E+11
        -0.31074E+11
        -0.31168E+11
        -0.31450E+11
        -0.31387E+11
        -0.31291E+11
        -0.31292E+11
        -0.31310E+11
        -0.31400E+11
        -0.31265E+11
        -0.31212E+11
         0.65414E+05
        -0.25392E+06
        -0.10910E+06
         0.67598E+06
         0.17796E+06
         0.76098E+06
        -0.31713E+06
        -0.11389E+07
         0.39395E+06
        -0.11713E+07
        -0.10682E+07
        -0.10317E+07
        -0.33261E+06
        -0.16475E+07
        -0.15092E+07
         0.89966E+05
         0.43236E+06
         0.57504E+06
        -0.41626E+06
         0.75375E+05
        -0.17819E+06
         0.27211E+06
        -0.42892E+06
        -0.17269E+06
        -0.11456E+07
        -0.10175E+06
        -0.21831E+07
        -0.15518E+07
        -0.80942E+06
        -0.10162E+07
        -0.15173E+05
        -0.35580E+05
         0.47305E+06
         0.83172E+06
         0.38591E+05
        -0.59253E+05
        -0.59359E+05
        -0.14481E+07
        -0.14620E+07
        -0.10636E+07
        -0.18016E+06
        -0.18962E+06
        -0.14949E+06
        -0.52660E+06
        -0.62090E+06
        -0.10727E+07
        -0.50525E+06
        -0.12550E+06
        -0.23486E+06
        -0.52032E+05
         0.30520E+06
         0.92076E+06
        -0.10300E+07
         0.43343E+06
        -0.84716E+06
         0.44206E+05
         0.65619E+06
         0.10400E+07
         0.56190E+06
         0.83355E+06
         0.48931E+06
         0.21484E+05
         0.43388E+06
         0.57701E+06
         0.14037E+06
         0.74469E+06
        -0.27763E+06
        -0.11140E+07
        -0.12667E+07
        -0.14755E+07
        -0.17026E+07
        -0.88622E+06
        -0.75718E+06
        -0.10903E+07
        -0.14872E+07
        -0.97893E+06
         0.66997E+05
         0.68013E+06
         0.20487E+05
        -0.29542E+06
        -0.14945E+06
         0.64167E+06
         0.12376E+06
         0.71390E+06
        -0.35903E+06
        -0.11919E+07
         0.35069E+06
        -0.12295E+07
        -0.11153E+07
        -0.11040E+07
        -0.39437E+06
        -0.17000E+07
        -0.15821E+07
         0.44425E+05
         0.38823E+06
         0.54148E+06
        -0.46173E+06
         0.28936E+05
        -0.24009E+06
         0.21231E+06
        -0.49184E+06
        -0.21806E+06
        -0.12037E+07
        -0.14488E+06
        -0.22342E+07
        -0.15988E+07
        -0.85919E+06
        -0.10756E+07
        -0.57331E+05
        -0.76477E+05
         0.43766E+06
         0.79697E+06
        -0.23645E+05
        -0.10993E+06
        -0.11250E+06
        -0.15205E+07
        -0.15287E+07
        -0.11282E+07
        -0.25135E+06
        -0.25857E+06
        -0.21535E+06
        -0.58658E+06
        -0.67693E+06
        -0.11361E+07
        -0.56081E+06
        -0.17604E+06
        -0.27894E+06
        -0.98030E+05
         0.24773E+06
         0.87060E+06
        -0.11492E+07
         0.31702E+06
        -0.96194E+06
        -0.65524E+05
         0.53997E+06
         0.91064E+06
         0.43281E+06
         0.70318E+06
         0.35733E+06
        -0.11345E+06
         0.29968E+06
         0.45286E+06
         0.36964E+05
         0.64810E+06
        -0.37886E+06
        -0.12223E+07
        -0.13775E+07
        -0.15912E+07
        -0.18188E+07
        -0.10090E+07
        -0.87304E+06
        -0.11949E+07
        -0.15921E+07
        -0.10860E+07
        -0.41237E+05
         0.56999E+06
         0.31037E+05
        -0.28730E+06
        -0.14101E+06
         0.65025E+06
         0.13750E+06
         0.72608E+06
        -0.35084E+06
        -0.11816E+07
         0.35743E+06
        -0.12297E+07
        -0.11063E+07
        -0.10901E+07
        -0.38251E+06
        -0.16860E+07
        -0.15652E+07
         0.35387E+05
         0.38547E+06
         0.55061E+06
        -0.47320E+06
         0.20273E+05
        -0.25061E+06
         0.20837E+06
        -0.53312E+06
        -0.25077E+06
        -0.12304E+07
        -0.17504E+06
        -0.22244E+07
        -0.16050E+07
        -0.87899E+06
        -0.11175E+07
        -0.57054E+05
        -0.85661E+05
         0.44645E+06
         0.80800E+06
        -0.73192E+04
        -0.97371E+05
        -0.10079E+06
        -0.15087E+07
        -0.15191E+07
        -0.11249E+07
        -0.25328E+06
        -0.28358E+06
        -0.25088E+06
        -0.62684E+06
        -0.68666E+06
        -0.11275E+07
        -0.55085E+06
        -0.16420E+06
        -0.26630E+06
        -0.83265E+05
         0.26401E+06
         0.88466E+06
        -0.11136E+07
         0.34884E+06
        -0.92677E+06
        -0.38337E+05
         0.56008E+06
         0.93082E+06
         0.45856E+06
         0.72902E+06
         0.38328E+06
        -0.86455E+05
         0.31562E+06
         0.45222E+06
         0.38640E+05
         0.66583E+06
        -0.36704E+06
        -0.12443E+07
        -0.14015E+07
        -0.15851E+07
        -0.17870E+07
        -0.97202E+06
        -0.84013E+06
        -0.11616E+07
        -0.15548E+07
        -0.10544E+07
        -0.15438E+05
         0.59494E+06
         0.24656E+05
        -0.29085E+06
        -0.14449E+06
         0.64440E+06
         0.13205E+06
         0.72170E+06
        -0.35476E+06
        -0.11898E+07
         0.34463E+06
        -0.12561E+07
        -0.11116E+07
        -0.10974E+07
        -0.38739E+06
        -0.16914E+07
        -0.15749E+07
        -0.81967E+03
         0.35927E+06
         0.54465E+06
        -0.51304E+06
        -0.18771E+05
        -0.29767E+06
         0.16704E+06
        -0.62919E+06
        -0.32396E+06
        -0.12988E+07
        -0.24389E+06
        -0.22384E+07
        -0.16431E+07
        -0.94016E+06
        -0.12161E+07
        -0.77380E+05
        -0.12244E+06
         0.44052E+06
         0.80211E+06
        -0.15280E+05
        -0.10262E+06
        -0.10507E+06
        -0.15225E+07
        -0.15362E+07
        -0.11544E+07
        -0.29372E+06
        -0.36165E+06
        -0.34696E+06
        -0.72155E+06
        -0.73318E+06
        -0.11531E+07
        -0.56882E+06
        -0.17329E+06
        -0.27340E+06
        -0.91576E+05
         0.25533E+06
         0.87908E+06
        -0.11302E+07
         0.33731E+06
        -0.94506E+06
        -0.54168E+05
         0.54934E+06
         0.91863E+06
         0.43808E+06
         0.70688E+06
         0.36168E+06
        -0.11259E+06
         0.27428E+06
         0.38539E+06
        -0.24040E+05
         0.63607E+06
        -0.40044E+06
        -0.13364E+07
        -0.14993E+07
        -0.16309E+07
        -0.18088E+07
        -0.99269E+06
        -0.85597E+06
        -0.11803E+07
        -0.15744E+07
        -0.10674E+07
        -0.25275E+05
         0.58520E+06
         0.13039E+05
        -0.29801E+06
        -0.15046E+06
         0.63838E+06
         0.12585E+06
         0.71576E+06
        -0.36065E+06
        -0.12024E+07
         0.32936E+06
        -0.12835E+07
        -0.11173E+07
        -0.11020E+07
        -0.39283E+06
        -0.16974E+07
        -0.15800E+07
        -0.25262E+05
         0.33842E+06
         0.53912E+06
        -0.53942E+06
        -0.46826E+05
        -0.32810E+06
         0.13734E+06
        -0.68824E+06
        -0.36924E+06
        -0.13489E+07
        -0.28782E+06
        -0.22507E+07
        -0.16705E+07
        -0.98213E+06
        -0.12820E+07
        -0.98587E+05
        -0.14905E+06
         0.42945E+06
         0.79400E+06
        -0.23508E+05
        -0.10929E+06
        -0.11150E+06
        -0.15330E+07
        -0.15506E+07
        -0.11770E+07
        -0.32235E+06
        -0.41408E+06
        -0.41000E+06
        -0.78196E+06
        -0.76404E+06
        -0.11700E+07
        -0.58480E+06
        -0.18811E+06
        -0.28611E+06
        -0.10409E+06
         0.24179E+06
         0.87009E+06
        -0.11451E+07
         0.32725E+06
        -0.96066E+06
        -0.66487E+05
         0.54429E+06
         0.91509E+06
         0.42939E+06
         0.69231E+06
         0.34332E+06
        -0.12876E+06
         0.24911E+06
         0.33913E+06
        -0.66774E+05
         0.61306E+06
        -0.42402E+06
        -0.13961E+07
        -0.15681E+07
        -0.16637E+07
        -0.18188E+07
        -0.10115E+07
        -0.87693E+06
        -0.12017E+07
        -0.15995E+07
        -0.10887E+07
        -0.38352E+05
         0.57549E+06
        -0.15117E+05
        -0.31170E+06
        -0.15637E+06
         0.64257E+06
         0.13277E+06
         0.72414E+06
        -0.36482E+06
        -0.12233E+07
         0.30807E+06
        -0.13195E+07
        -0.11138E+07
        -0.10857E+07
        -0.38658E+06
        -0.16943E+07
        -0.15605E+07
        -0.20648E+05
         0.33315E+06
         0.54847E+06
        -0.53453E+06
        -0.42489E+05
        -0.31974E+06
         0.14771E+06
        -0.68699E+06
        -0.36999E+06
        -0.13719E+07
        -0.29367E+06
        -0.22536E+07
        -0.16737E+07
        -0.97917E+06
        -0.12853E+07
        -0.12398E+06
        -0.16294E+06
         0.41128E+06
         0.79178E+06
        -0.16280E+05
        -0.10878E+06
        -0.11274E+06
        -0.15209E+07
        -0.15408E+07
        -0.11654E+07
        -0.30875E+06
        -0.40567E+06
        -0.40335E+06
        -0.78625E+06
        -0.76835E+06
        -0.11730E+07
        -0.59868E+06
        -0.21837E+06
        -0.31797E+06
        -0.12127E+06
         0.23734E+06
         0.87420E+06
        -0.11158E+07
         0.35737E+06
        -0.93623E+06
        -0.50015E+05
         0.56152E+06
         0.93871E+06
         0.45615E+06
         0.71803E+06
         0.37257E+06
        -0.89962E+05
         0.28303E+06
         0.35951E+06
        -0.44213E+05
         0.63651E+06
        -0.40128E+06
        -0.13781E+07
        -0.15552E+07
        -0.16508E+07
        -0.18031E+07
        -0.10005E+07
        -0.87940E+06
        -0.12166E+07
        -0.16095E+07
        -0.10836E+07
        -0.23518E+05
         0.59673E+06
        -0.58008E+05
        -0.33583E+06
        -0.17038E+06
         0.63870E+06
         0.12663E+06
         0.72325E+06
        -0.38184E+06
        -0.12627E+07
         0.27241E+06
        -0.13715E+07
        -0.11257E+07
        -0.10917E+07
        -0.39655E+06
        -0.17105E+07
        -0.15657E+07
        -0.27907E+05
         0.31591E+06
         0.54684E+06
        -0.53952E+06
        -0.48821E+05
        -0.32432E+06
         0.14474E+06
        -0.69170E+06
        -0.37535E+06
        -0.14033E+07
        -0.30450E+06
        -0.22744E+07
        -0.16878E+07
        -0.98318E+06
        -0.12941E+07
        -0.15964E+06
        -0.18587E+06
         0.38384E+06
         0.78100E+06
        -0.25933E+05
        -0.11952E+06
        -0.12531E+06
        -0.15319E+07
        -0.15515E+07
        -0.11709E+07
        -0.31144E+06
        -0.40670E+06
        -0.40404E+06
        -0.79589E+06
        -0.78567E+06
        -0.11969E+07
        -0.63054E+06
        -0.26414E+06
        -0.36367E+06
        -0.15163E+06
         0.21931E+06
         0.86807E+06
        -0.11280E+07
         0.34782E+06
        -0.94371E+06
        -0.58332E+05
         0.54940E+06
         0.92437E+06
         0.44432E+06
         0.70796E+06
         0.36223E+06
        -0.97652E+05
         0.27690E+06
         0.35198E+06
        -0.45527E+05
         0.63462E+06
        -0.40626E+06
        -0.13810E+07
        -0.15613E+07
        -0.16716E+07
        -0.18340E+07
        -0.10344E+07
        -0.91757E+06
        -0.12636E+07
        -0.16509E+07
        -0.11053E+07
        -0.35094E+05
         0.58773E+06
        -0.70520E+05
        -0.34473E+06
        -0.17623E+06
         0.63363E+06
         0.12006E+06
         0.71747E+06
        -0.39057E+06
        -0.12771E+07
         0.26159E+06
        -0.13887E+07
        -0.11344E+07
        -0.11003E+07
        -0.40636E+06
        -0.17189E+07
        -0.15739E+07
        -0.34439E+05
         0.30859E+06
         0.54256E+06
        -0.54412E+06
        -0.53727E+05
        -0.33131E+06
         0.13785E+06
        -0.69789E+06
        -0.37942E+06
        -0.14163E+07
        -0.31050E+06
        -0.22834E+07
        -0.16954E+07
        -0.99047E+06
        -0.13024E+07
        -0.17110E+06
        -0.19476E+06
         0.37460E+06
         0.77480E+06
        -0.34079E+05
        -0.12542E+06
        -0.13303E+06
        -0.15456E+07
        -0.15637E+07
        -0.11824E+07
        -0.32363E+06
        -0.41596E+06
        -0.41013E+06
        -0.80457E+06
        -0.79619E+06
        -0.12082E+07
        -0.64132E+06
        -0.27545E+06
        -0.37476E+06
        -0.16185E+06
         0.20817E+06
         0.86045E+06
        -0.11447E+07
         0.33128E+06
        -0.95508E+06
        -0.69822E+05
         0.53539E+06
         0.91223E+06
         0.43187E+06
         0.69075E+06
         0.33922E+06
        -0.12176E+06
         0.25507E+06
         0.34202E+06
        -0.53360E+05
         0.61786E+06
        -0.42380E+06
        -0.13978E+07
        -0.15833E+07
        -0.16926E+07
        -0.18516E+07
        -0.10486E+07
        -0.92927E+06
        -0.12794E+07
        -0.16718E+07
        -0.11244E+07
        -0.51173E+05
         0.57185E+06
        -0.62580E+05
        -0.33858E+06
        -0.17200E+06
         0.63457E+06
         0.12644E+06
         0.71874E+06
        -0.38501E+06
        -0.12687E+07
         0.26785E+06
        -0.13816E+07
        -0.11295E+07
        -0.10915E+07
        -0.39999E+06
        -0.17083E+07
        -0.15609E+07
        -0.25696E+05
         0.31445E+06
         0.54690E+06
        -0.53673E+06
        -0.46805E+05
        -0.32276E+06
         0.14614E+06
        -0.68896E+06
        -0.37178E+06
        -0.14117E+07
        -0.30312E+06
        -0.22710E+07
        -0.16867E+07
        -0.98357E+06
        -0.12963E+07
        -0.16396E+06
        -0.18920E+06
         0.37834E+06
         0.77651E+06
        -0.24706E+05
        -0.11904E+06
        -0.12719E+06
        -0.15368E+07
        -0.15573E+07
        -0.11763E+07
        -0.31573E+06
        -0.40701E+06
        -0.40117E+06
        -0.79708E+06
        -0.79008E+06
        -0.12013E+07
        -0.63486E+06
        -0.26743E+06
        -0.36692E+06
        -0.15537E+06
         0.21292E+06
         0.86219E+06
        -0.11197E+07
         0.35576E+06
        -0.94062E+06
        -0.63812E+05
         0.54754E+06
         0.93138E+06
         0.45322E+06
         0.70606E+06
         0.34497E+06
        -0.11282E+06
         0.27118E+06
         0.36480E+06
        -0.33418E+05
         0.63074E+06
        -0.41158E+06
        -0.13838E+07
        -0.15693E+07
        -0.16750E+07
        -0.18348E+07
        -0.10288E+07
        -0.90904E+06
        -0.12613E+07
        -0.16567E+07
        -0.11107E+07
        -0.37471E+05
         0.58672E+06
        -0.64624E+05
        -0.33901E+06
        -0.17329E+06
         0.63103E+06
         0.12479E+06
         0.71547E+06
        -0.38630E+06
        -0.12735E+07
         0.26224E+06
        -0.13897E+07
        -0.11337E+07
        -0.10966E+07
        -0.40146E+06
        -0.17121E+07
        -0.15695E+07
        -0.29692E+05
         0.30951E+06
         0.54231E+06
        -0.54061E+06
        -0.50575E+05
        -0.32656E+06
         0.14172E+06
        -0.69218E+06
        -0.37441E+06
        -0.14175E+07
        -0.30540E+06
        -0.22740E+07
        -0.16876E+07
        -0.98513E+06
        -0.13008E+07
        -0.16734E+06
        -0.19172E+06
         0.37306E+06
         0.77186E+06
        -0.27650E+05
        -0.12180E+06
        -0.12905E+06
        -0.15488E+07
        -0.15646E+07
        -0.11822E+07
        -0.32179E+06
        -0.41051E+06
        -0.40638E+06
        -0.79990E+06
        -0.79287E+06
        -0.12051E+07
        -0.64006E+06
        -0.27256E+06
        -0.37108E+06
        -0.15907E+06
         0.20856E+06
         0.85776E+06
        -0.11268E+07
         0.34998E+06
        -0.95249E+06
        -0.73773E+05
         0.54607E+06
         0.92442E+06
         0.43700E+06
         0.68800E+06
         0.33423E+06
        -0.12886E+06
         0.25368E+06
         0.35600E+06
        -0.43713E+05
         0.62504E+06
        -0.41687E+06
        -0.13889E+07
        -0.15704E+07
        -0.16787E+07
        -0.18399E+07
        -0.10421E+07
        -0.92567E+06
        -0.12741E+07
        -0.16633E+07
        -0.11137E+07
        -0.44585E+05
         0.57666E+06
        -0.70366E+05
        -0.34350E+06
        -0.17671E+06
         0.62879E+06
         0.12007E+06
         0.71325E+06
        -0.39003E+06
        -0.12799E+07
         0.25710E+06
        -0.13977E+07
        -0.11383E+07
        -0.11035E+07
        -0.40590E+06
        -0.17148E+07
        -0.15783E+07
        -0.35310E+05
         0.30547E+06
         0.53970E+06
        -0.54527E+06
        -0.53365E+05
        -0.33134E+06
         0.13724E+06
        -0.69706E+06
        -0.37859E+06
        -0.14231E+07
        -0.31001E+06
        -0.22762E+07
        -0.16896E+07
        -0.98700E+06
        -0.13043E+07
        -0.17232E+06
        -0.19605E+06
         0.36981E+06
         0.77078E+06
        -0.34830E+05
        -0.12648E+06
        -0.13324E+06
        -0.15603E+07
        -0.15726E+07
        -0.11875E+07
        -0.32536E+06
        -0.41347E+06
        -0.41114E+06
        -0.80477E+06
        -0.79750E+06
        -0.12100E+07
        -0.64494E+06
        -0.27698E+06
        -0.37504E+06
        -0.16226E+06
         0.20442E+06
         0.85573E+06
        -0.11412E+07
         0.33787E+06
        -0.96158E+06
        -0.76806E+05
         0.54206E+06
         0.91029E+06
         0.41660E+06
         0.67170E+06
         0.32312E+06
        -0.14041E+06
         0.24653E+06
         0.34731E+06
        -0.56077E+05
         0.61660E+06
        -0.42569E+06
        -0.13993E+07
        -0.15775E+07
        -0.16869E+07
        -0.18499E+07
        -0.10531E+07
        -0.93832E+06
        -0.12872E+07
        -0.16728E+07
        -0.11224E+07
        -0.55520E+05
         0.56517E+06
        -0.66602E+05
        -0.34152E+06
        -0.17525E+06
         0.63088E+06
         0.12427E+06
         0.71692E+06
        -0.38654E+06
        -0.12744E+07
         0.25974E+06
        -0.13961E+07
        -0.11337E+07
        -0.10974E+07
        -0.40393E+06
        -0.17051E+07
        -0.15662E+07
        -0.30363E+05
         0.30744E+06
         0.54402E+06
        -0.54099E+06
        -0.47783E+05
        -0.32459E+06
         0.14464E+06
        -0.69104E+06
        -0.37384E+06
        -0.14224E+07
        -0.30521E+06
        -0.22683E+07
        -0.16841E+07
        -0.97933E+06
        -0.12975E+07
        -0.16662E+06
        -0.19217E+06
         0.37445E+06
         0.77539E+06
        -0.29023E+05
        -0.12246E+06
        -0.13085E+06
        -0.15534E+07
        -0.15662E+07
        -0.11782E+07
        -0.31652E+06
        -0.40663E+06
        -0.40394E+06
        -0.80038E+06
        -0.79397E+06
        -0.12063E+07
        -0.64115E+06
        -0.27209E+06
        -0.36976E+06
        -0.15667E+06
         0.20940E+06
         0.86073E+06
        -0.11229E+07
         0.35758E+06
        -0.94314E+06
        -0.67696E+05
         0.53900E+06
         0.91135E+06
         0.43143E+06
         0.68812E+06
         0.33403E+06
        -0.12375E+06
         0.26236E+06
         0.35474E+06
        -0.42745E+05
         0.63008E+06
        -0.41334E+06
        -0.13899E+07
        -0.15714E+07
        -0.16789E+07
        -0.18424E+07
        -0.10412E+07
        -0.92440E+06
        -0.12738E+07
        -0.16612E+07
        -0.11123E+07
        -0.40666E+05
         0.58257E+06
        -0.69265E+05
        -0.34510E+06
        -0.17857E+06
         0.62692E+06
         0.11946E+06
         0.71242E+06
        -0.39117E+06
        -0.12803E+07
         0.25551E+06
        -0.14054E+07
        -0.11400E+07
        -0.11060E+07
        -0.41296E+06
        -0.17102E+07
        -0.15727E+07
        -0.34879E+05
         0.30239E+06
         0.53912E+06
        -0.54661E+06
        -0.52271E+05
        -0.33294E+06
         0.13659E+06
        -0.69935E+06
        -0.37869E+06
        -0.14312E+07
        -0.30921E+06
        -0.22760E+07
        -0.16913E+07
        -0.98471E+06
        -0.13030E+07
        -0.17125E+06
        -0.19625E+06
         0.36817E+06
         0.77116E+06
        -0.35880E+05
        -0.12789E+06
        -0.13768E+06
        -0.15659E+07
        -0.15785E+07
        -0.11882E+07
        -0.32792E+06
        -0.41679E+06
        -0.41201E+06
        -0.80984E+06
        -0.80211E+06
        -0.12134E+07
        -0.64797E+06
        -0.27909E+06
        -0.37497E+06
        -0.16032E+06
         0.20388E+06
         0.85568E+06
        -0.11371E+07
         0.34518E+06
        -0.95742E+06
        -0.83961E+05
         0.51996E+06
         0.89329E+06
         0.42043E+06
         0.67402E+06
         0.31525E+06
        -0.14229E+06
         0.23978E+06
         0.33236E+06
        -0.57525E+05
         0.61473E+06
        -0.42651E+06
        -0.14051E+07
        -0.15951E+07
        -0.17000E+07
        -0.18529E+07
        -0.10557E+07
        -0.93947E+06
        -0.12815E+07
        -0.16666E+07
        -0.11231E+07
        -0.55484E+05
         0.56787E+06
        -0.69722E+05
        -0.34623E+06
        -0.17968E+06
         0.62535E+06
         0.11859E+06
         0.71086E+06
        -0.39219E+06
        -0.12818E+07
         0.25529E+06
        -0.14079E+07
        -0.11416E+07
        -0.11071E+07
        -0.41437E+06
        -0.17086E+07
        -0.15731E+07
        -0.35650E+05
         0.30198E+06
         0.53816E+06
        -0.54753E+06
        -0.52440E+05
        -0.33501E+06
         0.13531E+06
        -0.70122E+06
        -0.37949E+06
        -0.14345E+07
        -0.31011E+06
        -0.22746E+07
        -0.16923E+07
        -0.98578E+06
        -0.13049E+07
        -0.17357E+06
        -0.19768E+06
         0.36529E+06
         0.77005E+06
        -0.37451E+05
        -0.12973E+06
        -0.13978E+06
        -0.15723E+07
        -0.15859E+07
        -0.11924E+07
        -0.32941E+06
        -0.41758E+06
        -0.41317E+06
        -0.81183E+06
        -0.80397E+06
        -0.12152E+07
        -0.65041E+06
        -0.28177E+06
        -0.37679E+06
        -0.16068E+06
         0.20285E+06
         0.85439E+06
        -0.11374E+07
         0.34539E+06
        -0.96141E+06
        -0.90238E+05
         0.51950E+06
         0.89304E+06
         0.41605E+06
         0.66227E+06
         0.30168E+06
        -0.14973E+06
         0.23905E+06
         0.33008E+06
        -0.61240E+05
         0.60872E+06
        -0.43338E+06
        -0.14101E+07
        -0.15986E+07
        -0.17029E+07
        -0.18560E+07
        -0.10609E+07
        -0.94618E+06
        -0.12858E+07
        -0.16671E+07
        -0.11243E+07
        -0.61988E+05
         0.56205E+06
        -0.57867E+05
        -0.33458E+06
        -0.17030E+06
         0.63159E+06
         0.13159E+06
         0.71981E+06
        -0.38003E+06
        -0.12689E+07
         0.26287E+06
        -0.13993E+07
        -0.11296E+07
        -0.10880E+07
        -0.39807E+06
        -0.16926E+07
        -0.15547E+07
        -0.25078E+05
         0.31016E+06
         0.54615E+06
        -0.53762E+06
        -0.41185E+05
        -0.31961E+06
         0.15002E+06
        -0.68640E+06
        -0.36938E+06
        -0.14250E+07
        -0.29987E+06
        -0.22588E+07
        -0.16775E+07
        -0.97122E+06
        -0.12916E+07
        -0.16236E+06
        -0.18731E+06
         0.37277E+06
         0.77629E+06
        -0.21979E+05
        -0.11773E+06
        -0.12686E+06
        -0.15610E+07
        -0.15724E+07
        -0.11771E+07
        -0.31444E+06
        -0.40225E+06
        -0.39972E+06
        -0.79721E+06
        -0.78951E+06
        -0.11998E+07
        -0.63752E+06
        -0.26951E+06
        -0.36646E+06
        -0.15099E+06
         0.21322E+06
         0.86314E+06
        -0.11042E+07
         0.37837E+06
        -0.93374E+06
        -0.70085E+05
         0.54403E+06
         0.92435E+06
         0.44231E+06
         0.68224E+06
         0.32391E+06
        -0.12532E+06
         0.26106E+06
         0.35579E+06
        -0.40866E+05
         0.63133E+06
        -0.40752E+06
        -0.13832E+07
        -0.15685E+07
        -0.16703E+07
        -0.18280E+07
        -0.10315E+07
        -0.92127E+06
        -0.12672E+07
        -0.16467E+07
        -0.10997E+07
        -0.35289E+05
         0.58908E+06
        -0.62792E+05
        -0.33778E+06
        -0.17339E+06
         0.62683E+06
         0.12564E+06
         0.71520E+06
        -0.38420E+06
        -0.12762E+07
         0.25702E+06
        -0.14104E+07
        -0.11358E+07
        -0.10945E+07
        -0.40205E+06
        -0.16981E+07
        -0.15637E+07
        -0.30926E+05
         0.30393E+06
         0.54217E+06
        -0.54491E+06
        -0.46753E+05
        -0.32532E+06
         0.14267E+06
        -0.69154E+06
        -0.37527E+06
        -0.14349E+07
        -0.30569E+06
        -0.22658E+07
        -0.16825E+07
        -0.97196E+06
        -0.12957E+07
        -0.16567E+06
        -0.19198E+06
         0.36827E+06
         0.77120E+06
        -0.30825E+05
        -0.12266E+06
        -0.13022E+06
        -0.15752E+07
        -0.15826E+07
        -0.11817E+07
        -0.32172E+06
        -0.41010E+06
        -0.40901E+06
        -0.80437E+06
        -0.79665E+06
        -0.12065E+07
        -0.64324E+06
        -0.27338E+06
        -0.37077E+06
        -0.15672E+06
         0.20660E+06
         0.85796E+06
        -0.11253E+07
         0.36051E+06
        -0.95021E+06
        -0.78683E+05
         0.54102E+06
         0.91635E+06
         0.42460E+06
         0.66098E+06
         0.30311E+06
        -0.14378E+06
         0.23930E+06
         0.33079E+06
        -0.58460E+05
         0.62254E+06
        -0.41160E+06
        -0.13860E+07
        -0.15773E+07
        -0.16853E+07
        -0.18390E+07
        -0.10446E+07
        -0.93336E+06
        -0.12808E+07
        -0.16613E+07
        -0.11086E+07
        -0.43641E+05
         0.57519E+06
        -0.71045E+05
        -0.34613E+06
        -0.18162E+06
         0.62062E+06
         0.11634E+06
         0.70680E+06
        -0.39097E+06
        -0.12847E+07
         0.24882E+06
        -0.14283E+07
        -0.11431E+07
        -0.11053E+07
        -0.41087E+06
        -0.17037E+07
        -0.15749E+07
        -0.38131E+05
         0.29477E+06
         0.53755E+06
        -0.55097E+06
        -0.49305E+05
        -0.33229E+06
         0.13408E+06
        -0.69773E+06
        -0.38031E+06
        -0.14503E+07
        -0.31139E+06
        -0.22815E+07
        -0.16905E+07
        -0.95496E+06
        -0.12865E+07
        -0.17186E+06
        -0.19866E+06
         0.36380E+06
         0.76760E+06
        -0.40790E+05
        -0.13070E+06
        -0.13822E+06
        -0.15958E+07
        -0.15926E+07
        -0.11676E+07
        -0.32259E+06
        -0.41862E+06
        -0.42140E+06
        -0.81210E+06
        -0.80562E+06
        -0.12172E+07
        -0.65297E+06
        -0.28040E+06
        -0.37580E+06
        -0.16121E+06
         0.20073E+06
         0.85162E+06
        -0.11392E+07
         0.34749E+06
        -0.96146E+06
        -0.88364E+05
         0.52744E+06
         0.89442E+06
         0.39961E+06
         0.63722E+06
         0.28217E+06
        -0.14862E+06
         0.20131E+06
         0.27099E+06
        -0.83188E+05
         0.60878E+06
        -0.42387E+06
        -0.13971E+07
        -0.15912E+07
        -0.17009E+07
        -0.18572E+07
        -0.10650E+07
        -0.94722E+06
        -0.12937E+07
        -0.16761E+07
        -0.11193E+07
        -0.60247E+05
         0.55661E+06
        -0.59752E+05
        -0.33542E+06
        -0.17143E+06
         0.62831E+06
         0.13017E+06
         0.71650E+06
        -0.38034E+06
        -0.12720E+07
         0.25389E+06
        -0.14331E+07
        -0.11325E+07
        -0.10910E+07
        -0.39878E+06
        -0.16885E+07
        -0.15585E+07
        -0.27440E+05
         0.30016E+06
         0.54505E+06
        -0.53945E+06
        -0.30982E+05
        -0.31954E+06
         0.14693E+06
        -0.68582E+06
        -0.36941E+06
        -0.14499E+07
        -0.30027E+06
        -0.22842E+07
        -0.16813E+07
        -0.90307E+06
        -0.12433E+07
        -0.16225E+06
        -0.18812E+06
         0.37110E+06
         0.77598E+06
        -0.24215E+05
        -0.11732E+06
        -0.12602E+06
        -0.15954E+07
        -0.15769E+07
        -0.11137E+07
        -0.29359E+06
        -0.40309E+06
        -0.41359E+06
        -0.79962E+06
        -0.79150E+06
        -0.12000E+07
        -0.63950E+06
        -0.26915E+06
        -0.36451E+06
        -0.14821E+06
         0.21454E+06
         0.86200E+06
        -0.11051E+07
         0.38100E+06
        -0.92729E+06
        -0.64355E+05
         0.54272E+06
         0.91224E+06
         0.42422E+06
         0.66217E+06
         0.30936E+06
        -0.95449E+05
         0.18897E+06
         0.22286E+06
        -0.81395E+05
         0.62751E+06
        -0.40808E+06
        -0.13840E+07
        -0.15751E+07
        -0.16737E+07
        -0.18237E+07
        -0.10336E+07
        -0.92020E+06
        -0.12658E+07
        -0.16447E+07
        -0.10899E+07
        -0.36404E+05
         0.58166E+06
        -0.10176E+06
        -0.37435E+06
        -0.20885E+06
         0.59448E+06
         0.79370E+05
         0.67175E+06
        -0.41985E+06
        -0.13222E+07
         0.21161E+06
        -0.14960E+07
        -0.11773E+07
        -0.11582E+07
        -0.46052E+06
        -0.17398E+07
        -0.16281E+07
        -0.67164E+05
         0.25921E+06
         0.51162E+06
        -0.57996E+06
        -0.68028E+05
        -0.37776E+06
         0.90403E+05
        -0.74155E+06
        -0.40722E+06
        -0.15052E+07
        -0.33591E+06
        -0.23462E+07
        -0.17265E+07
        -0.92297E+06
        -0.12740E+07
        -0.20003E+06
        -0.22520E+06
         0.33543E+06
         0.73866E+06
        -0.84879E+05
        -0.16727E+06
        -0.18042E+06
        -0.16745E+07
        -0.16383E+07
        -0.11493E+07
        -0.35121E+06
        -0.46444E+06
        -0.47540E+06
        -0.85352E+06
        -0.84707E+06
        -0.12654E+07
        -0.69355E+06
        -0.31628E+06
        -0.40824E+06
        -0.19730E+06
         0.15284E+06
         0.81071E+06
        -0.12240E+07
         0.26545E+06
        -0.10477E+07
        -0.18672E+06
         0.42061E+06
         0.79470E+06
         0.30478E+06
         0.53415E+06
         0.18909E+06
        -0.20497E+06
         0.36358E+05
         0.56789E+05
        -0.19870E+06
         0.53019E+06
        -0.51015E+06
        -0.14902E+07
        -0.16851E+07
        -0.17967E+07
        -0.19499E+07
        -0.11545E+07
        -0.10324E+07
        -0.13732E+07
        -0.17547E+07
        -0.12026E+07
        -0.14469E+06
         0.47420E+06
        -0.77681E+05
        -0.37156E+06
        -0.20206E+06
         0.60657E+06
         0.95920E+05
         0.68584E+06
        -0.41447E+06
        -0.12935E+07
         0.23832E+06
        -0.14546E+07
        -0.11660E+07
        -0.11568E+07
        -0.47626E+06
        -0.17052E+07
        -0.15978E+07
        -0.36038E+05
         0.28475E+06
         0.52987E+06
        -0.55876E+06
        -0.45719E+05
        -0.35193E+06
         0.10975E+06
        -0.70161E+06
        -0.37866E+06
        -0.14619E+07
        -0.30910E+06
        -0.22935E+07
        -0.16747E+07
        -0.87960E+06
        -0.12302E+07
        -0.17628E+06
        -0.20847E+06
         0.34475E+06
         0.73294E+06
        -0.75621E+05
        -0.17122E+06
        -0.19589E+06
        -0.16390E+07
        -0.15960E+07
        -0.11119E+07
        -0.32561E+06
        -0.42942E+06
        -0.43857E+06
        -0.81767E+06
        -0.82746E+06
        -0.12556E+07
        -0.68581E+06
        -0.29600E+06
        -0.39312E+06
        -0.19594E+06
         0.15682E+06
         0.81159E+06
        -0.11782E+07
         0.32492E+06
        -0.10328E+07
        -0.21312E+06
         0.36571E+06
         0.76134E+06
         0.35957E+06
         0.59046E+06
         0.23371E+06
        -0.17842E+06
         0.43735E+05
         0.79452E+05
        -0.15434E+06
         0.55207E+06
        -0.46380E+06
        -0.14240E+07
        -0.16289E+07
        -0.17535E+07
        -0.19313E+07
        -0.11567E+07
        -0.10076E+07
        -0.13376E+07
        -0.16982E+07
        -0.11338E+07
        -0.90387E+05
         0.53047E+06
         0.16525E+09
         0.15688E+09
         0.15414E+09
         0.12826E+09
         0.19898E+09
         0.17531E+09
         0.15041E+09
         0.18766E+09
         0.14988E+09
         0.18741E+09
         0.18037E+09
         0.25699E+09
         0.22569E+09
         0.20208E+09
         0.26537E+09
         0.15053E+09
         0.14082E+09
         0.12120E+09
         0.15541E+09
         0.15056E+09
         0.20808E+09
         0.20881E+09
         0.19745E+09
         0.13737E+09
         0.17521E+09
         0.13165E+09
         0.19914E+09
         0.16484E+09
         0.16578E+09
         0.18301E+09
         0.14723E+09
         0.13628E+09
         0.12791E+09
         0.13332E+09
         0.22881E+09
         0.19069E+09
         0.19853E+09
         0.24795E+09
         0.23306E+09
         0.22763E+09
         0.24313E+09
         0.22751E+09
         0.21556E+09
         0.18817E+09
         0.19354E+09
         0.23088E+09
         0.19883E+09
         0.18054E+09
         0.16921E+09
         0.18169E+09
         0.21693E+09
         0.18761E+09
         0.43453E+09
         0.42580E+09
         0.43338E+09
         0.41931E+09
         0.43253E+09
         0.45382E+09
         0.45550E+09
         0.45007E+09
         0.45350E+09
         0.46657E+09
         0.45295E+09
         0.42735E+09
         0.37827E+09
         0.35690E+09
         0.36258E+09
         0.37118E+09
         0.37587E+09
         0.40967E+09
         0.43807E+09
         0.44001E+09
         0.40310E+09
         0.38852E+09
         0.40282E+09
         0.39898E+09
         0.39688E+09
         0.39769E+09
         0.19798E+10
         0.20725E+10
         0.20423E+10
         0.18614E+10
         0.22977E+10
         0.21562E+10
         0.22427E+10
         0.22626E+10
         0.19338E+10
         0.22613E+10
         0.24644E+10
         0.27673E+10
         0.25072E+10
         0.25370E+10
         0.28645E+10
         0.18952E+10
         0.20367E+10
         0.17744E+10
         0.21043E+10
         0.22144E+10
         0.22963E+10
         0.23462E+10
         0.22035E+10
         0.20228E+10
         0.22865E+10
         0.19508E+10
         0.25278E+10
         0.24837E+10
         0.24952E+10
         0.23679E+10
         0.19152E+10
         0.20139E+10
         0.18763E+10
         0.19631E+10
         0.25178E+10
         0.23075E+10
         0.23161E+10
         0.27727E+10
         0.27003E+10
         0.26676E+10
         0.27167E+10
         0.25793E+10
         0.24391E+10
         0.21499E+10
         0.22383E+10
         0.25170E+10
         0.23254E+10
         0.21854E+10
         0.21411E+10
         0.22209E+10
         0.24142E+10
         0.22280E+10
         0.39995E+10
         0.38976E+10
         0.39786E+10
         0.38545E+10
         0.39687E+10
         0.41713E+10
         0.42379E+10
         0.42281E+10
         0.42576E+10
         0.43549E+10
         0.42301E+10
         0.39788E+10
         0.35677E+10
         0.33725E+10
         0.33824E+10
         0.34259E+10
         0.34590E+10
         0.37498E+10
         0.40157E+10
         0.40320E+10
         0.37327E+10
         0.36176E+10
         0.37370E+10
         0.37107E+10
         0.36694E+10
         0.36590E+10
  
SCALARS                      stress_zz  double 1
LOOKUP_TABLE default
         0.27107E+12
         0.26681E+12
         0.26951E+12
         0.27435E+12
        -0.24289E+03
        -0.27236E+03
        -0.26079E+03
        -0.23692E+03
         0.26666E+12
         0.26810E+12
        -0.24492E+03
        -0.23702E+03
         0.26064E+12
         0.26041E+12
        -0.29101E+03
        -0.27363E+03
         0.27364E+12
         0.26075E+12
        -0.21503E+03
        -0.23850E+03
         0.25601E+12
         0.25233E+12
         0.25818E+12
        -0.28843E+03
        -0.25189E+03
        -0.26011E+03
         0.25247E+12
         0.24709E+12
        -0.27671E+03
        -0.23335E+03
         0.27341E+12
         0.26780E+12
         0.27884E+12
        -0.23613E+03
        -0.21952E+03
        -0.21343E+03
         0.27016E+12
         0.26302E+12
        -0.24982E+03
        -0.22796E+03
         0.26733E+12
         0.26182E+12
        -0.21591E+03
        -0.19114E+03
         0.27200E+12
         0.27407E+12
        -0.23661E+03
        -0.26438E+03
         0.25739E+12
        -0.23115E+03
         0.27367E+12
        -0.27161E+03
         0.25092E+12
        -0.24410E+03
         0.24923E+12
        -0.23414E+03
         0.24926E+12
         0.25526E+12
        -0.23856E+03
        -0.23233E+03
         0.27329E+12
         0.27114E+12
        -0.23922E+03
        -0.27043E+03
         0.27464E+12
        -0.23083E+03
         0.27208E+12
        -0.25192E+03
         0.26533E+12
         0.26466E+12
        -0.24250E+03
        -0.25409E+03
         0.26313E+12
        -0.25623E+03
         0.24518E+12
        -0.20244E+03
         0.24424E+12
        -0.19650E+03
         0.24471E+12
        -0.20719E+03
         0.24731E+12
         0.25001E+12
        -0.19740E+03
        -0.20580E+03
         0.25546E+12
        -0.19168E+03
         0.27189E+12
        -0.25136E+03
         0.26933E+12
        -0.25726E+03
         0.26723E+12
         0.26607E+12
        -0.24705E+03
        -0.24993E+03
         0.26749E+12
        -0.22701E+03
         0.26851E+12
        -0.22377E+03
         0.26759E+12
        -0.23955E+03
         0.26727E+12
         0.26819E+12
        -0.23492E+03
        -0.24181E+03
         0.26219E+12
         0.26462E+12
        -0.18239E+03
        -0.17155E+03
         0.26173E+12
        -0.17416E+03
         0.26454E+12
        -0.16699E+03
         0.26177E+12
        -0.16466E+03
         0.25562E+12
        -0.15561E+03
         0.24967E+12
        -0.13824E+03
         0.24610E+12
        -0.12448E+03
         0.24574E+12
        -0.12361E+03
         0.24585E+12
        -0.13405E+03
         0.24972E+12
        -0.14088E+03
         0.25695E+12
        -0.12864E+03
         0.26488E+12
        -0.11596E+03
         0.26953E+12
        -0.11583E+03
         0.27412E+12
        -0.12946E+03
         0.27715E+12
        -0.14762E+03
         0.27704E+12
        -0.15859E+03
         0.26967E+12
        -0.17127E+03
         0.26454E+12
        -0.18349E+03
         0.26278E+12
        -0.16809E+03
         0.26553E+12
        -0.14746E+03
         0.26697E+12
        -0.14701E+03
         0.26456E+12
        -0.16084E+03
         0.26459E+12
        -0.17147E+03
         0.26641E+12
        -0.16272E+03
         0.26878E+12
        -0.15732E+03
        -0.30845E+11
        -0.31071E+11
        -0.31041E+11
        -0.30743E+11
        -0.31274E+11
        -0.31016E+11
        -0.31332E+11
        -0.31172E+11
        -0.30792E+11
        -0.31034E+11
        -0.31492E+11
        -0.31539E+11
        -0.31412E+11
        -0.31403E+11
        -0.31486E+11
        -0.30758E+11
        -0.30815E+11
        -0.30652E+11
        -0.31094E+11
        -0.31018E+11
        -0.31126E+11
        -0.31055E+11
        -0.31185E+11
        -0.31152E+11
        -0.31025E+11
        -0.31034E+11
        -0.31248E+11
        -0.31229E+11
        -0.31378E+11
        -0.31149E+11
        -0.30786E+11
        -0.31074E+11
        -0.30788E+11
        -0.30980E+11
        -0.31571E+11
        -0.31396E+11
        -0.31309E+11
        -0.31411E+11
        -0.31425E+11
        -0.31582E+11
        -0.31690E+11
        -0.31417E+11
        -0.31122E+11
        -0.31164E+11
        -0.31317E+11
        -0.31564E+11
        -0.31355E+11
        -0.31109E+11
        -0.31127E+11
        -0.31318E+11
        -0.31500E+11
        -0.31252E+11
        -0.31925E+11
        -0.31751E+11
        -0.31781E+11
        -0.31738E+11
        -0.31749E+11
        -0.31846E+11
        -0.31939E+11
        -0.31968E+11
        -0.31956E+11
        -0.31965E+11
        -0.32002E+11
        -0.31759E+11
        -0.31658E+11
        -0.31617E+11
        -0.31546E+11
        -0.31490E+11
        -0.31492E+11
        -0.31586E+11
        -0.31869E+11
        -0.31806E+11
        -0.31710E+11
        -0.31711E+11
        -0.31728E+11
        -0.31819E+11
        -0.31683E+11
        -0.31630E+11
         0.20379E+07
         0.12088E+07
         0.14016E+07
         0.19716E+07
         0.17011E+07
         0.22625E+07
        -0.21726E+06
         0.83058E+05
         0.24022E+07
        -0.48977E+05
        -0.11178E+07
         0.10269E+07
         0.12859E+07
        -0.21548E+07
         0.30687E+06
         0.11212E+07
         0.13454E+07
         0.15075E+07
         0.53109E+06
         0.36008E+06
         0.82466E+06
         0.13743E+07
         0.37285E+06
        -0.34848E+05
        -0.66511E+06
        -0.68184E+05
        -0.32981E+07
        -0.35738E+07
        -0.17014E+07
        -0.41608E+06
         0.10140E+07
         0.19191E+06
         0.17385E+07
         0.24173E+07
         0.99031E+06
         0.80550E+06
         0.11645E+07
         0.83378E+05
         0.12167E+06
         0.48284E+06
         0.10781E+07
         0.74226E+06
         0.87154E+06
         0.37331E+06
         0.41570E+06
         0.65804E+06
         0.87989E+06
         0.10286E+07
         0.13524E+07
         0.18132E+07
         0.18536E+07
         0.22529E+07
         0.20845E+06
         0.18572E+07
         0.82346E+06
         0.20955E+07
         0.31281E+07
         0.38411E+07
         0.33678E+07
         0.35710E+07
         0.31418E+07
         0.24645E+07
         0.22405E+07
         0.19818E+07
         0.14229E+07
         0.20822E+07
         0.96123E+06
         0.16813E+06
         0.30942E+06
         0.37186E+06
         0.65453E+06
         0.17563E+07
         0.17800E+07
         0.13789E+07
         0.80905E+06
         0.80311E+06
         0.15141E+07
         0.21701E+07
         0.19691E+07
         0.11270E+07
         0.13192E+07
         0.18937E+07
         0.16196E+07
         0.21793E+07
        -0.31300E+06
         0.39397E+04
         0.23187E+07
        -0.13527E+06
        -0.12268E+07
         0.93526E+06
         0.12024E+07
        -0.22516E+07
         0.21681E+06
         0.10405E+07
         0.12451E+07
         0.14285E+07
         0.42862E+06
         0.25065E+06
         0.74225E+06
         0.12930E+07
         0.28647E+06
        -0.14081E+06
        -0.77024E+06
        -0.16921E+06
        -0.33898E+07
        -0.36837E+07
        -0.18169E+07
        -0.52429E+06
         0.93234E+06
         0.96116E+05
         0.16561E+07
         0.23374E+07
         0.90389E+06
         0.72024E+06
         0.10842E+07
        -0.10395E+05
         0.29928E+05
         0.39050E+06
         0.98549E+06
         0.65004E+06
         0.78377E+06
         0.28716E+06
         0.33184E+06
         0.57222E+06
         0.79328E+06
         0.94333E+06
         0.12696E+07
         0.17342E+07
         0.17729E+07
         0.21722E+07
         0.77881E+05
         0.17301E+07
         0.69874E+06
         0.19761E+07
         0.30022E+07
         0.37015E+07
         0.32280E+07
         0.34286E+07
         0.29976E+07
         0.23177E+07
         0.20943E+07
         0.18465E+07
         0.13083E+07
         0.19747E+07
         0.84954E+06
         0.49493E+05
         0.18851E+06
         0.24628E+06
         0.52801E+06
         0.16228E+07
         0.16530E+07
         0.12638E+07
         0.69420E+06
         0.68529E+06
         0.13953E+07
         0.20491E+07
         0.19854E+07
         0.11431E+07
         0.13369E+07
         0.19158E+07
         0.16409E+07
         0.22018E+07
        -0.29182E+06
         0.22425E+05
         0.23325E+07
        -0.12998E+06
        -0.12047E+07
         0.95278E+06
         0.12184E+07
        -0.22313E+07
         0.23927E+06
         0.10245E+07
         0.12413E+07
         0.14491E+07
         0.40361E+06
         0.22937E+06
         0.72865E+06
         0.12877E+07
         0.22981E+06
        -0.21728E+06
        -0.81311E+06
        -0.24000E+06
        -0.33710E+07
        -0.36986E+07
        -0.18626E+07
        -0.59945E+06
         0.93278E+06
         0.74278E+05
         0.16769E+07
         0.23644E+07
         0.92657E+06
         0.74163E+06
         0.11019E+07
         0.64348E+04
         0.45850E+05
         0.39624E+06
         0.98332E+06
         0.61663E+06
         0.73652E+06
         0.22950E+06
         0.31742E+06
         0.58401E+06
         0.80899E+06
         0.96256E+06
         0.12919E+07
         0.17583E+07
         0.17957E+07
         0.21950E+07
         0.11665E+06
         0.17648E+07
         0.73717E+06
         0.20057E+07
         0.30241E+07
         0.37232E+07
         0.32557E+07
         0.34566E+07
         0.30260E+07
         0.23470E+07
         0.21115E+07
         0.18458E+07
         0.13102E+07
         0.19945E+07
         0.86259E+06
         0.25519E+05
         0.16253E+06
         0.25303E+06
         0.56272E+06
         0.16630E+07
         0.16892E+07
         0.13005E+07
         0.73507E+06
         0.71967E+06
         0.14232E+07
         0.20761E+07
         0.19757E+07
         0.11363E+07
         0.13302E+07
         0.19043E+07
         0.16332E+07
         0.21947E+07
        -0.29884E+06
         0.12518E+05
         0.23083E+07
        -0.16603E+06
        -0.12159E+07
         0.94330E+06
         0.12118E+07
        -0.22453E+07
         0.22833E+06
         0.96036E+06
         0.11829E+07
         0.14344E+07
         0.31420E+06
         0.13714E+06
         0.66614E+06
         0.12315E+07
         0.98007E+05
        -0.38830E+06
        -0.93819E+06
        -0.40125E+06
        -0.33956E+07
        -0.37875E+07
        -0.20050E+07
        -0.78157E+06
         0.89331E+06
        -0.12003E+05
         0.16632E+07
         0.23518E+07
         0.91552E+06
         0.73296E+06
         0.10954E+07
        -0.10440E+05
         0.24110E+05
         0.35469E+06
         0.93094E+06
         0.51222E+06
         0.60834E+06
         0.93603E+05
         0.24804E+06
         0.54944E+06
         0.78116E+06
         0.94672E+06
         0.12775E+07
         0.17433E+07
         0.17835E+07
         0.21861E+07
         0.98321E+05
         0.17522E+07
         0.71743E+06
         0.19884E+07
         0.30125E+07
         0.37099E+07
         0.32334E+07
         0.34323E+07
         0.30024E+07
         0.23185E+07
         0.20665E+07
         0.17731E+07
         0.12407E+07
         0.19614E+07
         0.82575E+06
        -0.75334E+05
         0.55928E+05
         0.20345E+06
         0.53902E+06
         0.16405E+07
         0.16718E+07
         0.12799E+07
         0.71367E+06
         0.70502E+06
         0.14122E+07
         0.20651E+07
         0.19580E+07
         0.11223E+07
         0.13183E+07
         0.18925E+07
         0.16243E+07
         0.21849E+07
        -0.31052E+06
        -0.42176E+04
         0.22795E+07
        -0.20363E+06
        -0.12279E+07
         0.93739E+06
         0.12045E+07
        -0.22604E+07
         0.22326E+06
         0.91713E+06
         0.11371E+07
         0.14208E+07
         0.25549E+06
         0.70527E+05
         0.62591E+06
         0.11911E+07
         0.17044E+05
        -0.49429E+06
        -0.10270E+07
        -0.50450E+06
        -0.34171E+07
        -0.38516E+07
        -0.21029E+07
        -0.90212E+06
         0.85213E+06
        -0.74661E+05
         0.16376E+07
         0.23341E+07
         0.90411E+06
         0.72190E+06
         0.10857E+07
        -0.22856E+05
         0.62963E+04
         0.32338E+06
         0.89408E+06
         0.44210E+06
         0.52431E+06
         0.73126E+04
         0.20231E+06
         0.52665E+06
         0.75649E+06
         0.92133E+06
         0.12527E+07
         0.17210E+07
         0.17644E+07
         0.21717E+07
         0.81823E+05
         0.17412E+07
         0.70063E+06
         0.19750E+07
         0.30070E+07
         0.37060E+07
         0.32238E+07
         0.34162E+07
         0.29824E+07
         0.23009E+07
         0.20390E+07
         0.17227E+07
         0.11934E+07
         0.19358E+07
         0.79975E+06
        -0.14065E+06
        -0.18886E+05
         0.16802E+06
         0.52824E+06
         0.16200E+07
         0.16489E+07
         0.12564E+07
         0.68614E+06
         0.68132E+06
         0.13975E+07
         0.20542E+07
         0.19150E+07
         0.10954E+07
         0.13066E+07
         0.19044E+07
         0.16353E+07
         0.22006E+07
        -0.31829E+06
        -0.33885E+05
         0.22390E+07
        -0.25495E+06
        -0.12185E+07
         0.95786E+06
         0.12129E+07
        -0.22594E+07
         0.24896E+06
         0.92533E+06
         0.11277E+07
         0.14419E+07
         0.26791E+06
         0.79502E+05
         0.63762E+06
         0.12053E+07
         0.18878E+05
        -0.49642E+06
        -0.10627E+07
        -0.51894E+06
        -0.34217E+07
        -0.38589E+07
        -0.20960E+07
        -0.90524E+06
         0.80286E+06
        -0.10771E+06
         0.15954E+07
         0.23302E+07
         0.91416E+06
         0.72299E+06
         0.10839E+07
        -0.58031E+04
         0.22513E+05
         0.34122E+06
         0.91234E+06
         0.45337E+06
         0.53336E+06
         0.19148E+04
         0.19647E+06
         0.52289E+06
         0.73516E+06
         0.87015E+06
         0.11924E+07
         0.16908E+07
         0.17581E+07
         0.21784E+07
         0.11368E+06
         0.17741E+07
         0.72737E+06
         0.19930E+07
         0.30258E+07
         0.37313E+07
         0.32526E+07
         0.34441E+07
         0.30144E+07
         0.23430E+07
         0.20759E+07
         0.17450E+07
         0.12184E+07
         0.19620E+07
         0.82484E+06
        -0.12065E+06
        -0.44460E+04
         0.18231E+06
         0.54537E+06
         0.16318E+07
         0.16463E+07
         0.12400E+07
         0.67528E+06
         0.68664E+06
         0.14135E+07
         0.20771E+07
         0.18494E+07
         0.10476E+07
         0.12784E+07
         0.18976E+07
         0.16265E+07
         0.21998E+07
        -0.35627E+06
        -0.92240E+05
         0.21709E+07
        -0.33139E+06
        -0.12444E+07
         0.95003E+06
         0.11995E+07
        -0.22924E+07
         0.24375E+06
         0.91258E+06
         0.10904E+07
         0.14373E+07
         0.25792E+06
         0.63598E+05
         0.63201E+06
         0.12013E+07
         0.12528E+05
        -0.50928E+06
        -0.11148E+07
        -0.54502E+06
        -0.34585E+07
        -0.38917E+07
        -0.21054E+07
        -0.91859E+06
         0.73383E+06
        -0.16197E+06
         0.15317E+07
         0.23063E+07
         0.90078E+06
         0.70513E+06
         0.10650E+07
        -0.18846E+05
         0.99333E+04
         0.33437E+06
         0.90935E+06
         0.45203E+06
         0.53260E+06
        -0.11179E+05
         0.17119E+06
         0.49067E+06
         0.68595E+06
         0.79323E+06
         0.11065E+07
         0.16381E+07
         0.17327E+07
         0.21686E+07
         0.10022E+06
         0.17637E+07
         0.71939E+06
         0.19839E+07
         0.30127E+07
         0.37157E+07
         0.32396E+07
         0.34329E+07
         0.30031E+07
         0.23346E+07
         0.20692E+07
         0.17369E+07
         0.12169E+07
         0.19599E+07
         0.81937E+06
        -0.12366E+06
        -0.10727E+05
         0.15989E+06
         0.51184E+06
         0.15950E+07
         0.16045E+07
         0.11883E+07
         0.62994E+06
         0.66252E+06
         0.14005E+07
         0.20669E+07
         0.18303E+07
         0.10299E+07
         0.12668E+07
         0.18881E+07
         0.16170E+07
         0.21902E+07
        -0.37502E+06
        -0.11213E+06
         0.21509E+07
        -0.35330E+06
        -0.12627E+07
         0.93902E+06
         0.11863E+07
        -0.23119E+07
         0.23470E+06
         0.90113E+06
         0.10762E+07
         0.14266E+07
         0.24878E+06
         0.51051E+05
         0.62318E+06
         0.11920E+07
         0.41526E+04
        -0.51912E+06
        -0.11310E+07
        -0.55984E+06
        -0.34739E+07
        -0.39091E+07
        -0.21224E+07
        -0.93124E+06
         0.71154E+06
        -0.18357E+06
         0.15104E+07
         0.22931E+07
         0.88951E+06
         0.69544E+06
         0.10534E+07
        -0.35420E+05
        -0.47586E+04
         0.31900E+06
         0.89398E+06
         0.43967E+06
         0.52463E+06
        -0.22872E+05
         0.15610E+06
         0.47562E+06
         0.66973E+06
         0.77417E+06
         0.10849E+07
         0.16197E+07
         0.17170E+07
         0.21564E+07
         0.81776E+05
         0.17456E+07
         0.70718E+06
         0.19714E+07
         0.29975E+07
         0.37025E+07
         0.32260E+07
         0.34140E+07
         0.29780E+07
         0.23083E+07
         0.20454E+07
         0.17261E+07
         0.12082E+07
         0.19413E+07
         0.80003E+06
        -0.14193E+06
        -0.34454E+05
         0.13727E+06
         0.49273E+06
         0.15796E+07
         0.15917E+07
         0.11710E+07
         0.60709E+06
         0.64117E+06
         0.13826E+07
         0.20492E+07
         0.18426E+07
         0.10419E+07
         0.12759E+07
         0.18925E+07
         0.16271E+07
         0.21932E+07
        -0.36045E+06
        -0.96864E+05
         0.21639E+07
        -0.33708E+06
        -0.12493E+07
         0.95012E+06
         0.11950E+07
        -0.22975E+07
         0.25236E+06
         0.91666E+06
         0.10929E+07
         0.14359E+07
         0.26687E+06
         0.66087E+05
         0.63513E+06
         0.12034E+07
         0.16530E+05
        -0.50163E+06
        -0.11131E+07
        -0.54345E+06
        -0.34505E+07
        -0.38887E+07
        -0.21062E+07
        -0.91681E+06
         0.72510E+06
        -0.17141E+06
         0.15195E+07
         0.22983E+07
         0.90255E+06
         0.70647E+06
         0.10623E+07
        -0.22594E+05
         0.66134E+04
         0.32904E+06
         0.90481E+06
         0.45168E+06
         0.53676E+06
        -0.11275E+05
         0.16595E+06
         0.48530E+06
         0.68039E+06
         0.78750E+06
         0.10986E+07
         0.16298E+07
         0.17236E+07
         0.21593E+07
         0.10897E+06
         0.17724E+07
         0.72308E+06
         0.19780E+07
         0.30107E+07
         0.37230E+07
         0.32489E+07
         0.34305E+07
         0.29843E+07
         0.23180E+07
         0.20629E+07
         0.17510E+07
         0.12303E+07
         0.19556E+07
         0.81352E+06
        -0.12638E+06
        -0.18743E+05
         0.15655E+06
         0.51101E+06
         0.16010E+07
         0.16140E+07
         0.11909E+07
         0.62359E+06
         0.65582E+06
         0.13973E+07
         0.20652E+07
         0.18396E+07
         0.10409E+07
         0.12737E+07
         0.18866E+07
         0.16251E+07
         0.21881E+07
        -0.36183E+06
        -0.10185E+06
         0.21540E+07
        -0.34467E+06
        -0.12570E+07
         0.94345E+06
         0.11930E+07
        -0.23087E+07
         0.24283E+06
         0.90969E+06
         0.10843E+07
         0.14245E+07
         0.25938E+06
         0.56191E+05
         0.63058E+06
         0.11974E+07
         0.12216E+05
        -0.50807E+06
        -0.11153E+07
        -0.54956E+06
        -0.34550E+07
        -0.38907E+07
        -0.21097E+07
        -0.92207E+06
         0.71839E+06
        -0.17812E+06
         0.15075E+07
         0.22888E+07
         0.89850E+06
         0.70209E+06
         0.10596E+07
        -0.36846E+05
        -0.11484E+04
         0.32162E+06
         0.89744E+06
         0.44703E+06
         0.52997E+06
        -0.14524E+05
         0.16244E+06
         0.48053E+06
         0.67288E+06
         0.77882E+06
         0.10899E+07
         0.16225E+07
         0.17174E+07
         0.21522E+07
         0.10095E+06
         0.17660E+07
         0.71031E+06
         0.19671E+07
         0.30092E+07
         0.37154E+07
         0.32312E+07
         0.34106E+07
         0.29726E+07
         0.23004E+07
         0.20438E+07
         0.17415E+07
         0.12189E+07
         0.19493E+07
         0.80770E+06
        -0.13177E+06
        -0.19560E+05
         0.15278E+06
         0.50552E+06
         0.15865E+07
         0.15958E+07
         0.11769E+07
         0.61638E+06
         0.65223E+06
         0.13892E+07
         0.20538E+07
         0.18310E+07
         0.10318E+07
         0.12671E+07
         0.18836E+07
         0.16185E+07
         0.21849E+07
        -0.36887E+06
        -0.10946E+06
         0.21450E+07
        -0.35222E+06
        -0.12656E+07
         0.93459E+06
         0.11871E+07
        -0.23179E+07
         0.23308E+06
         0.89988E+06
         0.10779E+07
         0.14177E+07
         0.25012E+06
         0.48564E+05
         0.62470E+06
         0.11914E+07
         0.56404E+04
        -0.51814E+06
        -0.11174E+07
        -0.56113E+06
        -0.34581E+07
        -0.38951E+07
        -0.21139E+07
        -0.92562E+06
         0.70859E+06
        -0.18904E+06
         0.15002E+07
         0.22876E+07
         0.88858E+06
         0.69447E+06
         0.10534E+07
        -0.50615E+05
        -0.99462E+04
         0.31522E+06
         0.89330E+06
         0.44311E+06
         0.52378E+06
        -0.20757E+05
         0.15619E+06
         0.47409E+06
         0.66587E+06
         0.77131E+06
         0.10816E+07
         0.16160E+07
         0.17115E+07
         0.21490E+07
         0.85022E+05
         0.17528E+07
         0.70058E+06
         0.19638E+07
         0.30049E+07
         0.37000E+07
         0.32089E+07
         0.33926E+07
         0.29604E+07
         0.22878E+07
         0.20359E+07
         0.17321E+07
         0.12052E+07
         0.19400E+07
         0.79800E+06
        -0.14293E+06
        -0.26956E+05
         0.14409E+06
         0.49472E+06
         0.15745E+07
         0.15820E+07
         0.11625E+07
         0.60601E+06
         0.64235E+06
         0.13769E+07
         0.20409E+07
         0.18368E+07
         0.10356E+07
         0.12705E+07
         0.18908E+07
         0.16253E+07
         0.21922E+07
        -0.35909E+06
        -0.98710E+05
         0.21510E+07
        -0.34457E+06
        -0.12529E+07
         0.94220E+06
         0.11898E+07
        -0.23050E+07
         0.24947E+06
         0.90870E+06
         0.10855E+07
         0.14270E+07
         0.26113E+06
         0.60502E+05
         0.63426E+06
         0.12016E+07
         0.14023E+05
        -0.50737E+06
        -0.11072E+07
        -0.55071E+06
        -0.34429E+07
        -0.38820E+07
        -0.20959E+07
        -0.90998E+06
         0.71937E+06
        -0.18080E+06
         0.15114E+07
         0.22996E+07
         0.89667E+06
         0.70152E+06
         0.10571E+07
        -0.40215E+05
         0.13462E+04
         0.32961E+06
         0.90536E+06
         0.45228E+06
         0.53354E+06
        -0.13626E+05
         0.16216E+06
         0.47949E+06
         0.67238E+06
         0.77942E+06
         0.10905E+07
         0.16246E+07
         0.17184E+07
         0.21572E+07
         0.10488E+06
         0.17743E+07
         0.72080E+06
         0.19738E+07
         0.30016E+07
         0.37010E+07
         0.32248E+07
         0.34103E+07
         0.29724E+07
         0.23059E+07
         0.20531E+07
         0.17403E+07
         0.12200E+07
         0.19550E+07
         0.81163E+06
        -0.13242E+06
        -0.19883E+05
         0.15291E+06
         0.50299E+06
         0.15874E+07
         0.15974E+07
         0.11773E+07
         0.61870E+06
         0.65310E+06
         0.13929E+07
         0.20596E+07
         0.18329E+07
         0.10284E+07
         0.12642E+07
         0.18839E+07
         0.16185E+07
         0.21849E+07
        -0.36826E+06
        -0.10555E+06
         0.21438E+07
        -0.35417E+06
        -0.12654E+07
         0.93118E+06
         0.11777E+07
        -0.23186E+07
         0.24262E+06
         0.90084E+06
         0.10768E+07
         0.14149E+07
         0.24970E+06
         0.48940E+05
         0.62360E+06
         0.11907E+07
         0.27356E+04
        -0.51900E+06
        -0.11153E+07
        -0.56086E+06
        -0.34560E+07
        -0.38986E+07
        -0.21082E+07
        -0.91721E+06
         0.71027E+06
        -0.19112E+06
         0.14971E+07
         0.22910E+07
         0.88720E+06
         0.69265E+06
         0.10469E+07
        -0.55258E+05
        -0.13414E+05
         0.31644E+06
         0.89103E+06
         0.43875E+06
         0.52294E+06
        -0.26433E+05
         0.15068E+06
         0.47008E+06
         0.66237E+06
         0.76761E+06
         0.10799E+07
         0.16174E+07
         0.17105E+07
         0.21491E+07
         0.89137E+05
         0.17608E+07
         0.70542E+06
         0.19561E+07
         0.29810E+07
         0.36814E+07
         0.32127E+07
         0.33948E+07
         0.29519E+07
         0.22856E+07
         0.20285E+07
         0.17160E+07
         0.12036E+07
         0.19380E+07
         0.79712E+06
        -0.14891E+06
        -0.45381E+05
         0.13019E+06
         0.49154E+06
         0.15716E+07
         0.15809E+07
         0.11689E+07
         0.61284E+06
         0.64092E+06
         0.13763E+07
         0.20432E+07
         0.18323E+07
         0.10260E+07
         0.12623E+07
         0.18826E+07
         0.16177E+07
         0.21829E+07
        -0.36894E+06
        -0.10563E+06
         0.21443E+07
        -0.35309E+06
        -0.12671E+07
         0.92968E+06
         0.11758E+07
        -0.23203E+07
         0.24343E+06
         0.89957E+06
         0.10789E+07
         0.14119E+07
         0.24891E+06
         0.47473E+05
         0.62136E+06
         0.11890E+07
         0.27899E+03
        -0.52115E+06
        -0.11130E+07
        -0.56375E+06
        -0.34525E+07
        -0.39008E+07
        -0.21105E+07
        -0.91787E+06
         0.70561E+06
        -0.19528E+06
         0.14907E+07
         0.22898E+07
         0.88506E+06
         0.68980E+06
         0.10438E+07
        -0.62207E+05
        -0.21382E+05
         0.31155E+06
         0.88961E+06
         0.43773E+06
         0.52155E+06
        -0.28498E+05
         0.14859E+06
         0.46789E+06
         0.65918E+06
         0.76302E+06
         0.10755E+07
         0.16158E+07
         0.17090E+07
         0.21471E+07
         0.88631E+05
         0.17610E+07
         0.70123E+06
         0.19492E+07
         0.29806E+07
         0.36811E+07
         0.32078E+07
         0.33818E+07
         0.29371E+07
         0.22775E+07
         0.20276E+07
         0.17136E+07
         0.11995E+07
         0.19313E+07
         0.78956E+06
        -0.15418E+06
        -0.48807E+05
         0.12722E+06
         0.48827E+06
         0.15658E+07
         0.15736E+07
         0.11642E+07
         0.61223E+06
         0.63924E+06
         0.13689E+07
         0.20365E+07
         0.18505E+07
         0.10488E+07
         0.12819E+07
         0.18996E+07
         0.16379E+07
         0.21997E+07
        -0.33891E+06
        -0.83529E+05
         0.21598E+07
        -0.33475E+06
        -0.12371E+07
         0.95370E+06
         0.11979E+07
        -0.22962E+07
         0.26770E+06
         0.91828E+06
         0.11011E+07
         0.14298E+07
         0.27262E+06
         0.72644E+05
         0.64249E+06
         0.12091E+07
         0.20732E+05
        -0.49786E+06
        -0.10862E+07
        -0.54064E+06
        -0.34232E+07
        -0.38660E+07
        -0.20762E+07
        -0.89009E+06
         0.72694E+06
        -0.17188E+06
         0.15085E+07
         0.23056E+07
         0.90655E+06
         0.71034E+06
         0.10634E+07
        -0.46131E+05
        -0.79460E+02
         0.33454E+06
         0.90963E+06
         0.45825E+06
         0.53967E+06
        -0.66687E+04
         0.17093E+06
         0.48913E+06
         0.67988E+06
         0.78349E+06
         0.10939E+07
         0.16313E+07
         0.17235E+07
         0.21615E+07
         0.12480E+06
         0.17970E+07
         0.73149E+06
         0.19712E+07
         0.30072E+07
         0.37147E+07
         0.32360E+07
         0.34034E+07
         0.29614E+07
         0.23039E+07
         0.20516E+07
         0.17417E+07
         0.12220E+07
         0.19565E+07
         0.81810E+06
        -0.12455E+06
        -0.15529E+05
         0.16284E+06
         0.51887E+06
         0.15978E+07
         0.16010E+07
         0.11846E+07
         0.63461E+06
         0.66595E+06
         0.13978E+07
         0.20658E+07
         0.18431E+07
         0.10423E+07
         0.12760E+07
         0.18908E+07
         0.16294E+07
         0.21922E+07
        -0.34696E+06
        -0.92528E+05
         0.21495E+07
        -0.34706E+06
        -0.12494E+07
         0.94524E+06
         0.11926E+07
        -0.23105E+07
         0.25772E+06
         0.90808E+06
         0.10897E+07
         0.14198E+07
         0.25742E+06
         0.58586E+05
         0.63538E+06
         0.11992E+07
         0.13799E+05
        -0.51190E+06
        -0.10964E+07
        -0.55500E+06
        -0.34348E+07
        -0.38773E+07
        -0.20776E+07
        -0.89485E+06
         0.72040E+06
        -0.18356E+06
         0.14984E+07
         0.22951E+07
         0.89433E+06
         0.70229E+06
         0.10584E+07
        -0.63216E+05
        -0.11906E+05
         0.32913E+06
         0.90067E+06
         0.44781E+06
         0.52744E+06
        -0.16190E+05
         0.16094E+06
         0.48029E+06
         0.67157E+06
         0.77690E+06
         0.10849E+07
         0.16206E+07
         0.17142E+07
         0.21532E+07
         0.10161E+06
         0.17775E+07
         0.71372E+06
         0.19618E+07
         0.30040E+07
         0.37059E+07
         0.32167E+07
         0.33800E+07
         0.29387E+07
         0.22838E+07
         0.20278E+07
         0.17146E+07
         0.12026E+07
         0.19468E+07
         0.81362E+06
        -0.12735E+06
        -0.24786E+05
         0.14680E+06
         0.50686E+06
         0.15835E+07
         0.15878E+07
         0.11698E+07
         0.61867E+06
         0.65577E+06
         0.13884E+07
         0.20502E+07
         0.18306E+07
         0.10257E+07
         0.12596E+07
         0.18787E+07
         0.16158E+07
         0.21779E+07
        -0.36105E+06
        -0.10331E+06
         0.21347E+07
        -0.37000E+06
        -0.12643E+07
         0.93152E+06
         0.11807E+07
        -0.23251E+07
         0.24499E+06
         0.89551E+06
         0.10715E+07
         0.14083E+07
         0.24503E+06
         0.51567E+05
         0.62659E+06
         0.11875E+07
         0.54130E+04
        -0.52393E+06
        -0.11174E+07
        -0.56909E+06
        -0.34624E+07
        -0.38957E+07
        -0.20376E+07
        -0.87480E+06
         0.70830E+06
        -0.19994E+06
         0.14883E+07
         0.22880E+07
         0.88057E+06
         0.68898E+06
         0.10464E+07
        -0.88723E+05
        -0.23524E+05
         0.35037E+06
         0.90006E+06
         0.43647E+06
         0.51105E+06
        -0.26492E+05
         0.14819E+06
         0.46613E+06
         0.65702E+06
         0.76508E+06
         0.10746E+07
         0.16119E+07
         0.17058E+07
         0.21430E+07
         0.86115E+05
         0.17633E+07
         0.70163E+06
         0.19513E+07
         0.29893E+07
         0.36822E+07
         0.31894E+07
         0.33539E+07
         0.29158E+07
         0.22784E+07
         0.19864E+07
         0.16495E+07
         0.11752E+07
         0.19315E+07
         0.80010E+06
        -0.13934E+06
        -0.39592E+05
         0.12998E+06
         0.48714E+06
         0.15613E+07
         0.15727E+07
         0.11556E+07
         0.60243E+06
         0.64369E+06
         0.13699E+07
         0.20295E+07
         0.18480E+07
         0.10467E+07
         0.12809E+07
         0.18991E+07
         0.16372E+07
         0.21960E+07
        -0.33457E+06
        -0.81557E+05
         0.21454E+07
        -0.37263E+06
        -0.12373E+07
         0.94947E+06
         0.11971E+07
        -0.23025E+07
         0.26669E+06
         0.91440E+06
         0.10872E+07
         0.14250E+07
         0.27235E+06
         0.93309E+05
         0.64417E+06
         0.12051E+07
         0.21877E+05
        -0.49882E+06
        -0.11082E+07
        -0.54391E+06
        -0.34667E+07
        -0.38740E+07
        -0.19162E+07
        -0.79176E+06
         0.72654E+06
        -0.17615E+06
         0.15057E+07
         0.23089E+07
         0.90358E+06
         0.71188E+06
         0.10650E+07
        -0.86809E+05
         0.71186E+03
         0.42837E+06
         0.93833E+06
         0.45722E+06
         0.52164E+06
        -0.77453E+04
         0.17005E+06
         0.48973E+06
         0.67860E+06
         0.78382E+06
         0.10947E+07
         0.16331E+07
         0.17252E+07
         0.21600E+07
         0.12335E+06
         0.17999E+07
         0.73896E+06
         0.19774E+07
         0.30059E+07
         0.37013E+07
         0.32159E+07
         0.33809E+07
         0.29456E+07
         0.23362E+07
         0.19729E+07
         0.15971E+07
         0.11771E+07
         0.19524E+07
         0.81753E+06
        -0.12477E+06
        -0.21584E+05
         0.15980E+06
         0.52371E+06
         0.15954E+07
         0.16024E+07
         0.11863E+07
         0.63685E+06
         0.67561E+06
         0.13957E+07
         0.20567E+07
         0.17839E+07
         0.96963E+06
         0.12050E+07
         0.18226E+07
         0.15606E+07
         0.21166E+07
        -0.42508E+06
        -0.15655E+06
         0.20657E+07
        -0.46549E+06
        -0.13398E+07
         0.86431E+06
         0.11139E+07
        -0.23992E+07
         0.18114E+06
         0.84472E+06
         0.99491E+06
         0.13463E+07
         0.18218E+06
         0.58730E+04
         0.56682E+06
         0.11282E+07
        -0.54450E+05
        -0.58732E+06
        -0.12048E+07
        -0.62786E+06
        -0.35782E+07
        -0.39792E+07
        -0.19622E+07
        -0.84627E+06
         0.65392E+06
        -0.26345E+06
         0.14229E+07
         0.22231E+07
         0.81959E+06
         0.62780E+06
         0.98273E+06
        -0.18838E+06
        -0.82537E+05
         0.37846E+06
         0.86384E+06
         0.37533E+06
         0.43931E+06
        -0.84478E+05
         0.87547E+05
         0.40137E+06
         0.59494E+06
         0.70481E+06
         0.10119E+07
         0.15479E+07
         0.16382E+07
         0.20765E+07
        -0.69895E+04
         0.16737E+07
         0.60814E+06
         0.18442E+07
         0.28736E+07
         0.35743E+07
         0.30865E+07
         0.32411E+07
         0.28141E+07
         0.22170E+07
         0.18067E+07
         0.14162E+07
         0.10472E+07
         0.18441E+07
         0.70496E+06
        -0.24111E+06
        -0.14149E+06
         0.26439E+05
         0.38621E+06
         0.14639E+07
         0.14795E+07
         0.10682E+07
         0.51635E+06
         0.55150E+06
         0.12768E+07
         0.19386E+07
         0.18208E+07
         0.97499E+06
         0.12193E+07
         0.18532E+07
         0.15862E+07
         0.21426E+07
        -0.41078E+06
        -0.11015E+06
         0.21177E+07
        -0.39629E+06
        -0.13112E+07
         0.86594E+06
         0.10927E+07
        -0.23416E+07
         0.22021E+06
         0.89949E+06
         0.10578E+07
         0.13882E+07
         0.23137E+06
         0.56967E+05
         0.60190E+06
         0.11546E+07
         0.43976E+03
        -0.52093E+06
        -0.11140E+07
        -0.56604E+06
        -0.34825E+07
        -0.38581E+07
        -0.18606E+07
        -0.76255E+06
         0.69926E+06
        -0.22519E+06
         0.14450E+07
         0.22111E+07
         0.83248E+06
         0.62141E+06
         0.95938E+06
        -0.14062E+06
        -0.21395E+05
         0.43264E+06
         0.89767E+06
         0.42207E+06
         0.48863E+06
        -0.32117E+05
         0.11759E+06
         0.41496E+06
         0.60761E+06
         0.73868E+06
         0.10393E+07
         0.15492E+07
         0.16438E+07
         0.20780E+07
         0.42985E+05
         0.17386E+07
         0.62450E+06
         0.18155E+07
         0.28141E+07
         0.35382E+07
         0.31456E+07
         0.33023E+07
         0.28629E+07
         0.22458E+07
         0.18148E+07
         0.14410E+07
         0.10963E+07
         0.18685E+07
         0.75611E+06
        -0.16833E+06
        -0.79649E+05
         0.73527E+05
         0.40659E+06
         0.14615E+07
         0.15067E+07
         0.11073E+07
         0.57820E+06
         0.62679E+06
         0.13360E+07
         0.19999E+07
         0.25004E+09
         0.29035E+09
         0.29177E+09
         0.29328E+09
         0.29690E+09
         0.29974E+09
         0.35153E+09
         0.28385E+09
         0.27183E+09
         0.28567E+09
         0.36358E+09
         0.32549E+09
         0.30307E+09
         0.34157E+09
         0.33158E+09
         0.25593E+09
         0.31841E+09
         0.28294E+09
         0.31220E+09
         0.35146E+09
         0.27730E+09
         0.28283E+09
         0.26938E+09
         0.32090E+09
         0.31156E+09
         0.30734E+09
         0.33781E+09
         0.38468E+09
         0.38700E+09
         0.31968E+09
         0.26798E+09
         0.31825E+09
         0.29669E+09
         0.31158E+09
         0.31384E+09
         0.30988E+09
         0.29549E+09
         0.32212E+09
         0.32160E+09
         0.32158E+09
         0.31533E+09
         0.30196E+09
         0.28646E+09
         0.26831E+09
         0.28577E+09
         0.31171E+09
         0.30356E+09
         0.29276E+09
         0.30004E+09
         0.30095E+09
         0.30274E+09
         0.29708E+09
         0.47646E+09
         0.46603E+09
         0.47290E+09
         0.45816E+09
         0.47082E+09
         0.49187E+09
         0.49515E+09
         0.49324E+09
         0.49790E+09
         0.50943E+09
         0.49461E+09
         0.46670E+09
         0.41982E+09
         0.39802E+09
         0.40084E+09
         0.40797E+09
         0.41219E+09
         0.44643E+09
         0.47931E+09
         0.48067E+09
         0.44409E+09
         0.42991E+09
         0.44335E+09
         0.43962E+09
         0.43580E+09
         0.43696E+09
         0.22759E+10
         0.23889E+10
         0.23591E+10
         0.21799E+10
         0.26049E+10
         0.24714E+10
         0.25689E+10
         0.25688E+10
         0.22458E+10
         0.25685E+10
         0.27917E+10
         0.30540E+10
         0.28022E+10
         0.28597E+10
         0.31489E+10
         0.22016E+10
         0.23586E+10
         0.20956E+10
         0.24248E+10
         0.25415E+10
         0.25814E+10
         0.26370E+10
         0.24910E+10
         0.23452E+10
         0.26060E+10
         0.22752E+10
         0.28503E+10
         0.28155E+10
         0.28255E+10
         0.26883E+10
         0.22268E+10
         0.23368E+10
         0.21954E+10
         0.22846E+10
         0.28194E+10
         0.26230E+10
         0.26231E+10
         0.30666E+10
         0.30057E+10
         0.29761E+10
         0.30082E+10
         0.28725E+10
         0.27274E+10
         0.24446E+10
         0.25421E+10
         0.28149E+10
         0.26360E+10
         0.24974E+10
         0.24577E+10
         0.25354E+10
         0.27152E+10
         0.25395E+10
         0.42345E+10
         0.41260E+10
         0.42040E+10
         0.40761E+10
         0.41872E+10
         0.43882E+10
         0.44611E+10
         0.44642E+10
         0.44980E+10
         0.45909E+10
         0.44635E+10
         0.42046E+10
         0.38006E+10
         0.36033E+10
         0.36032E+10
         0.36410E+10
         0.36714E+10
         0.39636E+10
         0.42453E+10
         0.42588E+10
         0.39604E+10
         0.38466E+10
         0.39638E+10
         0.39393E+10
         0.38926E+10
         0.38834E+10
  
SCALARS                      stress_yz  double 1
LOOKUP_TABLE default
         0.33413E+06
        -0.11114E+06
        -0.28876E+06
        -0.14852E+06
        -0.53682E+01
        -0.14796E+01
        -0.66529E+01
        -0.50744E+01
        -0.10823E+07
         0.71186E+06
        -0.99008E+01
        -0.87165E+01
        -0.94940E+06
        -0.48276E+05
         0.70856E+01
        -0.45428E+00
         0.32643E+06
         0.12166E+07
         0.10425E+00
         0.10666E+01
        -0.63128E+06
        -0.23762E+07
        -0.24703E+07
         0.16242E+02
         0.28051E+02
         0.23447E+02
        -0.23421E+06
        -0.24089E+07
         0.11684E+02
         0.22666E+02
         0.37306E+06
         0.32518E+06
        -0.27621E+06
         0.60570E+01
         0.61832E+01
        -0.12837E+00
         0.11087E+07
         0.10683E+07
         0.11146E+02
         0.86720E+01
         0.10898E+07
         0.69370E+06
         0.84234E+01
         0.76979E+01
         0.98842E+06
         0.34078E+06
        -0.27942E+00
         0.43221E+01
         0.91769E+06
         0.20350E+01
         0.90451E+05
        -0.16482E+00
         0.54063E+05
         0.78715E+01
        -0.35829E+06
         0.45790E+01
        -0.11685E+07
         0.20750E+06
         0.12422E+00
        -0.25213E+00
         0.45241E+06
         0.16507E+07
        -0.16925E+01
        -0.63309E+01
         0.27319E+06
        -0.34164E+01
         0.11728E+07
        -0.41620E+01
        -0.95250E+06
        -0.50453E+06
        -0.51435E+00
         0.67912E+01
        -0.17640E+07
         0.14912E+02
        -0.30577E+07
         0.14439E+02
        -0.30858E+07
         0.10961E+02
        -0.25420E+07
         0.91870E+01
        -0.37282E+07
        -0.28615E+07
         0.58935E+01
        -0.13067E+01
        -0.40021E+06
        -0.14621E+00
         0.15447E+07
        -0.91591E+01
         0.36507E+07
        -0.16034E+02
         0.51014E+07
         0.31622E+07
        -0.23782E+02
        -0.19249E+02
         0.22240E+07
        -0.14942E+02
         0.19956E+07
        -0.15287E+02
         0.19419E+07
        -0.16437E+02
         0.32314E+07
         0.26855E+07
        -0.15285E+02
        -0.73239E+01
        -0.21677E+07
         0.82052E+06
         0.53746E+01
        -0.66789E+01
        -0.53290E+07
         0.17880E+02
        -0.76289E+07
         0.26154E+02
        -0.93401E+07
         0.32300E+02
        -0.10954E+08
         0.32039E+02
        -0.12895E+08
         0.25355E+02
        -0.13180E+08
         0.19622E+02
        -0.12411E+08
         0.18250E+02
        -0.11044E+08
         0.17363E+02
        -0.80543E+07
         0.11096E+02
        -0.54397E+07
         0.36636E+01
        -0.27291E+07
         0.23673E+01
         0.19632E+06
         0.35582E+01
         0.26042E+07
         0.18378E+01
         0.46718E+07
        -0.55577E+01
         0.72301E+07
        -0.15687E+02
         0.81349E+07
        -0.24496E+02
         0.88980E+07
        -0.32114E+02
         0.11367E+08
        -0.32087E+02
         0.11774E+08
        -0.28010E+02
         0.10881E+08
        -0.27299E+02
         0.88494E+07
        -0.27469E+02
         0.60165E+07
        -0.21721E+02
         0.42615E+07
        -0.12845E+02
         0.30646E+07
        -0.99317E+01
        -0.28647E+07
        -0.14812E+07
        -0.12931E+07
        -0.40178E+06
        -0.13237E+07
        -0.14088E+07
        -0.14836E+06
        -0.22817E+07
        -0.19601E+07
        -0.28736E+07
         0.14979E+07
         0.63886E+07
         0.43678E+07
         0.50663E+06
         0.64556E+07
         0.75897E+06
        -0.67233E+06
         0.43305E+06
         0.56455E+06
        -0.42686E+06
         0.39178E+06
         0.32313E+06
        -0.10852E+07
         0.91479E+05
        -0.19620E+07
         0.29005E+06
         0.15006E+05
         0.26238E+06
         0.31816E+06
        -0.15373E+07
         0.74078E+06
        -0.80280E+06
         0.53871E+06
        -0.13113E+06
         0.21580E+06
         0.11710E+07
         0.26273E+07
         0.56757E+07
         0.51857E+07
         0.43774E+07
         0.41184E+07
         0.10249E+07
        -0.83996E+06
        -0.23034E+07
        -0.38025E+07
        -0.62003E+07
        -0.40745E+07
        -0.29264E+07
        -0.31219E+07
        -0.33128E+07
        -0.38810E+07
        -0.17766E+07
         0.33288E+07
        -0.40072E+07
         0.10850E+08
         0.14995E+08
         0.19112E+08
         0.22676E+08
         0.22782E+08
         0.20622E+08
         0.19625E+08
         0.18546E+08
         0.11978E+08
         0.52692E+07
         0.23205E+07
         0.10234E+07
        -0.15679E+07
        -0.62004E+07
        -0.11395E+08
        -0.14861E+08
        -0.17949E+08
        -0.20590E+08
        -0.19410E+08
        -0.18350E+08
        -0.17069E+08
        -0.11864E+08
        -0.69364E+07
        -0.60924E+07
        -0.16432E+09
        -0.16806E+09
        -0.16445E+09
        -0.46263E+08
        -0.12021E+09
        -0.76657E+08
        -0.90348E+08
        -0.15775E+09
        -0.16125E+09
        -0.15693E+09
         0.15706E+09
         0.17931E+09
         0.13722E+09
         0.37860E+08
         0.16926E+09
         0.84309E+08
        -0.38407E+08
         0.36667E+08
         0.16044E+09
         0.31953E+08
         0.46984E+08
         0.35404E+08
        -0.21040E+08
         0.49490E+08
        -0.16021E+09
         0.49480E+08
         0.85852E+07
         0.23082E+08
        -0.36869E+08
        -0.14789E+09
         0.10557E+09
         0.35979E+08
         0.88281E+08
         0.76653E+08
        -0.13631E+08
         0.67381E+08
         0.10081E+09
         0.15544E+09
         0.17510E+09
         0.16505E+09
         0.87375E+08
        -0.23656E+08
        -0.48426E+08
        -0.76847E+08
        -0.11005E+09
        -0.16761E+09
        -0.14495E+09
        -0.11174E+09
        -0.16868E+09
        -0.17002E+09
        -0.11085E+09
        -0.11847E+08
         0.35349E+08
        -0.49488E+08
         0.11061E+09
         0.14390E+09
         0.17523E+09
         0.19712E+09
         0.20046E+09
         0.19479E+09
         0.19112E+09
         0.17776E+09
         0.11369E+09
         0.37942E+08
         0.17982E+08
         0.16137E+08
        -0.68596E+07
        -0.54659E+08
        -0.10587E+09
        -0.13599E+09
        -0.18336E+09
        -0.19843E+09
        -0.19171E+09
        -0.19001E+09
        -0.17865E+09
        -0.12842E+09
        -0.64992E+08
        -0.62015E+08
        -0.16430E+09
        -0.16805E+09
        -0.16445E+09
        -0.46602E+08
        -0.12027E+09
        -0.76759E+08
        -0.90461E+08
        -0.15788E+09
        -0.16127E+09
        -0.15708E+09
         0.15715E+09
         0.17930E+09
         0.13721E+09
         0.37945E+08
         0.16931E+09
         0.84250E+08
        -0.38756E+08
         0.36612E+08
         0.16046E+09
         0.31774E+08
         0.47096E+08
         0.35440E+08
        -0.21046E+08
         0.49467E+08
        -0.16028E+09
         0.49390E+08
         0.86836E+07
         0.23211E+08
        -0.36626E+08
        -0.14795E+09
         0.10549E+09
         0.35900E+08
         0.88477E+08
         0.76778E+08
        -0.13497E+08
         0.67443E+08
         0.10083E+09
         0.15545E+09
         0.17511E+09
         0.16503E+09
         0.87388E+08
        -0.23581E+08
        -0.48470E+08
        -0.76888E+08
        -0.11008E+09
        -0.16762E+09
        -0.14496E+09
        -0.11168E+09
        -0.16868E+09
        -0.17001E+09
        -0.11086E+09
        -0.11685E+08
         0.35328E+08
        -0.49501E+08
         0.11063E+09
         0.14390E+09
         0.17524E+09
         0.19711E+09
         0.20045E+09
         0.19478E+09
         0.19112E+09
         0.17776E+09
         0.11369E+09
         0.37959E+08
         0.17982E+08
         0.16171E+08
        -0.68029E+07
        -0.54676E+08
        -0.10589E+09
        -0.13600E+09
        -0.18336E+09
        -0.19843E+09
        -0.19171E+09
        -0.19001E+09
        -0.17866E+09
        -0.12840E+09
        -0.64954E+08
        -0.61963E+08
        -0.16429E+09
        -0.16805E+09
        -0.16444E+09
        -0.46945E+08
        -0.12034E+09
        -0.76863E+08
        -0.90574E+08
        -0.15800E+09
        -0.16129E+09
        -0.15723E+09
         0.15725E+09
         0.17929E+09
         0.13719E+09
         0.38026E+08
         0.16936E+09
         0.84190E+08
        -0.39109E+08
         0.36557E+08
         0.16048E+09
         0.31593E+08
         0.47209E+08
         0.35476E+08
        -0.21055E+08
         0.49436E+08
        -0.16034E+09
         0.49287E+08
         0.87891E+07
         0.23348E+08
        -0.36361E+08
        -0.14801E+09
         0.10541E+09
         0.35805E+08
         0.88674E+08
         0.76902E+08
        -0.13363E+08
         0.67506E+08
         0.10085E+09
         0.15547E+09
         0.17512E+09
         0.16500E+09
         0.87404E+08
        -0.23499E+08
        -0.48511E+08
        -0.76936E+08
        -0.11011E+09
        -0.16763E+09
        -0.14498E+09
        -0.11162E+09
        -0.16868E+09
        -0.17000E+09
        -0.11087E+09
        -0.11522E+08
         0.35306E+08
        -0.49515E+08
         0.11066E+09
         0.14390E+09
         0.17524E+09
         0.19711E+09
         0.20044E+09
         0.19477E+09
         0.19112E+09
         0.17776E+09
         0.11368E+09
         0.37976E+08
         0.17983E+08
         0.16204E+08
        -0.67460E+07
        -0.54693E+08
        -0.10591E+09
        -0.13600E+09
        -0.18337E+09
        -0.19843E+09
        -0.19172E+09
        -0.19002E+09
        -0.17867E+09
        -0.12839E+09
        -0.64916E+08
        -0.61912E+08
        -0.16427E+09
        -0.16804E+09
        -0.16443E+09
        -0.47290E+08
        -0.12040E+09
        -0.76967E+08
        -0.90694E+08
        -0.15812E+09
        -0.16132E+09
        -0.15738E+09
         0.15734E+09
         0.17928E+09
         0.13718E+09
         0.38112E+08
         0.16942E+09
         0.84125E+08
        -0.39468E+08
         0.36500E+08
         0.16050E+09
         0.31401E+08
         0.47324E+08
         0.35507E+08
        -0.21073E+08
         0.49388E+08
        -0.16040E+09
         0.49153E+08
         0.88984E+07
         0.23530E+08
        -0.36031E+08
        -0.14807E+09
         0.10532E+09
         0.35676E+08
         0.88868E+08
         0.77027E+08
        -0.13229E+08
         0.67567E+08
         0.10086E+09
         0.15548E+09
         0.17513E+09
         0.16498E+09
         0.87426E+08
        -0.23398E+08
        -0.48541E+08
        -0.77003E+08
        -0.11015E+09
        -0.16764E+09
        -0.14499E+09
        -0.11156E+09
        -0.16869E+09
        -0.17000E+09
        -0.11088E+09
        -0.11360E+08
         0.35285E+08
        -0.49528E+08
         0.11068E+09
         0.14390E+09
         0.17525E+09
         0.19710E+09
         0.20043E+09
         0.19476E+09
         0.19113E+09
         0.17776E+09
         0.11368E+09
         0.37997E+08
         0.17984E+08
         0.16238E+08
        -0.66886E+07
        -0.54711E+08
        -0.10594E+09
        -0.13601E+09
        -0.18337E+09
        -0.19843E+09
        -0.19172E+09
        -0.19002E+09
        -0.17868E+09
        -0.12837E+09
        -0.64878E+08
        -0.61860E+08
        -0.16426E+09
        -0.16804E+09
        -0.16442E+09
        -0.47633E+08
        -0.12047E+09
        -0.77070E+08
        -0.90805E+08
        -0.15824E+09
        -0.16135E+09
        -0.15753E+09
         0.15743E+09
         0.17927E+09
         0.13716E+09
         0.38200E+08
         0.16947E+09
         0.84056E+08
        -0.39833E+08
         0.36443E+08
         0.16052E+09
         0.31198E+08
         0.47438E+08
         0.35534E+08
        -0.21099E+08
         0.49318E+08
        -0.16044E+09
         0.48983E+08
         0.90205E+07
         0.23752E+08
        -0.35636E+08
        -0.14812E+09
         0.10521E+09
         0.35508E+08
         0.89062E+08
         0.77151E+08
        -0.13095E+08
         0.67630E+08
         0.10088E+09
         0.15550E+09
         0.17514E+09
         0.16496E+09
         0.87457E+08
        -0.23276E+08
        -0.48560E+08
        -0.77091E+08
        -0.11021E+09
        -0.16765E+09
        -0.14501E+09
        -0.11150E+09
        -0.16869E+09
        -0.16999E+09
        -0.11089E+09
        -0.11197E+08
         0.35263E+08
        -0.49542E+08
         0.11070E+09
         0.14390E+09
         0.17525E+09
         0.19709E+09
         0.20042E+09
         0.19474E+09
         0.19113E+09
         0.17776E+09
         0.11367E+09
         0.38021E+08
         0.17986E+08
         0.16270E+08
        -0.66310E+07
        -0.54730E+08
        -0.10598E+09
        -0.13602E+09
        -0.18338E+09
        -0.19843E+09
        -0.19173E+09
        -0.19002E+09
        -0.17870E+09
        -0.12836E+09
        -0.64840E+08
        -0.61809E+08
        -0.16425E+09
        -0.16803E+09
        -0.16442E+09
        -0.47979E+08
        -0.12053E+09
        -0.77173E+08
        -0.90906E+08
        -0.15836E+09
        -0.16138E+09
        -0.15768E+09
         0.15754E+09
         0.17926E+09
         0.13714E+09
         0.38292E+08
         0.16953E+09
         0.83988E+08
        -0.40205E+08
         0.36387E+08
         0.16055E+09
         0.30992E+08
         0.47552E+08
         0.35560E+08
        -0.21129E+08
         0.49242E+08
        -0.16048E+09
         0.48802E+08
         0.91520E+07
         0.23998E+08
        -0.35213E+08
        -0.14816E+09
         0.10510E+09
         0.35320E+08
         0.89261E+08
         0.77282E+08
        -0.12960E+08
         0.67693E+08
         0.10090E+09
         0.15551E+09
         0.17516E+09
         0.16495E+09
         0.87489E+08
        -0.23147E+08
        -0.48574E+08
        -0.77185E+08
        -0.11027E+09
        -0.16767E+09
        -0.14502E+09
        -0.11144E+09
        -0.16870E+09
        -0.16998E+09
        -0.11090E+09
        -0.11032E+08
         0.35242E+08
        -0.49556E+08
         0.11072E+09
         0.14390E+09
         0.17526E+09
         0.19709E+09
         0.20041E+09
         0.19473E+09
         0.19114E+09
         0.17776E+09
         0.11367E+09
         0.38047E+08
         0.17990E+08
         0.16302E+08
        -0.65735E+07
        -0.54749E+08
        -0.10601E+09
        -0.13604E+09
        -0.18339E+09
        -0.19842E+09
        -0.19173E+09
        -0.19003E+09
        -0.17871E+09
        -0.12834E+09
        -0.64802E+08
        -0.61757E+08
        -0.16423E+09
        -0.16802E+09
        -0.16442E+09
        -0.48335E+08
        -0.12060E+09
        -0.77277E+08
        -0.90984E+08
        -0.15848E+09
        -0.16140E+09
        -0.15782E+09
         0.15767E+09
         0.17925E+09
         0.13713E+09
         0.38407E+08
         0.16958E+09
         0.83923E+08
        -0.40587E+08
         0.36330E+08
         0.16057E+09
         0.30785E+08
         0.47667E+08
         0.35586E+08
        -0.21159E+08
         0.49168E+08
        -0.16052E+09
         0.48620E+08
         0.93071E+07
         0.24259E+08
        -0.34782E+08
        -0.14819E+09
         0.10500E+09
         0.35120E+08
         0.89466E+08
         0.77419E+08
        -0.12824E+08
         0.67757E+08
         0.10092E+09
         0.15553E+09
         0.17517E+09
         0.16493E+09
         0.87523E+08
        -0.23016E+08
        -0.48586E+08
        -0.77278E+08
        -0.11034E+09
        -0.16768E+09
        -0.14505E+09
        -0.11141E+09
        -0.16871E+09
        -0.16998E+09
        -0.11090E+09
        -0.10865E+08
         0.35220E+08
        -0.49569E+08
         0.11074E+09
         0.14390E+09
         0.17526E+09
         0.19708E+09
         0.20041E+09
         0.19472E+09
         0.19114E+09
         0.17776E+09
         0.11367E+09
         0.38073E+08
         0.17993E+08
         0.16335E+08
        -0.65158E+07
        -0.54768E+08
        -0.10604E+09
        -0.13605E+09
        -0.18339E+09
        -0.19842E+09
        -0.19174E+09
        -0.19003E+09
        -0.17871E+09
        -0.12833E+09
        -0.64764E+08
        -0.61705E+08
        -0.16422E+09
        -0.16801E+09
        -0.16441E+09
        -0.48696E+08
        -0.12066E+09
        -0.77381E+08
        -0.91045E+08
        -0.15859E+09
        -0.16143E+09
        -0.15796E+09
         0.15781E+09
         0.17924E+09
         0.13712E+09
         0.38527E+08
         0.16963E+09
         0.83860E+08
        -0.40973E+08
         0.36273E+08
         0.16059E+09
         0.30578E+08
         0.47782E+08
         0.35612E+08
        -0.21189E+08
         0.49096E+08
        -0.16057E+09
         0.48439E+08
         0.94681E+07
         0.24527E+08
        -0.34350E+08
        -0.14823E+09
         0.10490E+09
         0.34911E+08
         0.89674E+08
         0.77561E+08
        -0.12687E+08
         0.67823E+08
         0.10094E+09
         0.15555E+09
         0.17518E+09
         0.16491E+09
         0.87557E+08
        -0.22884E+08
        -0.48598E+08
        -0.77371E+08
        -0.11040E+09
        -0.16769E+09
        -0.14509E+09
        -0.11139E+09
        -0.16872E+09
        -0.16997E+09
        -0.11091E+09
        -0.10697E+08
         0.35199E+08
        -0.49582E+08
         0.11076E+09
         0.14390E+09
         0.17527E+09
         0.19707E+09
         0.20040E+09
         0.19471E+09
         0.19114E+09
         0.17776E+09
         0.11367E+09
         0.38099E+08
         0.17996E+08
         0.16368E+08
        -0.64581E+07
        -0.54787E+08
        -0.10608E+09
        -0.13606E+09
        -0.18340E+09
        -0.19842E+09
        -0.19175E+09
        -0.19003E+09
        -0.17872E+09
        -0.12831E+09
        -0.64726E+08
        -0.61653E+08
        -0.16421E+09
        -0.16800E+09
        -0.16441E+09
        -0.49056E+08
        -0.12072E+09
        -0.77485E+08
        -0.91107E+08
        -0.15870E+09
        -0.16146E+09
        -0.15809E+09
         0.15795E+09
         0.17923E+09
         0.13711E+09
         0.38652E+08
         0.16969E+09
         0.83797E+08
        -0.41362E+08
         0.36215E+08
         0.16061E+09
         0.30369E+08
         0.47896E+08
         0.35639E+08
        -0.21218E+08
         0.49024E+08
        -0.16061E+09
         0.48259E+08
         0.96331E+07
         0.24793E+08
        -0.33918E+08
        -0.14826E+09
         0.10479E+09
         0.34704E+08
         0.89882E+08
         0.77702E+08
        -0.12550E+08
         0.67886E+08
         0.10096E+09
         0.15557E+09
         0.17519E+09
         0.16489E+09
         0.87591E+08
        -0.22754E+08
        -0.48609E+08
        -0.77463E+08
        -0.11047E+09
        -0.16771E+09
        -0.14512E+09
        -0.11137E+09
        -0.16873E+09
        -0.16996E+09
        -0.11091E+09
        -0.10528E+08
         0.35177E+08
        -0.49595E+08
         0.11078E+09
         0.14390E+09
         0.17527E+09
         0.19707E+09
         0.20039E+09
         0.19470E+09
         0.19115E+09
         0.17776E+09
         0.11367E+09
         0.38124E+08
         0.17999E+08
         0.16401E+08
        -0.64006E+07
        -0.54806E+08
        -0.10611E+09
        -0.13607E+09
        -0.18341E+09
        -0.19842E+09
        -0.19175E+09
        -0.19004E+09
        -0.17873E+09
        -0.12829E+09
        -0.64688E+08
        -0.61601E+08
        -0.16420E+09
        -0.16799E+09
        -0.16441E+09
        -0.49415E+08
        -0.12079E+09
        -0.77588E+08
        -0.91168E+08
        -0.15881E+09
        -0.16149E+09
        -0.15822E+09
         0.15809E+09
         0.17922E+09
         0.13710E+09
         0.38772E+08
         0.16974E+09
         0.83734E+08
        -0.41752E+08
         0.36157E+08
         0.16063E+09
         0.30159E+08
         0.48010E+08
         0.35665E+08
        -0.21246E+08
         0.48953E+08
        -0.16066E+09
         0.48079E+08
         0.97934E+07
         0.25055E+08
        -0.33488E+08
        -0.14829E+09
         0.10469E+09
         0.34496E+08
         0.90088E+08
         0.77843E+08
        -0.12413E+08
         0.67951E+08
         0.10098E+09
         0.15559E+09
         0.17520E+09
         0.16487E+09
         0.87624E+08
        -0.22624E+08
        -0.48622E+08
        -0.77555E+08
        -0.11053E+09
        -0.16772E+09
        -0.14515E+09
        -0.11134E+09
        -0.16874E+09
        -0.16995E+09
        -0.11091E+09
        -0.10359E+08
         0.35155E+08
        -0.49609E+08
         0.11080E+09
         0.14390E+09
         0.17528E+09
         0.19706E+09
         0.20038E+09
         0.19469E+09
         0.19115E+09
         0.17776E+09
         0.11367E+09
         0.38149E+08
         0.18003E+08
         0.16434E+08
        -0.63432E+07
        -0.54825E+08
        -0.10615E+09
        -0.13608E+09
        -0.18341E+09
        -0.19842E+09
        -0.19176E+09
        -0.19004E+09
        -0.17874E+09
        -0.12828E+09
        -0.64650E+08
        -0.61549E+08
        -0.16418E+09
        -0.16797E+09
        -0.16441E+09
        -0.49774E+08
        -0.12085E+09
        -0.77690E+08
        -0.91236E+08
        -0.15892E+09
        -0.16152E+09
        -0.15835E+09
         0.15823E+09
         0.17921E+09
         0.13708E+09
         0.38895E+08
         0.16980E+09
         0.83672E+08
        -0.42143E+08
         0.36099E+08
         0.16065E+09
         0.29948E+08
         0.48125E+08
         0.35690E+08
        -0.21276E+08
         0.48882E+08
        -0.16070E+09
         0.47899E+08
         0.99563E+07
         0.25314E+08
        -0.33059E+08
        -0.14833E+09
         0.10459E+09
         0.34289E+08
         0.90295E+08
         0.77984E+08
        -0.12275E+08
         0.68016E+08
         0.10100E+09
         0.15561E+09
         0.17521E+09
         0.16485E+09
         0.87657E+08
        -0.22494E+08
        -0.48634E+08
        -0.77646E+08
        -0.11060E+09
        -0.16773E+09
        -0.14519E+09
        -0.11132E+09
        -0.16875E+09
        -0.16994E+09
        -0.11092E+09
        -0.10189E+08
         0.35133E+08
        -0.49622E+08
         0.11082E+09
         0.14390E+09
         0.17528E+09
         0.19705E+09
         0.20037E+09
         0.19468E+09
         0.19116E+09
         0.17776E+09
         0.11367E+09
         0.38175E+08
         0.18006E+08
         0.16467E+08
        -0.62856E+07
        -0.54844E+08
        -0.10618E+09
        -0.13610E+09
        -0.18342E+09
        -0.19841E+09
        -0.19177E+09
        -0.19004E+09
        -0.17875E+09
        -0.12826E+09
        -0.64612E+08
        -0.61496E+08
        -0.16417E+09
        -0.16796E+09
        -0.16441E+09
        -0.50135E+08
        -0.12091E+09
        -0.77794E+08
        -0.91297E+08
        -0.15903E+09
        -0.16155E+09
        -0.15848E+09
         0.15837E+09
         0.17920E+09
         0.13707E+09
         0.39019E+08
         0.16985E+09
         0.83610E+08
        -0.42534E+08
         0.36040E+08
         0.16067E+09
         0.29739E+08
         0.48239E+08
         0.35716E+08
        -0.21305E+08
         0.48813E+08
        -0.16075E+09
         0.47721E+08
         0.10116E+08
         0.25571E+08
        -0.32629E+08
        -0.14836E+09
         0.10448E+09
         0.34081E+08
         0.90501E+08
         0.78127E+08
        -0.12137E+08
         0.68080E+08
         0.10102E+09
         0.15563E+09
         0.17522E+09
         0.16483E+09
         0.87691E+08
        -0.22365E+08
        -0.48645E+08
        -0.77737E+08
        -0.11067E+09
        -0.16775E+09
        -0.14522E+09
        -0.11130E+09
        -0.16876E+09
        -0.16993E+09
        -0.11092E+09
        -0.10019E+08
         0.35112E+08
        -0.49635E+08
         0.11084E+09
         0.14390E+09
         0.17529E+09
         0.19705E+09
         0.20036E+09
         0.19466E+09
         0.19116E+09
         0.17776E+09
         0.11366E+09
         0.38200E+08
         0.18010E+08
         0.16500E+08
        -0.62278E+07
        -0.54863E+08
        -0.10621E+09
        -0.13611E+09
        -0.18342E+09
        -0.19841E+09
        -0.19177E+09
        -0.19005E+09
        -0.17876E+09
        -0.12825E+09
        -0.64575E+08
        -0.61444E+08
        -0.16416E+09
        -0.16795E+09
        -0.16441E+09
        -0.50498E+08
        -0.12098E+09
        -0.77898E+08
        -0.91359E+08
        -0.15914E+09
        -0.16157E+09
        -0.15861E+09
         0.15851E+09
         0.17920E+09
         0.13706E+09
         0.39139E+08
         0.16990E+09
         0.83548E+08
        -0.42926E+08
         0.35980E+08
         0.16069E+09
         0.29531E+08
         0.48354E+08
         0.35741E+08
        -0.21334E+08
         0.48743E+08
        -0.16079E+09
         0.47541E+08
         0.10280E+08
         0.25825E+08
        -0.32200E+08
        -0.14840E+09
         0.10438E+09
         0.33872E+08
         0.90705E+08
         0.78268E+08
        -0.11999E+08
         0.68145E+08
         0.10104E+09
         0.15565E+09
         0.17523E+09
         0.16481E+09
         0.87723E+08
        -0.22236E+08
        -0.48657E+08
        -0.77829E+08
        -0.11073E+09
        -0.16776E+09
        -0.14525E+09
        -0.11128E+09
        -0.16877E+09
        -0.16992E+09
        -0.11093E+09
        -0.98487E+07
         0.35090E+08
        -0.49647E+08
         0.11086E+09
         0.14390E+09
         0.17529E+09
         0.19704E+09
         0.20035E+09
         0.19465E+09
         0.19117E+09
         0.17775E+09
         0.11366E+09
         0.38226E+08
         0.18013E+08
         0.16533E+08
        -0.61702E+07
        -0.54882E+08
        -0.10625E+09
        -0.13612E+09
        -0.18343E+09
        -0.19841E+09
        -0.19178E+09
        -0.19005E+09
        -0.17877E+09
        -0.12823E+09
        -0.64537E+08
        -0.61392E+08
        -0.16415E+09
        -0.16794E+09
        -0.16441E+09
        -0.50860E+08
        -0.12104E+09
        -0.78002E+08
        -0.91428E+08
        -0.15925E+09
        -0.16160E+09
        -0.15874E+09
         0.15865E+09
         0.17919E+09
         0.13705E+09
         0.39264E+08
         0.16996E+09
         0.83486E+08
        -0.43319E+08
         0.35922E+08
         0.16071E+09
         0.29322E+08
         0.48468E+08
         0.35766E+08
        -0.21363E+08
         0.48674E+08
        -0.16084E+09
         0.47360E+08
         0.10439E+08
         0.26077E+08
        -0.31773E+08
        -0.14843E+09
         0.10428E+09
         0.33664E+08
         0.90911E+08
         0.78411E+08
        -0.11860E+08
         0.68210E+08
         0.10105E+09
         0.15567E+09
         0.17524E+09
         0.16479E+09
         0.87757E+08
        -0.22106E+08
        -0.48669E+08
        -0.77920E+08
        -0.11080E+09
        -0.16777E+09
        -0.14528E+09
        -0.11125E+09
        -0.16877E+09
        -0.16992E+09
        -0.11093E+09
        -0.96790E+07
         0.35068E+08
        -0.49660E+08
         0.11088E+09
         0.14390E+09
         0.17530E+09
         0.19703E+09
         0.20035E+09
         0.19464E+09
         0.19117E+09
         0.17775E+09
         0.11366E+09
         0.38251E+08
         0.18016E+08
         0.16566E+08
        -0.61129E+07
        -0.54901E+08
        -0.10628E+09
        -0.13613E+09
        -0.18344E+09
        -0.19841E+09
        -0.19179E+09
        -0.19006E+09
        -0.17878E+09
        -0.12821E+09
        -0.64500E+08
        -0.61340E+08
        -0.16413E+09
        -0.16793E+09
        -0.16441E+09
        -0.51221E+08
        -0.12110E+09
        -0.78106E+08
        -0.91491E+08
        -0.15936E+09
        -0.16163E+09
        -0.15887E+09
         0.15880E+09
         0.17918E+09
         0.13704E+09
         0.39384E+08
         0.17001E+09
         0.83424E+08
        -0.43714E+08
         0.35864E+08
         0.16073E+09
         0.29112E+08
         0.48582E+08
         0.35791E+08
        -0.21392E+08
         0.48606E+08
        -0.16088E+09
         0.47181E+08
         0.10601E+08
         0.26323E+08
        -0.31348E+08
        -0.14846E+09
         0.10417E+09
         0.33455E+08
         0.91117E+08
         0.78553E+08
        -0.11722E+08
         0.68274E+08
         0.10107E+09
         0.15569E+09
         0.17525E+09
         0.16477E+09
         0.87790E+08
        -0.21977E+08
        -0.48681E+08
        -0.78011E+08
        -0.11086E+09
        -0.16778E+09
        -0.14532E+09
        -0.11123E+09
        -0.16878E+09
        -0.16991E+09
        -0.11094E+09
        -0.95078E+07
         0.35046E+08
        -0.49673E+08
         0.11090E+09
         0.14390E+09
         0.17530E+09
         0.19703E+09
         0.20034E+09
         0.19463E+09
         0.19117E+09
         0.17775E+09
         0.11366E+09
         0.38276E+08
         0.18020E+08
         0.16599E+08
        -0.60554E+07
        -0.54919E+08
        -0.10632E+09
        -0.13614E+09
        -0.18344E+09
        -0.19841E+09
        -0.19179E+09
        -0.19006E+09
        -0.17879E+09
        -0.12820E+09
        -0.64463E+08
        -0.61287E+08
        -0.16412E+09
        -0.16792E+09
        -0.16441E+09
        -0.51582E+08
        -0.12117E+09
        -0.78208E+08
        -0.91555E+08
        -0.15947E+09
        -0.16166E+09
        -0.15899E+09
         0.15894E+09
         0.17917E+09
         0.13702E+09
         0.39508E+08
         0.17006E+09
         0.83362E+08
        -0.44111E+08
         0.35805E+08
         0.16075E+09
         0.28903E+08
         0.48696E+08
         0.35815E+08
        -0.21421E+08
         0.48539E+08
        -0.16093E+09
         0.47000E+08
         0.10759E+08
         0.26567E+08
        -0.30925E+08
        -0.14850E+09
         0.10407E+09
         0.33248E+08
         0.91321E+08
         0.78697E+08
        -0.11582E+08
         0.68338E+08
         0.10109E+09
         0.15571E+09
         0.17526E+09
         0.16475E+09
         0.87824E+08
        -0.21849E+08
        -0.48694E+08
        -0.78101E+08
        -0.11093E+09
        -0.16780E+09
        -0.14535E+09
        -0.11121E+09
        -0.16879E+09
        -0.16990E+09
        -0.11094E+09
        -0.93361E+07
         0.35024E+08
        -0.49686E+08
         0.11092E+09
         0.14390E+09
         0.17531E+09
         0.19702E+09
         0.20033E+09
         0.19462E+09
         0.19118E+09
         0.17775E+09
         0.11366E+09
         0.38301E+08
         0.18023E+08
         0.16632E+08
        -0.59979E+07
        -0.54938E+08
        -0.10635E+09
        -0.13616E+09
        -0.18345E+09
        -0.19841E+09
        -0.19180E+09
        -0.19006E+09
        -0.17880E+09
        -0.12818E+09
        -0.64426E+08
        -0.61235E+08
        -0.16411E+09
        -0.16791E+09
        -0.16440E+09
        -0.51944E+08
        -0.12123E+09
        -0.78312E+08
        -0.91622E+08
        -0.15958E+09
        -0.16169E+09
        -0.15912E+09
         0.15908E+09
         0.17916E+09
         0.13701E+09
         0.39628E+08
         0.17012E+09
         0.83301E+08
        -0.44510E+08
         0.35745E+08
         0.16077E+09
         0.28696E+08
         0.48810E+08
         0.35839E+08
        -0.21449E+08
         0.48472E+08
        -0.16097E+09
         0.46819E+08
         0.10921E+08
         0.26808E+08
        -0.30500E+08
        -0.14853E+09
         0.10397E+09
         0.33039E+08
         0.91526E+08
         0.78840E+08
        -0.11443E+08
         0.68402E+08
         0.10111E+09
         0.15573E+09
         0.17527E+09
         0.16473E+09
         0.87858E+08
        -0.21721E+08
        -0.48706E+08
        -0.78192E+08
        -0.11099E+09
        -0.16781E+09
        -0.14538E+09
        -0.11119E+09
        -0.16880E+09
        -0.16989E+09
        -0.11095E+09
        -0.91652E+07
         0.35002E+08
        -0.49698E+08
         0.11094E+09
         0.14390E+09
         0.17531E+09
         0.19702E+09
         0.20032E+09
         0.19461E+09
         0.19118E+09
         0.17775E+09
         0.11366E+09
         0.38327E+08
         0.18025E+08
         0.16664E+08
        -0.59407E+07
        -0.54956E+08
        -0.10639E+09
        -0.13617E+09
        -0.18346E+09
        -0.19840E+09
        -0.19181E+09
        -0.19007E+09
        -0.17880E+09
        -0.12817E+09
        -0.64390E+08
        -0.61183E+08
        -0.16409E+09
        -0.16789E+09
        -0.16440E+09
        -0.52307E+08
        -0.12129E+09
        -0.78415E+08
        -0.91686E+08
        -0.15969E+09
        -0.16172E+09
        -0.15925E+09
         0.15922E+09
         0.17915E+09
         0.13700E+09
         0.39753E+08
         0.17017E+09
         0.83239E+08
        -0.44914E+08
         0.35684E+08
         0.16079E+09
         0.28499E+08
         0.48924E+08
         0.35861E+08
        -0.21478E+08
         0.48403E+08
        -0.16102E+09
         0.46640E+08
         0.11083E+08
         0.27048E+08
        -0.30077E+08
        -0.14856E+09
         0.10387E+09
         0.32828E+08
         0.91729E+08
         0.78984E+08
        -0.11304E+08
         0.68467E+08
         0.10113E+09
         0.15576E+09
         0.17528E+09
         0.16471E+09
         0.87894E+08
        -0.21594E+08
        -0.48721E+08
        -0.78283E+08
        -0.11106E+09
        -0.16782E+09
        -0.14542E+09
        -0.11116E+09
        -0.16881E+09
        -0.16988E+09
        -0.11095E+09
        -0.89939E+07
         0.34979E+08
        -0.49711E+08
         0.11096E+09
         0.14391E+09
         0.17532E+09
         0.19701E+09
         0.20031E+09
         0.19459E+09
         0.19119E+09
         0.17775E+09
         0.11366E+09
         0.38352E+08
         0.18026E+08
         0.16697E+08
        -0.58835E+07
        -0.54975E+08
        -0.10642E+09
        -0.13618E+09
        -0.18346E+09
        -0.19840E+09
        -0.19181E+09
        -0.19007E+09
        -0.17881E+09
        -0.12815E+09
        -0.64353E+08
        -0.61130E+08
        -0.16408E+09
        -0.16788E+09
        -0.16440E+09
        -0.52670E+08
        -0.12136E+09
        -0.78518E+08
        -0.91749E+08
        -0.15979E+09
        -0.16175E+09
        -0.15938E+09
         0.15936E+09
         0.17914E+09
         0.13699E+09
         0.39879E+08
         0.17023E+09
         0.83178E+08
        -0.45324E+08
         0.35624E+08
         0.16081E+09
         0.28310E+08
         0.49038E+08
         0.35884E+08
        -0.21507E+08
         0.48337E+08
        -0.16107E+09
         0.46459E+08
         0.11252E+08
         0.27284E+08
        -0.29656E+08
        -0.14858E+09
         0.10376E+09
         0.32619E+08
         0.91932E+08
         0.79127E+08
        -0.11163E+08
         0.68531E+08
         0.10115E+09
         0.15578E+09
         0.17529E+09
         0.16469E+09
         0.87932E+08
        -0.21468E+08
        -0.48739E+08
        -0.78373E+08
        -0.11113E+09
        -0.16784E+09
        -0.14545E+09
        -0.11114E+09
        -0.16882E+09
        -0.16987E+09
        -0.11096E+09
        -0.88207E+07
         0.34957E+08
        -0.49723E+08
         0.11098E+09
         0.14391E+09
         0.17532E+09
         0.19700E+09
         0.20030E+09
         0.19458E+09
         0.19119E+09
         0.17774E+09
         0.11366E+09
         0.38376E+08
         0.18026E+08
         0.16729E+08
        -0.58261E+07
        -0.54993E+08
        -0.10645E+09
        -0.13619E+09
        -0.18347E+09
        -0.19840E+09
        -0.19182E+09
        -0.19007E+09
        -0.17882E+09
        -0.12814E+09
        -0.64317E+08
        -0.61077E+08
        -0.16407E+09
        -0.16787E+09
        -0.16440E+09
        -0.53032E+08
        -0.12142E+09
        -0.78620E+08
        -0.91819E+08
        -0.15990E+09
        -0.16178E+09
        -0.15951E+09
         0.15950E+09
         0.17913E+09
         0.13698E+09
         0.40001E+08
         0.17028E+09
         0.83118E+08
        -0.45736E+08
         0.35564E+08
         0.16083E+09
         0.28126E+08
         0.49152E+08
         0.35907E+08
        -0.21534E+08
         0.48275E+08
        -0.16112E+09
         0.46284E+08
         0.11417E+08
         0.27511E+08
        -0.29239E+08
        -0.14861E+09
         0.10366E+09
         0.32415E+08
         0.92136E+08
         0.79273E+08
        -0.11024E+08
         0.68593E+08
         0.10117E+09
         0.15581E+09
         0.17530E+09
         0.16467E+09
         0.87969E+08
        -0.21345E+08
        -0.48758E+08
        -0.78461E+08
        -0.11119E+09
        -0.16785E+09
        -0.14548E+09
        -0.11112E+09
        -0.16883E+09
        -0.16986E+09
        -0.11096E+09
        -0.86480E+07
         0.34935E+08
        -0.49736E+08
         0.11100E+09
         0.14391E+09
         0.17533E+09
         0.19700E+09
         0.20029E+09
         0.19457E+09
         0.19119E+09
         0.17774E+09
         0.11366E+09
         0.38399E+08
         0.18024E+08
         0.16762E+08
        -0.57687E+07
        -0.55011E+08
        -0.10649E+09
        -0.13621E+09
        -0.18347E+09
        -0.19840E+09
        -0.19183E+09
        -0.19008E+09
        -0.17883E+09
        -0.12812E+09
        -0.64281E+08
        -0.61025E+08
        -0.15790E+09
        -0.15051E+09
        -0.14616E+09
        -0.52128E+08
        -0.11534E+09
        -0.71802E+08
        -0.92159E+08
        -0.15218E+09
        -0.14807E+09
        -0.15145E+09
         0.13102E+09
         0.17523E+09
         0.13293E+09
         0.35623E+08
         0.16692E+09
         0.77922E+08
        -0.44425E+08
         0.35612E+08
         0.13685E+09
         0.28040E+08
         0.48096E+08
         0.34944E+08
        -0.20986E+08
         0.48384E+08
        -0.14389E+09
         0.46303E+08
         0.10286E+08
         0.27758E+08
        -0.28979E+08
        -0.13267E+09
         0.94908E+08
         0.32365E+08
         0.91700E+08
         0.79648E+08
        -0.10500E+08
         0.63198E+08
         0.96139E+08
         0.15173E+09
         0.16844E+09
         0.15724E+09
         0.85782E+08
        -0.20666E+08
        -0.47578E+08
        -0.75927E+08
        -0.10627E+09
        -0.16247E+09
        -0.13697E+09
        -0.10335E+09
        -0.15229E+09
        -0.15644E+09
        -0.10681E+09
        -0.79189E+07
         0.34675E+08
        -0.49454E+08
         0.11038E+09
         0.14313E+09
         0.17445E+09
         0.19604E+09
         0.19922E+09
         0.19328E+09
         0.18985E+09
         0.17659E+09
         0.11294E+09
         0.38193E+08
         0.17896E+08
         0.16679E+08
        -0.56822E+07
        -0.54744E+08
        -0.10600E+09
        -0.13556E+09
        -0.18238E+09
        -0.19726E+09
        -0.19068E+09
        -0.18890E+09
        -0.17778E+09
        -0.12732E+09
        -0.63883E+08
        -0.60622E+08
        -0.77898E+08
        -0.49810E+08
        -0.47003E+08
        -0.14096E+08
        -0.50776E+08
        -0.25453E+08
        -0.20715E+08
        -0.67858E+08
        -0.53200E+08
        -0.66329E+08
         0.32435E+08
         0.10423E+09
         0.71397E+08
         0.11389E+08
         0.10185E+09
         0.31630E+08
        -0.11270E+08
         0.98195E+07
         0.38933E+08
         0.63036E+07
         0.27821E+08
         0.19248E+08
        -0.11721E+08
         0.11772E+08
        -0.46921E+08
         0.11821E+08
         0.33282E+07
         0.57658E+07
        -0.59401E+07
        -0.43262E+08
         0.34141E+08
         0.79423E+07
         0.24180E+08
         0.20045E+08
        -0.51388E+07
         0.23300E+08
         0.42559E+08
         0.84816E+08
         0.81821E+08
         0.72566E+08
         0.48706E+08
        -0.11368E+08
        -0.27137E+08
        -0.39032E+08
        -0.48914E+08
        -0.84444E+08
        -0.56849E+08
        -0.40084E+08
        -0.51454E+08
        -0.57772E+08
        -0.52660E+08
        -0.31009E+07
         0.27616E+08
        -0.40157E+08
         0.90545E+08
         0.11849E+09
         0.14594E+09
         0.16522E+09
         0.16553E+09
         0.15489E+09
         0.15013E+09
         0.14168E+09
         0.91036E+08
         0.31317E+08
         0.14267E+08
         0.13356E+08
        -0.46466E+07
        -0.45753E+08
        -0.89287E+08
        -0.11425E+09
        -0.14804E+09
        -0.16151E+09
        -0.15508E+09
        -0.15277E+09
        -0.14497E+09
        -0.10315E+09
        -0.52440E+08
        -0.49585E+08
  
SCALARS                      stress_xz  double 1
LOOKUP_TABLE default
         0.55137E+05
        -0.38884E+06
        -0.12837E+07
         0.88188E+05
        -0.55564E+01
         0.19701E+01
         0.65877E+01
         0.13157E+01
        -0.36119E+07
        -0.24132E+07
         0.19704E+02
         0.17749E+02
         0.15399E+06
        -0.62837E+06
        -0.24302E+01
        -0.11384E+02
        -0.12894E+06
        -0.60302E+06
        -0.82234E+01
        -0.12247E+02
        -0.88371E+06
        -0.14890E+07
        -0.14101E+07
        -0.81782E+01
        -0.37712E+01
         0.65885E+01
        -0.15728E+07
        -0.12770E+07
        -0.15309E+02
        -0.12144E+02
         0.30169E+06
        -0.67014E+06
         0.64137E+05
         0.15586E+01
        -0.60231E+01
        -0.37107E+01
         0.89506E+06
         0.43139E+06
        -0.89423E+01
        -0.95213E+01
         0.17840E+07
         0.25276E+07
        -0.20171E+02
        -0.14875E+02
         0.19088E+07
         0.10166E+07
        -0.22152E+02
        -0.10662E+02
        -0.54785E+06
        -0.66926E+01
         0.13049E+07
        -0.18630E+01
        -0.57145E+06
        -0.13077E+02
         0.42688E+06
        -0.34593E+01
         0.18677E+07
         0.51240E+06
        -0.29634E+01
        -0.71629E+01
        -0.32214E+05
         0.88868E+06
         0.59270E+01
         0.40644E+01
        -0.23081E+06
        -0.59619E+00
        -0.77261E+06
         0.39214E+01
        -0.50828E+07
        -0.34830E+07
         0.24510E+02
         0.17776E+02
        -0.22401E+07
         0.12944E+02
         0.52788E+06
        -0.89538E+01
         0.16519E+07
        -0.17573E+01
         0.35020E+07
        -0.27264E+01
         0.46336E+07
         0.32905E+07
        -0.99915E+01
        -0.11427E+02
         0.29066E+07
        -0.12289E+02
         0.23147E+07
        -0.17693E+02
         0.14415E+07
        -0.11285E+02
         0.22692E+07
         0.16689E+07
        -0.48164E+01
         0.66050E+01
        -0.38150E+06
         0.77475E+01
        -0.10472E+07
         0.32531E+01
        -0.25144E+07
         0.80332E+01
        -0.37169E+07
        -0.25509E+07
         0.18523E+02
         0.19328E+02
        -0.91029E+07
        -0.10080E+08
         0.34226E+02
         0.33728E+02
        -0.90156E+07
         0.29239E+02
        -0.82170E+07
         0.21850E+02
        -0.58950E+07
         0.12008E+02
        -0.42830E+07
         0.12840E+01
        -0.15891E+07
        -0.45733E+01
         0.20473E+07
        -0.36590E+01
         0.48856E+07
        -0.35963E+01
         0.72592E+07
        -0.81100E+01
         0.97651E+07
        -0.15429E+02
         0.11867E+08
        -0.18412E+02
         0.12616E+08
        -0.17372E+02
         0.12017E+08
        -0.18891E+02
         0.11013E+08
        -0.24518E+02
         0.99051E+07
        -0.28911E+02
         0.87361E+07
        -0.26876E+02
         0.69468E+07
        -0.21842E+02
         0.40758E+07
        -0.10311E+02
         0.34940E+06
         0.19690E+01
        -0.22794E+07
         0.47804E+01
        -0.35676E+07
         0.78170E+01
        -0.53655E+07
         0.15298E+02
        -0.70742E+07
         0.25103E+02
        -0.92982E+07
         0.30160E+02
        -0.10683E+08
         0.30849E+02
        -0.88713E+06
         0.46171E+06
         0.54169E+06
        -0.10912E+07
         0.42205E+07
         0.32663E+07
         0.49285E+06
        -0.72421E+06
        -0.37386E+06
        -0.66497E+06
         0.36462E+06
         0.15785E+07
         0.32983E+07
        -0.10551E+07
        -0.12691E+07
         0.14522E+07
         0.12185E+07
        -0.56515E+06
        -0.87860E+06
        -0.94526E+06
        -0.51661E+07
        -0.55012E+07
        -0.49674E+07
        -0.15439E+07
         0.61918E+06
        -0.46140E+06
        -0.14817E+07
        -0.16615E+06
        -0.16995E+07
        -0.11691E+07
         0.12965E+07
         0.25431E+06
        -0.61093E+06
        -0.19748E+06
         0.62372E+07
         0.39759E+07
         0.35990E+07
        -0.25186E+07
        -0.14346E+07
        -0.30675E+07
        -0.63097E+07
        -0.58859E+07
        -0.58155E+07
        -0.42745E+07
        -0.30652E+07
        -0.23963E+07
         0.45032E+06
         0.18820E+07
         0.54422E+06
         0.17245E+07
         0.46042E+07
         0.38807E+07
         0.18187E+08
         0.19106E+08
         0.17075E+08
         0.14529E+08
         0.10817E+08
         0.55074E+07
        -0.32663E+06
        -0.39211E+07
        -0.59749E+07
        -0.10257E+08
        -0.16716E+08
        -0.20365E+08
        -0.18665E+08
        -0.17904E+08
        -0.18917E+08
        -0.18915E+08
        -0.17183E+08
        -0.15040E+08
        -0.76107E+07
         0.12034E+07
         0.46271E+07
         0.51582E+07
         0.87339E+07
         0.13943E+08
         0.18096E+08
         0.19024E+08
        -0.55795E+08
         0.18573E+08
        -0.37391E+08
        -0.12912E+09
         0.12568E+09
         0.15229E+09
         0.65946E+08
        -0.71903E+08
        -0.51495E+08
        -0.72302E+08
        -0.27649E+08
         0.26612E+08
         0.11308E+09
        -0.16650E+09
        -0.66622E+08
         0.14831E+09
         0.12411E+09
        -0.74335E+08
        -0.48565E+08
        -0.87853E+08
        -0.17193E+09
        -0.17391E+09
        -0.17591E+09
        -0.11857E+09
         0.53938E+08
         0.45347E+08
        -0.17004E+09
         0.32653E+08
        -0.82302E+08
        -0.83176E+08
         0.13239E+09
         0.11083E+09
        -0.11109E+09
        -0.95875E+08
         0.17616E+09
         0.15767E+09
         0.14173E+09
        -0.89275E+08
        -0.19094E+08
        -0.59211E+08
        -0.15675E+09
        -0.17667E+09
        -0.17163E+09
        -0.15765E+09
        -0.13502E+09
        -0.58902E+08
         0.94612E+08
         0.13020E+09
        -0.20672E+08
         0.21252E+08
         0.13707E+09
         0.17199E+09
         0.19479E+09
         0.19212E+09
         0.16565E+09
         0.13753E+09
         0.96825E+08
         0.41804E+08
        -0.10776E+08
        -0.38850E+08
        -0.52396E+08
        -0.90294E+08
        -0.16335E+09
        -0.19512E+09
        -0.19461E+09
        -0.19390E+09
        -0.19607E+09
        -0.18967E+09
        -0.16737E+09
        -0.14612E+09
        -0.77129E+08
         0.19566E+08
         0.47608E+08
         0.50565E+08
         0.84782E+08
         0.14986E+09
         0.18688E+09
         0.18773E+09
        -0.55861E+08
         0.18638E+08
        -0.37441E+08
        -0.12921E+09
         0.12561E+09
         0.15223E+09
         0.66366E+08
        -0.71656E+08
        -0.51467E+08
        -0.72044E+08
        -0.27089E+08
         0.26677E+08
         0.11311E+09
        -0.16646E+09
        -0.66523E+08
         0.14835E+09
         0.12438E+09
        -0.74130E+08
        -0.48514E+08
        -0.87699E+08
        -0.17190E+09
        -0.17390E+09
        -0.17591E+09
        -0.11858E+09
         0.53838E+08
         0.45422E+08
        -0.17004E+09
         0.32039E+08
        -0.82881E+08
        -0.83090E+08
         0.13246E+09
         0.11082E+09
        -0.11063E+09
        -0.95918E+08
         0.17618E+09
         0.15764E+09
         0.14171E+09
        -0.89289E+08
        -0.19237E+08
        -0.59321E+08
        -0.15675E+09
        -0.17669E+09
        -0.17162E+09
        -0.15763E+09
        -0.13500E+09
        -0.58875E+08
         0.94592E+08
         0.13026E+09
        -0.20549E+08
         0.21207E+08
         0.13705E+09
         0.17198E+09
         0.19479E+09
         0.19211E+09
         0.16563E+09
         0.13753E+09
         0.96809E+08
         0.41804E+08
        -0.10792E+08
        -0.38884E+08
        -0.52364E+08
        -0.90283E+08
        -0.16335E+09
        -0.19512E+09
        -0.19461E+09
        -0.19390E+09
        -0.19607E+09
        -0.18967E+09
        -0.16736E+09
        -0.14612E+09
        -0.77112E+08
         0.19576E+08
         0.47577E+08
         0.50548E+08
         0.84746E+08
         0.14985E+09
         0.18688E+09
         0.18773E+09
        -0.55926E+08
         0.18702E+08
        -0.37491E+08
        -0.12930E+09
         0.12554E+09
         0.15217E+09
         0.66787E+08
        -0.71409E+08
        -0.51434E+08
        -0.71786E+08
        -0.26531E+08
         0.26742E+08
         0.11314E+09
        -0.16642E+09
        -0.66424E+08
         0.14839E+09
         0.12466E+09
        -0.73922E+08
        -0.48462E+08
        -0.87550E+08
        -0.17187E+09
        -0.17389E+09
        -0.17591E+09
        -0.11859E+09
         0.53749E+08
         0.45504E+08
        -0.17004E+09
         0.31433E+08
        -0.83463E+08
        -0.83007E+08
         0.13254E+09
         0.11081E+09
        -0.11016E+09
        -0.95962E+08
         0.17619E+09
         0.15761E+09
         0.14170E+09
        -0.89302E+08
        -0.19378E+08
        -0.59431E+08
        -0.15676E+09
        -0.17671E+09
        -0.17161E+09
        -0.15761E+09
        -0.13497E+09
        -0.58848E+08
         0.94574E+08
         0.13031E+09
        -0.20422E+08
         0.21159E+08
         0.13703E+09
         0.17198E+09
         0.19478E+09
         0.19210E+09
         0.16562E+09
         0.13753E+09
         0.96794E+08
         0.41804E+08
        -0.10808E+08
        -0.38917E+08
        -0.52332E+08
        -0.90272E+08
        -0.16335E+09
        -0.19511E+09
        -0.19461E+09
        -0.19390E+09
        -0.19608E+09
        -0.18967E+09
        -0.16735E+09
        -0.14612E+09
        -0.77094E+08
         0.19585E+08
         0.47547E+08
         0.50531E+08
         0.84710E+08
         0.14985E+09
         0.18688E+09
         0.18774E+09
        -0.55992E+08
         0.18768E+08
        -0.37539E+08
        -0.12938E+09
         0.12547E+09
         0.15212E+09
         0.67203E+08
        -0.71162E+08
        -0.51397E+08
        -0.71523E+08
        -0.25974E+08
         0.26809E+08
         0.11316E+09
        -0.16638E+09
        -0.66325E+08
         0.14844E+09
         0.12495E+09
        -0.73713E+08
        -0.48412E+08
        -0.87394E+08
        -0.17184E+09
        -0.17388E+09
        -0.17590E+09
        -0.11859E+09
         0.53690E+08
         0.45605E+08
        -0.17003E+09
         0.30846E+08
        -0.84043E+08
        -0.82934E+08
         0.13262E+09
         0.11082E+09
        -0.10969E+09
        -0.96005E+08
         0.17621E+09
         0.15758E+09
         0.14168E+09
        -0.89315E+08
        -0.19518E+08
        -0.59535E+08
        -0.15675E+09
        -0.17673E+09
        -0.17160E+09
        -0.15758E+09
        -0.13493E+09
        -0.58817E+08
         0.94553E+08
         0.13036E+09
        -0.20294E+08
         0.21112E+08
         0.13702E+09
         0.17198E+09
         0.19478E+09
         0.19210E+09
         0.16560E+09
         0.13753E+09
         0.96779E+08
         0.41804E+08
        -0.10825E+08
        -0.38951E+08
        -0.52300E+08
        -0.90260E+08
        -0.16335E+09
        -0.19511E+09
        -0.19461E+09
        -0.19389E+09
        -0.19608E+09
        -0.18967E+09
        -0.16734E+09
        -0.14612E+09
        -0.77077E+08
         0.19595E+08
         0.47517E+08
         0.50514E+08
         0.84674E+08
         0.14985E+09
         0.18688E+09
         0.18775E+09
        -0.56057E+08
         0.18834E+08
        -0.37588E+08
        -0.12947E+09
         0.12541E+09
         0.15206E+09
         0.67625E+08
        -0.70915E+08
        -0.51353E+08
        -0.71255E+08
        -0.25415E+08
         0.26875E+08
         0.11319E+09
        -0.16634E+09
        -0.66226E+08
         0.14848E+09
         0.12525E+09
        -0.73504E+08
        -0.48355E+08
        -0.87236E+08
        -0.17181E+09
        -0.17388E+09
        -0.17590E+09
        -0.11860E+09
         0.53660E+08
         0.45720E+08
        -0.17003E+09
         0.30277E+08
        -0.84621E+08
        -0.82871E+08
         0.13271E+09
         0.11085E+09
        -0.10922E+09
        -0.96047E+08
         0.17622E+09
         0.15755E+09
         0.14167E+09
        -0.89327E+08
        -0.19656E+08
        -0.59638E+08
        -0.15675E+09
        -0.17675E+09
        -0.17160E+09
        -0.15754E+09
        -0.13489E+09
        -0.58781E+08
         0.94532E+08
         0.13041E+09
        -0.20166E+08
         0.21065E+08
         0.13700E+09
         0.17197E+09
         0.19478E+09
         0.19209E+09
         0.16559E+09
         0.13753E+09
         0.96764E+08
         0.41805E+08
        -0.10841E+08
        -0.38984E+08
        -0.52268E+08
        -0.90249E+08
        -0.16335E+09
        -0.19511E+09
        -0.19460E+09
        -0.19389E+09
        -0.19608E+09
        -0.18967E+09
        -0.16732E+09
        -0.14612E+09
        -0.77059E+08
         0.19605E+08
         0.47487E+08
         0.50497E+08
         0.84638E+08
         0.14985E+09
         0.18689E+09
         0.18776E+09
        -0.56120E+08
         0.18907E+08
        -0.37630E+08
        -0.12955E+09
         0.12534E+09
         0.15200E+09
         0.68046E+08
        -0.70670E+08
        -0.51307E+08
        -0.70991E+08
        -0.24857E+08
         0.26940E+08
         0.11322E+09
        -0.16629E+09
        -0.66127E+08
         0.14853E+09
         0.12555E+09
        -0.73294E+08
        -0.48297E+08
        -0.87086E+08
        -0.17178E+09
        -0.17387E+09
        -0.17590E+09
        -0.11861E+09
         0.53634E+08
         0.45839E+08
        -0.17002E+09
         0.29711E+08
        -0.85203E+08
        -0.82819E+08
         0.13281E+09
         0.11087E+09
        -0.10875E+09
        -0.96085E+08
         0.17624E+09
         0.15752E+09
         0.14165E+09
        -0.89337E+08
        -0.19793E+08
        -0.59737E+08
        -0.15674E+09
        -0.17677E+09
        -0.17160E+09
        -0.15750E+09
        -0.13483E+09
        -0.58746E+08
         0.94506E+08
         0.13045E+09
        -0.20033E+08
         0.21024E+08
         0.13699E+09
         0.17197E+09
         0.19478E+09
         0.19208E+09
         0.16557E+09
         0.13753E+09
         0.96748E+08
         0.41805E+08
        -0.10857E+08
        -0.39018E+08
        -0.52236E+08
        -0.90238E+08
        -0.16334E+09
        -0.19510E+09
        -0.19460E+09
        -0.19389E+09
        -0.19609E+09
        -0.18967E+09
        -0.16731E+09
        -0.14611E+09
        -0.77041E+08
         0.19614E+08
         0.47456E+08
         0.50480E+08
         0.84603E+08
         0.14984E+09
         0.18689E+09
         0.18776E+09
        -0.56178E+08
         0.18998E+08
        -0.37659E+08
        -0.12963E+09
         0.12527E+09
         0.15194E+09
         0.68475E+08
        -0.70429E+08
        -0.51262E+08
        -0.70741E+08
        -0.24295E+08
         0.27005E+08
         0.11324E+09
        -0.16625E+09
        -0.66027E+08
         0.14858E+09
         0.12585E+09
        -0.73083E+08
        -0.48244E+08
        -0.86939E+08
        -0.17175E+09
        -0.17387E+09
        -0.17590E+09
        -0.11862E+09
         0.53594E+08
         0.45944E+08
        -0.17002E+09
         0.29133E+08
        -0.85790E+08
        -0.82775E+08
         0.13290E+09
         0.11088E+09
        -0.10826E+09
        -0.96113E+08
         0.17625E+09
         0.15749E+09
         0.14164E+09
        -0.89346E+08
        -0.19930E+08
        -0.59840E+08
        -0.15673E+09
        -0.17680E+09
        -0.17160E+09
        -0.15745E+09
        -0.13478E+09
        -0.58712E+08
         0.94465E+08
         0.13048E+09
        -0.19881E+08
         0.20997E+08
         0.13698E+09
         0.17196E+09
         0.19477E+09
         0.19207E+09
         0.16556E+09
         0.13753E+09
         0.96733E+08
         0.41805E+08
        -0.10874E+08
        -0.39051E+08
        -0.52204E+08
        -0.90228E+08
        -0.16334E+09
        -0.19510E+09
        -0.19460E+09
        -0.19388E+09
        -0.19609E+09
        -0.18967E+09
        -0.16730E+09
        -0.14611E+09
        -0.77023E+08
         0.19622E+08
         0.47424E+08
         0.50463E+08
         0.84569E+08
         0.14984E+09
         0.18689E+09
         0.18777E+09
        -0.56233E+08
         0.19094E+08
        -0.37681E+08
        -0.12971E+09
         0.12520E+09
         0.15189E+09
         0.68910E+08
        -0.70192E+08
        -0.51218E+08
        -0.70498E+08
        -0.23733E+08
         0.27070E+08
         0.11326E+09
        -0.16620E+09
        -0.65926E+08
         0.14862E+09
         0.12613E+09
        -0.72870E+08
        -0.48188E+08
        -0.86800E+08
        -0.17172E+09
        -0.17386E+09
        -0.17590E+09
        -0.11864E+09
         0.53548E+08
         0.46042E+08
        -0.17001E+09
         0.28551E+08
        -0.86386E+08
        -0.82737E+08
         0.13299E+09
         0.11087E+09
        -0.10778E+09
        -0.96136E+08
         0.17627E+09
         0.15746E+09
         0.14162E+09
        -0.89353E+08
        -0.20067E+08
        -0.59942E+08
        -0.15673E+09
        -0.17682E+09
        -0.17160E+09
        -0.15741E+09
        -0.13473E+09
        -0.58682E+08
         0.94418E+08
         0.13051E+09
        -0.19723E+08
         0.20976E+08
         0.13697E+09
         0.17196E+09
         0.19477E+09
         0.19206E+09
         0.16555E+09
         0.13753E+09
         0.96717E+08
         0.41805E+08
        -0.10890E+08
        -0.39085E+08
        -0.52172E+08
        -0.90217E+08
        -0.16334E+09
        -0.19510E+09
        -0.19460E+09
        -0.19388E+09
        -0.19610E+09
        -0.18967E+09
        -0.16728E+09
        -0.14610E+09
        -0.77005E+08
         0.19630E+08
         0.47390E+08
         0.50446E+08
         0.84535E+08
         0.14984E+09
         0.18690E+09
         0.18778E+09
        -0.56288E+08
         0.19191E+08
        -0.37703E+08
        -0.12978E+09
         0.12513E+09
         0.15183E+09
         0.69341E+08
        -0.69955E+08
        -0.51174E+08
        -0.70258E+08
        -0.23172E+08
         0.27135E+08
         0.11329E+09
        -0.16615E+09
        -0.65826E+08
         0.14867E+09
         0.12641E+09
        -0.72659E+08
        -0.48131E+08
        -0.86657E+08
        -0.17169E+09
        -0.17386E+09
        -0.17589E+09
        -0.11865E+09
         0.53502E+08
         0.46140E+08
        -0.17000E+09
         0.27970E+08
        -0.86980E+08
        -0.82698E+08
         0.13308E+09
         0.11086E+09
        -0.10729E+09
        -0.96159E+08
         0.17628E+09
         0.15744E+09
         0.14161E+09
        -0.89360E+08
        -0.20203E+08
        -0.60043E+08
        -0.15672E+09
        -0.17685E+09
        -0.17160E+09
        -0.15737E+09
        -0.13468E+09
        -0.58651E+08
         0.94374E+08
         0.13053E+09
        -0.19563E+08
         0.20957E+08
         0.13696E+09
         0.17196E+09
         0.19477E+09
         0.19206E+09
         0.16553E+09
         0.13753E+09
         0.96702E+08
         0.41805E+08
        -0.10906E+08
        -0.39118E+08
        -0.52140E+08
        -0.90207E+08
        -0.16334E+09
        -0.19509E+09
        -0.19460E+09
        -0.19388E+09
        -0.19610E+09
        -0.18967E+09
        -0.16727E+09
        -0.14610E+09
        -0.76987E+08
         0.19637E+08
         0.47357E+08
         0.50428E+08
         0.84501E+08
         0.14984E+09
         0.18690E+09
         0.18778E+09
        -0.56343E+08
         0.19289E+08
        -0.37725E+08
        -0.12986E+09
         0.12507E+09
         0.15177E+09
         0.69775E+08
        -0.69718E+08
        -0.51130E+08
        -0.70019E+08
        -0.22611E+08
         0.27200E+08
         0.11331E+09
        -0.16610E+09
        -0.65726E+08
         0.14871E+09
         0.12670E+09
        -0.72450E+08
        -0.48075E+08
        -0.86517E+08
        -0.17166E+09
        -0.17385E+09
        -0.17589E+09
        -0.11867E+09
         0.53456E+08
         0.46237E+08
        -0.17000E+09
         0.27393E+08
        -0.87573E+08
        -0.82658E+08
         0.13317E+09
         0.11085E+09
        -0.10680E+09
        -0.96183E+08
         0.17630E+09
         0.15741E+09
         0.14159E+09
        -0.89367E+08
        -0.20339E+08
        -0.60145E+08
        -0.15671E+09
        -0.17687E+09
        -0.17160E+09
        -0.15733E+09
        -0.13462E+09
        -0.58619E+08
         0.94327E+08
         0.13055E+09
        -0.19405E+08
         0.20935E+08
         0.13695E+09
         0.17195E+09
         0.19477E+09
         0.19205E+09
         0.16552E+09
         0.13753E+09
         0.96686E+08
         0.41805E+08
        -0.10922E+08
        -0.39151E+08
        -0.52107E+08
        -0.90196E+08
        -0.16333E+09
        -0.19509E+09
        -0.19460E+09
        -0.19387E+09
        -0.19611E+09
        -0.18967E+09
        -0.16725E+09
        -0.14609E+09
        -0.76970E+08
         0.19644E+08
         0.47324E+08
         0.50410E+08
         0.84468E+08
         0.14984E+09
         0.18690E+09
         0.18779E+09
        -0.56398E+08
         0.19387E+08
        -0.37749E+08
        -0.12994E+09
         0.12500E+09
         0.15171E+09
         0.70205E+08
        -0.69481E+08
        -0.51086E+08
        -0.69782E+08
        -0.22049E+08
         0.27266E+08
         0.11333E+09
        -0.16605E+09
        -0.65625E+08
         0.14876E+09
         0.12698E+09
        -0.72241E+08
        -0.48023E+08
        -0.86372E+08
        -0.17163E+09
        -0.17384E+09
        -0.17589E+09
        -0.11868E+09
         0.53410E+08
         0.46333E+08
        -0.16999E+09
         0.26815E+08
        -0.88164E+08
        -0.82618E+08
         0.13326E+09
         0.11085E+09
        -0.10631E+09
        -0.96206E+08
         0.17631E+09
         0.15738E+09
         0.14157E+09
        -0.89374E+08
        -0.20475E+08
        -0.60246E+08
        -0.15670E+09
        -0.17690E+09
        -0.17160E+09
        -0.15729E+09
        -0.13457E+09
        -0.58588E+08
         0.94280E+08
         0.13057E+09
        -0.19245E+08
         0.20914E+08
         0.13694E+09
         0.17195E+09
         0.19476E+09
         0.19204E+09
         0.16551E+09
         0.13753E+09
         0.96671E+08
         0.41806E+08
        -0.10938E+08
        -0.39184E+08
        -0.52075E+08
        -0.90186E+08
        -0.16333E+09
        -0.19508E+09
        -0.19460E+09
        -0.19387E+09
        -0.19611E+09
        -0.18967E+09
        -0.16724E+09
        -0.14608E+09
        -0.76952E+08
         0.19651E+08
         0.47290E+08
         0.50393E+08
         0.84434E+08
         0.14984E+09
         0.18690E+09
         0.18780E+09
        -0.56453E+08
         0.19484E+08
        -0.37769E+08
        -0.13002E+09
         0.12493E+09
         0.15165E+09
         0.70638E+08
        -0.69245E+08
        -0.51042E+08
        -0.69546E+08
        -0.21489E+08
         0.27332E+08
         0.11336E+09
        -0.16600E+09
        -0.65525E+08
         0.14880E+09
         0.12727E+09
        -0.72029E+08
        -0.47968E+08
        -0.86233E+08
        -0.17160E+09
        -0.17384E+09
        -0.17589E+09
        -0.11870E+09
         0.53364E+08
         0.46433E+08
        -0.16998E+09
         0.26239E+08
        -0.88751E+08
        -0.82581E+08
         0.13335E+09
         0.11084E+09
        -0.10582E+09
        -0.96229E+08
         0.17633E+09
         0.15735E+09
         0.14156E+09
        -0.89380E+08
        -0.20611E+08
        -0.60349E+08
        -0.15670E+09
        -0.17692E+09
        -0.17160E+09
        -0.15724E+09
        -0.13452E+09
        -0.58558E+08
         0.94235E+08
         0.13059E+09
        -0.19083E+08
         0.20895E+08
         0.13692E+09
         0.17195E+09
         0.19476E+09
         0.19203E+09
         0.16549E+09
         0.13753E+09
         0.96655E+08
         0.41806E+08
        -0.10954E+08
        -0.39217E+08
        -0.52043E+08
        -0.90176E+08
        -0.16333E+09
        -0.19508E+09
        -0.19460E+09
        -0.19387E+09
        -0.19612E+09
        -0.18967E+09
        -0.16722E+09
        -0.14608E+09
        -0.76934E+08
         0.19658E+08
         0.47257E+08
         0.50376E+08
         0.84401E+08
         0.14983E+09
         0.18691E+09
         0.18781E+09
        -0.56509E+08
         0.19582E+08
        -0.37790E+08
        -0.13010E+09
         0.12486E+09
         0.15159E+09
         0.71069E+08
        -0.69008E+08
        -0.50996E+08
        -0.69310E+08
        -0.20930E+08
         0.27396E+08
         0.11338E+09
        -0.16596E+09
        -0.65424E+08
         0.14885E+09
         0.12755E+09
        -0.71818E+08
        -0.47914E+08
        -0.86090E+08
        -0.17157E+09
        -0.17383E+09
        -0.17588E+09
        -0.11872E+09
         0.53317E+08
         0.46529E+08
        -0.16998E+09
         0.25663E+08
        -0.89342E+08
        -0.82543E+08
         0.13344E+09
         0.11083E+09
        -0.10533E+09
        -0.96253E+08
         0.17634E+09
         0.15732E+09
         0.14154E+09
        -0.89385E+08
        -0.20746E+08
        -0.60450E+08
        -0.15669E+09
        -0.17694E+09
        -0.17160E+09
        -0.15720E+09
        -0.13447E+09
        -0.58526E+08
         0.94187E+08
         0.13061E+09
        -0.18921E+08
         0.20874E+08
         0.13691E+09
         0.17194E+09
         0.19476E+09
         0.19203E+09
         0.16548E+09
         0.13753E+09
         0.96640E+08
         0.41806E+08
        -0.10970E+08
        -0.39250E+08
        -0.52011E+08
        -0.90165E+08
        -0.16333E+09
        -0.19508E+09
        -0.19460E+09
        -0.19387E+09
        -0.19612E+09
        -0.18967E+09
        -0.16721E+09
        -0.14607E+09
        -0.76917E+08
         0.19665E+08
         0.47223E+08
         0.50359E+08
         0.84367E+08
         0.14983E+09
         0.18691E+09
         0.18781E+09
        -0.56564E+08
         0.19678E+08
        -0.37810E+08
        -0.13017E+09
         0.12480E+09
         0.15154E+09
         0.71496E+08
        -0.68773E+08
        -0.50952E+08
        -0.69076E+08
        -0.20373E+08
         0.27461E+08
         0.11340E+09
        -0.16591E+09
        -0.65324E+08
         0.14889E+09
         0.12783E+09
        -0.71608E+08
        -0.47865E+08
        -0.85951E+08
        -0.17154E+09
        -0.17383E+09
        -0.17588E+09
        -0.11874E+09
         0.53270E+08
         0.46626E+08
        -0.16997E+09
         0.25090E+08
        -0.89932E+08
        -0.82503E+08
         0.13353E+09
         0.11082E+09
        -0.10484E+09
        -0.96275E+08
         0.17636E+09
         0.15729E+09
         0.14153E+09
        -0.89389E+08
        -0.20881E+08
        -0.60553E+08
        -0.15668E+09
        -0.17697E+09
        -0.17160E+09
        -0.15716E+09
        -0.13441E+09
        -0.58495E+08
         0.94140E+08
         0.13063E+09
        -0.18759E+08
         0.20852E+08
         0.13690E+09
         0.17194E+09
         0.19476E+09
         0.19202E+09
         0.16546E+09
         0.13753E+09
         0.96625E+08
         0.41806E+08
        -0.10986E+08
        -0.39283E+08
        -0.51978E+08
        -0.90155E+08
        -0.16332E+09
        -0.19507E+09
        -0.19460E+09
        -0.19386E+09
        -0.19612E+09
        -0.18967E+09
        -0.16719E+09
        -0.14607E+09
        -0.76899E+08
         0.19672E+08
         0.47190E+08
         0.50342E+08
         0.84334E+08
         0.14983E+09
         0.18691E+09
         0.18782E+09
        -0.56620E+08
         0.19774E+08
        -0.37831E+08
        -0.13025E+09
         0.12473E+09
         0.15148E+09
         0.71927E+08
        -0.68538E+08
        -0.50907E+08
        -0.68843E+08
        -0.19815E+08
         0.27528E+08
         0.11342E+09
        -0.16586E+09
        -0.65223E+08
         0.14894E+09
         0.12812E+09
        -0.71399E+08
        -0.47810E+08
        -0.85806E+08
        -0.17151E+09
        -0.17382E+09
        -0.17588E+09
        -0.11875E+09
         0.53222E+08
         0.46723E+08
        -0.16996E+09
         0.24517E+08
        -0.90522E+08
        -0.82463E+08
         0.13362E+09
         0.11081E+09
        -0.10434E+09
        -0.96298E+08
         0.17637E+09
         0.15726E+09
         0.14151E+09
        -0.89392E+08
        -0.21015E+08
        -0.60655E+08
        -0.15668E+09
        -0.17699E+09
        -0.17160E+09
        -0.15712E+09
        -0.13436E+09
        -0.58465E+08
         0.94094E+08
         0.13065E+09
        -0.18594E+08
         0.20832E+08
         0.13689E+09
         0.17193E+09
         0.19475E+09
         0.19201E+09
         0.16545E+09
         0.13753E+09
         0.96609E+08
         0.41806E+08
        -0.11002E+08
        -0.39315E+08
        -0.51946E+08
        -0.90145E+08
        -0.16332E+09
        -0.19507E+09
        -0.19459E+09
        -0.19386E+09
        -0.19613E+09
        -0.18967E+09
        -0.16718E+09
        -0.14606E+09
        -0.76881E+08
         0.19679E+08
         0.47156E+08
         0.50325E+08
         0.84300E+08
         0.14983E+09
         0.18691E+09
         0.18783E+09
        -0.56676E+08
         0.19873E+08
        -0.37852E+08
        -0.13032E+09
         0.12466E+09
         0.15142E+09
         0.72355E+08
        -0.68302E+08
        -0.50862E+08
        -0.68611E+08
        -0.19258E+08
         0.27593E+08
         0.11345E+09
        -0.16581E+09
        -0.65123E+08
         0.14898E+09
         0.12840E+09
        -0.71191E+08
        -0.47756E+08
        -0.85667E+08
        -0.17148E+09
        -0.17382E+09
        -0.17588E+09
        -0.11877E+09
         0.53173E+08
         0.46820E+08
        -0.16995E+09
         0.23945E+08
        -0.91111E+08
        -0.82423E+08
         0.13371E+09
         0.11080E+09
        -0.10385E+09
        -0.96321E+08
         0.17639E+09
         0.15723E+09
         0.14150E+09
        -0.89395E+08
        -0.21150E+08
        -0.60757E+08
        -0.15667E+09
        -0.17701E+09
        -0.17160E+09
        -0.15708E+09
        -0.13431E+09
        -0.58432E+08
         0.94047E+08
         0.13067E+09
        -0.18431E+08
         0.20810E+08
         0.13688E+09
         0.17193E+09
         0.19475E+09
         0.19200E+09
         0.16544E+09
         0.13753E+09
         0.96594E+08
         0.41806E+08
        -0.11018E+08
        -0.39348E+08
        -0.51914E+08
        -0.90135E+08
        -0.16332E+09
        -0.19507E+09
        -0.19459E+09
        -0.19386E+09
        -0.19613E+09
        -0.18967E+09
        -0.16717E+09
        -0.14606E+09
        -0.76863E+08
         0.19686E+08
         0.47123E+08
         0.50307E+08
         0.84267E+08
         0.14983E+09
         0.18692E+09
         0.18784E+09
        -0.56731E+08
         0.19970E+08
        -0.37874E+08
        -0.13040E+09
         0.12460E+09
         0.15136E+09
         0.72784E+08
        -0.68067E+08
        -0.50816E+08
        -0.68378E+08
        -0.18700E+08
         0.27658E+08
         0.11347E+09
        -0.16576E+09
        -0.65021E+08
         0.14902E+09
         0.12868E+09
        -0.70983E+08
        -0.47704E+08
        -0.85523E+08
        -0.17145E+09
        -0.17381E+09
        -0.17587E+09
        -0.11879E+09
         0.53123E+08
         0.46916E+08
        -0.16994E+09
         0.23367E+08
        -0.91694E+08
        -0.82386E+08
         0.13380E+09
         0.11080E+09
        -0.10336E+09
        -0.96347E+08
         0.17640E+09
         0.15720E+09
         0.14148E+09
        -0.89397E+08
        -0.21286E+08
        -0.60860E+08
        -0.15666E+09
        -0.17704E+09
        -0.17160E+09
        -0.15704E+09
        -0.13426E+09
        -0.58402E+08
         0.94000E+08
         0.13070E+09
        -0.18267E+08
         0.20789E+08
         0.13687E+09
         0.17192E+09
         0.19475E+09
         0.19200E+09
         0.16542E+09
         0.13753E+09
         0.96578E+08
         0.41807E+08
        -0.11033E+08
        -0.39380E+08
        -0.51882E+08
        -0.90126E+08
        -0.16332E+09
        -0.19506E+09
        -0.19459E+09
        -0.19385E+09
        -0.19614E+09
        -0.18968E+09
        -0.16715E+09
        -0.14605E+09
        -0.76845E+08
         0.19693E+08
         0.47089E+08
         0.50290E+08
         0.84233E+08
         0.14983E+09
         0.18692E+09
         0.18784E+09
        -0.56787E+08
         0.20067E+08
        -0.37893E+08
        -0.13047E+09
         0.12453E+09
         0.15130E+09
         0.73211E+08
        -0.67834E+08
        -0.50765E+08
        -0.68138E+08
        -0.18144E+08
         0.27724E+08
         0.11349E+09
        -0.16571E+09
        -0.64921E+08
         0.14907E+09
         0.12896E+09
        -0.70774E+08
        -0.47658E+08
        -0.85386E+08
        -0.17142E+09
        -0.17381E+09
        -0.17587E+09
        -0.11881E+09
         0.53065E+08
         0.47016E+08
        -0.16994E+09
         0.22775E+08
        -0.92281E+08
        -0.82357E+08
         0.13389E+09
         0.11079E+09
        -0.10287E+09
        -0.96370E+08
         0.17642E+09
         0.15717E+09
         0.14147E+09
        -0.89396E+08
        -0.21426E+08
        -0.60964E+08
        -0.15665E+09
        -0.17706E+09
        -0.17160E+09
        -0.15699E+09
        -0.13420E+09
        -0.58369E+08
         0.93955E+08
         0.13072E+09
        -0.18105E+08
         0.20767E+08
         0.13686E+09
         0.17192E+09
         0.19475E+09
         0.19199E+09
         0.16541E+09
         0.13753E+09
         0.96563E+08
         0.41807E+08
        -0.11049E+08
        -0.39413E+08
        -0.51850E+08
        -0.90116E+08
        -0.16331E+09
        -0.19506E+09
        -0.19459E+09
        -0.19385E+09
        -0.19614E+09
        -0.18968E+09
        -0.16714E+09
        -0.14605E+09
        -0.76827E+08
         0.19700E+08
         0.47056E+08
         0.50273E+08
         0.84200E+08
         0.14983E+09
         0.18692E+09
         0.18785E+09
        -0.56843E+08
         0.20163E+08
        -0.37913E+08
        -0.13055E+09
         0.12446E+09
         0.15124E+09
         0.73639E+08
        -0.67600E+08
        -0.50711E+08
        -0.67893E+08
        -0.17589E+08
         0.27789E+08
         0.11351E+09
        -0.16566E+09
        -0.64818E+08
         0.14911E+09
         0.12924E+09
        -0.70565E+08
        -0.47606E+08
        -0.85244E+08
        -0.17139E+09
        -0.17380E+09
        -0.17587E+09
        -0.11883E+09
         0.52998E+08
         0.47111E+08
        -0.16993E+09
         0.22165E+08
        -0.92868E+08
        -0.82331E+08
         0.13398E+09
         0.11078E+09
        -0.10238E+09
        -0.96394E+08
         0.17643E+09
         0.15714E+09
         0.14145E+09
        -0.89391E+08
        -0.21571E+08
        -0.61070E+08
        -0.15664E+09
        -0.17708E+09
        -0.17159E+09
        -0.15695E+09
        -0.13415E+09
        -0.58339E+08
         0.93908E+08
         0.13074E+09
        -0.17939E+08
         0.20747E+08
         0.13685E+09
         0.17191E+09
         0.19474E+09
         0.19198E+09
         0.16540E+09
         0.13753E+09
         0.96547E+08
         0.41807E+08
        -0.11064E+08
        -0.39445E+08
        -0.51819E+08
        -0.90107E+08
        -0.16331E+09
        -0.19506E+09
        -0.19459E+09
        -0.19385E+09
        -0.19615E+09
        -0.18968E+09
        -0.16712E+09
        -0.14604E+09
        -0.76809E+08
         0.19706E+08
         0.47023E+08
         0.50255E+08
         0.84167E+08
         0.14982E+09
         0.18692E+09
         0.18786E+09
        -0.56898E+08
         0.20259E+08
        -0.37933E+08
        -0.13063E+09
         0.12439E+09
         0.15118E+09
         0.74063E+08
        -0.67367E+08
        -0.50655E+08
        -0.67647E+08
        -0.17038E+08
         0.27854E+08
         0.11354E+09
        -0.16561E+09
        -0.64716E+08
         0.14915E+09
         0.12952E+09
        -0.70358E+08
        -0.47552E+08
        -0.85107E+08
        -0.17136E+09
        -0.17380E+09
        -0.17587E+09
        -0.11885E+09
         0.52929E+08
         0.47207E+08
        -0.16991E+09
         0.21552E+08
        -0.93450E+08
        -0.82305E+08
         0.13406E+09
         0.11077E+09
        -0.10189E+09
        -0.96419E+08
         0.17645E+09
         0.15711E+09
         0.14144E+09
        -0.89385E+08
        -0.21718E+08
        -0.61173E+08
        -0.15663E+09
        -0.17710E+09
        -0.17159E+09
        -0.15691E+09
        -0.13410E+09
        -0.58308E+08
         0.93863E+08
         0.13076E+09
        -0.17775E+08
         0.20723E+08
         0.13684E+09
         0.17191E+09
         0.19474E+09
         0.19197E+09
         0.16538E+09
         0.13753E+09
         0.96532E+08
         0.41807E+08
        -0.11080E+08
        -0.39476E+08
        -0.51789E+08
        -0.90097E+08
        -0.16330E+09
        -0.19505E+09
        -0.19459E+09
        -0.19384E+09
        -0.19615E+09
        -0.18968E+09
        -0.16711E+09
        -0.14603E+09
        -0.76791E+08
         0.19714E+08
         0.46990E+08
         0.50238E+08
         0.84134E+08
         0.14982E+09
         0.18692E+09
         0.18786E+09
        -0.54811E+08
         0.18231E+08
        -0.33737E+08
        -0.12762E+09
         0.11801E+09
         0.13784E+09
         0.74642E+08
        -0.63880E+08
        -0.46299E+08
        -0.63979E+08
        -0.13590E+08
         0.27298E+08
         0.11021E+09
        -0.14703E+09
        -0.63331E+08
         0.13994E+09
         0.12500E+09
        -0.70373E+08
        -0.40401E+08
        -0.85182E+08
        -0.16727E+09
        -0.16902E+09
        -0.17129E+09
        -0.11919E+09
         0.47189E+08
         0.47426E+08
        -0.15110E+09
         0.21036E+08
        -0.94232E+08
        -0.73429E+08
         0.12290E+09
         0.11106E+09
        -0.10074E+09
        -0.96727E+08
         0.16997E+09
         0.14465E+09
         0.13439E+09
        -0.87038E+08
        -0.20993E+08
        -0.58506E+08
        -0.15267E+09
        -0.17225E+09
        -0.16732E+09
        -0.15169E+09
        -0.12807E+09
        -0.56408E+08
         0.88333E+08
         0.12171E+09
        -0.15904E+08
         0.19065E+08
         0.13170E+09
         0.16058E+09
         0.19344E+09
         0.19080E+09
         0.16443E+09
         0.13678E+09
         0.96029E+08
         0.41598E+08
        -0.11039E+08
        -0.39240E+08
        -0.51393E+08
        -0.89499E+08
        -0.16227E+09
        -0.19393E+09
        -0.19328E+09
        -0.19255E+09
        -0.19505E+09
        -0.18871E+09
        -0.16629E+09
        -0.14533E+09
        -0.76312E+08
         0.19612E+08
         0.46684E+08
         0.49911E+08
         0.83611E+08
         0.14890E+09
         0.18586E+09
         0.18678E+09
        -0.27054E+08
         0.60523E+07
        -0.10850E+08
        -0.34337E+08
         0.51895E+08
         0.48783E+08
         0.16816E+08
        -0.28433E+08
        -0.16616E+08
        -0.27976E+08
        -0.33153E+07
         0.16242E+08
         0.59190E+08
        -0.46922E+08
        -0.38609E+08
         0.56816E+08
         0.31535E+08
        -0.19401E+08
        -0.11488E+08
        -0.19188E+08
        -0.96580E+08
        -0.93052E+08
        -0.95704E+08
        -0.29000E+08
         0.15366E+08
         0.12120E+08
        -0.48429E+08
         0.42839E+07
        -0.19489E+08
        -0.23922E+08
         0.44241E+08
         0.27281E+08
        -0.26437E+08
        -0.24320E+08
         0.84288E+08
         0.53308E+08
         0.59494E+08
        -0.48675E+08
        -0.10233E+08
        -0.27025E+08
        -0.86670E+08
        -0.94930E+08
        -0.95345E+08
        -0.77954E+08
        -0.58936E+08
        -0.29313E+08
         0.36656E+08
         0.47264E+08
        -0.53431E+07
         0.70369E+07
         0.64915E+08
         0.63806E+08
         0.15418E+09
         0.15486E+09
         0.13487E+09
         0.11324E+09
         0.80329E+08
         0.35049E+08
        -0.91857E+07
        -0.31453E+08
        -0.40622E+08
        -0.71797E+08
        -0.13079E+09
        -0.15901E+09
        -0.15417E+09
        -0.15401E+09
        -0.16054E+09
        -0.15771E+09
        -0.14005E+09
        -0.12247E+09
        -0.61934E+08
         0.16070E+08
         0.37963E+08
         0.40357E+08
         0.68169E+08
         0.12065E+09
         0.15262E+09
         0.15285E+09
  
SCALARS                      stress_xy  double 1
LOOKUP_TABLE default
        -0.60319E+00
        -0.14153E+01
        -0.12138E+02
         0.42875E+00
        -0.49405E-09
         0.48282E-10
         0.72592E-09
         0.11058E-09
        -0.12803E+03
         0.56256E+02
         0.32313E-08
         0.25624E-08
         0.47902E+01
        -0.99392E+00
         0.28521E-09
        -0.85661E-10
         0.13779E+01
         0.24037E+02
         0.14199E-10
         0.21637E-09
        -0.18284E+02
        -0.11599E+03
        -0.11415E+03
         0.22001E-08
         0.17521E-08
        -0.25586E-08
        -0.12076E+02
        -0.10088E+03
         0.29625E-08
         0.45590E-08
        -0.36845E+01
         0.71364E+01
         0.57975E+00
        -0.15636E-09
         0.61684E-09
        -0.78896E-11
        -0.32493E+02
        -0.15098E+02
         0.16509E-08
         0.13676E-08
        -0.63674E+02
        -0.57445E+02
         0.28143E-08
         0.18966E-08
        -0.61769E+02
        -0.11340E+02
        -0.10252E-09
         0.76327E-09
         0.16476E+02
         0.22558E-09
        -0.38638E+01
        -0.50857E-11
         0.10129E+01
         0.17050E-08
         0.50149E+01
         0.26236E-09
         0.71559E+02
        -0.34848E+01
         0.60973E-11
        -0.29913E-10
         0.47711E+00
        -0.48031E+02
         0.16616E-09
         0.42620E-09
         0.20641E+01
        -0.33736E-10
         0.29667E+02
         0.27033E-09
        -0.15858E+03
        -0.57561E+02
         0.20881E-09
        -0.19995E-08
        -0.12945E+03
        -0.31970E-08
         0.52939E+02
         0.21413E-08
         0.16719E+03
         0.31903E-09
         0.29197E+03
         0.41486E-09
         0.56650E+03
         0.30871E+03
         0.97531E-09
        -0.24731E-09
         0.38126E+02
        -0.29760E-10
        -0.11706E+03
        -0.26841E-08
        -0.17232E+03
        -0.29971E-08
        -0.37911E+03
        -0.17284E+03
        -0.18972E-08
         0.21058E-08
         0.27787E+02
         0.19174E-08
         0.68435E+02
         0.82367E-09
         0.15991E+03
         0.21870E-08
         0.39336E+03
         0.22434E+03
         0.46894E-08
         0.23447E-08
        -0.64644E+03
         0.27091E+03
        -0.30468E-08
         0.37312E-08
        -0.15740E+04
        -0.86590E-08
        -0.20533E+04
        -0.94654E-08
        -0.18039E+04
        -0.64241E-08
        -0.15376E+04
        -0.68141E-09
        -0.67182E+03
         0.19206E-08
         0.88492E+03
         0.11891E-08
         0.19885E+04
         0.10871E-08
         0.26291E+04
         0.23324E-08
         0.25787E+04
         0.28358E-08
         0.21155E+04
         0.11173E-08
         0.11277E+04
         0.68116E-09
        -0.77248E+02
         0.11133E-08
        -0.93885E+03
         0.74629E-09
        -0.15145E+04
        -0.26614E-08
        -0.20672E+04
        -0.69833E-08
        -0.18505E+04
        -0.88622E-08
        -0.11879E+04
        -0.54848E-08
        -0.13011E+03
         0.10464E-08
         0.87905E+03
         0.22178E-08
         0.12713E+04
         0.35345E-08
         0.15553E+04
         0.69602E-08
         0.13941E+04
         0.90316E-08
         0.12977E+04
         0.64166E-08
         0.10720E+04
         0.50746E-08
        -0.83803E+02
         0.22551E+02
         0.23098E+02
        -0.14458E+02
         0.18423E+03
         0.15175E+03
         0.24112E+01
        -0.54492E+02
        -0.24165E+02
        -0.63013E+02
        -0.18011E+02
        -0.33254E+03
        -0.47507E+03
         0.17628E+02
         0.27016E+03
        -0.36346E+02
         0.27016E+02
         0.80705E+01
         0.16357E+02
        -0.13306E+02
         0.66743E+02
         0.58619E+02
        -0.17776E+03
         0.46574E+01
         0.40061E+02
         0.44132E+01
         0.73316E+00
         0.14376E+01
         0.17830E+02
        -0.59268E+02
        -0.31670E+02
         0.67325E+01
         0.10853E+02
        -0.85392E+00
        -0.44385E+02
        -0.15353E+03
        -0.31180E+03
         0.47139E+03
         0.24533E+03
         0.44279E+03
         0.85691E+03
         0.19893E+03
        -0.16108E+03
        -0.32469E+03
        -0.38435E+03
        -0.48995E+03
         0.60506E+02
         0.18161E+03
         0.56027E+02
         0.18839E+03
         0.58924E+03
         0.22735E+03
        -0.19964E+04
         0.25248E+04
        -0.61092E+04
        -0.71842E+04
        -0.68176E+04
        -0.41183E+04
         0.24539E+03
         0.26664E+04
         0.38667E+04
         0.62729E+04
         0.66027E+04
         0.35387E+04
         0.14283E+04
         0.60420E+03
        -0.97811E+03
        -0.38676E+04
        -0.64568E+04
        -0.73706E+04
        -0.45048E+04
         0.81709E+03
         0.29617E+04
         0.31213E+04
         0.49162E+04
         0.54546E+04
         0.41394E+04
         0.38220E+04
        -0.24825E+06
         0.63270E+05
        -0.11911E+06
        -0.98944E+05
         0.41516E+06
         0.26731E+06
         0.98685E+05
        -0.30507E+06
        -0.17147E+06
        -0.29748E+06
         0.71925E+05
        -0.15133E+06
        -0.47191E+06
         0.14694E+06
         0.35928E+06
        -0.28840E+06
         0.78951E+05
         0.45146E+05
         0.13289E+06
         0.46495E+05
         0.24735E+06
         0.18611E+06
        -0.11122E+06
         0.97196E+05
         0.17455E+06
        -0.37164E+05
         0.32829E+05
        -0.12483E+05
        -0.50259E+05
        -0.26354E+06
        -0.29021E+06
        -0.66047E+05
         0.16244E+06
         0.12173E+06
         0.71457E+05
        -0.25959E+06
        -0.39284E+06
         0.43103E+06
         0.98273E+05
         0.28140E+06
         0.42652E+06
        -0.12800E+06
        -0.25487E+06
        -0.34921E+06
        -0.41245E+06
        -0.29944E+06
         0.36460E+06
         0.35791E+06
        -0.76434E+05
         0.87617E+05
         0.44807E+06
         0.52416E+05
        -0.22667E+06
         0.31304E+06
        -0.60350E+06
        -0.65181E+06
        -0.55909E+06
        -0.27168E+06
         0.71195E+05
         0.24920E+06
         0.32967E+06
         0.52872E+06
         0.61166E+06
         0.24380E+06
         0.11504E+06
         0.10281E+06
        -0.44232E+05
        -0.34117E+06
        -0.58330E+06
        -0.65465E+06
        -0.46575E+06
         0.12789E+06
         0.30037E+06
         0.31605E+06
         0.49855E+06
         0.63328E+06
         0.39979E+06
         0.38319E+06
        -0.24860E+06
         0.63500E+05
        -0.11932E+06
        -0.99737E+05
         0.41509E+06
         0.26747E+06
         0.99437E+05
        -0.30438E+06
        -0.17162E+06
        -0.29709E+06
         0.70511E+05
        -0.15169E+06
        -0.47200E+06
         0.14703E+06
         0.35889E+06
        -0.28842E+06
         0.79844E+05
         0.44954E+05
         0.13284E+06
         0.46155E+05
         0.24790E+06
         0.18629E+06
        -0.11125E+06
         0.97155E+05
         0.17487E+06
        -0.37158E+05
         0.33212E+05
        -0.12317E+05
        -0.50279E+05
        -0.26370E+06
        -0.29036E+06
        -0.65895E+05
         0.16212E+06
         0.12198E+06
         0.70770E+05
        -0.25974E+06
        -0.39283E+06
         0.43124E+06
         0.99071E+05
         0.28200E+06
         0.42664E+06
        -0.12762E+06
        -0.25509E+06
        -0.34934E+06
        -0.41244E+06
        -0.29931E+06
         0.36456E+06
         0.35784E+06
        -0.75909E+05
         0.87363E+05
         0.44799E+06
         0.51658E+05
        -0.22652E+06
         0.31311E+06
        -0.60356E+06
        -0.65181E+06
        -0.55902E+06
        -0.27167E+06
         0.71299E+05
         0.24940E+06
         0.32948E+06
         0.52866E+06
         0.61162E+06
         0.24390E+06
         0.11504E+06
         0.10302E+06
        -0.43868E+05
        -0.34127E+06
        -0.58340E+06
        -0.65468E+06
        -0.46566E+06
         0.12796E+06
         0.30019E+06
         0.31595E+06
         0.49837E+06
         0.63320E+06
         0.39956E+06
         0.38288E+06
        -0.24895E+06
         0.63726E+05
        -0.11953E+06
        -0.10054E+06
         0.41502E+06
         0.26764E+06
         0.10019E+06
        -0.30369E+06
        -0.17176E+06
        -0.29669E+06
         0.69099E+05
        -0.15205E+06
        -0.47210E+06
         0.14710E+06
         0.35851E+06
        -0.28844E+06
         0.80751E+05
         0.44760E+05
         0.13279E+06
         0.45813E+05
         0.24846E+06
         0.18647E+06
        -0.11130E+06
         0.97101E+05
         0.17520E+06
        -0.37148E+05
         0.33621E+05
        -0.12155E+05
        -0.50265E+05
        -0.26385E+06
        -0.29050E+06
        -0.65715E+05
         0.16180E+06
         0.12223E+06
         0.70080E+05
        -0.25990E+06
        -0.39281E+06
         0.43145E+06
         0.99867E+05
         0.28260E+06
         0.42676E+06
        -0.12720E+06
        -0.25529E+06
        -0.34951E+06
        -0.41245E+06
        -0.29919E+06
         0.36452E+06
         0.35777E+06
        -0.75369E+05
         0.87098E+05
         0.44792E+06
         0.50903E+05
        -0.22638E+06
         0.31318E+06
        -0.60362E+06
        -0.65181E+06
        -0.55895E+06
        -0.27166E+06
         0.71404E+05
         0.24960E+06
         0.32928E+06
         0.52859E+06
         0.61159E+06
         0.24401E+06
         0.11504E+06
         0.10323E+06
        -0.43502E+05
        -0.34138E+06
        -0.58350E+06
        -0.65471E+06
        -0.46557E+06
         0.12802E+06
         0.30001E+06
         0.31585E+06
         0.49818E+06
         0.63311E+06
         0.39933E+06
         0.38257E+06
        -0.24929E+06
         0.63961E+05
        -0.11973E+06
        -0.10134E+06
         0.41494E+06
         0.26781E+06
         0.10095E+06
        -0.30299E+06
        -0.17187E+06
        -0.29626E+06
         0.67688E+05
        -0.15242E+06
        -0.47219E+06
         0.14719E+06
         0.35812E+06
        -0.28847E+06
         0.81683E+05
         0.44564E+05
         0.13274E+06
         0.45454E+05
         0.24902E+06
         0.18662E+06
        -0.11139E+06
         0.97010E+05
         0.17561E+06
        -0.37128E+05
         0.34045E+05
        -0.12021E+05
        -0.50156E+05
        -0.26400E+06
        -0.29064E+06
        -0.65485E+05
         0.16146E+06
         0.12249E+06
         0.69394E+05
        -0.26005E+06
        -0.39280E+06
         0.43166E+06
         0.10065E+06
         0.28319E+06
         0.42691E+06
        -0.12668E+06
        -0.25545E+06
        -0.34976E+06
        -0.41248E+06
        -0.29905E+06
         0.36449E+06
         0.35771E+06
        -0.74827E+05
         0.86833E+05
         0.44784E+06
         0.50149E+05
        -0.22624E+06
         0.31326E+06
        -0.60368E+06
        -0.65181E+06
        -0.55888E+06
        -0.27165E+06
         0.71510E+05
         0.24980E+06
         0.32909E+06
         0.52852E+06
         0.61157E+06
         0.24414E+06
         0.11505E+06
         0.10344E+06
        -0.43133E+05
        -0.34150E+06
        -0.58362E+06
        -0.65474E+06
        -0.46548E+06
         0.12808E+06
         0.29983E+06
         0.31575E+06
         0.49800E+06
         0.63302E+06
         0.39910E+06
         0.38227E+06
        -0.24964E+06
         0.64194E+05
        -0.11994E+06
        -0.10214E+06
         0.41487E+06
         0.26797E+06
         0.10171E+06
        -0.30229E+06
        -0.17197E+06
        -0.29579E+06
         0.66273E+05
        -0.15279E+06
        -0.47229E+06
         0.14728E+06
         0.35774E+06
        -0.28849E+06
         0.82637E+05
         0.44368E+05
         0.13268E+06
         0.45079E+05
         0.24959E+06
         0.18676E+06
        -0.11153E+06
         0.96880E+05
         0.17608E+06
        -0.37093E+05
         0.34516E+05
        -0.11911E+05
        -0.49946E+05
        -0.26413E+06
        -0.29078E+06
        -0.65192E+05
         0.16112E+06
         0.12274E+06
         0.68702E+05
        -0.26020E+06
        -0.39279E+06
         0.43186E+06
         0.10143E+06
         0.28378E+06
         0.42709E+06
        -0.12605E+06
        -0.25556E+06
        -0.35009E+06
        -0.41255E+06
        -0.29889E+06
         0.36447E+06
         0.35765E+06
        -0.74288E+05
         0.86572E+05
         0.44776E+06
         0.49388E+05
        -0.22610E+06
         0.31333E+06
        -0.60375E+06
        -0.65181E+06
        -0.55880E+06
        -0.27165E+06
         0.71615E+05
         0.25000E+06
         0.32889E+06
         0.52845E+06
         0.61155E+06
         0.24429E+06
         0.11507E+06
         0.10365E+06
        -0.42762E+05
        -0.34161E+06
        -0.58375E+06
        -0.65477E+06
        -0.46538E+06
         0.12815E+06
         0.29965E+06
         0.31565E+06
         0.49782E+06
         0.63293E+06
         0.39887E+06
         0.38196E+06
        -0.24996E+06
         0.64449E+05
        -0.12012E+06
        -0.10295E+06
         0.41479E+06
         0.26813E+06
         0.10246E+06
        -0.30158E+06
        -0.17206E+06
        -0.29532E+06
         0.64861E+05
        -0.15315E+06
        -0.47238E+06
         0.14739E+06
         0.35735E+06
        -0.28852E+06
         0.83611E+05
         0.44173E+05
         0.13263E+06
         0.44703E+05
         0.25015E+06
         0.18689E+06
        -0.11169E+06
         0.96739E+05
         0.17656E+06
        -0.37053E+05
         0.35024E+05
        -0.11809E+05
        -0.49693E+05
        -0.26429E+06
        -0.29090E+06
        -0.64862E+05
         0.16078E+06
         0.12300E+06
         0.68006E+05
        -0.26036E+06
        -0.39279E+06
         0.43206E+06
         0.10221E+06
         0.28435E+06
         0.42728E+06
        -0.12539E+06
        -0.25564E+06
        -0.35045E+06
        -0.41263E+06
        -0.29874E+06
         0.36443E+06
         0.35761E+06
        -0.73731E+05
         0.86334E+05
         0.44768E+06
         0.48627E+05
        -0.22596E+06
         0.31340E+06
        -0.60381E+06
        -0.65181E+06
        -0.55873E+06
        -0.27164E+06
         0.71718E+05
         0.25019E+06
         0.32869E+06
         0.52838E+06
         0.61153E+06
         0.24445E+06
         0.11508E+06
         0.10385E+06
        -0.42392E+05
        -0.34174E+06
        -0.58389E+06
        -0.65481E+06
        -0.46529E+06
         0.12820E+06
         0.29946E+06
         0.31555E+06
         0.49763E+06
         0.63285E+06
         0.39864E+06
         0.38165E+06
        -0.25027E+06
         0.64755E+05
        -0.12026E+06
        -0.10378E+06
         0.41472E+06
         0.26830E+06
         0.10319E+06
        -0.30086E+06
        -0.17216E+06
        -0.29487E+06
         0.63448E+05
        -0.15351E+06
        -0.47248E+06
         0.14758E+06
         0.35696E+06
        -0.28856E+06
         0.84600E+05
         0.43978E+05
         0.13258E+06
         0.44329E+05
         0.25072E+06
         0.18702E+06
        -0.11185E+06
         0.96604E+05
         0.17697E+06
        -0.36999E+05
         0.35622E+05
        -0.11706E+05
        -0.49423E+05
        -0.26445E+06
        -0.29101E+06
        -0.64496E+05
         0.16043E+06
         0.12325E+06
         0.67308E+05
        -0.26053E+06
        -0.39280E+06
         0.43226E+06
         0.10299E+06
         0.28495E+06
         0.42748E+06
        -0.12470E+06
        -0.25572E+06
        -0.35081E+06
        -0.41273E+06
        -0.29860E+06
         0.36438E+06
         0.35761E+06
        -0.73121E+05
         0.86157E+05
         0.44761E+06
         0.47854E+05
        -0.22582E+06
         0.31347E+06
        -0.60387E+06
        -0.65181E+06
        -0.55866E+06
        -0.27163E+06
         0.71822E+05
         0.25039E+06
         0.32850E+06
         0.52832E+06
         0.61151E+06
         0.24462E+06
         0.11510E+06
         0.10406E+06
        -0.42021E+05
        -0.34186E+06
        -0.58403E+06
        -0.65485E+06
        -0.46520E+06
         0.12825E+06
         0.29926E+06
         0.31545E+06
         0.49746E+06
         0.63276E+06
         0.39841E+06
         0.38135E+06
        -0.25056E+06
         0.65078E+05
        -0.12038E+06
        -0.10462E+06
         0.41465E+06
         0.26846E+06
         0.10391E+06
        -0.30014E+06
        -0.17226E+06
        -0.29444E+06
         0.62034E+05
        -0.15387E+06
        -0.47258E+06
         0.14779E+06
         0.35656E+06
        -0.28861E+06
         0.85599E+05
         0.43780E+05
         0.13252E+06
         0.43961E+05
         0.25129E+06
         0.18715E+06
        -0.11201E+06
         0.96472E+05
         0.17735E+06
        -0.36940E+05
         0.36243E+05
        -0.11599E+05
        -0.49148E+05
        -0.26463E+06
        -0.29112E+06
        -0.64108E+05
         0.16008E+06
         0.12350E+06
         0.66604E+05
        -0.26071E+06
        -0.39281E+06
         0.43246E+06
         0.10376E+06
         0.28553E+06
         0.42767E+06
        -0.12402E+06
        -0.25579E+06
        -0.35116E+06
        -0.41282E+06
        -0.29848E+06
         0.36433E+06
         0.35762E+06
        -0.72489E+05
         0.86007E+05
         0.44754E+06
         0.47080E+05
        -0.22568E+06
         0.31354E+06
        -0.60393E+06
        -0.65181E+06
        -0.55858E+06
        -0.27162E+06
         0.71925E+05
         0.25059E+06
         0.32830E+06
         0.52825E+06
         0.61149E+06
         0.24478E+06
         0.11512E+06
         0.10426E+06
        -0.41650E+05
        -0.34198E+06
        -0.58417E+06
        -0.65488E+06
        -0.46511E+06
         0.12830E+06
         0.29906E+06
         0.31535E+06
         0.49728E+06
         0.63267E+06
         0.39818E+06
         0.38104E+06
        -0.25085E+06
         0.65405E+05
        -0.12049E+06
        -0.10546E+06
         0.41458E+06
         0.26862E+06
         0.10464E+06
        -0.29942E+06
        -0.17236E+06
        -0.29400E+06
         0.60620E+05
        -0.15423E+06
        -0.47267E+06
         0.14802E+06
         0.35617E+06
        -0.28865E+06
         0.86605E+05
         0.43584E+05
         0.13247E+06
         0.43589E+05
         0.25186E+06
         0.18729E+06
        -0.11216E+06
         0.96345E+05
         0.17772E+06
        -0.36880E+05
         0.36880E+05
        -0.11486E+05
        -0.48864E+05
        -0.26481E+06
        -0.29122E+06
        -0.63724E+05
         0.15972E+06
         0.12376E+06
         0.65895E+05
        -0.26088E+06
        -0.39282E+06
         0.43265E+06
         0.10454E+06
         0.28612E+06
         0.42787E+06
        -0.12335E+06
        -0.25587E+06
        -0.35152E+06
        -0.41293E+06
        -0.29836E+06
         0.36427E+06
         0.35764E+06
        -0.71856E+05
         0.85865E+05
         0.44747E+06
         0.46301E+05
        -0.22553E+06
         0.31361E+06
        -0.60399E+06
        -0.65181E+06
        -0.55851E+06
        -0.27161E+06
         0.72029E+05
         0.25079E+06
         0.32811E+06
         0.52819E+06
         0.61147E+06
         0.24493E+06
         0.11515E+06
         0.10448E+06
        -0.41280E+05
        -0.34210E+06
        -0.58431E+06
        -0.65491E+06
        -0.46502E+06
         0.12835E+06
         0.29886E+06
         0.31524E+06
         0.49711E+06
         0.63258E+06
         0.39795E+06
         0.38073E+06
        -0.25113E+06
         0.65735E+05
        -0.12061E+06
        -0.10629E+06
         0.41451E+06
         0.26878E+06
         0.10536E+06
        -0.29870E+06
        -0.17246E+06
        -0.29356E+06
         0.59206E+05
        -0.15460E+06
        -0.47277E+06
         0.14822E+06
         0.35577E+06
        -0.28869E+06
         0.87619E+05
         0.43388E+05
         0.13241E+06
         0.43219E+05
         0.25242E+06
         0.18742E+06
        -0.11231E+06
         0.96217E+05
         0.17810E+06
        -0.36820E+05
         0.37499E+05
        -0.11368E+05
        -0.48573E+05
        -0.26498E+06
        -0.29132E+06
        -0.63337E+05
         0.15936E+06
         0.12401E+06
         0.65190E+05
        -0.26107E+06
        -0.39284E+06
         0.43284E+06
         0.10532E+06
         0.28671E+06
         0.42806E+06
        -0.12267E+06
        -0.25595E+06
        -0.35187E+06
        -0.41302E+06
        -0.29823E+06
         0.36421E+06
         0.35766E+06
        -0.71228E+05
         0.85709E+05
         0.44739E+06
         0.45524E+05
        -0.22539E+06
         0.31368E+06
        -0.60405E+06
        -0.65181E+06
        -0.55843E+06
        -0.27160E+06
         0.72132E+05
         0.25099E+06
         0.32791E+06
         0.52812E+06
         0.61145E+06
         0.24509E+06
         0.11517E+06
         0.10469E+06
        -0.40911E+05
        -0.34222E+06
        -0.58445E+06
        -0.65495E+06
        -0.46493E+06
         0.12839E+06
         0.29866E+06
         0.31514E+06
         0.49694E+06
         0.63249E+06
         0.39772E+06
         0.38042E+06
        -0.25142E+06
         0.66062E+05
        -0.12074E+06
        -0.10713E+06
         0.41443E+06
         0.26894E+06
         0.10609E+06
        -0.29798E+06
        -0.17256E+06
        -0.29312E+06
         0.57786E+05
        -0.15496E+06
        -0.47287E+06
         0.14844E+06
         0.35538E+06
        -0.28874E+06
         0.88637E+05
         0.43194E+05
         0.13237E+06
         0.42844E+05
         0.25299E+06
         0.18754E+06
        -0.11247E+06
         0.96093E+05
         0.17847E+06
        -0.36759E+05
         0.38128E+05
        -0.11242E+05
        -0.48274E+05
        -0.26515E+06
        -0.29143E+06
        -0.62953E+05
         0.15899E+06
         0.12427E+06
         0.64480E+05
        -0.26124E+06
        -0.39285E+06
         0.43303E+06
         0.10609E+06
         0.28729E+06
         0.42826E+06
        -0.12200E+06
        -0.25602E+06
        -0.35222E+06
        -0.41312E+06
        -0.29810E+06
         0.36415E+06
         0.35767E+06
        -0.70592E+05
         0.85557E+05
         0.44732E+06
         0.44744E+05
        -0.22525E+06
         0.31375E+06
        -0.60411E+06
        -0.65181E+06
        -0.55836E+06
        -0.27160E+06
         0.72233E+05
         0.25118E+06
         0.32772E+06
         0.52806E+06
         0.61144E+06
         0.24525E+06
         0.11519E+06
         0.10489E+06
        -0.40541E+05
        -0.34234E+06
        -0.58459E+06
        -0.65498E+06
        -0.46483E+06
         0.12844E+06
         0.29846E+06
         0.31504E+06
         0.49676E+06
         0.63241E+06
         0.39749E+06
         0.38011E+06
        -0.25171E+06
         0.66389E+05
        -0.12085E+06
        -0.10797E+06
         0.41436E+06
         0.26910E+06
         0.10682E+06
        -0.29725E+06
        -0.17266E+06
        -0.29268E+06
         0.56368E+05
        -0.15532E+06
        -0.47297E+06
         0.14865E+06
         0.35498E+06
        -0.28878E+06
         0.89660E+05
         0.42998E+05
         0.13231E+06
         0.42476E+05
         0.25355E+06
         0.18767E+06
        -0.11263E+06
         0.95970E+05
         0.17883E+06
        -0.36701E+05
         0.38744E+05
        -0.11113E+05
        -0.47963E+05
        -0.26533E+06
        -0.29153E+06
        -0.62568E+05
         0.15862E+06
         0.12453E+06
         0.63767E+05
        -0.26142E+06
        -0.39286E+06
         0.43322E+06
         0.10686E+06
         0.28788E+06
         0.42845E+06
        -0.12133E+06
        -0.25609E+06
        -0.35257E+06
        -0.41322E+06
        -0.29798E+06
         0.36410E+06
         0.35769E+06
        -0.69955E+05
         0.85415E+05
         0.44725E+06
         0.43964E+05
        -0.22510E+06
         0.31382E+06
        -0.60417E+06
        -0.65181E+06
        -0.55829E+06
        -0.27159E+06
         0.72335E+05
         0.25138E+06
         0.32752E+06
         0.52799E+06
         0.61142E+06
         0.24541E+06
         0.11521E+06
         0.10510E+06
        -0.40169E+05
        -0.34246E+06
        -0.58473E+06
        -0.65502E+06
        -0.46474E+06
         0.12848E+06
         0.29826E+06
         0.31494E+06
         0.49659E+06
         0.63232E+06
         0.39726E+06
         0.37980E+06
        -0.25200E+06
         0.66718E+05
        -0.12096E+06
        -0.10881E+06
         0.41429E+06
         0.26926E+06
         0.10754E+06
        -0.29653E+06
        -0.17275E+06
        -0.29224E+06
         0.54952E+05
        -0.15568E+06
        -0.47307E+06
         0.14885E+06
         0.35458E+06
        -0.28882E+06
         0.90687E+05
         0.42800E+05
         0.13226E+06
         0.42109E+05
         0.25412E+06
         0.18780E+06
        -0.11278E+06
         0.95847E+05
         0.17919E+06
        -0.36638E+05
         0.39377E+05
        -0.10977E+05
        -0.47649E+05
        -0.26550E+06
        -0.29162E+06
        -0.62178E+05
         0.15824E+06
         0.12478E+06
         0.63055E+05
        -0.26160E+06
        -0.39288E+06
         0.43340E+06
         0.10764E+06
         0.28846E+06
         0.42864E+06
        -0.12066E+06
        -0.25617E+06
        -0.35292E+06
        -0.41332E+06
        -0.29785E+06
         0.36404E+06
         0.35771E+06
        -0.69315E+05
         0.85262E+05
         0.44717E+06
         0.43185E+05
        -0.22496E+06
         0.31389E+06
        -0.60423E+06
        -0.65181E+06
        -0.55821E+06
        -0.27158E+06
         0.72439E+05
         0.25158E+06
         0.32732E+06
         0.52793E+06
         0.61140E+06
         0.24557E+06
         0.11523E+06
         0.10531E+06
        -0.39799E+05
        -0.34258E+06
        -0.58486E+06
        -0.65505E+06
        -0.46465E+06
         0.12853E+06
         0.29806E+06
         0.31483E+06
         0.49642E+06
         0.63223E+06
         0.39704E+06
         0.37949E+06
        -0.25229E+06
         0.67042E+05
        -0.12108E+06
        -0.10966E+06
         0.41422E+06
         0.26942E+06
         0.10827E+06
        -0.29580E+06
        -0.17285E+06
        -0.29179E+06
         0.53536E+05
        -0.15605E+06
        -0.47316E+06
         0.14907E+06
         0.35418E+06
        -0.28887E+06
         0.91721E+05
         0.42606E+05
         0.13222E+06
         0.41744E+05
         0.25468E+06
         0.18793E+06
        -0.11294E+06
         0.95725E+05
         0.17955E+06
        -0.36575E+05
         0.39993E+05
        -0.10836E+05
        -0.47328E+05
        -0.26567E+06
        -0.29172E+06
        -0.61793E+05
         0.15786E+06
         0.12504E+06
         0.62339E+05
        -0.26177E+06
        -0.39288E+06
         0.43358E+06
         0.10841E+06
         0.28905E+06
         0.42884E+06
        -0.11998E+06
        -0.25624E+06
        -0.35327E+06
        -0.41342E+06
        -0.29773E+06
         0.36398E+06
         0.35772E+06
        -0.68676E+05
         0.85110E+05
         0.44710E+06
         0.42409E+05
        -0.22481E+06
         0.31396E+06
        -0.60429E+06
        -0.65182E+06
        -0.55814E+06
        -0.27157E+06
         0.72542E+05
         0.25177E+06
         0.32712E+06
         0.52786E+06
         0.61138E+06
         0.24573E+06
         0.11525E+06
         0.10552E+06
        -0.39430E+05
        -0.34270E+06
        -0.58500E+06
        -0.65509E+06
        -0.46456E+06
         0.12857E+06
         0.29786E+06
         0.31473E+06
         0.49624E+06
         0.63214E+06
         0.39681E+06
         0.37918E+06
        -0.25258E+06
         0.67364E+05
        -0.12119E+06
        -0.11050E+06
         0.41414E+06
         0.26957E+06
         0.10900E+06
        -0.29507E+06
        -0.17295E+06
        -0.29134E+06
         0.52117E+05
        -0.15641E+06
        -0.47326E+06
         0.14926E+06
         0.35378E+06
        -0.28891E+06
         0.92762E+05
         0.42413E+05
         0.13217E+06
         0.41375E+05
         0.25525E+06
         0.18805E+06
        -0.11309E+06
         0.95605E+05
         0.17990E+06
        -0.36512E+05
         0.40620E+05
        -0.10689E+05
        -0.47001E+05
        -0.26584E+06
        -0.29182E+06
        -0.61403E+05
         0.15748E+06
         0.12529E+06
         0.61625E+05
        -0.26195E+06
        -0.39290E+06
         0.43376E+06
         0.10917E+06
         0.28963E+06
         0.42903E+06
        -0.11931E+06
        -0.25632E+06
        -0.35362E+06
        -0.41352E+06
        -0.29761E+06
         0.36392E+06
         0.35774E+06
        -0.68027E+05
         0.84963E+05
         0.44703E+06
         0.41627E+05
        -0.22467E+06
         0.31402E+06
        -0.60435E+06
        -0.65182E+06
        -0.55807E+06
        -0.27156E+06
         0.72643E+05
         0.25196E+06
         0.32693E+06
         0.52780E+06
         0.61136E+06
         0.24588E+06
         0.11527E+06
         0.10573E+06
        -0.39060E+05
        -0.34282E+06
        -0.58514E+06
        -0.65512E+06
        -0.46446E+06
         0.12861E+06
         0.29766E+06
         0.31463E+06
         0.49607E+06
         0.63205E+06
         0.39659E+06
         0.37887E+06
        -0.25287E+06
         0.67695E+05
        -0.12131E+06
        -0.11134E+06
         0.41407E+06
         0.26973E+06
         0.10972E+06
        -0.29434E+06
        -0.17304E+06
        -0.29089E+06
         0.50695E+05
        -0.15677E+06
        -0.47336E+06
         0.14947E+06
         0.35338E+06
        -0.28895E+06
         0.93812E+05
         0.42220E+05
         0.13212E+06
         0.41011E+05
         0.25581E+06
         0.18817E+06
        -0.11324E+06
         0.95488E+05
         0.18024E+06
        -0.36448E+05
         0.41230E+05
        -0.10536E+05
        -0.46667E+05
        -0.26600E+06
        -0.29191E+06
        -0.61018E+05
         0.15709E+06
         0.12555E+06
         0.60905E+05
        -0.26213E+06
        -0.39291E+06
         0.43394E+06
         0.10995E+06
         0.29021E+06
         0.42922E+06
        -0.11864E+06
        -0.25639E+06
        -0.35396E+06
        -0.41362E+06
        -0.29747E+06
         0.36386E+06
         0.35776E+06
        -0.67384E+05
         0.84808E+05
         0.44695E+06
         0.40844E+05
        -0.22452E+06
         0.31409E+06
        -0.60441E+06
        -0.65182E+06
        -0.55799E+06
        -0.27155E+06
         0.72743E+05
         0.25215E+06
         0.32673E+06
         0.52774E+06
         0.61134E+06
         0.24604E+06
         0.11529E+06
         0.10593E+06
        -0.38690E+05
        -0.34294E+06
        -0.58528E+06
        -0.65516E+06
        -0.46437E+06
         0.12866E+06
         0.29745E+06
         0.31453E+06
         0.49589E+06
         0.63196E+06
         0.39636E+06
         0.37856E+06
        -0.25316E+06
         0.68020E+05
        -0.12142E+06
        -0.11219E+06
         0.41399E+06
         0.26989E+06
         0.11045E+06
        -0.29360E+06
        -0.17313E+06
        -0.29043E+06
         0.49272E+05
        -0.15714E+06
        -0.47346E+06
         0.14966E+06
         0.35298E+06
        -0.28899E+06
         0.94870E+05
         0.42026E+05
         0.13207E+06
         0.40649E+05
         0.25637E+06
         0.18829E+06
        -0.11340E+06
         0.95371E+05
         0.18057E+06
        -0.36382E+05
         0.41857E+05
        -0.10375E+05
        -0.46321E+05
        -0.26617E+06
        -0.29201E+06
        -0.60632E+05
         0.15670E+06
         0.12582E+06
         0.60184E+05
        -0.26230E+06
        -0.39292E+06
         0.43411E+06
         0.11072E+06
         0.29080E+06
         0.42942E+06
        -0.11798E+06
        -0.25647E+06
        -0.35431E+06
        -0.41372E+06
        -0.29735E+06
         0.36380E+06
         0.35778E+06
        -0.66742E+05
         0.84655E+05
         0.44688E+06
         0.40066E+05
        -0.22438E+06
         0.31416E+06
        -0.60446E+06
        -0.65182E+06
        -0.55792E+06
        -0.27154E+06
         0.72842E+05
         0.25235E+06
         0.32654E+06
         0.52767E+06
         0.61132E+06
         0.24620E+06
         0.11531E+06
         0.10614E+06
        -0.38321E+05
        -0.34305E+06
        -0.58542E+06
        -0.65519E+06
        -0.46428E+06
         0.12870E+06
         0.29725E+06
         0.31443E+06
         0.49572E+06
         0.63187E+06
         0.39614E+06
         0.37825E+06
        -0.25344E+06
         0.68344E+05
        -0.12153E+06
        -0.11304E+06
         0.41392E+06
         0.27004E+06
         0.11118E+06
        -0.29287E+06
        -0.17321E+06
        -0.28994E+06
         0.47848E+05
        -0.15750E+06
        -0.47355E+06
         0.14986E+06
         0.35257E+06
        -0.28903E+06
         0.95938E+05
         0.41831E+05
         0.13204E+06
         0.40305E+05
         0.25693E+06
         0.18840E+06
        -0.11355E+06
         0.95249E+05
         0.18088E+06
        -0.36320E+05
         0.42478E+05
        -0.10203E+05
        -0.45972E+05
        -0.26634E+06
        -0.29210E+06
        -0.60238E+05
         0.15629E+06
         0.12608E+06
         0.59463E+05
        -0.26249E+06
        -0.39293E+06
         0.43427E+06
         0.11153E+06
         0.29138E+06
         0.42961E+06
        -0.11732E+06
        -0.25656E+06
        -0.35466E+06
        -0.41381E+06
        -0.29722E+06
         0.36374E+06
         0.35779E+06
        -0.66102E+05
         0.84501E+05
         0.44681E+06
         0.39287E+05
        -0.22423E+06
         0.31422E+06
        -0.60452E+06
        -0.65182E+06
        -0.55784E+06
        -0.27154E+06
         0.72942E+05
         0.25254E+06
         0.32634E+06
         0.52761E+06
         0.61131E+06
         0.24636E+06
         0.11531E+06
         0.10634E+06
        -0.37954E+05
        -0.34317E+06
        -0.58556E+06
        -0.65522E+06
        -0.46419E+06
         0.12874E+06
         0.29705E+06
         0.31433E+06
         0.49555E+06
         0.63179E+06
         0.39592E+06
         0.37793E+06
        -0.25373E+06
         0.68666E+05
        -0.12164E+06
        -0.11389E+06
         0.41384E+06
         0.27019E+06
         0.11191E+06
        -0.29213E+06
        -0.17327E+06
        -0.28942E+06
         0.46425E+05
        -0.15787E+06
        -0.47365E+06
         0.15007E+06
         0.35216E+06
        -0.28907E+06
         0.97023E+05
         0.41636E+05
         0.13199E+06
         0.39971E+05
         0.25749E+06
         0.18852E+06
        -0.11370E+06
         0.95134E+05
         0.18116E+06
        -0.36252E+05
         0.43127E+05
        -0.10016E+05
        -0.45615E+05
        -0.26650E+06
        -0.29219E+06
        -0.59850E+05
         0.15589E+06
         0.12634E+06
         0.58737E+05
        -0.26266E+06
        -0.39294E+06
         0.43442E+06
         0.11235E+06
         0.29197E+06
         0.42981E+06
        -0.11666E+06
        -0.25666E+06
        -0.35500E+06
        -0.41391E+06
        -0.29710E+06
         0.36368E+06
         0.35781E+06
        -0.65454E+05
         0.84351E+05
         0.44674E+06
         0.38500E+05
        -0.22409E+06
         0.31429E+06
        -0.60458E+06
        -0.65182E+06
        -0.55777E+06
        -0.27153E+06
         0.73042E+05
         0.25273E+06
         0.32616E+06
         0.52755E+06
         0.61130E+06
         0.24651E+06
         0.11531E+06
         0.10655E+06
        -0.37584E+05
        -0.34329E+06
        -0.58570E+06
        -0.65526E+06
        -0.46409E+06
         0.12879E+06
         0.29685E+06
         0.31423E+06
         0.49538E+06
         0.63170E+06
         0.39570E+06
         0.37762E+06
        -0.25402E+06
         0.68990E+05
        -0.12176E+06
        -0.11474E+06
         0.41377E+06
         0.27035E+06
         0.11264E+06
        -0.29139E+06
        -0.17333E+06
        -0.28889E+06
         0.45011E+05
        -0.15822E+06
        -0.47374E+06
         0.15025E+06
         0.35175E+06
        -0.28911E+06
         0.98116E+05
         0.41444E+05
         0.13194E+06
         0.39647E+05
         0.25806E+06
         0.18863E+06
        -0.11385E+06
         0.95026E+05
         0.18142E+06
        -0.36189E+05
         0.43759E+05
        -0.98205E+04
        -0.45256E+05
        -0.26667E+06
        -0.29229E+06
        -0.59470E+05
         0.15549E+06
         0.12660E+06
         0.58018E+05
        -0.26283E+06
        -0.39295E+06
         0.43456E+06
         0.11318E+06
         0.29254E+06
         0.43000E+06
        -0.11601E+06
        -0.25676E+06
        -0.35534E+06
        -0.41401E+06
        -0.29697E+06
         0.36363E+06
         0.35783E+06
        -0.64812E+05
         0.84192E+05
         0.44667E+06
         0.37718E+05
        -0.22394E+06
         0.31436E+06
        -0.60464E+06
        -0.65182E+06
        -0.55770E+06
        -0.27152E+06
         0.73140E+05
         0.25292E+06
         0.32597E+06
         0.52748E+06
         0.61130E+06
         0.24665E+06
         0.11530E+06
         0.10675E+06
        -0.37215E+05
        -0.34340E+06
        -0.58583E+06
        -0.65529E+06
        -0.46400E+06
         0.12883E+06
         0.29666E+06
         0.31412E+06
         0.49520E+06
         0.63161E+06
         0.39548E+06
         0.37731E+06
        -0.23988E+06
         0.60601E+05
        -0.10598E+06
        -0.11335E+06
         0.38154E+06
         0.23915E+06
         0.11419E+06
        -0.26927E+06
        -0.15511E+06
        -0.26629E+06
         0.35428E+05
        -0.15230E+06
        -0.44996E+06
         0.12813E+06
         0.33858E+06
        -0.26533E+06
         0.95890E+05
         0.41583E+05
         0.11053E+06
         0.39649E+05
         0.24809E+06
         0.17999E+06
        -0.10894E+06
         0.95710E+05
         0.15711E+06
        -0.36442E+05
         0.37861E+05
        -0.96951E+04
        -0.45341E+05
        -0.23003E+06
        -0.26223E+06
        -0.59657E+05
         0.15481E+06
         0.12785E+06
         0.53850E+05
        -0.23391E+06
        -0.36287E+06
         0.41459E+06
         0.10649E+06
         0.27160E+06
         0.41106E+06
        -0.11005E+06
        -0.24596E+06
        -0.33670E+06
        -0.38537E+06
        -0.28061E+06
         0.33166E+06
         0.32297E+06
        -0.56262E+05
         0.74941E+05
         0.41908E+06
         0.33454E+05
        -0.22096E+06
         0.31089E+06
        -0.59826E+06
        -0.64525E+06
        -0.55237E+06
        -0.26903E+06
         0.72527E+05
         0.24993E+06
         0.32145E+06
         0.52097E+06
         0.60403E+06
         0.24410E+06
         0.11380E+06
         0.10560E+06
        -0.36477E+05
        -0.34023E+06
        -0.58067E+06
        -0.64948E+06
        -0.45869E+06
         0.12752E+06
         0.29317E+06
         0.31037E+06
         0.48959E+06
         0.62426E+06
         0.39107E+06
         0.37292E+06
        -0.69275E+05
         0.99082E+04
        -0.16756E+05
        -0.15860E+05
         0.86811E+05
         0.40846E+05
         0.11462E+05
        -0.63551E+05
        -0.29013E+05
        -0.61117E+05
         0.35442E+04
        -0.55936E+05
        -0.13945E+06
         0.17623E+05
         0.12998E+06
        -0.58972E+05
         0.11672E+05
         0.62310E+04
         0.14702E+05
         0.39788E+04
         0.88587E+05
         0.59057E+05
        -0.36957E+05
         0.11210E+05
         0.23739E+05
        -0.46992E+04
         0.53151E+04
        -0.81407E+03
        -0.38159E+04
        -0.34096E+05
        -0.49562E+05
        -0.71137E+04
         0.20951E+05
         0.15996E+05
         0.14291E+05
        -0.40910E+05
        -0.83428E+05
         0.13639E+06
         0.27647E+05
         0.64740E+05
         0.13944E+06
        -0.35625E+05
        -0.85364E+05
        -0.10018E+06
        -0.94945E+05
        -0.81680E+05
         0.68657E+05
         0.62348E+05
        -0.90422E+04
         0.13382E+05
         0.11273E+06
         0.65137E+04
        -0.14119E+06
         0.20618E+06
        -0.40495E+06
        -0.44487E+06
        -0.38877E+06
        -0.19209E+06
         0.50437E+05
         0.16158E+06
         0.20229E+06
         0.33746E+06
         0.39493E+06
         0.16512E+06
         0.72885E+05
         0.68132E+05
        -0.24713E+05
        -0.23910E+06
        -0.41438E+06
        -0.46387E+06
        -0.30405E+06
         0.86071E+05
         0.19515E+06
         0.20432E+06
         0.32759E+06
         0.41249E+06
         0.26528E+06
         0.25121E+06
  
SCALARS                      strain_xx  double 1
LOOKUP_TABLE default
        -0.11623E-06
        -0.58114E-05
        -0.63133E-04
        -0.29579E-06
        -0.17002E-19
        -0.21375E-20
        -0.23899E-19
        -0.95326E-21
        -0.50132E-03
        -0.22347E-03
        -0.21381E-18
        -0.17347E-18
        -0.91588E-06
        -0.15251E-04
        -0.32524E-20
        -0.71373E-19
        -0.63307E-06
        -0.14043E-04
        -0.37240E-19
        -0.82603E-19
        -0.30205E-04
        -0.85729E-04
        -0.76861E-04
        -0.36832E-19
        -0.78318E-20
        -0.23904E-19
        -0.95667E-04
        -0.62935E-04
        -0.12906E-18
        -0.81209E-19
        -0.34672E-05
        -0.17242E-04
        -0.15507E-06
        -0.13378E-20
        -0.19978E-19
        -0.75825E-20
        -0.30667E-04
        -0.71769E-05
        -0.44036E-19
        -0.49923E-19
        -0.12224E-03
        -0.24655E-03
        -0.22407E-18
        -0.12186E-18
        -0.13909E-03
        -0.39321E-04
        -0.27022E-18
        -0.62603E-19
        -0.11606E-04
        -0.24666E-19
        -0.64834E-04
        -0.19113E-20
        -0.12625E-04
        -0.94179E-19
        -0.70410E-05
        -0.65900E-20
        -0.13477E-03
        -0.10156E-04
        -0.48360E-20
        -0.28255E-19
        -0.39539E-07
        -0.30189E-04
        -0.19346E-19
        -0.90973E-20
        -0.20251E-05
        -0.19574E-21
        -0.22787E-04
        -0.84683E-20
        -0.99376E-03
        -0.46711E-03
        -0.33083E-18
        -0.17402E-18
        -0.19347E-03
        -0.92262E-19
        -0.10740E-04
        -0.44149E-19
        -0.10508E-03
        -0.17006E-20
        -0.47241E-03
        -0.40933E-20
        -0.82824E-03
        -0.41832E-03
        -0.54976E-19
        -0.71907E-19
        -0.32673E-03
        -0.83167E-19
        -0.20456E-03
        -0.17240E-18
        -0.79600E-04
        -0.70133E-19
        -0.19766E-03
        -0.10709E-03
        -0.12775E-19
        -0.24025E-19
        -0.55892E-05
        -0.33055E-19
        -0.42066E-04
        -0.58277E-20
        -0.24274E-03
        -0.35538E-19
        -0.53041E-03
        -0.24964E-03
        -0.18894E-18
        -0.20573E-18
        -0.31904E-02
        -0.39028E-02
        -0.64507E-18
        -0.62647E-18
        -0.31287E-02
        -0.47079E-18
        -0.25922E-02
        -0.26292E-18
        -0.13372E-02
        -0.79403E-19
        -0.70734E-03
        -0.90796E-21
        -0.97252E-04
        -0.11518E-19
        -0.16112E-03
        -0.73727E-20
        -0.91738E-03
        -0.71224E-20
        -0.20256E-02
        -0.36220E-19
        -0.36732E-02
        -0.13110E-18
        -0.54247E-02
        -0.18669E-18
        -0.61019E-02
        -0.16620E-18
        -0.55097E-02
        -0.19653E-18
        -0.45967E-02
        -0.33103E-18
        -0.36973E-02
        -0.46030E-18
        -0.28760E-02
        -0.39778E-18
        -0.18426E-02
        -0.26273E-18
        -0.63829E-03
        -0.58552E-19
        -0.46935E-05
        -0.21350E-20
        -0.19919E-03
        -0.12585E-19
        -0.48736E-03
        -0.33650E-19
        -0.11058E-02
        -0.12888E-18
        -0.19232E-02
        -0.34704E-18
        -0.33150E-02
        -0.50094E-18
        -0.43613E-02
        -0.52406E-18
        -0.20899E-05
        -0.57390E-06
        -0.78852E-06
        -0.31423E-05
        -0.48556E-04
        -0.28631E-04
        -0.66426E-06
        -0.14206E-05
        -0.36993E-06
        -0.11878E-05
        -0.36711E-06
        -0.69037E-05
        -0.29908E-04
        -0.30577E-05
        -0.44481E-05
        -0.55702E-05
        -0.39354E-05
        -0.83807E-06
        -0.20811E-05
        -0.23977E-05
        -0.72118E-04
        -0.81430E-04
        -0.66913E-04
        -0.64488E-05
        -0.10292E-05
        -0.57181E-06
        -0.59735E-05
        -0.75028E-07
        -0.79207E-05
        -0.36973E-05
        -0.44471E-05
        -0.17414E-06
        -0.98759E-06
        -0.10441E-06
        -0.10799E-03
        -0.43411E-04
        -0.35383E-04
        -0.17441E-04
        -0.56624E-05
        -0.26133E-04
        -0.11133E-03
        -0.95279E-04
        -0.91373E-04
        -0.49483E-04
        -0.25681E-04
        -0.15935E-04
        -0.55551E-06
        -0.95584E-05
        -0.80013E-06
        -0.81275E-05
        -0.58590E-04
        -0.40997E-04
        -0.94186E-03
        -0.10295E-02
        -0.82403E-03
        -0.59533E-03
        -0.33046E-03
        -0.86228E-04
        -0.30485E-06
        -0.43956E-04
        -0.10196E-03
        -0.30076E-03
        -0.80028E-03
        -0.11712E-02
        -0.97663E-03
        -0.89601E-03
        -0.99663E-03
        -0.99368E-03
        -0.82047E-03
        -0.63236E-03
        -0.16449E-03
        -0.40998E-05
        -0.60247E-04
        -0.74836E-04
        -0.21479E-03
        -0.55005E-03
        -0.91975E-03
        -0.10136E-02
        -0.70912E-05
        -0.29881E-06
        -0.10830E-05
        -0.91818E-05
        -0.38634E-04
        -0.28214E-04
        -0.23949E-05
        -0.11413E-04
        -0.24096E-05
        -0.10315E-04
        -0.42097E-06
        -0.56041E-05
        -0.60649E-04
        -0.35666E-04
        -0.38267E-04
        -0.27370E-04
        -0.84825E-05
        -0.30430E-05
        -0.13782E-05
        -0.42504E-05
        -0.14965E-03
        -0.13592E-03
        -0.13235E-03
        -0.77425E-05
        -0.24978E-05
        -0.11324E-05
        -0.33304E-04
        -0.58715E-06
        -0.37301E-05
        -0.69367E-05
        -0.16156E-04
        -0.67646E-05
        -0.67960E-05
        -0.50621E-05
        -0.12288E-03
        -0.37430E-04
        -0.49250E-04
        -0.47060E-04
        -0.13191E-05
        -0.11088E-04
        -0.14967E-03
        -0.15836E-03
        -0.15131E-03
        -0.79104E-04
        -0.46911E-04
        -0.16060E-04
        -0.18759E-04
        -0.26144E-04
        -0.45684E-06
        -0.66228E-06
        -0.69584E-04
        -0.53995E-04
        -0.21483E-02
        -0.21817E-02
        -0.17581E-02
        -0.11960E-02
        -0.66590E-03
        -0.14126E-03
        -0.87076E-05
        -0.91408E-04
        -0.15863E-03
        -0.53303E-03
        -0.16817E-02
        -0.23403E-02
        -0.16456E-02
        -0.14894E-02
        -0.18078E-02
        -0.19175E-02
        -0.15974E-02
        -0.14294E-02
        -0.37105E-03
        -0.25067E-04
        -0.12261E-03
        -0.12585E-03
        -0.39781E-03
        -0.11925E-02
        -0.19538E-02
        -0.19415E-02
        -0.71181E-05
        -0.30104E-06
        -0.10871E-05
        -0.91942E-05
        -0.38560E-04
        -0.28162E-04
        -0.24255E-05
        -0.11355E-04
        -0.24148E-05
        -0.10299E-04
        -0.40411E-06
        -0.56314E-05
        -0.60722E-04
        -0.35490E-04
        -0.38226E-04
        -0.27427E-04
        -0.85198E-05
        -0.30262E-05
        -0.13768E-05
        -0.42354E-05
        -0.14962E-03
        -0.13589E-03
        -0.13233E-03
        -0.77433E-05
        -0.25091E-05
        -0.11362E-05
        -0.33324E-04
        -0.56528E-06
        -0.37828E-05
        -0.69456E-05
        -0.16203E-04
        -0.67629E-05
        -0.67395E-05
        -0.50667E-05
        -0.12300E-03
        -0.37396E-04
        -0.49219E-04
        -0.47211E-04
        -0.13445E-05
        -0.11158E-04
        -0.14985E-03
        -0.15855E-03
        -0.15132E-03
        -0.79081E-04
        -0.46877E-04
        -0.16044E-04
        -0.18751E-04
        -0.26162E-04
        -0.45019E-06
        -0.65776E-06
        -0.69494E-04
        -0.53836E-04
        -0.21468E-02
        -0.21806E-02
        -0.17578E-02
        -0.11960E-02
        -0.66549E-03
        -0.14118E-03
        -0.87273E-05
        -0.91522E-04
        -0.15836E-03
        -0.53261E-03
        -0.16812E-02
        -0.23404E-02
        -0.16453E-02
        -0.14893E-02
        -0.18083E-02
        -0.19183E-02
        -0.15980E-02
        -0.14299E-02
        -0.37085E-03
        -0.25090E-04
        -0.12243E-03
        -0.12575E-03
        -0.39722E-03
        -0.11911E-02
        -0.19519E-02
        -0.19398E-02
        -0.71450E-05
        -0.30323E-06
        -0.10912E-05
        -0.92064E-05
        -0.38483E-04
        -0.28111E-04
        -0.24564E-05
        -0.11298E-04
        -0.24198E-05
        -0.10282E-04
        -0.38762E-06
        -0.56587E-05
        -0.60796E-04
        -0.35315E-04
        -0.38186E-04
        -0.27485E-04
        -0.85579E-05
        -0.30093E-05
        -0.13754E-05
        -0.42210E-05
        -0.14959E-03
        -0.13586E-03
        -0.13232E-03
        -0.77442E-05
        -0.25211E-05
        -0.11403E-05
        -0.33343E-04
        -0.54409E-06
        -0.38361E-05
        -0.69543E-05
        -0.16251E-04
        -0.67618E-05
        -0.66829E-05
        -0.50712E-05
        -0.12313E-03
        -0.37364E-04
        -0.49186E-04
        -0.47362E-04
        -0.13702E-05
        -0.11229E-04
        -0.15004E-03
        -0.15874E-03
        -0.15135E-03
        -0.79062E-04
        -0.46845E-04
        -0.16028E-04
        -0.18745E-04
        -0.26179E-04
        -0.44343E-06
        -0.65311E-06
        -0.69408E-04
        -0.53678E-04
        -0.21453E-02
        -0.21794E-02
        -0.17575E-02
        -0.11960E-02
        -0.66508E-03
        -0.14109E-03
        -0.87473E-05
        -0.91635E-04
        -0.15809E-03
        -0.53219E-03
        -0.16807E-02
        -0.23405E-02
        -0.16450E-02
        -0.14891E-02
        -0.18088E-02
        -0.19192E-02
        -0.15986E-02
        -0.14305E-02
        -0.37064E-03
        -0.25113E-04
        -0.12225E-03
        -0.12565E-03
        -0.39664E-03
        -0.11896E-02
        -0.19500E-02
        -0.19381E-02
        -0.71721E-05
        -0.30551E-06
        -0.10952E-05
        -0.92185E-05
        -0.38407E-04
        -0.28059E-04
        -0.24871E-05
        -0.11240E-04
        -0.24242E-05
        -0.10261E-04
        -0.37151E-06
        -0.56866E-05
        -0.60870E-04
        -0.35141E-04
        -0.38145E-04
        -0.27549E-04
        -0.85977E-05
        -0.29923E-05
        -0.13743E-05
        -0.42060E-05
        -0.14957E-03
        -0.13584E-03
        -0.13232E-03
        -0.77450E-05
        -0.25355E-05
        -0.11453E-05
        -0.33359E-04
        -0.52394E-06
        -0.38896E-05
        -0.69625E-05
        -0.16304E-04
        -0.67631E-05
        -0.66263E-05
        -0.50758E-05
        -0.12325E-03
        -0.37330E-04
        -0.49155E-04
        -0.47513E-04
        -0.13960E-05
        -0.11300E-04
        -0.15024E-03
        -0.15894E-03
        -0.15139E-03
        -0.79047E-04
        -0.46808E-04
        -0.16011E-04
        -0.18739E-04
        -0.26197E-04
        -0.43671E-06
        -0.64849E-06
        -0.69317E-04
        -0.53518E-04
        -0.21438E-02
        -0.21783E-02
        -0.17571E-02
        -0.11960E-02
        -0.66467E-03
        -0.14100E-03
        -0.87675E-05
        -0.91748E-04
        -0.15783E-03
        -0.53176E-03
        -0.16801E-02
        -0.23407E-02
        -0.16448E-02
        -0.14890E-02
        -0.18093E-02
        -0.19202E-02
        -0.15992E-02
        -0.14310E-02
        -0.37043E-03
        -0.25136E-04
        -0.12207E-03
        -0.12555E-03
        -0.39605E-03
        -0.11882E-02
        -0.19480E-02
        -0.19363E-02
        -0.71989E-05
        -0.30780E-06
        -0.10993E-05
        -0.92306E-05
        -0.38334E-04
        -0.28007E-04
        -0.25184E-05
        -0.11182E-04
        -0.24279E-05
        -0.10238E-04
        -0.35571E-06
        -0.57142E-05
        -0.60944E-04
        -0.34967E-04
        -0.38104E-04
        -0.27617E-04
        -0.86394E-05
        -0.29753E-05
        -0.13727E-05
        -0.41909E-05
        -0.14957E-03
        -0.13582E-03
        -0.13233E-03
        -0.77460E-05
        -0.25522E-05
        -0.11511E-05
        -0.33373E-04
        -0.50480E-06
        -0.39433E-05
        -0.69701E-05
        -0.16360E-04
        -0.67665E-05
        -0.65698E-05
        -0.50803E-05
        -0.12337E-03
        -0.37297E-04
        -0.49124E-04
        -0.47663E-04
        -0.14219E-05
        -0.11371E-04
        -0.15044E-03
        -0.15915E-03
        -0.15145E-03
        -0.79038E-04
        -0.46770E-04
        -0.15992E-04
        -0.18735E-04
        -0.26217E-04
        -0.43008E-06
        -0.64393E-06
        -0.69231E-04
        -0.53359E-04
        -0.21424E-02
        -0.21772E-02
        -0.17568E-02
        -0.11960E-02
        -0.66426E-03
        -0.14092E-03
        -0.87872E-05
        -0.91862E-04
        -0.15756E-03
        -0.53134E-03
        -0.16796E-02
        -0.23408E-02
        -0.16446E-02
        -0.14888E-02
        -0.18099E-02
        -0.19213E-02
        -0.15999E-02
        -0.14316E-02
        -0.37023E-03
        -0.25158E-04
        -0.12189E-03
        -0.12545E-03
        -0.39547E-03
        -0.11867E-02
        -0.19461E-02
        -0.19346E-02
        -0.72247E-05
        -0.31029E-06
        -0.11029E-05
        -0.92423E-05
        -0.38259E-04
        -0.27956E-04
        -0.25499E-05
        -0.11123E-04
        -0.24315E-05
        -0.10214E-04
        -0.34025E-06
        -0.57419E-05
        -0.61017E-04
        -0.34792E-04
        -0.38062E-04
        -0.27687E-04
        -0.86812E-05
        -0.29584E-05
        -0.13712E-05
        -0.41764E-05
        -0.14956E-03
        -0.13581E-03
        -0.13235E-03
        -0.77473E-05
        -0.25689E-05
        -0.11571E-05
        -0.33386E-04
        -0.48612E-06
        -0.39977E-05
        -0.69791E-05
        -0.16415E-04
        -0.67694E-05
        -0.65128E-05
        -0.50843E-05
        -0.12350E-03
        -0.37267E-04
        -0.49095E-04
        -0.47814E-04
        -0.14481E-05
        -0.11443E-04
        -0.15065E-03
        -0.15937E-03
        -0.15152E-03
        -0.79030E-04
        -0.46737E-04
        -0.15976E-04
        -0.18730E-04
        -0.26236E-04
        -0.42331E-06
        -0.63976E-06
        -0.69146E-04
        -0.53205E-04
        -0.21409E-02
        -0.21761E-02
        -0.17565E-02
        -0.11960E-02
        -0.66385E-03
        -0.14084E-03
        -0.88066E-05
        -0.91975E-04
        -0.15729E-03
        -0.53092E-03
        -0.16791E-02
        -0.23410E-02
        -0.16445E-02
        -0.14887E-02
        -0.18104E-02
        -0.19225E-02
        -0.16006E-02
        -0.14321E-02
        -0.37002E-03
        -0.25179E-04
        -0.12171E-03
        -0.12535E-03
        -0.39489E-03
        -0.11853E-02
        -0.19441E-02
        -0.19329E-02
        -0.72485E-05
        -0.31329E-06
        -0.11057E-05
        -0.92539E-05
        -0.38186E-04
        -0.27905E-04
        -0.25821E-05
        -0.11063E-04
        -0.24354E-05
        -0.10191E-04
        -0.32505E-06
        -0.57697E-05
        -0.61093E-04
        -0.34619E-04
        -0.38020E-04
        -0.27757E-04
        -0.87214E-05
        -0.29413E-05
        -0.13700E-05
        -0.41623E-05
        -0.14956E-03
        -0.13581E-03
        -0.13238E-03
        -0.77491E-05
        -0.25837E-05
        -0.11624E-05
        -0.33400E-04
        -0.46738E-06
        -0.40530E-05
        -0.69895E-05
        -0.16468E-04
        -0.67699E-05
        -0.64549E-05
        -0.50872E-05
        -0.12363E-03
        -0.37239E-04
        -0.49068E-04
        -0.47964E-04
        -0.14747E-05
        -0.11517E-04
        -0.15086E-03
        -0.15959E-03
        -0.15159E-03
        -0.79025E-04
        -0.46706E-04
        -0.15962E-04
        -0.18721E-04
        -0.26253E-04
        -0.41602E-06
        -0.63655E-06
        -0.69071E-04
        -0.53050E-04
        -0.21394E-02
        -0.21749E-02
        -0.17562E-02
        -0.11961E-02
        -0.66344E-03
        -0.14075E-03
        -0.88262E-05
        -0.92088E-04
        -0.15703E-03
        -0.53050E-03
        -0.16785E-02
        -0.23412E-02
        -0.16444E-02
        -0.14886E-02
        -0.18110E-02
        -0.19237E-02
        -0.16014E-02
        -0.14326E-02
        -0.36980E-03
        -0.25196E-04
        -0.12152E-03
        -0.12525E-03
        -0.39433E-03
        -0.11838E-02
        -0.19422E-02
        -0.19312E-02
        -0.72713E-05
        -0.31647E-06
        -0.11081E-05
        -0.92650E-05
        -0.38115E-04
        -0.27853E-04
        -0.26150E-05
        -0.11003E-04
        -0.24393E-05
        -0.10169E-04
        -0.31017E-06
        -0.57976E-05
        -0.61170E-04
        -0.34445E-04
        -0.37978E-04
        -0.27826E-04
        -0.87609E-05
        -0.29243E-05
        -0.13685E-05
        -0.41491E-05
        -0.14956E-03
        -0.13580E-03
        -0.13240E-03
        -0.77506E-05
        -0.25976E-05
        -0.11674E-05
        -0.33414E-04
        -0.44890E-06
        -0.41095E-05
        -0.70006E-05
        -0.16519E-04
        -0.67691E-05
        -0.63966E-05
        -0.50896E-05
        -0.12376E-03
        -0.37215E-04
        -0.49045E-04
        -0.48114E-04
        -0.15016E-05
        -0.11590E-04
        -0.15106E-03
        -0.15982E-03
        -0.15166E-03
        -0.79025E-04
        -0.46678E-04
        -0.15950E-04
        -0.18711E-04
        -0.26270E-04
        -0.40857E-06
        -0.63376E-06
        -0.68998E-04
        -0.52900E-04
        -0.21379E-02
        -0.21738E-02
        -0.17558E-02
        -0.11961E-02
        -0.66303E-03
        -0.14066E-03
        -0.88456E-05
        -0.92200E-04
        -0.15676E-03
        -0.53008E-03
        -0.16780E-02
        -0.23414E-02
        -0.16442E-02
        -0.14885E-02
        -0.18116E-02
        -0.19248E-02
        -0.16021E-02
        -0.14331E-02
        -0.36959E-03
        -0.25212E-04
        -0.12133E-03
        -0.12516E-03
        -0.39377E-03
        -0.11824E-02
        -0.19403E-02
        -0.19294E-02
        -0.72940E-05
        -0.31969E-06
        -0.11104E-05
        -0.92761E-05
        -0.38043E-04
        -0.27801E-04
        -0.26478E-05
        -0.10943E-04
        -0.24434E-05
        -0.10148E-04
        -0.29569E-06
        -0.58255E-05
        -0.61246E-04
        -0.34273E-04
        -0.37935E-04
        -0.27896E-04
        -0.88005E-05
        -0.29073E-05
        -0.13670E-05
        -0.41354E-05
        -0.14955E-03
        -0.13579E-03
        -0.13242E-03
        -0.77528E-05
        -0.26114E-05
        -0.11724E-05
        -0.33430E-04
        -0.43082E-06
        -0.41662E-05
        -0.70118E-05
        -0.16571E-04
        -0.67683E-05
        -0.63387E-05
        -0.50921E-05
        -0.12390E-03
        -0.37188E-04
        -0.49022E-04
        -0.48264E-04
        -0.15288E-05
        -0.11663E-04
        -0.15127E-03
        -0.16004E-03
        -0.15174E-03
        -0.79026E-04
        -0.46652E-04
        -0.15938E-04
        -0.18702E-04
        -0.26286E-04
        -0.40118E-06
        -0.63111E-06
        -0.68929E-04
        -0.52747E-04
        -0.21365E-02
        -0.21727E-02
        -0.17555E-02
        -0.11961E-02
        -0.66262E-03
        -0.14058E-03
        -0.88651E-05
        -0.92312E-04
        -0.15650E-03
        -0.52966E-03
        -0.16774E-02
        -0.23416E-02
        -0.16441E-02
        -0.14884E-02
        -0.18122E-02
        -0.19260E-02
        -0.16028E-02
        -0.14336E-02
        -0.36937E-03
        -0.25228E-04
        -0.12114E-03
        -0.12506E-03
        -0.39320E-03
        -0.11810E-02
        -0.19384E-02
        -0.19277E-02
        -0.73169E-05
        -0.32297E-06
        -0.11128E-05
        -0.92875E-05
        -0.37972E-04
        -0.27750E-04
        -0.26811E-05
        -0.10883E-04
        -0.24474E-05
        -0.10126E-04
        -0.28155E-06
        -0.58534E-05
        -0.61324E-04
        -0.34102E-04
        -0.37893E-04
        -0.27965E-04
        -0.88402E-05
        -0.28906E-05
        -0.13655E-05
        -0.41221E-05
        -0.14955E-03
        -0.13578E-03
        -0.13244E-03
        -0.77549E-05
        -0.26253E-05
        -0.11773E-05
        -0.33445E-04
        -0.41321E-06
        -0.42232E-05
        -0.70228E-05
        -0.16622E-04
        -0.67672E-05
        -0.62812E-05
        -0.50947E-05
        -0.12403E-03
        -0.37165E-04
        -0.48998E-04
        -0.48414E-04
        -0.15563E-05
        -0.11738E-04
        -0.15148E-03
        -0.16027E-03
        -0.15181E-03
        -0.79026E-04
        -0.46624E-04
        -0.15925E-04
        -0.18692E-04
        -0.26303E-04
        -0.39392E-06
        -0.62825E-06
        -0.68855E-04
        -0.52595E-04
        -0.21350E-02
        -0.21716E-02
        -0.17552E-02
        -0.11961E-02
        -0.66220E-03
        -0.14049E-03
        -0.88844E-05
        -0.92422E-04
        -0.15623E-03
        -0.52924E-03
        -0.16769E-02
        -0.23418E-02
        -0.16440E-02
        -0.14884E-02
        -0.18128E-02
        -0.19272E-02
        -0.16035E-02
        -0.14341E-02
        -0.36915E-03
        -0.25244E-04
        -0.12095E-03
        -0.12496E-03
        -0.39264E-03
        -0.11795E-02
        -0.19365E-02
        -0.19260E-02
        -0.73396E-05
        -0.32624E-06
        -0.11153E-05
        -0.92985E-05
        -0.37902E-04
        -0.27700E-04
        -0.27142E-05
        -0.10823E-04
        -0.24514E-05
        -0.10105E-04
        -0.26773E-06
        -0.58818E-05
        -0.61401E-04
        -0.33931E-04
        -0.37850E-04
        -0.28034E-04
        -0.88799E-05
        -0.28739E-05
        -0.13644E-05
        -0.41083E-05
        -0.14954E-03
        -0.13577E-03
        -0.13247E-03
        -0.77571E-05
        -0.26391E-05
        -0.11822E-05
        -0.33462E-04
        -0.39596E-06
        -0.42805E-05
        -0.70336E-05
        -0.16674E-04
        -0.67663E-05
        -0.62238E-05
        -0.50971E-05
        -0.12417E-03
        -0.37139E-04
        -0.48975E-04
        -0.48564E-04
        -0.15841E-05
        -0.11811E-04
        -0.15169E-03
        -0.16049E-03
        -0.15188E-03
        -0.79024E-04
        -0.46597E-04
        -0.15914E-04
        -0.18682E-04
        -0.26320E-04
        -0.38665E-06
        -0.62547E-06
        -0.68786E-04
        -0.52444E-04
        -0.21335E-02
        -0.21705E-02
        -0.17548E-02
        -0.11961E-02
        -0.66179E-03
        -0.14040E-03
        -0.89032E-05
        -0.92534E-04
        -0.15597E-03
        -0.52882E-03
        -0.16763E-02
        -0.23420E-02
        -0.16438E-02
        -0.14883E-02
        -0.18134E-02
        -0.19284E-02
        -0.16043E-02
        -0.14346E-02
        -0.36894E-03
        -0.25259E-04
        -0.12076E-03
        -0.12487E-03
        -0.39208E-03
        -0.11781E-02
        -0.19345E-02
        -0.19243E-02
        -0.73624E-05
        -0.32951E-06
        -0.11176E-05
        -0.93096E-05
        -0.37830E-04
        -0.27648E-04
        -0.27478E-05
        -0.10763E-04
        -0.24554E-05
        -0.10084E-04
        -0.25430E-06
        -0.59102E-05
        -0.61477E-04
        -0.33761E-04
        -0.37808E-04
        -0.28104E-04
        -0.89196E-05
        -0.28572E-05
        -0.13630E-05
        -0.40950E-05
        -0.14954E-03
        -0.13576E-03
        -0.13249E-03
        -0.77594E-05
        -0.26529E-05
        -0.11873E-05
        -0.33477E-04
        -0.37914E-06
        -0.43376E-05
        -0.70450E-05
        -0.16725E-04
        -0.67654E-05
        -0.61665E-05
        -0.50996E-05
        -0.12431E-03
        -0.37114E-04
        -0.48951E-04
        -0.48714E-04
        -0.16122E-05
        -0.11887E-04
        -0.15190E-03
        -0.16071E-03
        -0.15195E-03
        -0.79024E-04
        -0.46569E-04
        -0.15902E-04
        -0.18673E-04
        -0.26337E-04
        -0.37944E-06
        -0.62284E-06
        -0.68714E-04
        -0.52292E-04
        -0.21320E-02
        -0.21694E-02
        -0.17545E-02
        -0.11961E-02
        -0.66138E-03
        -0.14032E-03
        -0.89223E-05
        -0.92645E-04
        -0.15571E-03
        -0.52839E-03
        -0.16758E-02
        -0.23422E-02
        -0.16437E-02
        -0.14882E-02
        -0.18139E-02
        -0.19296E-02
        -0.16050E-02
        -0.14351E-02
        -0.36872E-03
        -0.25274E-04
        -0.12057E-03
        -0.12477E-03
        -0.39152E-03
        -0.11767E-02
        -0.19326E-02
        -0.19226E-02
        -0.73855E-05
        -0.33283E-06
        -0.11199E-05
        -0.93205E-05
        -0.37759E-04
        -0.27597E-04
        -0.27815E-05
        -0.10703E-04
        -0.24593E-05
        -0.10062E-04
        -0.24125E-06
        -0.59383E-05
        -0.61554E-04
        -0.33591E-04
        -0.37764E-04
        -0.28173E-04
        -0.89593E-05
        -0.28404E-05
        -0.13616E-05
        -0.40814E-05
        -0.14953E-03
        -0.13576E-03
        -0.13251E-03
        -0.77617E-05
        -0.26665E-05
        -0.11922E-05
        -0.33492E-04
        -0.36266E-06
        -0.43955E-05
        -0.70559E-05
        -0.16777E-04
        -0.67643E-05
        -0.61093E-05
        -0.51020E-05
        -0.12444E-03
        -0.37091E-04
        -0.48929E-04
        -0.48863E-04
        -0.16406E-05
        -0.11961E-04
        -0.15212E-03
        -0.16094E-03
        -0.15203E-03
        -0.79025E-04
        -0.46544E-04
        -0.15889E-04
        -0.18663E-04
        -0.26354E-04
        -0.37227E-06
        -0.62006E-06
        -0.68640E-04
        -0.52141E-04
        -0.21306E-02
        -0.21683E-02
        -0.17542E-02
        -0.11961E-02
        -0.66098E-03
        -0.14023E-03
        -0.89418E-05
        -0.92755E-04
        -0.15544E-03
        -0.52797E-03
        -0.16752E-02
        -0.23424E-02
        -0.16436E-02
        -0.14881E-02
        -0.18145E-02
        -0.19307E-02
        -0.16057E-02
        -0.14356E-02
        -0.36851E-03
        -0.25290E-04
        -0.12038E-03
        -0.12467E-03
        -0.39096E-03
        -0.11752E-02
        -0.19307E-02
        -0.19208E-02
        -0.74085E-05
        -0.33612E-06
        -0.11222E-05
        -0.93314E-05
        -0.37690E-04
        -0.27545E-04
        -0.28150E-05
        -0.10644E-04
        -0.24632E-05
        -0.10040E-04
        -0.22856E-06
        -0.59666E-05
        -0.61631E-04
        -0.33422E-04
        -0.37721E-04
        -0.28242E-04
        -0.89992E-05
        -0.28238E-05
        -0.13605E-05
        -0.40683E-05
        -0.14953E-03
        -0.13575E-03
        -0.13254E-03
        -0.77639E-05
        -0.26801E-05
        -0.11972E-05
        -0.33507E-04
        -0.34665E-06
        -0.44538E-05
        -0.70667E-05
        -0.16828E-04
        -0.67633E-05
        -0.60525E-05
        -0.51044E-05
        -0.12458E-03
        -0.37066E-04
        -0.48905E-04
        -0.49012E-04
        -0.16693E-05
        -0.12037E-04
        -0.15232E-03
        -0.16116E-03
        -0.15210E-03
        -0.79025E-04
        -0.46516E-04
        -0.15877E-04
        -0.18653E-04
        -0.26370E-04
        -0.36518E-06
        -0.61731E-06
        -0.68570E-04
        -0.51991E-04
        -0.21291E-02
        -0.21672E-02
        -0.17538E-02
        -0.11961E-02
        -0.66057E-03
        -0.14015E-03
        -0.89611E-05
        -0.92862E-04
        -0.15518E-03
        -0.52755E-03
        -0.16747E-02
        -0.23425E-02
        -0.16434E-02
        -0.14880E-02
        -0.18151E-02
        -0.19319E-02
        -0.16065E-02
        -0.14361E-02
        -0.36829E-03
        -0.25304E-04
        -0.12019E-03
        -0.12458E-03
        -0.39040E-03
        -0.11738E-02
        -0.19288E-02
        -0.19191E-02
        -0.74316E-05
        -0.33940E-06
        -0.11245E-05
        -0.93425E-05
        -0.37619E-04
        -0.27494E-04
        -0.28490E-05
        -0.10585E-04
        -0.24671E-05
        -0.10019E-04
        -0.21623E-06
        -0.59955E-05
        -0.61708E-04
        -0.33253E-04
        -0.37678E-04
        -0.28312E-04
        -0.90391E-05
        -0.28073E-05
        -0.13591E-05
        -0.40546E-05
        -0.14952E-03
        -0.13574E-03
        -0.13256E-03
        -0.77662E-05
        -0.26937E-05
        -0.12022E-05
        -0.33522E-04
        -0.33100E-06
        -0.45124E-05
        -0.70774E-05
        -0.16880E-04
        -0.67621E-05
        -0.59958E-05
        -0.51068E-05
        -0.12471E-03
        -0.37043E-04
        -0.48883E-04
        -0.49159E-04
        -0.16982E-05
        -0.12113E-04
        -0.15253E-03
        -0.16138E-03
        -0.15217E-03
        -0.79024E-04
        -0.46488E-04
        -0.15865E-04
        -0.18643E-04
        -0.26387E-04
        -0.35806E-06
        -0.61462E-06
        -0.68497E-04
        -0.51839E-04
        -0.21276E-02
        -0.21661E-02
        -0.17535E-02
        -0.11961E-02
        -0.66016E-03
        -0.14006E-03
        -0.89798E-05
        -0.92969E-04
        -0.15491E-03
        -0.52713E-03
        -0.16741E-02
        -0.23427E-02
        -0.16433E-02
        -0.14879E-02
        -0.18157E-02
        -0.19331E-02
        -0.16072E-02
        -0.14366E-02
        -0.36808E-03
        -0.25319E-04
        -0.12000E-03
        -0.12449E-03
        -0.38984E-03
        -0.11724E-02
        -0.19269E-02
        -0.19174E-02
        -0.74547E-05
        -0.34278E-06
        -0.11268E-05
        -0.93533E-05
        -0.37548E-04
        -0.27444E-04
        -0.28830E-05
        -0.10526E-04
        -0.24710E-05
        -0.99974E-05
        -0.20422E-06
        -0.60240E-05
        -0.61785E-04
        -0.33086E-04
        -0.37634E-04
        -0.28381E-04
        -0.90791E-05
        -0.27910E-05
        -0.13578E-05
        -0.40414E-05
        -0.14952E-03
        -0.13573E-03
        -0.13258E-03
        -0.77685E-05
        -0.27071E-05
        -0.12072E-05
        -0.33537E-04
        -0.31573E-06
        -0.45713E-05
        -0.70881E-05
        -0.16932E-04
        -0.67612E-05
        -0.59395E-05
        -0.51093E-05
        -0.12485E-03
        -0.37018E-04
        -0.48860E-04
        -0.49308E-04
        -0.17276E-05
        -0.12188E-04
        -0.15274E-03
        -0.16160E-03
        -0.15224E-03
        -0.79021E-04
        -0.46462E-04
        -0.15852E-04
        -0.18633E-04
        -0.26404E-04
        -0.35108E-06
        -0.61185E-06
        -0.68427E-04
        -0.51688E-04
        -0.21261E-02
        -0.21650E-02
        -0.17531E-02
        -0.11961E-02
        -0.65975E-03
        -0.13997E-03
        -0.89983E-05
        -0.93076E-04
        -0.15465E-03
        -0.52671E-03
        -0.16736E-02
        -0.23429E-02
        -0.16432E-02
        -0.14878E-02
        -0.18163E-02
        -0.19343E-02
        -0.16079E-02
        -0.14371E-02
        -0.36786E-03
        -0.25334E-04
        -0.11981E-03
        -0.12439E-03
        -0.38929E-03
        -0.11710E-02
        -0.19250E-02
        -0.19157E-02
        -0.74778E-05
        -0.34613E-06
        -0.11292E-05
        -0.93642E-05
        -0.37479E-04
        -0.27393E-04
        -0.29173E-05
        -0.10467E-04
        -0.24748E-05
        -0.99749E-05
        -0.19257E-06
        -0.60528E-05
        -0.61863E-04
        -0.32918E-04
        -0.37589E-04
        -0.28451E-04
        -0.91192E-05
        -0.27748E-05
        -0.13565E-05
        -0.40279E-05
        -0.14951E-03
        -0.13572E-03
        -0.13260E-03
        -0.77711E-05
        -0.27203E-05
        -0.12121E-05
        -0.33550E-04
        -0.30067E-06
        -0.46300E-05
        -0.70987E-05
        -0.16984E-04
        -0.67603E-05
        -0.58836E-05
        -0.51120E-05
        -0.12499E-03
        -0.36993E-04
        -0.48836E-04
        -0.49455E-04
        -0.17575E-05
        -0.12265E-04
        -0.15294E-03
        -0.16182E-03
        -0.15231E-03
        -0.79023E-04
        -0.46434E-04
        -0.15841E-04
        -0.18624E-04
        -0.26421E-04
        -0.34419E-06
        -0.60909E-06
        -0.68354E-04
        -0.51539E-04
        -0.21246E-02
        -0.21639E-02
        -0.17528E-02
        -0.11961E-02
        -0.65934E-03
        -0.13989E-03
        -0.90165E-05
        -0.93184E-04
        -0.15439E-03
        -0.52628E-03
        -0.16730E-02
        -0.23432E-02
        -0.16431E-02
        -0.14877E-02
        -0.18169E-02
        -0.19355E-02
        -0.16086E-02
        -0.14376E-02
        -0.36765E-03
        -0.25349E-04
        -0.11962E-03
        -0.12429E-03
        -0.38873E-03
        -0.11695E-02
        -0.19231E-02
        -0.19140E-02
        -0.75011E-05
        -0.34948E-06
        -0.11314E-05
        -0.93750E-05
        -0.37409E-04
        -0.27342E-04
        -0.29516E-05
        -0.10408E-04
        -0.24782E-05
        -0.99501E-05
        -0.18128E-06
        -0.60816E-05
        -0.61939E-04
        -0.32750E-04
        -0.37544E-04
        -0.28521E-04
        -0.91590E-05
        -0.27584E-05
        -0.13556E-05
        -0.40150E-05
        -0.14951E-03
        -0.13571E-03
        -0.13263E-03
        -0.77732E-05
        -0.27326E-05
        -0.12173E-05
        -0.33558E-04
        -0.28563E-06
        -0.46896E-05
        -0.71102E-05
        -0.17036E-04
        -0.67591E-05
        -0.58276E-05
        -0.51145E-05
        -0.12512E-03
        -0.36970E-04
        -0.48814E-04
        -0.49599E-04
        -0.17885E-05
        -0.12340E-04
        -0.15313E-03
        -0.16202E-03
        -0.15238E-03
        -0.79023E-04
        -0.46407E-04
        -0.15828E-04
        -0.18614E-04
        -0.26438E-04
        -0.33739E-06
        -0.60635E-06
        -0.68285E-04
        -0.51388E-04
        -0.21232E-02
        -0.21628E-02
        -0.17525E-02
        -0.11961E-02
        -0.65893E-03
        -0.13980E-03
        -0.90350E-05
        -0.93292E-04
        -0.15413E-03
        -0.52585E-03
        -0.16725E-02
        -0.23435E-02
        -0.16430E-02
        -0.14876E-02
        -0.18174E-02
        -0.19366E-02
        -0.16094E-02
        -0.14380E-02
        -0.36743E-03
        -0.25363E-04
        -0.11943E-03
        -0.12420E-03
        -0.38817E-03
        -0.11681E-02
        -0.19212E-02
        -0.19123E-02
        -0.75243E-05
        -0.35283E-06
        -0.11337E-05
        -0.93857E-05
        -0.37338E-04
        -0.27291E-04
        -0.29863E-05
        -0.10349E-04
        -0.24813E-05
        -0.99229E-05
        -0.17036E-06
        -0.61104E-05
        -0.62016E-04
        -0.32581E-04
        -0.37497E-04
        -0.28590E-04
        -0.91985E-05
        -0.27421E-05
        -0.13544E-05
        -0.40017E-05
        -0.14951E-03
        -0.13569E-03
        -0.13265E-03
        -0.77756E-05
        -0.27440E-05
        -0.12222E-05
        -0.33561E-04
        -0.27053E-06
        -0.47493E-05
        -0.71211E-05
        -0.17088E-04
        -0.67580E-05
        -0.57719E-05
        -0.51171E-05
        -0.12526E-03
        -0.36945E-04
        -0.48791E-04
        -0.49740E-04
        -0.18206E-05
        -0.12416E-04
        -0.15331E-03
        -0.16221E-03
        -0.15243E-03
        -0.79022E-04
        -0.46381E-04
        -0.15817E-04
        -0.18604E-04
        -0.26455E-04
        -0.33058E-06
        -0.60366E-06
        -0.68211E-04
        -0.51236E-04
        -0.21217E-02
        -0.21617E-02
        -0.17521E-02
        -0.11961E-02
        -0.65852E-03
        -0.13972E-03
        -0.90533E-05
        -0.93398E-04
        -0.15388E-03
        -0.52540E-03
        -0.16719E-02
        -0.23440E-02
        -0.16430E-02
        -0.14875E-02
        -0.18180E-02
        -0.19378E-02
        -0.16101E-02
        -0.14385E-02
        -0.36722E-03
        -0.25378E-04
        -0.11924E-03
        -0.12410E-03
        -0.38762E-03
        -0.11667E-02
        -0.19193E-02
        -0.19106E-02
        -0.75475E-05
        -0.35622E-06
        -0.11360E-05
        -0.93966E-05
        -0.37270E-04
        -0.27242E-04
        -0.30207E-05
        -0.10291E-04
        -0.24841E-05
        -0.98953E-05
        -0.15985E-06
        -0.61388E-05
        -0.62092E-04
        -0.32413E-04
        -0.37450E-04
        -0.28660E-04
        -0.92383E-05
        -0.27261E-05
        -0.13531E-05
        -0.39888E-05
        -0.14950E-03
        -0.13568E-03
        -0.13267E-03
        -0.77781E-05
        -0.27551E-05
        -0.12272E-05
        -0.33562E-04
        -0.25579E-06
        -0.48091E-05
        -0.71319E-05
        -0.17140E-04
        -0.67569E-05
        -0.57169E-05
        -0.51197E-05
        -0.12540E-03
        -0.36923E-04
        -0.48768E-04
        -0.49880E-04
        -0.18534E-05
        -0.12490E-04
        -0.15347E-03
        -0.16239E-03
        -0.15248E-03
        -0.79023E-04
        -0.46353E-04
        -0.15805E-04
        -0.18595E-04
        -0.26473E-04
        -0.32391E-06
        -0.60086E-06
        -0.68143E-04
        -0.51088E-04
        -0.21202E-02
        -0.21606E-02
        -0.17518E-02
        -0.11961E-02
        -0.65812E-03
        -0.13963E-03
        -0.90713E-05
        -0.93500E-04
        -0.15362E-03
        -0.52494E-03
        -0.16713E-02
        -0.23445E-02
        -0.16431E-02
        -0.14874E-02
        -0.18186E-02
        -0.19390E-02
        -0.16108E-02
        -0.14390E-02
        -0.36700E-03
        -0.25394E-04
        -0.11906E-03
        -0.12401E-03
        -0.38706E-03
        -0.11653E-02
        -0.19174E-02
        -0.19089E-02
        -0.76327E-05
        -0.36190E-06
        -0.11480E-05
        -0.94834E-05
        -0.37498E-04
        -0.27413E-04
        -0.30767E-05
        -0.10325E-04
        -0.25070E-05
        -0.99553E-05
        -0.15225E-06
        -0.62108E-05
        -0.62660E-04
        -0.32533E-04
        -0.37728E-04
        -0.28958E-04
        -0.93522E-05
        -0.27334E-05
        -0.13622E-05
        -0.40069E-05
        -0.15066E-03
        -0.13675E-03
        -0.13372E-03
        -0.78429E-05
        -0.27880E-05
        -0.12416E-05
        -0.33854E-04
        -0.24444E-06
        -0.49049E-05
        -0.72008E-05
        -0.17329E-04
        -0.68100E-05
        -0.57133E-05
        -0.51650E-05
        -0.12654E-03
        -0.37199E-04
        -0.49137E-04
        -0.50438E-04
        -0.18993E-05
        -0.12663E-04
        -0.15492E-03
        -0.16391E-03
        -0.15377E-03
        -0.79630E-04
        -0.46690E-04
        -0.15915E-04
        -0.18737E-04
        -0.26710E-04
        -0.32064E-06
        -0.60291E-06
        -0.68626E-04
        -0.51360E-04
        -0.21368E-02
        -0.21776E-02
        -0.17663E-02
        -0.12061E-02
        -0.66332E-03
        -0.14072E-03
        -0.91750E-05
        -0.94407E-04
        -0.15475E-03
        -0.52922E-03
        -0.16857E-02
        -0.23651E-02
        -0.16564E-02
        -0.14990E-02
        -0.18332E-02
        -0.19550E-02
        -0.16239E-02
        -0.14511E-02
        -0.36990E-03
        -0.25637E-04
        -0.11989E-03
        -0.12491E-03
        -0.38973E-03
        -0.11735E-02
        -0.19311E-02
        -0.19226E-02
        -0.17043E-04
        -0.81918E-06
        -0.25537E-05
        -0.21235E-04
        -0.77577E-04
        -0.57776E-04
        -0.69290E-05
        -0.22766E-04
        -0.55615E-05
        -0.21876E-04
        -0.32034E-06
        -0.12433E-04
        -0.12909E-03
        -0.69683E-04
        -0.76253E-04
        -0.64747E-04
        -0.20810E-04
        -0.60950E-05
        -0.29629E-05
        -0.87567E-05
        -0.30971E-03
        -0.28844E-03
        -0.27635E-03
        -0.17327E-04
        -0.62513E-05
        -0.27920E-05
        -0.73806E-04
        -0.52900E-06
        -0.11135E-04
        -0.16106E-04
        -0.38786E-04
        -0.15150E-04
        -0.12733E-04
        -0.11571E-04
        -0.25255E-03
        -0.78356E-04
        -0.10360E-03
        -0.10677E-03
        -0.41615E-05
        -0.27789E-04
        -0.33005E-03
        -0.35422E-03
        -0.33167E-03
        -0.16692E-03
        -0.97233E-04
        -0.31303E-04
        -0.38767E-04
        -0.56735E-04
        -0.67844E-06
        -0.12778E-05
        -0.13877E-03
        -0.10761E-03
        -0.33707E-02
        -0.34222E-02
        -0.27796E-02
        -0.19082E-02
        -0.10481E-02
        -0.22353E-03
        -0.14957E-04
        -0.15610E-03
        -0.25458E-03
        -0.86125E-03
        -0.27498E-02
        -0.38414E-02
        -0.27457E-02
        -0.24988E-02
        -0.29787E-02
        -0.31055E-02
        -0.25642E-02
        -0.22685E-02
        -0.57771E-03
        -0.40209E-04
        -0.19143E-03
        -0.20113E-03
        -0.62325E-03
        -0.18897E-02
        -0.30903E-02
        -0.30544E-02
  
SCALARS                      strain_yy  double 1
LOOKUP_TABLE default
        -0.42684E-05
        -0.47475E-06
        -0.31947E-05
        -0.83894E-06
        -0.15870E-19
        -0.12056E-20
        -0.24374E-19
        -0.14180E-19
        -0.45015E-04
        -0.19446E-04
        -0.53982E-19
        -0.41840E-19
        -0.34812E-04
        -0.90020E-07
        -0.27648E-19
        -0.11365E-21
        -0.40577E-05
        -0.57159E-04
        -0.59845E-23
        -0.62654E-21
        -0.15414E-04
        -0.21833E-03
        -0.23587E-03
        -0.14528E-18
        -0.43330E-18
        -0.30274E-18
        -0.21215E-05
        -0.22394E-03
        -0.75173E-19
        -0.28292E-18
        -0.53018E-05
        -0.40599E-05
        -0.28760E-05
        -0.20203E-19
        -0.21054E-19
        -0.90746E-23
        -0.47053E-04
        -0.44016E-04
        -0.68414E-19
        -0.41414E-19
        -0.45622E-04
        -0.18570E-04
        -0.39074E-19
        -0.32633E-19
        -0.37296E-04
        -0.44188E-05
        -0.42997E-22
        -0.10287E-19
        -0.32565E-04
        -0.22804E-20
        -0.31152E-06
        -0.14959E-22
        -0.11300E-06
        -0.34121E-19
        -0.49601E-05
        -0.11546E-19
        -0.52755E-04
        -0.16655E-05
        -0.84980E-23
        -0.35007E-22
        -0.77986E-05
        -0.10416E-03
        -0.15776E-20
        -0.22072E-19
        -0.28371E-05
        -0.64277E-20
        -0.52510E-04
        -0.95393E-20
        -0.34898E-04
        -0.98009E-05
        -0.14569E-21
        -0.25398E-19
        -0.11997E-03
        -0.12246E-18
        -0.36035E-03
        -0.11481E-18
        -0.36671E-03
        -0.66159E-19
        -0.24890E-03
        -0.46479E-19
        -0.53618E-03
        -0.31636E-03
        -0.19127E-19
        -0.94025E-21
        -0.61943E-05
        -0.11772E-22
        -0.91093E-04
        -0.46197E-19
        -0.51055E-03
        -0.14158E-18
        -0.99900E-03
        -0.38450E-03
        -0.31145E-18
        -0.20405E-18
        -0.18995E-03
        -0.12295E-18
        -0.15275E-03
        -0.12869E-18
        -0.14478E-03
        -0.14878E-18
        -0.40089E-03
        -0.27666E-03
        -0.12866E-18
        -0.29539E-19
        -0.18092E-03
        -0.25862E-04
        -0.15907E-19
        -0.24565E-19
        -0.10931E-02
        -0.17605E-18
        -0.22344E-02
        -0.37669E-18
        -0.33569E-02
        -0.57454E-18
        -0.46265E-02
        -0.56530E-18
        -0.64036E-02
        -0.35402E-18
        -0.66782E-02
        -0.21202E-18
        -0.59198E-02
        -0.18341E-18
        -0.46879E-02
        -0.16603E-18
        -0.24989E-02
        -0.67808E-19
        -0.11398E-02
        -0.73913E-20
        -0.28554E-03
        -0.30861E-20
        -0.14706E-05
        -0.69722E-20
        -0.25701E-03
        -0.18599E-20
        -0.82252E-03
        -0.17010E-19
        -0.19698E-02
        -0.13552E-18
        -0.25267E-02
        -0.33046E-18
        -0.30421E-02
        -0.56795E-18
        -0.49677E-02
        -0.56696E-18
        -0.53150E-02
        -0.43206E-18
        -0.45335E-02
        -0.41039E-18
        -0.30080E-02
        -0.41551E-18
        -0.13911E-02
        -0.25983E-18
        -0.69632E-03
        -0.90857E-19
        -0.35892E-03
        -0.54319E-19
        -0.21792E-04
        -0.59060E-05
        -0.44932E-05
        -0.42596E-06
        -0.47767E-05
        -0.53264E-05
        -0.60197E-07
        -0.14102E-04
        -0.10169E-04
        -0.22183E-04
        -0.61957E-05
        -0.11308E-03
        -0.52447E-04
        -0.70495E-06
        -0.11511E-03
        -0.15214E-05
        -0.11981E-05
        -0.49208E-06
        -0.85921E-06
        -0.48894E-06
        -0.41476E-06
        -0.28094E-06
        -0.31934E-05
        -0.22640E-07
        -0.10335E-04
        -0.22598E-06
        -0.61269E-09
        -0.18711E-06
        -0.27761E-06
        -0.63926E-05
        -0.14519E-05
        -0.17353E-05
        -0.76792E-06
        -0.46032E-07
        -0.12926E-06
        -0.37655E-05
        -0.18856E-04
        -0.88570E-04
        -0.73985E-04
        -0.53216E-04
        -0.47429E-04
        -0.28891E-05
        -0.19062E-05
        -0.14369E-04
        -0.39522E-04
        -0.10668E-03
        -0.45477E-04
        -0.23111E-04
        -0.26330E-04
        -0.29996E-04
        -0.41630E-04
        -0.85925E-05
        -0.31555E-04
        -0.45283E-04
        -0.33271E-03
        -0.63413E-03
        -0.10316E-02
        -0.14618E-02
        -0.14831E-02
        -0.12158E-02
        -0.11000E-02
        -0.98326E-03
        -0.41088E-03
        -0.78408E-04
        -0.15096E-04
        -0.29274E-05
        -0.68468E-05
        -0.10677E-03
        -0.36082E-03
        -0.61734E-03
        -0.91495E-03
        -0.12003E-02
        -0.10602E-02
        -0.94708E-03
        -0.82039E-03
        -0.39825E-03
        -0.13513E-03
        -0.10396E-03
        -0.61503E-04
        -0.24465E-04
        -0.20950E-04
        -0.11787E-05
        -0.35341E-04
        -0.71488E-05
        -0.44951E-05
        -0.54938E-04
        -0.23626E-04
        -0.48598E-04
        -0.13584E-04
        -0.25445E-03
        -0.89304E-04
        -0.18442E-05
        -0.24699E-03
        -0.88452E-05
        -0.81232E-06
        -0.74041E-06
        -0.15042E-04
        -0.56224E-06
        -0.11175E-04
        -0.56332E-05
        -0.18933E-05
        -0.13488E-05
        -0.22037E-04
        -0.13482E-05
        -0.84896E-07
        -0.29338E-06
        -0.74857E-06
        -0.21929E-04
        -0.10273E-04
        -0.71285E-06
        -0.42920E-05
        -0.32358E-05
        -0.73567E-06
        -0.68359E-05
        -0.24920E-04
        -0.14266E-03
        -0.11094E-03
        -0.86159E-04
        -0.46501E-04
        -0.28393E-05
        -0.12046E-04
        -0.18795E-04
        -0.31164E-04
        -0.13005E-03
        -0.44031E-04
        -0.19255E-04
        -0.30415E-04
        -0.42388E-04
        -0.45509E-04
        -0.25620E-06
        -0.70747E-04
        -0.14476E-03
        -0.78396E-03
        -0.13093E-02
        -0.21810E-02
        -0.31408E-02
        -0.30134E-02
        -0.22979E-02
        -0.21104E-02
        -0.20660E-02
        -0.81468E-03
        -0.88497E-04
        -0.14050E-04
        -0.10315E-04
        -0.22128E-05
        -0.15924E-03
        -0.63912E-03
        -0.12380E-02
        -0.20969E-02
        -0.25784E-02
        -0.19881E-02
        -0.17770E-02
        -0.17664E-02
        -0.87571E-03
        -0.23632E-03
        -0.21188E-03
        -0.61579E-04
        -0.24474E-04
        -0.20971E-04
        -0.11960E-05
        -0.35349E-04
        -0.71600E-05
        -0.45064E-05
        -0.55124E-04
        -0.23711E-04
        -0.48962E-04
        -0.13600E-04
        -0.25440E-03
        -0.89349E-04
        -0.18443E-05
        -0.24762E-03
        -0.88462E-05
        -0.82716E-06
        -0.73819E-06
        -0.15062E-04
        -0.55599E-06
        -0.11230E-04
        -0.56440E-05
        -0.18942E-05
        -0.13475E-05
        -0.22238E-04
        -0.13433E-05
        -0.86909E-07
        -0.29667E-06
        -0.73873E-06
        -0.22022E-04
        -0.10277E-04
        -0.70974E-06
        -0.43110E-05
        -0.32464E-05
        -0.72192E-06
        -0.68448E-05
        -0.24917E-04
        -0.14310E-03
        -0.11142E-03
        -0.86359E-04
        -0.46573E-04
        -0.28240E-05
        -0.12071E-04
        -0.18814E-04
        -0.31166E-04
        -0.13005E-03
        -0.44040E-04
        -0.19232E-04
        -0.30333E-04
        -0.42275E-04
        -0.45470E-04
        -0.24850E-06
        -0.70615E-04
        -0.14478E-03
        -0.78425E-03
        -0.13093E-02
        -0.21805E-02
        -0.31387E-02
        -0.30108E-02
        -0.22965E-02
        -0.21095E-02
        -0.20648E-02
        -0.81433E-03
        -0.88580E-04
        -0.14047E-04
        -0.10358E-04
        -0.21769E-05
        -0.15941E-03
        -0.63970E-03
        -0.12386E-02
        -0.20968E-02
        -0.25780E-02
        -0.19878E-02
        -0.17768E-02
        -0.17655E-02
        -0.87446E-03
        -0.23580E-03
        -0.21132E-03
        -0.61657E-04
        -0.24484E-04
        -0.20992E-04
        -0.12137E-05
        -0.35357E-04
        -0.71718E-05
        -0.45177E-05
        -0.55310E-04
        -0.23796E-04
        -0.49325E-04
        -0.13617E-04
        -0.25436E-03
        -0.89393E-04
        -0.18439E-05
        -0.24825E-03
        -0.88474E-05
        -0.84230E-06
        -0.73595E-06
        -0.15083E-04
        -0.54966E-06
        -0.11286E-04
        -0.56545E-05
        -0.18957E-05
        -0.13459E-05
        -0.22436E-04
        -0.13378E-05
        -0.89086E-07
        -0.30019E-06
        -0.72806E-06
        -0.22112E-04
        -0.10280E-04
        -0.70599E-06
        -0.43302E-05
        -0.32568E-05
        -0.70822E-06
        -0.68542E-05
        -0.24914E-04
        -0.14354E-03
        -0.11190E-03
        -0.86560E-04
        -0.46648E-04
        -0.28072E-05
        -0.12094E-04
        -0.18839E-04
        -0.31174E-04
        -0.13005E-03
        -0.44048E-04
        -0.19208E-04
        -0.30253E-04
        -0.42161E-04
        -0.45433E-04
        -0.24095E-06
        -0.70483E-04
        -0.14479E-03
        -0.78454E-03
        -0.13093E-02
        -0.21800E-02
        -0.31366E-02
        -0.30083E-02
        -0.22952E-02
        -0.21086E-02
        -0.20637E-02
        -0.81400E-03
        -0.88667E-04
        -0.14046E-04
        -0.10400E-04
        -0.21411E-05
        -0.15959E-03
        -0.64030E-03
        -0.12392E-02
        -0.20968E-02
        -0.25777E-02
        -0.19876E-02
        -0.17767E-02
        -0.17646E-02
        -0.87321E-03
        -0.23528E-03
        -0.21076E-03
        -0.61734E-04
        -0.24493E-04
        -0.21013E-04
        -0.12316E-05
        -0.35366E-04
        -0.71833E-05
        -0.45297E-05
        -0.55494E-04
        -0.23882E-04
        -0.49685E-04
        -0.13633E-04
        -0.25432E-03
        -0.89442E-04
        -0.18440E-05
        -0.24889E-03
        -0.88488E-05
        -0.85785E-06
        -0.73366E-06
        -0.15105E-04
        -0.54300E-06
        -0.11344E-04
        -0.56641E-05
        -0.18989E-05
        -0.13432E-05
        -0.22629E-04
        -0.13305E-05
        -0.91363E-07
        -0.30488E-06
        -0.71493E-06
        -0.22193E-04
        -0.10282E-04
        -0.70092E-06
        -0.43492E-05
        -0.32674E-05
        -0.69472E-06
        -0.68631E-05
        -0.24911E-04
        -0.14399E-03
        -0.11239E-03
        -0.86777E-04
        -0.46735E-04
        -0.27859E-05
        -0.12113E-04
        -0.18876E-04
        -0.31192E-04
        -0.13007E-03
        -0.44063E-04
        -0.19185E-04
        -0.30173E-04
        -0.42047E-04
        -0.45392E-04
        -0.23353E-06
        -0.70351E-04
        -0.14481E-03
        -0.78483E-03
        -0.13093E-02
        -0.21795E-02
        -0.31345E-02
        -0.30058E-02
        -0.22938E-02
        -0.21078E-02
        -0.20625E-02
        -0.81369E-03
        -0.88772E-04
        -0.14046E-04
        -0.10442E-04
        -0.21053E-05
        -0.15977E-03
        -0.64100E-03
        -0.12399E-02
        -0.20967E-02
        -0.25774E-02
        -0.19873E-02
        -0.17765E-02
        -0.17637E-02
        -0.87197E-03
        -0.23477E-03
        -0.21021E-03
        -0.61810E-04
        -0.24502E-04
        -0.21034E-04
        -0.12495E-05
        -0.35374E-04
        -0.71948E-05
        -0.45408E-05
        -0.55678E-04
        -0.23968E-04
        -0.50041E-04
        -0.13649E-04
        -0.25427E-03
        -0.89487E-04
        -0.18442E-05
        -0.24952E-03
        -0.88504E-05
        -0.87378E-06
        -0.73136E-06
        -0.15128E-04
        -0.53601E-06
        -0.11402E-04
        -0.56725E-05
        -0.19039E-05
        -0.13395E-05
        -0.22816E-04
        -0.13213E-05
        -0.93932E-07
        -0.31067E-06
        -0.69933E-06
        -0.22266E-04
        -0.10282E-04
        -0.69431E-06
        -0.43682E-05
        -0.32780E-05
        -0.68124E-06
        -0.68721E-05
        -0.24909E-04
        -0.14443E-03
        -0.11289E-03
        -0.87006E-04
        -0.46834E-04
        -0.27599E-05
        -0.12128E-04
        -0.18926E-04
        -0.31223E-04
        -0.13010E-03
        -0.44083E-04
        -0.19164E-04
        -0.30094E-04
        -0.41933E-04
        -0.45354E-04
        -0.22618E-06
        -0.70219E-04
        -0.14482E-03
        -0.78512E-03
        -0.13094E-02
        -0.21789E-02
        -0.31323E-02
        -0.30032E-02
        -0.22924E-02
        -0.21069E-02
        -0.20614E-02
        -0.81342E-03
        -0.88896E-04
        -0.14049E-04
        -0.10484E-04
        -0.20698E-05
        -0.15998E-03
        -0.64179E-03
        -0.12406E-02
        -0.20967E-02
        -0.25771E-02
        -0.19870E-02
        -0.17764E-02
        -0.17628E-02
        -0.87073E-03
        -0.23425E-03
        -0.20965E-03
        -0.61883E-04
        -0.24507E-04
        -0.21055E-04
        -0.12677E-05
        -0.35382E-04
        -0.72062E-05
        -0.45508E-05
        -0.55854E-04
        -0.24055E-04
        -0.50389E-04
        -0.13668E-04
        -0.25423E-03
        -0.89534E-04
        -0.18448E-05
        -0.25015E-03
        -0.88526E-05
        -0.89019E-06
        -0.72912E-06
        -0.15152E-04
        -0.52893E-06
        -0.11461E-04
        -0.56807E-05
        -0.19097E-05
        -0.13353E-05
        -0.22998E-04
        -0.13115E-05
        -0.96734E-07
        -0.31713E-06
        -0.68282E-06
        -0.22335E-04
        -0.10281E-04
        -0.68701E-06
        -0.43878E-05
        -0.32891E-05
        -0.66781E-06
        -0.68821E-05
        -0.24908E-04
        -0.14489E-03
        -0.11340E-03
        -0.87244E-04
        -0.46936E-04
        -0.27325E-05
        -0.12140E-04
        -0.18981E-04
        -0.31261E-04
        -0.13014E-03
        -0.44106E-04
        -0.19147E-04
        -0.30019E-04
        -0.41822E-04
        -0.45315E-04
        -0.21896E-06
        -0.70086E-04
        -0.14484E-03
        -0.78541E-03
        -0.13094E-02
        -0.21784E-02
        -0.31302E-02
        -0.30007E-02
        -0.22910E-02
        -0.21060E-02
        -0.20602E-02
        -0.81316E-03
        -0.89027E-04
        -0.14053E-04
        -0.10525E-04
        -0.20345E-05
        -0.16019E-03
        -0.64260E-03
        -0.12414E-02
        -0.20966E-02
        -0.25767E-02
        -0.19868E-02
        -0.17763E-02
        -0.17619E-02
        -0.86949E-03
        -0.23374E-03
        -0.20910E-03
        -0.61949E-04
        -0.24506E-04
        -0.21076E-04
        -0.12866E-05
        -0.35391E-04
        -0.72180E-05
        -0.45587E-05
        -0.56015E-04
        -0.24144E-04
        -0.50724E-04
        -0.13690E-04
        -0.25421E-03
        -0.89594E-04
        -0.18477E-05
        -0.25080E-03
        -0.88556E-05
        -0.90717E-06
        -0.72687E-06
        -0.15175E-04
        -0.52189E-06
        -0.11520E-04
        -0.56890E-05
        -0.19155E-05
        -0.13313E-05
        -0.23178E-04
        -0.13018E-05
        -0.10009E-06
        -0.32408E-06
        -0.66621E-06
        -0.22403E-04
        -0.10279E-04
        -0.67923E-06
        -0.44079E-05
        -0.33008E-05
        -0.65449E-06
        -0.68926E-05
        -0.24909E-04
        -0.14535E-03
        -0.11392E-03
        -0.87482E-04
        -0.47042E-04
        -0.27046E-05
        -0.12152E-04
        -0.19036E-04
        -0.31303E-04
        -0.13019E-03
        -0.44142E-04
        -0.19141E-04
        -0.29956E-04
        -0.41715E-04
        -0.45277E-04
        -0.21176E-06
        -0.69954E-04
        -0.14486E-03
        -0.78569E-03
        -0.13094E-02
        -0.21779E-02
        -0.31280E-02
        -0.29981E-02
        -0.22896E-02
        -0.21051E-02
        -0.20591E-02
        -0.81291E-03
        -0.89159E-04
        -0.14057E-04
        -0.10567E-04
        -0.19996E-05
        -0.16040E-03
        -0.64342E-03
        -0.12421E-02
        -0.20965E-02
        -0.25764E-02
        -0.19865E-02
        -0.17762E-02
        -0.17610E-02
        -0.86824E-03
        -0.23323E-03
        -0.20854E-03
        -0.62013E-04
        -0.24503E-04
        -0.21096E-04
        -0.13059E-05
        -0.35401E-04
        -0.72296E-05
        -0.45648E-05
        -0.56166E-04
        -0.24233E-04
        -0.51051E-04
        -0.13715E-04
        -0.25418E-03
        -0.89652E-04
        -0.18510E-05
        -0.25144E-03
        -0.88590E-05
        -0.92452E-06
        -0.72456E-06
        -0.15199E-04
        -0.51490E-06
        -0.11579E-04
        -0.56975E-05
        -0.19212E-05
        -0.13274E-05
        -0.23356E-04
        -0.12921E-05
        -0.10364E-06
        -0.33128E-06
        -0.64975E-06
        -0.22470E-04
        -0.10277E-04
        -0.67115E-06
        -0.44284E-05
        -0.33129E-05
        -0.64117E-06
        -0.69040E-05
        -0.24913E-04
        -0.14581E-03
        -0.11443E-03
        -0.87722E-04
        -0.47148E-04
        -0.26768E-05
        -0.12164E-04
        -0.19092E-04
        -0.31345E-04
        -0.13025E-03
        -0.44183E-04
        -0.19138E-04
        -0.29899E-04
        -0.41610E-04
        -0.45240E-04
        -0.20469E-06
        -0.69823E-04
        -0.14487E-03
        -0.78596E-03
        -0.13094E-02
        -0.21774E-02
        -0.31259E-02
        -0.29956E-02
        -0.22882E-02
        -0.21043E-02
        -0.20579E-02
        -0.81264E-03
        -0.89290E-04
        -0.14061E-04
        -0.10609E-04
        -0.19649E-05
        -0.16060E-03
        -0.64424E-03
        -0.12429E-02
        -0.20964E-02
        -0.25761E-02
        -0.19864E-02
        -0.17761E-02
        -0.17601E-02
        -0.86699E-03
        -0.23271E-03
        -0.20799E-03
        -0.62077E-04
        -0.24500E-04
        -0.21116E-04
        -0.13253E-05
        -0.35410E-04
        -0.72411E-05
        -0.45710E-05
        -0.56319E-04
        -0.24324E-04
        -0.51379E-04
        -0.13738E-04
        -0.25416E-03
        -0.89712E-04
        -0.18548E-05
        -0.25209E-03
        -0.88625E-05
        -0.94214E-06
        -0.72224E-06
        -0.15222E-04
        -0.50790E-06
        -0.11638E-04
        -0.57061E-05
        -0.19270E-05
        -0.13235E-05
        -0.23534E-04
        -0.12825E-05
        -0.10734E-06
        -0.33848E-06
        -0.63353E-06
        -0.22537E-04
        -0.10274E-04
        -0.66323E-06
        -0.44490E-05
        -0.33249E-05
        -0.62793E-06
        -0.69145E-05
        -0.24916E-04
        -0.14628E-03
        -0.11495E-03
        -0.87959E-04
        -0.47254E-04
        -0.26494E-05
        -0.12176E-04
        -0.19148E-04
        -0.31389E-04
        -0.13031E-03
        -0.44221E-04
        -0.19135E-04
        -0.29843E-04
        -0.41507E-04
        -0.45205E-04
        -0.19771E-06
        -0.69691E-04
        -0.14489E-03
        -0.78623E-03
        -0.13094E-02
        -0.21768E-02
        -0.31238E-02
        -0.29930E-02
        -0.22868E-02
        -0.21034E-02
        -0.20567E-02
        -0.81238E-03
        -0.89420E-04
        -0.14066E-04
        -0.10652E-04
        -0.19305E-05
        -0.16081E-03
        -0.64506E-03
        -0.12436E-02
        -0.20963E-02
        -0.25757E-02
        -0.19862E-02
        -0.17760E-02
        -0.17591E-02
        -0.86575E-03
        -0.23221E-03
        -0.20744E-03
        -0.62139E-04
        -0.24496E-04
        -0.21136E-04
        -0.13447E-05
        -0.35418E-04
        -0.72524E-05
        -0.45772E-05
        -0.56471E-04
        -0.24414E-04
        -0.51707E-04
        -0.13763E-04
        -0.25413E-03
        -0.89775E-04
        -0.18580E-05
        -0.25274E-03
        -0.88658E-05
        -0.95999E-06
        -0.71993E-06
        -0.15245E-04
        -0.50091E-06
        -0.11697E-04
        -0.57144E-05
        -0.19325E-05
        -0.13197E-05
        -0.23713E-04
        -0.12730E-05
        -0.11100E-06
        -0.34569E-06
        -0.61756E-06
        -0.22604E-04
        -0.10272E-04
        -0.65530E-06
        -0.44694E-05
        -0.33370E-05
        -0.61485E-06
        -0.69259E-05
        -0.24920E-04
        -0.14675E-03
        -0.11547E-03
        -0.88200E-04
        -0.47360E-04
        -0.26221E-05
        -0.12188E-04
        -0.19203E-04
        -0.31432E-04
        -0.13037E-03
        -0.44262E-04
        -0.19134E-04
        -0.29785E-04
        -0.41402E-04
        -0.45167E-04
        -0.19087E-06
        -0.69559E-04
        -0.14490E-03
        -0.78650E-03
        -0.13095E-02
        -0.21763E-02
        -0.31216E-02
        -0.29904E-02
        -0.22854E-02
        -0.21025E-02
        -0.20556E-02
        -0.81211E-03
        -0.89549E-04
        -0.14070E-04
        -0.10695E-04
        -0.18966E-05
        -0.16102E-03
        -0.64588E-03
        -0.12444E-02
        -0.20962E-02
        -0.25754E-02
        -0.19860E-02
        -0.17760E-02
        -0.17582E-02
        -0.86450E-03
        -0.23170E-03
        -0.20689E-03
        -0.62201E-04
        -0.24492E-04
        -0.21156E-04
        -0.13643E-05
        -0.35428E-04
        -0.72640E-05
        -0.45840E-05
        -0.56622E-04
        -0.24505E-04
        -0.52036E-04
        -0.13787E-04
        -0.25411E-03
        -0.89834E-04
        -0.18617E-05
        -0.25339E-03
        -0.88693E-05
        -0.97804E-06
        -0.71764E-06
        -0.15268E-04
        -0.49392E-06
        -0.11757E-04
        -0.57225E-05
        -0.19382E-05
        -0.13159E-05
        -0.23892E-04
        -0.12635E-05
        -0.11479E-06
        -0.35286E-06
        -0.60183E-06
        -0.22671E-04
        -0.10270E-04
        -0.64746E-06
        -0.44899E-05
        -0.33491E-05
        -0.60184E-06
        -0.69369E-05
        -0.24924E-04
        -0.14722E-03
        -0.11600E-03
        -0.88436E-04
        -0.47466E-04
        -0.25950E-05
        -0.12200E-04
        -0.19258E-04
        -0.31475E-04
        -0.13043E-03
        -0.44304E-04
        -0.19131E-04
        -0.29728E-04
        -0.41298E-04
        -0.45131E-04
        -0.18414E-06
        -0.69426E-04
        -0.14491E-03
        -0.78677E-03
        -0.13095E-02
        -0.21758E-02
        -0.31195E-02
        -0.29878E-02
        -0.22840E-02
        -0.21017E-02
        -0.20544E-02
        -0.81184E-03
        -0.89678E-04
        -0.14074E-04
        -0.10737E-04
        -0.18628E-05
        -0.16123E-03
        -0.64670E-03
        -0.12451E-02
        -0.20960E-02
        -0.25750E-02
        -0.19858E-02
        -0.17759E-02
        -0.17573E-02
        -0.86326E-03
        -0.23119E-03
        -0.20634E-03
        -0.62264E-04
        -0.24488E-04
        -0.21176E-04
        -0.13842E-05
        -0.35437E-04
        -0.72755E-05
        -0.45901E-05
        -0.56774E-04
        -0.24596E-04
        -0.52364E-04
        -0.13812E-04
        -0.25408E-03
        -0.89892E-04
        -0.18652E-05
        -0.25404E-03
        -0.88728E-05
        -0.99629E-06
        -0.71530E-06
        -0.15292E-04
        -0.48704E-06
        -0.11817E-04
        -0.57305E-05
        -0.19440E-05
        -0.13121E-05
        -0.24072E-04
        -0.12541E-05
        -0.11856E-06
        -0.36007E-06
        -0.58628E-06
        -0.22738E-04
        -0.10267E-04
        -0.63965E-06
        -0.45104E-05
        -0.33614E-05
        -0.58891E-06
        -0.69480E-05
        -0.24927E-04
        -0.14769E-03
        -0.11652E-03
        -0.88676E-04
        -0.47572E-04
        -0.25683E-05
        -0.12212E-04
        -0.19314E-04
        -0.31518E-04
        -0.13049E-03
        -0.44342E-04
        -0.19130E-04
        -0.29672E-04
        -0.41195E-04
        -0.45095E-04
        -0.17753E-06
        -0.69294E-04
        -0.14493E-03
        -0.78703E-03
        -0.13095E-02
        -0.21753E-02
        -0.31173E-02
        -0.29852E-02
        -0.22826E-02
        -0.21008E-02
        -0.20532E-02
        -0.81157E-03
        -0.89809E-04
        -0.14079E-04
        -0.10780E-04
        -0.18293E-05
        -0.16144E-03
        -0.64752E-03
        -0.12459E-02
        -0.20959E-02
        -0.25747E-02
        -0.19856E-02
        -0.17758E-02
        -0.17563E-02
        -0.86202E-03
        -0.23069E-03
        -0.20579E-03
        -0.62327E-04
        -0.24484E-04
        -0.21197E-04
        -0.14043E-05
        -0.35446E-04
        -0.72871E-05
        -0.45963E-05
        -0.56925E-04
        -0.24687E-04
        -0.52694E-04
        -0.13837E-04
        -0.25405E-03
        -0.89955E-04
        -0.18684E-05
        -0.25469E-03
        -0.88761E-05
        -0.10147E-05
        -0.71293E-06
        -0.15315E-04
        -0.48025E-06
        -0.11877E-04
        -0.57387E-05
        -0.19496E-05
        -0.13084E-05
        -0.24251E-04
        -0.12446E-05
        -0.12250E-06
        -0.36727E-06
        -0.57098E-06
        -0.22805E-04
        -0.10265E-04
        -0.63180E-06
        -0.45309E-05
        -0.33735E-05
        -0.57612E-06
        -0.69595E-05
        -0.24930E-04
        -0.14816E-03
        -0.11705E-03
        -0.88915E-04
        -0.47678E-04
        -0.25414E-05
        -0.12223E-04
        -0.19370E-04
        -0.31562E-04
        -0.13054E-03
        -0.44384E-04
        -0.19128E-04
        -0.29616E-04
        -0.41092E-04
        -0.45057E-04
        -0.17107E-06
        -0.69161E-04
        -0.14494E-03
        -0.78730E-03
        -0.13095E-02
        -0.21747E-02
        -0.31152E-02
        -0.29827E-02
        -0.22812E-02
        -0.20999E-02
        -0.20520E-02
        -0.81130E-03
        -0.89939E-04
        -0.14083E-04
        -0.10823E-04
        -0.17961E-05
        -0.16165E-03
        -0.64834E-03
        -0.12466E-02
        -0.20958E-02
        -0.25744E-02
        -0.19854E-02
        -0.17757E-02
        -0.17554E-02
        -0.86078E-03
        -0.23019E-03
        -0.20524E-03
        -0.62388E-04
        -0.24481E-04
        -0.21217E-04
        -0.14245E-05
        -0.35455E-04
        -0.72986E-05
        -0.46033E-05
        -0.57075E-04
        -0.24778E-04
        -0.53024E-04
        -0.13861E-04
        -0.25403E-03
        -0.90014E-04
        -0.18720E-05
        -0.25534E-03
        -0.88794E-05
        -0.10334E-05
        -0.71062E-06
        -0.15338E-04
        -0.47349E-06
        -0.11937E-04
        -0.57468E-05
        -0.19554E-05
        -0.13047E-05
        -0.24432E-04
        -0.12352E-05
        -0.12639E-06
        -0.37446E-06
        -0.55594E-06
        -0.22872E-04
        -0.10262E-04
        -0.62409E-06
        -0.45515E-05
        -0.33858E-05
        -0.56340E-06
        -0.69705E-05
        -0.24933E-04
        -0.14864E-03
        -0.11758E-03
        -0.89151E-04
        -0.47785E-04
        -0.25148E-05
        -0.12235E-04
        -0.19425E-04
        -0.31606E-04
        -0.13061E-03
        -0.44426E-04
        -0.19126E-04
        -0.29559E-04
        -0.40988E-04
        -0.45022E-04
        -0.16476E-06
        -0.69029E-04
        -0.14496E-03
        -0.78756E-03
        -0.13095E-02
        -0.21742E-02
        -0.31131E-02
        -0.29801E-02
        -0.22798E-02
        -0.20991E-02
        -0.20508E-02
        -0.81104E-03
        -0.90069E-04
        -0.14087E-04
        -0.10866E-04
        -0.17633E-05
        -0.16186E-03
        -0.64916E-03
        -0.12474E-02
        -0.20957E-02
        -0.25740E-02
        -0.19852E-02
        -0.17756E-02
        -0.17544E-02
        -0.85954E-03
        -0.22969E-03
        -0.20469E-03
        -0.62450E-04
        -0.24477E-04
        -0.21237E-04
        -0.14448E-05
        -0.35464E-04
        -0.73099E-05
        -0.46096E-05
        -0.57227E-04
        -0.24870E-04
        -0.53354E-04
        -0.13886E-04
        -0.25401E-03
        -0.90073E-04
        -0.18750E-05
        -0.25600E-03
        -0.88829E-05
        -0.10523E-05
        -0.70832E-06
        -0.15361E-04
        -0.46673E-06
        -0.11997E-04
        -0.57548E-05
        -0.19610E-05
        -0.13010E-05
        -0.24614E-04
        -0.12258E-05
        -0.13042E-06
        -0.38157E-06
        -0.54116E-06
        -0.22940E-04
        -0.10260E-04
        -0.61636E-06
        -0.45721E-05
        -0.33981E-05
        -0.55085E-06
        -0.69820E-05
        -0.24936E-04
        -0.14912E-03
        -0.11811E-03
        -0.89389E-04
        -0.47891E-04
        -0.24883E-05
        -0.12247E-04
        -0.19481E-04
        -0.31649E-04
        -0.13067E-03
        -0.44465E-04
        -0.19125E-04
        -0.29502E-04
        -0.40884E-04
        -0.44986E-04
        -0.15853E-06
        -0.68896E-04
        -0.14497E-03
        -0.78782E-03
        -0.13096E-02
        -0.21737E-02
        -0.31109E-02
        -0.29774E-02
        -0.22784E-02
        -0.20982E-02
        -0.20495E-02
        -0.81077E-03
        -0.90199E-04
        -0.14091E-04
        -0.10909E-04
        -0.17308E-05
        -0.16207E-03
        -0.64999E-03
        -0.12481E-02
        -0.20956E-02
        -0.25737E-02
        -0.19851E-02
        -0.17756E-02
        -0.17535E-02
        -0.85830E-03
        -0.22920E-03
        -0.20414E-03
        -0.62512E-04
        -0.24473E-04
        -0.21257E-04
        -0.14652E-05
        -0.35472E-04
        -0.73215E-05
        -0.46160E-05
        -0.57378E-04
        -0.24963E-04
        -0.53685E-04
        -0.13911E-04
        -0.25398E-03
        -0.90136E-04
        -0.18785E-05
        -0.25665E-03
        -0.88863E-05
        -0.10715E-05
        -0.70599E-06
        -0.15385E-04
        -0.46004E-06
        -0.12057E-04
        -0.57625E-05
        -0.19667E-05
        -0.12974E-05
        -0.24795E-04
        -0.12165E-05
        -0.13441E-06
        -0.38867E-06
        -0.52664E-06
        -0.23007E-04
        -0.10257E-04
        -0.60874E-06
        -0.45926E-05
        -0.34106E-05
        -0.53833E-06
        -0.69930E-05
        -0.24940E-04
        -0.14959E-03
        -0.11863E-03
        -0.89623E-04
        -0.47998E-04
        -0.24620E-05
        -0.12259E-04
        -0.19536E-04
        -0.31693E-04
        -0.13073E-03
        -0.44507E-04
        -0.19123E-04
        -0.29446E-04
        -0.40781E-04
        -0.44949E-04
        -0.15241E-06
        -0.68763E-04
        -0.14498E-03
        -0.78808E-03
        -0.13096E-02
        -0.21732E-02
        -0.31088E-02
        -0.29748E-02
        -0.22770E-02
        -0.20973E-02
        -0.20483E-02
        -0.81051E-03
        -0.90330E-04
        -0.14095E-04
        -0.10951E-04
        -0.16985E-05
        -0.16227E-03
        -0.65081E-03
        -0.12489E-02
        -0.20955E-02
        -0.25734E-02
        -0.19849E-02
        -0.17755E-02
        -0.17526E-02
        -0.85707E-03
        -0.22870E-03
        -0.20360E-03
        -0.62573E-04
        -0.24469E-04
        -0.21277E-04
        -0.14859E-05
        -0.35482E-04
        -0.73329E-05
        -0.46228E-05
        -0.57528E-04
        -0.25055E-04
        -0.54017E-04
        -0.13936E-04
        -0.25396E-03
        -0.90196E-04
        -0.18815E-05
        -0.25731E-03
        -0.88898E-05
        -0.10910E-05
        -0.70362E-06
        -0.15408E-04
        -0.45348E-06
        -0.12118E-04
        -0.57699E-05
        -0.19723E-05
        -0.12938E-05
        -0.24978E-04
        -0.12071E-05
        -0.13856E-06
        -0.39576E-06
        -0.51228E-06
        -0.23073E-04
        -0.10255E-04
        -0.60112E-06
        -0.46132E-05
        -0.34230E-05
        -0.52593E-06
        -0.70041E-05
        -0.24942E-04
        -0.15008E-03
        -0.11917E-03
        -0.89857E-04
        -0.48104E-04
        -0.24361E-05
        -0.12271E-04
        -0.19592E-04
        -0.31737E-04
        -0.13079E-03
        -0.44549E-04
        -0.19122E-04
        -0.29391E-04
        -0.40678E-04
        -0.44912E-04
        -0.14647E-06
        -0.68630E-04
        -0.14499E-03
        -0.78834E-03
        -0.13096E-02
        -0.21726E-02
        -0.31066E-02
        -0.29722E-02
        -0.22756E-02
        -0.20965E-02
        -0.20471E-02
        -0.81026E-03
        -0.90461E-04
        -0.14098E-04
        -0.10994E-04
        -0.16667E-05
        -0.16248E-03
        -0.65163E-03
        -0.12496E-02
        -0.20954E-02
        -0.25730E-02
        -0.19847E-02
        -0.17754E-02
        -0.17516E-02
        -0.85583E-03
        -0.22821E-03
        -0.20305E-03
        -0.62634E-04
        -0.24465E-04
        -0.21297E-04
        -0.15068E-05
        -0.35491E-04
        -0.73443E-05
        -0.46293E-05
        -0.57677E-04
        -0.25149E-04
        -0.54349E-04
        -0.13961E-04
        -0.25393E-03
        -0.90254E-04
        -0.18848E-05
        -0.25796E-03
        -0.88932E-05
        -0.11109E-05
        -0.70124E-06
        -0.15431E-04
        -0.44727E-06
        -0.12178E-04
        -0.57771E-05
        -0.19781E-05
        -0.12902E-05
        -0.25161E-04
        -0.11979E-05
        -0.14273E-06
        -0.40286E-06
        -0.49817E-06
        -0.23135E-04
        -0.10252E-04
        -0.59345E-06
        -0.46337E-05
        -0.34355E-05
        -0.51368E-06
        -0.70157E-05
        -0.24946E-04
        -0.15057E-03
        -0.11970E-03
        -0.90079E-04
        -0.48209E-04
        -0.24100E-05
        -0.12284E-04
        -0.19648E-04
        -0.31782E-04
        -0.13085E-03
        -0.44588E-04
        -0.19120E-04
        -0.29334E-04
        -0.40575E-04
        -0.44878E-04
        -0.14064E-06
        -0.68498E-04
        -0.14500E-03
        -0.78860E-03
        -0.13096E-02
        -0.21721E-02
        -0.31044E-02
        -0.29696E-02
        -0.22742E-02
        -0.20956E-02
        -0.20458E-02
        -0.81003E-03
        -0.90595E-04
        -0.14100E-04
        -0.11036E-04
        -0.16353E-05
        -0.16269E-03
        -0.65246E-03
        -0.12504E-02
        -0.20953E-02
        -0.25727E-02
        -0.19845E-02
        -0.17753E-02
        -0.17507E-02
        -0.85460E-03
        -0.22772E-03
        -0.20251E-03
        -0.62695E-04
        -0.24462E-04
        -0.21317E-04
        -0.15277E-05
        -0.35499E-04
        -0.73555E-05
        -0.46357E-05
        -0.57826E-04
        -0.25244E-04
        -0.54682E-04
        -0.13985E-04
        -0.25391E-03
        -0.90317E-04
        -0.18882E-05
        -0.25862E-03
        -0.88964E-05
        -0.11313E-05
        -0.69886E-06
        -0.15455E-04
        -0.44135E-06
        -0.12239E-04
        -0.57842E-05
        -0.19838E-05
        -0.12867E-05
        -0.25345E-04
        -0.11886E-05
        -0.14716E-06
        -0.40994E-06
        -0.48430E-06
        -0.23193E-04
        -0.10249E-04
        -0.58594E-06
        -0.46542E-05
        -0.34480E-05
        -0.50147E-06
        -0.70268E-05
        -0.24948E-04
        -0.15106E-03
        -0.12022E-03
        -0.90297E-04
        -0.48312E-04
        -0.23841E-05
        -0.12298E-04
        -0.19703E-04
        -0.31827E-04
        -0.13091E-03
        -0.44630E-04
        -0.19118E-04
        -0.29278E-04
        -0.40471E-04
        -0.44840E-04
        -0.13488E-06
        -0.68365E-04
        -0.14501E-03
        -0.78885E-03
        -0.13096E-02
        -0.21716E-02
        -0.31023E-02
        -0.29670E-02
        -0.22728E-02
        -0.20947E-02
        -0.20444E-02
        -0.80982E-03
        -0.90729E-04
        -0.14099E-04
        -0.11079E-04
        -0.16040E-05
        -0.16289E-03
        -0.65329E-03
        -0.12511E-02
        -0.20952E-02
        -0.25724E-02
        -0.19843E-02
        -0.17752E-02
        -0.17497E-02
        -0.85337E-03
        -0.22724E-03
        -0.20196E-03
        -0.62757E-04
        -0.24458E-04
        -0.21339E-04
        -0.15488E-05
        -0.35510E-04
        -0.73671E-05
        -0.46428E-05
        -0.57974E-04
        -0.25339E-04
        -0.55016E-04
        -0.14010E-04
        -0.25388E-03
        -0.90377E-04
        -0.18910E-05
        -0.25927E-03
        -0.89000E-05
        -0.11519E-05
        -0.69651E-06
        -0.15478E-04
        -0.43563E-06
        -0.12300E-04
        -0.57912E-05
        -0.19891E-05
        -0.12834E-05
        -0.25530E-04
        -0.11797E-05
        -0.15153E-06
        -0.41679E-06
        -0.47079E-06
        -0.23250E-04
        -0.10247E-04
        -0.57861E-06
        -0.46749E-05
        -0.34607E-05
        -0.48954E-06
        -0.70377E-05
        -0.24950E-04
        -0.15156E-03
        -0.12075E-03
        -0.90504E-04
        -0.48413E-04
        -0.23589E-05
        -0.12312E-04
        -0.19758E-04
        -0.31869E-04
        -0.13097E-03
        -0.44671E-04
        -0.19117E-04
        -0.29223E-04
        -0.40369E-04
        -0.44806E-04
        -0.12929E-06
        -0.68231E-04
        -0.14503E-03
        -0.78910E-03
        -0.13097E-02
        -0.21711E-02
        -0.31002E-02
        -0.29644E-02
        -0.22714E-02
        -0.20938E-02
        -0.20430E-02
        -0.80963E-03
        -0.90860E-04
        -0.14096E-04
        -0.11121E-04
        -0.15729E-05
        -0.16310E-03
        -0.65411E-03
        -0.12518E-02
        -0.20951E-02
        -0.25720E-02
        -0.19841E-02
        -0.17751E-02
        -0.17487E-02
        -0.85214E-03
        -0.22676E-03
        -0.20142E-03
        -0.63341E-04
        -0.24667E-04
        -0.21545E-04
        -0.15822E-05
        -0.35819E-04
        -0.74388E-05
        -0.46902E-05
        -0.58596E-04
        -0.25640E-04
        -0.55785E-04
        -0.14151E-04
        -0.25593E-03
        -0.91164E-04
        -0.19098E-05
        -0.26208E-03
        -0.89791E-05
        -0.11813E-05
        -0.69995E-06
        -0.15629E-04
        -0.43418E-06
        -0.12455E-04
        -0.58450E-05
        -0.20071E-05
        -0.12924E-05
        -0.25922E-04
        -0.11835E-05
        -0.15688E-06
        -0.42560E-06
        -0.46388E-06
        -0.23508E-04
        -0.10334E-04
        -0.57829E-06
        -0.47337E-05
        -0.35021E-05
        -0.48286E-06
        -0.71005E-05
        -0.25146E-04
        -0.15329E-03
        -0.12226E-03
        -0.91466E-04
        -0.48907E-04
        -0.23592E-05
        -0.12433E-04
        -0.19951E-04
        -0.32147E-04
        -0.13203E-03
        -0.45049E-04
        -0.19257E-04
        -0.29400E-04
        -0.40598E-04
        -0.45135E-04
        -0.12490E-06
        -0.68656E-04
        -0.14629E-03
        -0.79596E-03
        -0.13206E-02
        -0.21890E-02
        -0.31253E-02
        -0.29883E-02
        -0.22904E-02
        -0.21117E-02
        -0.20603E-02
        -0.81665E-03
        -0.91729E-04
        -0.14200E-04
        -0.11248E-04
        -0.15558E-05
        -0.16452E-03
        -0.65984E-03
        -0.12626E-02
        -0.21127E-02
        -0.25936E-02
        -0.20001E-02
        -0.17892E-02
        -0.17620E-02
        -0.85794E-03
        -0.22814E-03
        -0.20253E-03
        -0.14129E-03
        -0.55484E-04
        -0.47922E-04
        -0.35788E-05
        -0.74268E-04
        -0.15729E-04
        -0.10514E-04
        -0.12967E-03
        -0.57011E-04
        -0.12298E-03
        -0.30662E-04
        -0.51202E-03
        -0.18782E-03
        -0.41053E-05
        -0.53061E-03
        -0.20067E-04
        -0.26579E-05
        -0.15614E-05
        -0.34030E-04
        -0.94507E-06
        -0.25699E-04
        -0.12342E-04
        -0.41446E-05
        -0.28552E-05
        -0.58293E-04
        -0.26563E-05
        -0.34857E-06
        -0.95830E-06
        -0.10344E-05
        -0.52677E-04
        -0.23099E-04
        -0.12841E-05
        -0.10652E-04
        -0.78601E-05
        -0.93873E-06
        -0.14969E-04
        -0.53015E-04
        -0.32419E-03
        -0.26604E-03
        -0.20036E-03
        -0.10423E-03
        -0.50801E-05
        -0.26868E-04
        -0.41847E-04
        -0.66975E-04
        -0.25977E-03
        -0.93245E-04
        -0.40806E-04
        -0.62917E-04
        -0.86125E-04
        -0.91319E-04
        -0.25414E-06
        -0.10813E-03
        -0.23012E-03
        -0.12528E-02
        -0.20893E-02
        -0.34598E-02
        -0.49673E-02
        -0.48568E-02
        -0.37853E-02
        -0.34774E-02
        -0.33540E-02
        -0.13322E-02
        -0.14900E-03
        -0.23515E-04
        -0.18792E-04
        -0.24955E-05
        -0.26136E-03
        -0.10422E-02
        -0.19740E-02
        -0.33009E-02
        -0.40620E-02
        -0.31945E-02
        -0.28820E-02
        -0.28187E-02
        -0.13812E-02
        -0.36482E-03
        -0.32141E-03
  
SCALARS                      strain_zz  double 1
LOOKUP_TABLE default
         0.41542E+01
         0.40888E+01
         0.41303E+01
         0.42046E+01
        -0.23073E-08
        -0.25873E-08
        -0.24774E-08
        -0.22506E-08
         0.40871E+01
         0.41089E+01
        -0.23266E-08
        -0.22516E-08
         0.39942E+01
         0.39907E+01
        -0.27645E-08
        -0.25993E-08
         0.41937E+01
         0.39959E+01
        -0.20427E-08
        -0.22656E-08
         0.39231E+01
         0.38669E+01
         0.39568E+01
        -0.27399E-08
        -0.23928E-08
        -0.24709E-08
         0.38689E+01
         0.37866E+01
        -0.26286E-08
        -0.22167E-08
         0.41901E+01
         0.41041E+01
         0.42735E+01
        -0.22431E-08
        -0.20853E-08
        -0.20275E-08
         0.41404E+01
         0.40307E+01
        -0.23731E-08
        -0.21655E-08
         0.40971E+01
         0.40125E+01
        -0.20510E-08
        -0.18157E-08
         0.41687E+01
         0.42003E+01
        -0.22477E-08
        -0.25114E-08
         0.39444E+01
        -0.21958E-08
         0.41941E+01
        -0.25801E-08
         0.38450E+01
        -0.23188E-08
         0.38191E+01
        -0.22242E-08
         0.38197E+01
         0.39117E+01
        -0.22662E-08
        -0.22070E-08
         0.41883E+01
         0.41554E+01
        -0.22724E-08
        -0.25690E-08
         0.42090E+01
        -0.21927E-08
         0.41698E+01
        -0.23931E-08
         0.40672E+01
         0.40563E+01
        -0.23036E-08
        -0.24137E-08
         0.40328E+01
        -0.24340E-08
         0.37574E+01
        -0.19230E-08
         0.37430E+01
        -0.18666E-08
         0.37505E+01
        -0.19681E-08
         0.37910E+01
         0.38318E+01
        -0.18752E-08
        -0.19550E-08
         0.39150E+01
        -0.18208E-08
         0.41671E+01
        -0.23877E-08
         0.41281E+01
        -0.24438E-08
         0.40964E+01
         0.40780E+01
        -0.23469E-08
        -0.23742E-08
         0.40995E+01
        -0.21565E-08
         0.41151E+01
        -0.21257E-08
         0.41012E+01
        -0.22756E-08
         0.40968E+01
         0.41106E+01
        -0.22316E-08
        -0.22971E-08
         0.40213E+01
         0.40592E+01
        -0.17326E-08
        -0.16296E-08
         0.40151E+01
        -0.16544E-08
         0.40588E+01
        -0.15863E-08
         0.40161E+01
        -0.15642E-08
         0.39226E+01
        -0.14782E-08
         0.38323E+01
        -0.13132E-08
         0.37780E+01
        -0.11825E-08
         0.37724E+01
        -0.11743E-08
         0.37740E+01
        -0.12734E-08
         0.38328E+01
        -0.13383E-08
         0.39441E+01
        -0.12220E-08
         0.40657E+01
        -0.11015E-08
         0.41361E+01
        -0.11003E-08
         0.42058E+01
        -0.12298E-08
         0.42520E+01
        -0.14023E-08
         0.42506E+01
        -0.15065E-08
         0.41372E+01
        -0.16270E-08
         0.40577E+01
        -0.17431E-08
         0.40319E+01
        -0.15968E-08
         0.40747E+01
        -0.14008E-08
         0.40962E+01
        -0.13965E-08
         0.40584E+01
        -0.15279E-08
         0.40582E+01
        -0.16289E-08
         0.40867E+01
        -0.15458E-08
         0.41237E+01
        -0.14944E-08
        -0.46902E+00
        -0.47250E+00
        -0.47205E+00
        -0.46747E+00
        -0.47556E+00
        -0.47163E+00
        -0.47650E+00
        -0.47403E+00
        -0.46821E+00
        -0.47191E+00
        -0.47896E+00
        -0.47956E+00
        -0.47765E+00
        -0.47759E+00
        -0.47875E+00
        -0.46769E+00
        -0.46858E+00
        -0.46607E+00
        -0.47286E+00
        -0.47169E+00
        -0.47328E+00
        -0.47218E+00
        -0.47419E+00
        -0.47375E+00
        -0.47178E+00
        -0.47194E+00
        -0.47521E+00
        -0.47493E+00
        -0.47721E+00
        -0.47370E+00
        -0.46813E+00
        -0.47255E+00
        -0.46817E+00
        -0.47111E+00
        -0.48006E+00
        -0.47745E+00
        -0.47610E+00
        -0.47762E+00
        -0.47785E+00
        -0.48027E+00
        -0.48184E+00
        -0.47771E+00
        -0.47320E+00
        -0.47387E+00
        -0.47622E+00
        -0.47995E+00
        -0.47682E+00
        -0.47305E+00
        -0.47333E+00
        -0.47626E+00
        -0.47898E+00
        -0.47523E+00
        -0.48464E+00
        -0.48187E+00
        -0.48225E+00
        -0.48152E+00
        -0.48156E+00
        -0.48285E+00
        -0.48435E+00
        -0.48502E+00
        -0.48488E+00
        -0.48494E+00
        -0.48558E+00
        -0.48182E+00
        -0.48052E+00
        -0.47999E+00
        -0.47879E+00
        -0.47784E+00
        -0.47780E+00
        -0.47917E+00
        -0.48368E+00
        -0.48258E+00
        -0.48120E+00
        -0.48131E+00
        -0.48156E+00
        -0.48304E+00
        -0.48085E+00
        -0.47998E+00
         0.82996E-04
         0.31242E-04
         0.30627E-04
         0.26130E-04
         0.84308E-04
         0.52693E-04
         0.28576E-05
         0.57838E-04
         0.44819E-04
         0.49282E-04
        -0.61485E-06
         0.25985E-03
         0.15407E-03
         0.64994E-05
         0.27533E-03
         0.41115E-04
         0.19420E-04
         0.17023E-04
         0.16918E-04
         0.68582E-05
         0.15893E-03
         0.14688E-03
         0.12708E-03
         0.61628E-05
         0.11765E-04
         0.11242E-05
        -0.91321E-05
        -0.33320E-04
        -0.12963E-04
         0.17980E-04
         0.30783E-04
         0.71641E-05
         0.24435E-04
         0.28890E-04
         0.12438E-03
         0.45240E-04
         0.78123E-04
         0.17790E-03
         0.10248E-03
         0.92333E-04
         0.19714E-03
         0.15826E-03
         0.16203E-03
         0.91628E-04
         0.72981E-04
         0.14232E-03
         0.63762E-04
         0.48815E-04
         0.38529E-04
         0.55322E-04
         0.12672E-03
         0.71321E-04
         0.22033E-02
         0.23346E-02
         0.25350E-02
         0.25167E-02
         0.28733E-02
         0.33186E-02
         0.30518E-02
         0.24223E-02
         0.22958E-02
         0.26158E-02
         0.25099E-02
         0.24387E-02
         0.16620E-02
         0.15117E-02
         0.18057E-02
         0.20607E-02
         0.22223E-02
         0.26537E-02
         0.24586E-02
         0.26099E-02
         0.21179E-02
         0.19044E-02
         0.21573E-02
         0.20613E-02
         0.21934E-02
         0.21662E-02
         0.82287E-04
         0.30410E-04
         0.29819E-04
         0.25410E-04
         0.83275E-04
         0.51749E-04
         0.19781E-05
         0.57030E-04
         0.44044E-04
         0.48608E-04
        -0.16503E-05
         0.25862E-03
         0.15313E-03
         0.52975E-05
         0.27472E-03
         0.40290E-04
         0.18504E-04
         0.16259E-04
         0.15950E-04
         0.58035E-05
         0.15791E-03
         0.14584E-03
         0.12597E-03
         0.51558E-05
         0.10856E-04
         0.16368E-06
        -0.10103E-04
        -0.34377E-04
        -0.14030E-04
         0.16926E-04
         0.29980E-04
         0.62506E-05
         0.23625E-04
         0.28142E-04
         0.12341E-03
         0.44263E-04
         0.77137E-04
         0.17727E-03
         0.10183E-03
         0.91467E-04
         0.19620E-03
         0.15725E-03
         0.16095E-03
         0.90571E-04
         0.71948E-04
         0.14122E-03
         0.62753E-04
         0.47852E-04
         0.37564E-04
         0.54327E-04
         0.12559E-03
         0.70230E-04
         0.21999E-02
         0.23316E-02
         0.25332E-02
         0.25150E-02
         0.28705E-02
         0.33144E-02
         0.30473E-02
         0.24189E-02
         0.22926E-02
         0.26121E-02
         0.25070E-02
         0.24369E-02
         0.16601E-02
         0.15101E-02
         0.18045E-02
         0.20599E-02
         0.22217E-02
         0.26530E-02
         0.24564E-02
         0.26077E-02
         0.21156E-02
         0.19025E-02
         0.21542E-02
         0.20569E-02
         0.21892E-02
         0.21621E-02
         0.82582E-04
         0.30588E-04
         0.30021E-04
         0.25642E-04
         0.83461E-04
         0.51954E-04
         0.22094E-05
         0.57369E-04
         0.44278E-04
         0.48993E-04
        -0.14407E-05
         0.25884E-03
         0.15344E-03
         0.53767E-05
         0.27560E-03
         0.40172E-04
         0.18506E-04
         0.16440E-04
         0.15726E-04
         0.55865E-05
         0.15776E-03
         0.14575E-03
         0.12525E-03
         0.44288E-05
         0.10585E-04
        -0.50987E-06
        -0.98847E-05
        -0.34531E-04
        -0.14434E-04
         0.16217E-04
         0.30033E-04
         0.60397E-05
         0.23796E-04
         0.28409E-04
         0.12380E-03
         0.44481E-04
         0.77312E-04
         0.17808E-03
         0.10252E-03
         0.91801E-04
         0.19643E-03
         0.15699E-03
         0.16039E-03
         0.89872E-04
         0.71752E-04
         0.14136E-03
         0.62938E-04
         0.48062E-04
         0.37718E-04
         0.54480E-04
         0.12575E-03
         0.70327E-04
         0.21988E-02
         0.23310E-02
         0.25337E-02
         0.25155E-02
         0.28699E-02
         0.33125E-02
         0.30452E-02
         0.24181E-02
         0.22918E-02
         0.26110E-02
         0.25064E-02
         0.24371E-02
         0.16598E-02
         0.15102E-02
         0.18051E-02
         0.20606E-02
         0.22225E-02
         0.26543E-02
         0.24567E-02
         0.26080E-02
         0.21157E-02
         0.19028E-02
         0.21533E-02
         0.20547E-02
         0.21872E-02
         0.21602E-02
         0.82571E-04
         0.30528E-04
         0.29977E-04
         0.25555E-04
         0.83303E-04
         0.51838E-04
         0.21732E-05
         0.57373E-04
         0.44119E-04
         0.48893E-04
        -0.15472E-05
         0.25870E-03
         0.15348E-03
         0.50826E-05
         0.27605E-03
         0.39535E-04
         0.17991E-04
         0.16287E-04
         0.14885E-04
         0.46950E-05
         0.15701E-03
         0.14503E-03
         0.12359E-03
         0.28029E-05
         0.94616E-05
        -0.20432E-05
        -0.10136E-04
        -0.35387E-04
        -0.15758E-04
         0.14371E-04
         0.29672E-04
         0.52174E-05
         0.23639E-04
         0.28301E-04
         0.12377E-03
         0.44361E-04
         0.77202E-04
         0.17844E-03
         0.10276E-03
         0.91573E-04
         0.19603E-03
         0.15583E-03
         0.15881E-03
         0.88233E-04
         0.70906E-04
         0.14092E-03
         0.62622E-04
         0.47879E-04
         0.37483E-04
         0.54197E-04
         0.12547E-03
         0.70060E-04
         0.21969E-02
         0.23297E-02
         0.25334E-02
         0.25153E-02
         0.28688E-02
         0.33101E-02
         0.30423E-02
         0.24165E-02
         0.22903E-02
         0.26090E-02
         0.25049E-02
         0.24363E-02
         0.16586E-02
         0.15097E-02
         0.18051E-02
         0.20604E-02
         0.22223E-02
         0.26548E-02
         0.24561E-02
         0.26073E-02
         0.21150E-02
         0.19022E-02
         0.21515E-02
         0.20518E-02
         0.21846E-02
         0.21578E-02
         0.82464E-04
         0.30394E-04
         0.29881E-04
         0.25463E-04
         0.83133E-04
         0.51691E-04
         0.20925E-05
         0.57295E-04
         0.43909E-04
         0.48768E-04
        -0.16604E-05
         0.25861E-03
         0.15351E-03
         0.47762E-05
         0.27657E-03
         0.39129E-04
         0.17597E-04
         0.16144E-04
         0.14338E-04
         0.40463E-05
         0.15654E-03
         0.14451E-03
         0.12259E-03
         0.17941E-05
         0.87067E-05
        -0.30264E-05
        -0.10355E-04
        -0.36005E-04
        -0.16660E-04
         0.13166E-04
         0.29295E-04
         0.46199E-05
         0.23369E-04
         0.28143E-04
         0.12373E-03
         0.44214E-04
         0.77055E-04
         0.17887E-03
         0.10305E-03
         0.91481E-04
         0.19586E-03
         0.15512E-03
         0.15781E-03
         0.87218E-04
         0.70354E-04
         0.14064E-03
         0.62349E-04
         0.47593E-04
         0.37138E-04
         0.53834E-04
         0.12511E-03
         0.69731E-04
         0.21951E-02
         0.23285E-02
         0.25331E-02
         0.25151E-02
         0.28677E-02
         0.33078E-02
         0.30397E-02
         0.24149E-02
         0.22889E-02
         0.26071E-02
         0.25037E-02
         0.24358E-02
         0.16578E-02
         0.15092E-02
         0.18052E-02
         0.20607E-02
         0.22227E-02
         0.26556E-02
         0.24557E-02
         0.26067E-02
         0.21142E-02
         0.19016E-02
         0.21496E-02
         0.20488E-02
         0.21819E-02
         0.21554E-02
         0.82053E-04
         0.30124E-04
         0.29786E-04
         0.25598E-04
         0.83198E-04
         0.51821E-04
         0.20483E-05
         0.57058E-04
         0.43580E-04
         0.48475E-04
        -0.15689E-05
         0.25886E-03
         0.15373E-03
         0.46469E-05
         0.27750E-03
         0.39286E-04
         0.17549E-04
         0.16331E-04
         0.14476E-04
         0.41162E-05
         0.15675E-03
         0.14469E-03
         0.12264E-03
         0.17718E-05
         0.84969E-05
        -0.31663E-05
        -0.10393E-04
        -0.36084E-04
        -0.16568E-04
         0.13198E-04
         0.28832E-04
         0.43028E-05
         0.22942E-04
         0.28116E-04
         0.12397E-03
         0.44207E-04
         0.77005E-04
         0.17969E-03
         0.10377E-03
         0.92000E-04
         0.19640E-03
         0.15545E-03
         0.15801E-03
         0.87198E-04
         0.70288E-04
         0.14062E-03
         0.62117E-04
         0.47021E-04
         0.36420E-04
         0.53385E-04
         0.12491E-03
         0.69648E-04
         0.21940E-02
         0.23278E-02
         0.25335E-02
         0.25154E-02
         0.28671E-02
         0.33060E-02
         0.30375E-02
         0.24141E-02
         0.22882E-02
         0.26062E-02
         0.25034E-02
         0.24365E-02
         0.16580E-02
         0.15095E-02
         0.18061E-02
         0.20624E-02
         0.22245E-02
         0.26571E-02
         0.24556E-02
         0.26066E-02
         0.21137E-02
         0.19012E-02
         0.21480E-02
         0.20462E-02
         0.21797E-02
         0.21534E-02
         0.81368E-04
         0.29634E-04
         0.29522E-04
         0.25555E-04
         0.83031E-04
         0.51774E-04
         0.17162E-05
         0.56467E-04
         0.42963E-04
         0.47878E-04
        -0.18099E-05
         0.25876E-03
         0.15370E-03
         0.41489E-05
         0.27803E-03
         0.39215E-04
         0.17236E-04
         0.16274E-04
         0.14398E-04
         0.39500E-05
         0.15673E-03
         0.14464E-03
         0.12259E-03
         0.16481E-05
         0.81119E-05
        -0.34172E-05
        -0.10777E-04
        -0.36404E-04
        -0.16629E-04
         0.13121E-04
         0.28159E-04
         0.37822E-05
         0.22309E-04
         0.27900E-04
         0.12392E-03
         0.43992E-04
         0.76755E-04
         0.18012E-03
         0.10414E-03
         0.92218E-04
         0.19667E-03
         0.15563E-03
         0.15808E-03
         0.87087E-04
         0.69996E-04
         0.14025E-03
         0.61569E-04
         0.46169E-04
         0.35441E-04
         0.52693E-04
         0.12448E-03
         0.69376E-04
         0.21922E-02
         0.23266E-02
         0.25333E-02
         0.25153E-02
         0.28660E-02
         0.33035E-02
         0.30348E-02
         0.24126E-02
         0.22869E-02
         0.26045E-02
         0.25025E-02
         0.24367E-02
         0.16579E-02
         0.15095E-02
         0.18066E-02
         0.20638E-02
         0.22259E-02
         0.26580E-02
         0.24548E-02
         0.26058E-02
         0.21127E-02
         0.19002E-02
         0.21458E-02
         0.20431E-02
         0.21771E-02
         0.21510E-02
         0.81229E-04
         0.29452E-04
         0.29427E-04
         0.25486E-04
         0.82859E-04
         0.51630E-04
         0.15659E-05
         0.56319E-04
         0.42849E-04
         0.47909E-04
        -0.19770E-05
         0.25862E-03
         0.15366E-03
         0.37996E-05
         0.27850E-03
         0.39159E-04
         0.17142E-04
         0.16158E-04
         0.14329E-04
         0.38164E-05
         0.15667E-03
         0.14452E-03
         0.12251E-03
         0.15529E-05
         0.80973E-05
        -0.35614E-05
        -0.10929E-04
        -0.36577E-04
        -0.16762E-04
         0.13052E-04
         0.27972E-04
         0.35706E-05
         0.22081E-04
         0.27785E-04
         0.12390E-03
         0.43871E-04
         0.76599E-04
         0.18051E-03
         0.10448E-03
         0.92335E-04
         0.19678E-03
         0.15567E-03
         0.15806E-03
         0.86997E-04
         0.69830E-04
         0.14010E-03
         0.61410E-04
         0.45967E-04
         0.35152E-04
         0.52384E-04
         0.12418E-03
         0.69081E-04
         0.21903E-02
         0.23252E-02
         0.25331E-02
         0.25152E-02
         0.28648E-02
         0.33011E-02
         0.30321E-02
         0.24111E-02
         0.22854E-02
         0.26025E-02
         0.25013E-02
         0.24369E-02
         0.16576E-02
         0.15091E-02
         0.18069E-02
         0.20649E-02
         0.22271E-02
         0.26589E-02
         0.24542E-02
         0.26052E-02
         0.21121E-02
         0.18998E-02
         0.21440E-02
         0.20401E-02
         0.21744E-02
         0.21485E-02
         0.81459E-04
         0.29576E-04
         0.29540E-04
         0.25550E-04
         0.82917E-04
         0.51623E-04
         0.17322E-05
         0.56586E-04
         0.43078E-04
         0.48384E-04
        -0.18440E-05
         0.25877E-03
         0.15391E-03
         0.38206E-05
         0.27934E-03
         0.39397E-04
         0.17341E-04
         0.16233E-04
         0.14521E-04
         0.39444E-05
         0.15688E-03
         0.14467E-03
         0.12270E-03
         0.17179E-05
         0.84359E-05
        -0.34090E-05
        -0.10663E-04
        -0.36391E-04
        -0.16579E-04
         0.13270E-04
         0.28158E-04
         0.36799E-05
         0.22140E-04
         0.27845E-04
         0.12418E-03
         0.43979E-04
         0.76685E-04
         0.18129E-03
         0.10516E-03
         0.92759E-04
         0.19723E-03
         0.15601E-03
         0.15830E-03
         0.87194E-04
         0.69964E-04
         0.14027E-03
         0.61562E-04
         0.46130E-04
         0.35237E-04
         0.52393E-04
         0.12416E-03
         0.68956E-04
         0.21891E-02
         0.23245E-02
         0.25333E-02
         0.25153E-02
         0.28641E-02
         0.32992E-02
         0.30299E-02
         0.24100E-02
         0.22844E-02
         0.26010E-02
         0.25008E-02
         0.24375E-02
         0.16578E-02
         0.15093E-02
         0.18076E-02
         0.20665E-02
         0.22289E-02
         0.26604E-02
         0.24541E-02
         0.26052E-02
         0.21121E-02
         0.18999E-02
         0.21428E-02
         0.20377E-02
         0.21722E-02
         0.21464E-02
         0.81507E-04
         0.29564E-04
         0.29538E-04
         0.25516E-04
         0.82832E-04
         0.51528E-04
         0.17473E-05
         0.56615E-04
         0.43069E-04
         0.48582E-04
        -0.19091E-05
         0.25868E-03
         0.15402E-03
         0.35641E-05
         0.27981E-03
         0.39389E-04
         0.17301E-04
         0.16111E-04
         0.14467E-04
         0.38359E-05
         0.15687E-03
         0.14459E-03
         0.12267E-03
         0.16554E-05
         0.85672E-05
        -0.34703E-05
        -0.10698E-04
        -0.36417E-04
        -0.16583E-04
         0.13280E-04
         0.28133E-04
         0.36098E-05
         0.21999E-04
         0.27765E-04
         0.12425E-03
         0.43919E-04
         0.76634E-04
         0.18171E-03
         0.10560E-03
         0.92973E-04
         0.19745E-03
         0.15615E-03
         0.15830E-03
         0.87208E-04
         0.69937E-04
         0.14026E-03
         0.61504E-04
         0.46048E-04
         0.35084E-04
         0.52207E-04
         0.12397E-03
         0.68718E-04
         0.21874E-02
         0.23233E-02
         0.25330E-02
         0.25151E-02
         0.28631E-02
         0.32968E-02
         0.30270E-02
         0.24085E-02
         0.22831E-02
         0.25992E-02
         0.24997E-02
         0.24377E-02
         0.16575E-02
         0.15091E-02
         0.18081E-02
         0.20678E-02
         0.22304E-02
         0.26616E-02
         0.24537E-02
         0.26047E-02
         0.21114E-02
         0.18996E-02
         0.21412E-02
         0.20350E-02
         0.21696E-02
         0.21440E-02
         0.81489E-04
         0.29471E-04
         0.29493E-04
         0.25510E-04
         0.82693E-04
         0.51455E-04
         0.17090E-05
         0.56611E-04
         0.43070E-04
         0.48782E-04
        -0.19832E-05
         0.25857E-03
         0.15408E-03
         0.33292E-05
         0.28029E-03
         0.39350E-04
         0.17281E-04
         0.16033E-04
         0.14396E-04
         0.37486E-05
         0.15685E-03
         0.14452E-03
         0.12262E-03
         0.15586E-05
         0.86997E-05
        -0.35836E-05
        -0.10716E-04
        -0.36466E-04
        -0.16594E-04
         0.13307E-04
         0.28075E-04
         0.34998E-05
         0.21904E-04
         0.27764E-04
         0.12424E-03
         0.43820E-04
         0.76541E-04
         0.18214E-03
         0.10602E-03
         0.93196E-04
         0.19771E-03
         0.15629E-03
         0.15830E-03
         0.87183E-04
         0.69877E-04
         0.14022E-03
         0.61453E-04
         0.45977E-04
         0.34936E-04
         0.52032E-04
         0.12379E-03
         0.68526E-04
         0.21855E-02
         0.23220E-02
         0.25328E-02
         0.25151E-02
         0.28621E-02
         0.32944E-02
         0.30241E-02
         0.24069E-02
         0.22818E-02
         0.25974E-02
         0.24988E-02
         0.24379E-02
         0.16572E-02
         0.15089E-02
         0.18085E-02
         0.20690E-02
         0.22319E-02
         0.26627E-02
         0.24532E-02
         0.26042E-02
         0.21109E-02
         0.18992E-02
         0.21395E-02
         0.20322E-02
         0.21670E-02
         0.21415E-02
         0.81642E-04
         0.29509E-04
         0.29549E-04
         0.25600E-04
         0.82713E-04
         0.51494E-04
         0.18302E-05
         0.56825E-04
         0.43227E-04
         0.49158E-04
        -0.18548E-05
         0.25867E-03
         0.15425E-03
         0.33368E-05
         0.28110E-03
         0.39515E-04
         0.17395E-04
         0.16108E-04
         0.14521E-04
         0.38476E-05
         0.15703E-03
         0.14464E-03
         0.12275E-03
         0.16599E-05
         0.89610E-05
        -0.34876E-05
        -0.10538E-04
        -0.36349E-04
        -0.16392E-04
         0.13538E-04
         0.28233E-04
         0.35718E-05
         0.21984E-04
         0.27889E-04
         0.12447E-03
         0.43886E-04
         0.76564E-04
         0.18289E-03
         0.10670E-03
         0.93678E-04
         0.19818E-03
         0.15660E-03
         0.15851E-03
         0.87323E-04
         0.69964E-04
         0.14034E-03
         0.61557E-04
         0.46083E-04
         0.34971E-04
         0.52024E-04
         0.12377E-03
         0.68463E-04
         0.21842E-02
         0.23213E-02
         0.25330E-02
         0.25153E-02
         0.28611E-02
         0.32922E-02
         0.30218E-02
         0.24059E-02
         0.22808E-02
         0.25961E-02
         0.24982E-02
         0.24383E-02
         0.16573E-02
         0.15091E-02
         0.18092E-02
         0.20706E-02
         0.22335E-02
         0.26641E-02
         0.24530E-02
         0.26040E-02
         0.21107E-02
         0.18992E-02
         0.21382E-02
         0.20296E-02
         0.21649E-02
         0.21395E-02
         0.81680E-04
         0.29434E-04
         0.29506E-04
         0.25557E-04
         0.82572E-04
         0.51376E-04
         0.17715E-05
         0.56831E-04
         0.43247E-04
         0.49334E-04
        -0.19652E-05
         0.25853E-03
         0.15423E-03
         0.30556E-05
         0.28162E-03
         0.39497E-04
         0.17353E-04
         0.15979E-04
         0.14429E-04
         0.37232E-05
         0.15695E-03
         0.14451E-03
         0.12264E-03
         0.15484E-05
         0.90318E-05
        -0.35873E-05
        -0.10665E-04
        -0.36513E-04
        -0.16479E-04
         0.13526E-04
         0.28183E-04
         0.34674E-05
         0.21821E-04
         0.27818E-04
         0.12447E-03
         0.43775E-04
         0.76424E-04
         0.18331E-03
         0.10706E-03
         0.93821E-04
         0.19831E-03
         0.15662E-03
         0.15846E-03
         0.87222E-04
         0.69844E-04
         0.14026E-03
         0.61471E-04
         0.45964E-04
         0.34799E-04
         0.51841E-04
         0.12356E-03
         0.68215E-04
         0.21824E-02
         0.23200E-02
         0.25327E-02
         0.25150E-02
         0.28599E-02
         0.32897E-02
         0.30191E-02
         0.24044E-02
         0.22794E-02
         0.25941E-02
         0.24970E-02
         0.24383E-02
         0.16569E-02
         0.15088E-02
         0.18096E-02
         0.20717E-02
         0.22347E-02
         0.26650E-02
         0.24526E-02
         0.26035E-02
         0.21101E-02
         0.18989E-02
         0.21366E-02
         0.20268E-02
         0.21622E-02
         0.21370E-02
         0.81756E-04
         0.29410E-04
         0.29508E-04
         0.25567E-04
         0.82503E-04
         0.51314E-04
         0.17941E-05
         0.56916E-04
         0.43347E-04
         0.49635E-04
        -0.19723E-05
         0.25851E-03
         0.15434E-03
         0.29046E-05
         0.28223E-03
         0.39552E-04
         0.17415E-04
         0.15937E-04
         0.14440E-04
         0.36951E-05
         0.15697E-03
         0.14448E-03
         0.12263E-03
         0.15269E-05
         0.92131E-05
        -0.36179E-05
        -0.10614E-04
        -0.36540E-04
        -0.16470E-04
         0.13584E-04
         0.28179E-04
         0.34217E-05
         0.21735E-04
         0.27816E-04
         0.12456E-03
         0.43730E-04
         0.76367E-04
         0.18383E-03
         0.10750E-03
         0.94064E-04
         0.19860E-03
         0.15680E-03
         0.15853E-03
         0.87250E-04
         0.69834E-04
         0.14028E-03
         0.61464E-04
         0.45926E-04
         0.34692E-04
         0.51720E-04
         0.12344E-03
         0.68038E-04
         0.21807E-02
         0.23189E-02
         0.25326E-02
         0.25150E-02
         0.28589E-02
         0.32874E-02
         0.30164E-02
         0.24029E-02
         0.22780E-02
         0.25924E-02
         0.24962E-02
         0.24386E-02
         0.16567E-02
         0.15087E-02
         0.18100E-02
         0.20730E-02
         0.22362E-02
         0.26662E-02
         0.24522E-02
         0.26031E-02
         0.21096E-02
         0.18987E-02
         0.21351E-02
         0.20241E-02
         0.21597E-02
         0.21347E-02
         0.82055E-04
         0.29645E-04
         0.29728E-04
         0.25750E-04
         0.82682E-04
         0.51456E-04
         0.21081E-05
         0.57263E-04
         0.43604E-04
         0.50139E-04
        -0.16788E-05
         0.25883E-03
         0.15476E-03
         0.30337E-05
         0.28316E-03
         0.39825E-04
         0.17668E-04
         0.16093E-04
         0.14687E-04
         0.39196E-05
         0.15730E-03
         0.14474E-03
         0.12292E-03
         0.17472E-05
         0.96500E-05
        -0.34015E-05
        -0.10284E-04
        -0.36216E-04
        -0.16113E-04
         0.13944E-04
         0.28446E-04
         0.36376E-05
         0.21878E-04
         0.27977E-04
         0.12495E-03
         0.43949E-04
         0.76582E-04
         0.18466E-03
         0.10831E-03
         0.94650E-04
         0.19917E-03
         0.15726E-03
         0.15884E-03
         0.87570E-04
         0.70116E-04
         0.14060E-03
         0.61733E-04
         0.46171E-04
         0.34826E-04
         0.51790E-04
         0.12351E-03
         0.68045E-04
         0.21797E-02
         0.23183E-02
         0.25330E-02
         0.25153E-02
         0.28584E-02
         0.32857E-02
         0.30142E-02
         0.24019E-02
         0.22773E-02
         0.25911E-02
         0.24958E-02
         0.24393E-02
         0.16569E-02
         0.15090E-02
         0.18110E-02
         0.20748E-02
         0.22382E-02
         0.26680E-02
         0.24523E-02
         0.26032E-02
         0.21096E-02
         0.18988E-02
         0.21339E-02
         0.20218E-02
         0.21577E-02
         0.21328E-02
         0.82050E-04
         0.29576E-04
         0.29689E-04
         0.25689E-04
         0.82520E-04
         0.51337E-04
         0.20605E-05
         0.57244E-04
         0.43593E-04
         0.50285E-04
        -0.17859E-05
         0.25873E-03
         0.15483E-03
         0.27476E-05
         0.28363E-03
         0.39782E-04
         0.17602E-04
         0.15985E-04
         0.14559E-04
         0.37719E-05
         0.15726E-03
         0.14461E-03
         0.12286E-03
         0.16129E-05
         0.97010E-05
        -0.35410E-05
        -0.10395E-04
        -0.36329E-04
        -0.16095E-04
         0.13958E-04
         0.28423E-04
         0.35205E-05
         0.21757E-04
         0.27888E-04
         0.12492E-03
         0.43846E-04
         0.76504E-04
         0.18506E-03
         0.10870E-03
         0.94884E-04
         0.19937E-03
         0.15732E-03
         0.15877E-03
         0.87504E-04
         0.70015E-04
         0.14053E-03
         0.61667E-04
         0.46111E-04
         0.34673E-04
         0.51567E-04
         0.12329E-03
         0.67795E-04
         0.21777E-02
         0.23170E-02
         0.25326E-02
         0.25152E-02
         0.28574E-02
         0.32833E-02
         0.30114E-02
         0.24003E-02
         0.22758E-02
         0.25892E-02
         0.24946E-02
         0.24393E-02
         0.16565E-02
         0.15088E-02
         0.18115E-02
         0.20762E-02
         0.22397E-02
         0.26690E-02
         0.24518E-02
         0.26027E-02
         0.21091E-02
         0.18984E-02
         0.21322E-02
         0.20190E-02
         0.21552E-02
         0.21304E-02
         0.81986E-04
         0.29404E-04
         0.29544E-04
         0.25597E-04
         0.82300E-04
         0.51143E-04
         0.19561E-05
         0.57204E-04
         0.43534E-04
         0.50306E-04
        -0.19183E-05
         0.25855E-03
         0.15481E-03
         0.24581E-05
         0.28407E-03
         0.39713E-04
         0.17471E-04
         0.15862E-04
         0.14457E-04
         0.36908E-05
         0.15720E-03
         0.14446E-03
         0.12278E-03
         0.14979E-05
         0.96403E-05
        -0.36781E-05
        -0.10680E-04
        -0.36510E-04
        -0.15683E-04
         0.14235E-04
         0.28342E-04
         0.33589E-05
         0.21636E-04
         0.27831E-04
         0.12487E-03
         0.43684E-04
         0.76340E-04
         0.18535E-03
         0.10911E-03
         0.95447E-04
         0.19967E-03
         0.15737E-03
         0.15864E-03
         0.87434E-04
         0.69878E-04
         0.14040E-03
         0.61528E-04
         0.45994E-04
         0.34504E-04
         0.51368E-04
         0.12308E-03
         0.67526E-04
         0.21759E-02
         0.23157E-02
         0.25324E-02
         0.25151E-02
         0.28563E-02
         0.32807E-02
         0.30084E-02
         0.23986E-02
         0.22744E-02
         0.25874E-02
         0.24932E-02
         0.24387E-02
         0.16560E-02
         0.15085E-02
         0.18118E-02
         0.20774E-02
         0.22410E-02
         0.26700E-02
         0.24512E-02
         0.26020E-02
         0.21085E-02
         0.18980E-02
         0.21305E-02
         0.20162E-02
         0.21525E-02
         0.21278E-02
         0.82274E-04
         0.29620E-04
         0.29780E-04
         0.25813E-04
         0.82494E-04
         0.51300E-04
         0.22367E-05
         0.57545E-04
         0.43743E-04
         0.50564E-04
        -0.16521E-05
         0.25879E-03
         0.15515E-03
         0.25720E-05
         0.28496E-03
         0.39988E-04
         0.17664E-04
         0.16008E-04
         0.14740E-04
         0.40737E-05
         0.15748E-03
         0.14468E-03
         0.12302E-03
         0.17354E-05
         0.98949E-05
        -0.34417E-05
        -0.10717E-04
        -0.36309E-04
        -0.14497E-04
         0.15177E-04
         0.28577E-04
         0.35785E-05
         0.21776E-04
         0.28040E-04
         0.12528E-03
         0.43930E-04
         0.76543E-04
         0.18600E-03
         0.10995E-03
         0.96693E-04
         0.20045E-03
         0.15780E-03
         0.15885E-03
         0.87717E-04
         0.70155E-04
         0.14075E-03
         0.61808E-04
         0.46219E-04
         0.34658E-04
         0.51502E-04
         0.12322E-03
         0.67565E-04
         0.21748E-02
         0.23151E-02
         0.25328E-02
         0.25155E-02
         0.28556E-02
         0.32788E-02
         0.30062E-02
         0.23977E-02
         0.22737E-02
         0.25865E-02
         0.24922E-02
         0.24384E-02
         0.16560E-02
         0.15087E-02
         0.18126E-02
         0.20790E-02
         0.22428E-02
         0.26716E-02
         0.24514E-02
         0.26022E-02
         0.21085E-02
         0.18983E-02
         0.21295E-02
         0.20140E-02
         0.21505E-02
         0.21259E-02
         0.81600E-04
         0.28827E-04
         0.29033E-04
         0.25109E-04
         0.81525E-04
         0.50401E-04
         0.14062E-05
         0.56747E-04
         0.43005E-04
         0.49764E-04
        -0.26159E-05
         0.25767E-03
         0.15424E-03
         0.13941E-05
         0.28443E-03
         0.39294E-04
         0.16830E-04
         0.15247E-04
         0.13888E-04
         0.32294E-05
         0.15655E-03
         0.14370E-03
         0.12209E-03
         0.89383E-06
         0.90399E-05
        -0.42423E-05
        -0.11914E-04
        -0.37314E-04
        -0.14902E-04
         0.14657E-04
         0.27863E-04
         0.27430E-05
         0.20964E-04
         0.27236E-04
         0.12436E-03
         0.42977E-04
         0.75547E-04
         0.18531E-03
         0.10946E-03
         0.96365E-04
         0.19976E-03
         0.15691E-03
         0.15786E-03
         0.86832E-04
         0.69188E-04
         0.13968E-03
         0.60862E-04
         0.45346E-04
         0.33724E-04
         0.50454E-04
         0.12203E-03
         0.66458E-04
         0.21713E-02
         0.23122E-02
         0.25308E-02
         0.25135E-02
         0.28527E-02
         0.32747E-02
         0.30017E-02
         0.23944E-02
         0.22706E-02
         0.25830E-02
         0.24890E-02
         0.24364E-02
         0.16541E-02
         0.15072E-02
         0.18115E-02
         0.20787E-02
         0.22426E-02
         0.26709E-02
         0.24491E-02
         0.26000E-02
         0.21064E-02
         0.18964E-02
         0.21262E-02
         0.20096E-02
         0.21464E-02
         0.21220E-02
         0.82120E-04
         0.28882E-04
         0.29200E-04
         0.25423E-04
         0.81772E-04
         0.50645E-04
         0.15717E-05
         0.57379E-04
         0.43648E-04
         0.50860E-04
        -0.23339E-05
         0.25770E-03
         0.15410E-03
         0.18860E-05
         0.28555E-03
         0.39962E-04
         0.17470E-04
         0.15632E-04
         0.14382E-04
         0.37014E-05
         0.15705E-03
         0.14403E-03
         0.12280E-03
         0.15239E-05
         0.10152E-04
        -0.36579E-05
        -0.10878E-04
        -0.36170E-04
        -0.13903E-04
         0.15603E-04
         0.28383E-04
         0.31005E-05
         0.21150E-04
         0.27134E-04
         0.12464E-03
         0.42895E-04
         0.75249E-04
         0.18655E-03
         0.11077E-03
         0.97305E-04
         0.20047E-03
         0.15766E-03
         0.15856E-03
         0.87525E-04
         0.69561E-04
         0.13989E-03
         0.61041E-04
         0.45742E-04
         0.33955E-04
         0.50367E-04
         0.12200E-03
         0.66324E-04
         0.21704E-02
         0.23121E-02
         0.25310E-02
         0.25132E-02
         0.28509E-02
         0.32719E-02
         0.29999E-02
         0.23940E-02
         0.22702E-02
         0.25816E-02
         0.24884E-02
         0.24374E-02
         0.16549E-02
         0.15075E-02
         0.18128E-02
         0.20811E-02
         0.22451E-02
         0.26728E-02
         0.24491E-02
         0.25996E-02
         0.21064E-02
         0.18968E-02
         0.21256E-02
         0.20080E-02
         0.21449E-02
         0.21206E-02
         0.30436E-02
         0.31176E-02
         0.30942E-02
         0.28222E-02
         0.36274E-02
         0.33598E-02
         0.33448E-02
         0.34433E-02
         0.29542E-02
         0.34468E-02
         0.37210E-02
         0.45610E-02
         0.40137E-02
         0.38464E-02
         0.47145E-02
         0.28852E-02
         0.30787E-02
         0.26903E-02
         0.32056E-02
         0.33418E-02
         0.37062E-02
         0.37212E-02
         0.35291E-02
         0.30549E-02
         0.34170E-02
         0.29213E-02
         0.37963E-02
         0.36547E-02
         0.36801E-02
         0.35396E-02
         0.29039E-02
         0.30284E-02
         0.28364E-02
         0.29661E-02
         0.40687E-02
         0.35779E-02
         0.36155E-02
         0.43905E-02
         0.41577E-02
         0.40809E-02
         0.43014E-02
         0.40337E-02
         0.38326E-02
         0.33944E-02
         0.35197E-02
         0.41080E-02
         0.36522E-02
         0.33899E-02
         0.32982E-02
         0.34424E-02
         0.38806E-02
         0.34868E-02
         0.90818E-02
         0.90580E-02
         0.94122E-02
         0.91601E-02
         0.96891E-02
         0.10431E-01
         0.10197E-01
         0.95181E-02
         0.94583E-02
         0.99722E-02
         0.96638E-02
         0.92098E-02
         0.76815E-02
         0.71911E-02
         0.75880E-02
         0.79981E-02
         0.82346E-02
         0.91877E-02
         0.94205E-02
         0.95857E-02
         0.85211E-02
         0.80934E-02
         0.85446E-02
         0.83608E-02
         0.84435E-02
         0.84234E-02
         0.32054E-01
         0.33478E-01
         0.33011E-01
         0.30217E-01
         0.36983E-01
         0.34773E-01
         0.36101E-01
         0.36439E-01
         0.31333E-01
         0.36417E-01
         0.39523E-01
         0.44458E-01
         0.40300E-01
         0.40655E-01
         0.46019E-01
         0.30733E-01
         0.32924E-01
         0.28879E-01
         0.33968E-01
         0.35663E-01
         0.37030E-01
         0.37790E-01
         0.35562E-01
         0.32710E-01
         0.36786E-01
         0.31601E-01
         0.40513E-01
         0.39812E-01
         0.39991E-01
         0.38044E-01
         0.31044E-01
         0.32571E-01
         0.30448E-01
         0.31788E-01
         0.40431E-01
         0.37116E-01
         0.37268E-01
         0.44483E-01
         0.43270E-01
         0.42741E-01
         0.43613E-01
         0.41437E-01
         0.39261E-01
         0.34706E-01
         0.36065E-01
         0.40439E-01
         0.37404E-01
         0.35229E-01
         0.34540E-01
         0.35777E-01
         0.38816E-01
         0.35889E-01
         0.66050E-01
         0.64627E-01
         0.66236E-01
         0.64280E-01
         0.66529E-01
         0.70315E-01
         0.71050E-01
         0.70034E-01
         0.70300E-01
         0.72252E-01
         0.70186E-01
         0.66197E-01
         0.58703E-01
         0.55446E-01
         0.56010E-01
         0.57035E-01
         0.57770E-01
         0.62877E-01
         0.66678E-01
         0.67138E-01
         0.61834E-01
         0.59771E-01
         0.61950E-01
         0.61381E-01
         0.60901E-01
         0.60669E-01
  
SCALARS                      strain_yz  double 1
LOOKUP_TABLE default
        -0.15708E-03
         0.23433E-04
         0.10828E-03
         0.10028E-03
        -0.17848E-09
        -0.49194E-10
        -0.22120E-09
        -0.16871E-09
         0.22315E-03
        -0.20694E-03
        -0.32918E-09
        -0.28981E-09
        -0.14378E-03
        -0.79501E-05
         0.23558E-09
        -0.15104E-10
        -0.20584E-03
         0.17652E-03
         0.34660E-11
         0.35464E-10
        -0.26104E-03
        -0.14579E-02
        -0.71529E-03
         0.54003E-09
         0.93263E-09
         0.77955E-09
        -0.14223E-03
        -0.21467E-02
         0.38846E-09
         0.75360E-09
        -0.22979E-03
        -0.88004E-04
         0.26598E-03
         0.20138E-09
         0.20558E-09
        -0.42680E-11
        -0.46024E-03
         0.14549E-04
         0.37058E-09
         0.28833E-09
        -0.26555E-03
         0.56732E-04
         0.28006E-09
         0.25594E-09
        -0.52332E-03
        -0.22420E-03
        -0.92903E-11
         0.14370E-09
         0.30838E-03
         0.67658E-10
        -0.57224E-04
        -0.54798E-11
         0.37373E-04
         0.26171E-09
        -0.27987E-03
         0.15224E-09
        -0.90971E-03
         0.94426E-04
         0.41302E-11
        -0.83828E-11
        -0.27542E-03
        -0.78508E-03
        -0.56274E-10
        -0.21049E-09
        -0.18947E-03
        -0.11359E-09
        -0.62564E-03
        -0.13838E-09
         0.12445E-03
         0.43551E-04
        -0.17101E-10
         0.22579E-09
        -0.82492E-05
         0.49581E-09
        -0.30243E-02
         0.48007E-09
        -0.31982E-02
         0.36442E-09
        -0.25697E-02
         0.30545E-09
        -0.32534E-02
        -0.21023E-02
         0.19595E-09
        -0.43444E-10
        -0.17691E-03
        -0.48612E-11
        -0.80886E-03
        -0.30452E-09
        -0.13438E-02
        -0.53310E-09
        -0.12514E-02
        -0.53893E-03
        -0.79069E-09
        -0.63999E-09
        -0.56391E-03
        -0.49680E-09
        -0.62813E-03
        -0.50826E-09
        -0.50676E-03
        -0.54649E-09
        -0.79418E-03
        -0.80159E-03
        -0.50820E-09
        -0.24351E-09
        -0.78860E-04
        -0.91287E-04
         0.17869E-09
        -0.22206E-09
        -0.30264E-03
         0.59447E-09
         0.86347E-03
         0.86957E-09
        -0.47684E-03
         0.10739E-08
        -0.43423E-02
         0.10652E-08
        -0.91954E-02
         0.84300E-09
        -0.11842E-01
         0.65238E-09
        -0.11385E-01
         0.60677E-09
        -0.10075E-01
         0.57730E-09
        -0.57396E-02
         0.36894E-09
        -0.17037E-02
         0.12181E-09
         0.39835E-03
         0.78708E-10
        -0.82549E-04
         0.11830E-09
        -0.18273E-02
         0.61102E-10
        -0.41711E-02
        -0.18478E-09
        -0.64236E-02
        -0.52158E-09
        -0.34174E-02
        -0.81446E-09
        -0.92809E-03
        -0.10677E-08
        -0.11548E-03
        -0.10668E-08
        -0.20913E-02
        -0.93129E-09
        -0.28305E-02
        -0.90763E-09
        -0.96174E-03
        -0.91328E-09
        -0.62962E-03
        -0.72219E-09
        -0.93169E-03
        -0.42706E-09
        -0.11273E-02
        -0.33021E-09
        -0.71160E-02
        -0.37064E-02
        -0.32326E-02
        -0.99464E-03
        -0.33348E-02
        -0.35194E-02
        -0.37442E-03
        -0.57287E-02
        -0.48603E-02
        -0.71825E-02
         0.37999E-02
         0.16235E-01
         0.11054E-01
         0.12815E-02
         0.16378E-01
         0.18798E-02
        -0.16684E-02
         0.10688E-02
         0.14138E-02
        -0.10663E-02
         0.98232E-03
         0.80834E-03
        -0.27261E-02
         0.22952E-03
        -0.49024E-02
         0.72494E-03
         0.37766E-04
         0.65996E-03
         0.80414E-03
        -0.38568E-02
         0.18365E-02
        -0.20091E-02
         0.13356E-02
        -0.32715E-03
         0.54895E-03
         0.29617E-02
         0.66262E-02
         0.14364E-01
         0.13129E-01
         0.11139E-01
         0.10518E-01
         0.25944E-02
        -0.21059E-02
        -0.57824E-02
        -0.95932E-02
        -0.15770E-01
        -0.10292E-01
        -0.73325E-02
        -0.78269E-02
        -0.83575E-02
        -0.98498E-02
        -0.44724E-02
         0.85824E-02
        -0.10277E-01
         0.27858E-01
         0.38455E-01
         0.49046E-01
         0.58396E-01
         0.58834E-01
         0.53275E-01
         0.50673E-01
         0.47909E-01
         0.30973E-01
         0.13523E-01
         0.59323E-02
         0.26122E-02
        -0.39942E-02
        -0.15771E-01
        -0.28991E-01
        -0.37929E-01
        -0.46207E-01
        -0.52915E-01
        -0.49720E-01
        -0.46994E-01
        -0.43740E-01
        -0.30482E-01
        -0.17750E-01
        -0.15566E-01
        -0.11111E-01
        -0.70079E-02
        -0.64849E-02
        -0.15382E-02
        -0.84226E-02
        -0.37881E-02
        -0.30039E-02
        -0.10501E-01
        -0.68865E-02
        -0.98768E-02
         0.52219E-02
         0.22599E-01
         0.13388E-01
         0.19240E-02
         0.22265E-01
         0.42137E-02
        -0.12770E-02
         0.12191E-02
         0.54949E-02
         0.10624E-02
         0.47361E-02
         0.33626E-02
        -0.19494E-02
         0.16454E-02
        -0.66510E-02
         0.16451E-02
         0.41281E-03
         0.76742E-03
        -0.12258E-02
        -0.66346E-02
         0.45412E-02
         0.11962E-02
         0.29352E-02
         0.25486E-02
        -0.12152E-02
         0.37043E-02
         0.70725E-02
         0.16922E-01
         0.14922E-01
         0.13151E-01
         0.96610E-02
        -0.23872E-02
        -0.49172E-02
        -0.61422E-02
        -0.79092E-02
        -0.16156E-01
        -0.94012E-02
        -0.62169E-02
        -0.78136E-02
        -0.92242E-02
        -0.95576E-02
        -0.71712E-03
         0.11910E-01
        -0.17037E-01
         0.39644E-01
         0.51234E-01
         0.66120E-01
         0.79337E-01
         0.77716E-01
         0.67876E-01
         0.65050E-01
         0.64356E-01
         0.40414E-01
         0.13320E-01
         0.53084E-02
         0.45487E-02
        -0.21066E-02
        -0.17870E-01
        -0.35798E-01
        -0.49818E-01
        -0.64839E-01
        -0.71896E-01
        -0.63140E-01
        -0.59696E-01
        -0.59514E-01
        -0.41905E-01
        -0.21768E-01
        -0.20612E-01
        -0.11118E-01
        -0.70091E-02
        -0.64881E-02
        -0.15494E-02
        -0.84235E-02
        -0.37911E-02
        -0.30077E-02
        -0.10519E-01
        -0.68989E-02
        -0.99137E-02
         0.52250E-02
         0.22597E-01
         0.13392E-01
         0.19241E-02
         0.22293E-01
         0.42139E-02
        -0.12886E-02
         0.12173E-02
         0.54986E-02
         0.10564E-02
         0.47478E-02
         0.33658E-02
        -0.19499E-02
         0.16447E-02
        -0.66812E-02
         0.16421E-02
         0.41768E-03
         0.77171E-03
        -0.12177E-02
        -0.66487E-02
         0.45420E-02
         0.11936E-02
         0.29417E-02
         0.25528E-02
        -0.12038E-02
         0.37067E-02
         0.70722E-02
         0.16948E-01
         0.14955E-01
         0.13166E-01
         0.96684E-02
        -0.23808E-02
        -0.49222E-02
        -0.61453E-02
        -0.79094E-02
        -0.16156E-01
        -0.94022E-02
        -0.62132E-02
        -0.78031E-02
        -0.92118E-02
        -0.95535E-02
        -0.70626E-03
         0.11899E-01
        -0.17038E-01
         0.39652E-01
         0.51234E-01
         0.66112E-01
         0.79310E-01
         0.77683E-01
         0.67856E-01
         0.65036E-01
         0.64339E-01
         0.40406E-01
         0.13326E-01
         0.53080E-02
         0.45581E-02
        -0.20895E-02
        -0.17879E-01
        -0.35814E-01
        -0.49830E-01
        -0.64838E-01
        -0.71891E-01
        -0.63136E-01
        -0.59694E-01
        -0.59499E-01
        -0.41875E-01
        -0.21744E-01
        -0.20585E-01
        -0.11125E-01
        -0.70105E-02
        -0.64914E-02
        -0.15609E-02
        -0.84245E-02
        -0.37942E-02
        -0.30114E-02
        -0.10537E-01
        -0.69113E-02
        -0.99503E-02
         0.52281E-02
         0.22595E-01
         0.13395E-01
         0.19239E-02
         0.22322E-01
         0.42142E-02
        -0.13003E-02
         0.12154E-02
         0.55024E-02
         0.10504E-02
         0.47596E-02
         0.33689E-02
        -0.19507E-02
         0.16437E-02
        -0.67110E-02
         0.16387E-02
         0.42288E-03
         0.77627E-03
        -0.12089E-02
        -0.66622E-02
         0.45427E-02
         0.11904E-02
         0.29482E-02
         0.25569E-02
        -0.11923E-02
         0.37092E-02
         0.70717E-02
         0.16974E-01
         0.14987E-01
         0.13181E-01
         0.96763E-02
        -0.23737E-02
        -0.49270E-02
        -0.61493E-02
        -0.79104E-02
        -0.16157E-01
        -0.94031E-02
        -0.62093E-02
        -0.77928E-02
        -0.91994E-02
        -0.95495E-02
        -0.69545E-03
         0.11888E-01
        -0.17038E-01
         0.39659E-01
         0.51235E-01
         0.66104E-01
         0.79283E-01
         0.77651E-01
         0.67836E-01
         0.65023E-01
         0.64321E-01
         0.40397E-01
         0.13333E-01
         0.53077E-02
         0.45674E-02
        -0.20722E-02
        -0.17889E-01
        -0.35831E-01
        -0.49842E-01
        -0.64837E-01
        -0.71887E-01
        -0.63131E-01
        -0.59691E-01
        -0.59484E-01
        -0.41846E-01
        -0.21721E-01
        -0.20558E-01
        -0.11132E-01
        -0.70118E-02
        -0.64947E-02
        -0.15723E-02
        -0.84255E-02
        -0.37973E-02
        -0.30154E-02
        -0.10554E-01
        -0.69238E-02
        -0.99866E-02
         0.52312E-02
         0.22593E-01
         0.13399E-01
         0.19239E-02
         0.22350E-01
         0.42145E-02
        -0.13122E-02
         0.12136E-02
         0.55065E-02
         0.10440E-02
         0.47717E-02
         0.33718E-02
        -0.19523E-02
         0.16420E-02
        -0.67398E-02
         0.16342E-02
         0.42825E-03
         0.78231E-03
        -0.11980E-02
        -0.66745E-02
         0.45430E-02
         0.11862E-02
         0.29547E-02
         0.25610E-02
        -0.11809E-02
         0.37116E-02
         0.70713E-02
         0.17000E-01
         0.15020E-01
         0.13198E-01
         0.96852E-02
        -0.23647E-02
        -0.49309E-02
        -0.61553E-02
        -0.79127E-02
        -0.16158E-01
        -0.94047E-02
        -0.62056E-02
        -0.77825E-02
        -0.91870E-02
        -0.95453E-02
        -0.68466E-03
         0.11877E-01
        -0.17039E-01
         0.39667E-01
         0.51235E-01
         0.66096E-01
         0.79257E-01
         0.77618E-01
         0.67815E-01
         0.65009E-01
         0.64303E-01
         0.40390E-01
         0.13341E-01
         0.53078E-02
         0.45767E-02
        -0.20548E-02
        -0.17900E-01
        -0.35851E-01
        -0.49855E-01
        -0.64836E-01
        -0.71882E-01
        -0.63127E-01
        -0.59689E-01
        -0.59469E-01
        -0.41816E-01
        -0.21697E-01
        -0.20531E-01
        -0.11139E-01
        -0.70130E-02
        -0.64979E-02
        -0.15837E-02
        -0.84265E-02
        -0.38003E-02
        -0.30191E-02
        -0.10572E-01
        -0.69363E-02
        -0.10022E-01
         0.52344E-02
         0.22591E-01
         0.13402E-01
         0.19240E-02
         0.22379E-01
         0.42149E-02
        -0.13244E-02
         0.12116E-02
         0.55107E-02
         0.10373E-02
         0.47840E-02
         0.33743E-02
        -0.19549E-02
         0.16397E-02
        -0.67675E-02
         0.16286E-02
         0.43423E-03
         0.78970E-03
        -0.11848E-02
        -0.66855E-02
         0.45430E-02
         0.11806E-02
         0.29612E-02
         0.25651E-02
        -0.11694E-02
         0.37141E-02
         0.70710E-02
         0.17027E-01
         0.15053E-01
         0.13215E-01
         0.96955E-02
        -0.23536E-02
        -0.49338E-02
        -0.61636E-02
        -0.79167E-02
        -0.16160E-01
        -0.94068E-02
        -0.62022E-02
        -0.77723E-02
        -0.91745E-02
        -0.95413E-02
        -0.67380E-03
         0.11866E-01
        -0.17040E-01
         0.39674E-01
         0.51235E-01
         0.66088E-01
         0.79230E-01
         0.77585E-01
         0.67795E-01
         0.64996E-01
         0.64285E-01
         0.40383E-01
         0.13350E-01
         0.53083E-02
         0.45857E-02
        -0.20374E-02
        -0.17911E-01
        -0.35873E-01
        -0.49870E-01
        -0.64835E-01
        -0.71878E-01
        -0.63122E-01
        -0.59687E-01
        -0.59454E-01
        -0.41786E-01
        -0.21673E-01
        -0.20504E-01
        -0.11145E-01
        -0.70139E-02
        -0.65011E-02
        -0.15952E-02
        -0.84275E-02
        -0.38033E-02
        -0.30224E-02
        -0.10588E-01
        -0.69488E-02
        -0.10057E-01
         0.52379E-02
         0.22589E-01
         0.13406E-01
         0.19244E-02
         0.22407E-01
         0.42154E-02
        -0.13368E-02
         0.12098E-02
         0.55149E-02
         0.10304E-02
         0.47962E-02
         0.33767E-02
        -0.19579E-02
         0.16372E-02
        -0.67945E-02
         0.16226E-02
         0.44066E-03
         0.79787E-03
        -0.11708E-02
        -0.66958E-02
         0.45428E-02
         0.11743E-02
         0.29678E-02
         0.25695E-02
        -0.11578E-02
         0.37168E-02
         0.70709E-02
         0.17053E-01
         0.15087E-01
         0.13233E-01
         0.97061E-02
        -0.23419E-02
        -0.49364E-02
        -0.61725E-02
        -0.79215E-02
        -0.16162E-01
        -0.94092E-02
        -0.61995E-02
        -0.77626E-02
        -0.91624E-02
        -0.95372E-02
        -0.66295E-03
         0.11855E-01
        -0.17041E-01
         0.39681E-01
         0.51236E-01
         0.66080E-01
         0.79203E-01
         0.77552E-01
         0.67774E-01
         0.64982E-01
         0.64267E-01
         0.40377E-01
         0.13360E-01
         0.53090E-02
         0.45947E-02
        -0.20200E-02
        -0.17923E-01
        -0.35896E-01
        -0.49886E-01
        -0.64834E-01
        -0.71873E-01
        -0.63118E-01
        -0.59685E-01
        -0.59439E-01
        -0.41756E-01
        -0.21649E-01
        -0.20476E-01
        -0.11151E-01
        -0.70137E-02
        -0.65043E-02
        -0.16071E-02
        -0.84285E-02
        -0.38064E-02
        -0.30250E-02
        -0.10604E-01
        -0.69616E-02
        -0.10090E-01
         0.52422E-02
         0.22588E-01
         0.13410E-01
         0.19259E-02
         0.22436E-01
         0.42162E-02
        -0.13494E-02
         0.12079E-02
         0.55192E-02
         0.10235E-02
         0.48086E-02
         0.33792E-02
        -0.19608E-02
         0.16347E-02
        -0.68210E-02
         0.16165E-02
         0.44823E-03
         0.80657E-03
        -0.11564E-02
        -0.67060E-02
         0.45424E-02
         0.11677E-02
         0.29746E-02
         0.25740E-02
        -0.11462E-02
         0.37196E-02
         0.70711E-02
         0.17080E-01
         0.15121E-01
         0.13251E-01
         0.97171E-02
        -0.23299E-02
        -0.49388E-02
        -0.61814E-02
        -0.79267E-02
        -0.16166E-01
        -0.94130E-02
        -0.61985E-02
        -0.77545E-02
        -0.91507E-02
        -0.95332E-02
        -0.65197E-03
         0.11844E-01
        -0.17042E-01
         0.39688E-01
         0.51236E-01
         0.66072E-01
         0.79176E-01
         0.77519E-01
         0.67754E-01
         0.64969E-01
         0.64249E-01
         0.40370E-01
         0.13370E-01
         0.53098E-02
         0.46038E-02
        -0.20026E-02
        -0.17934E-01
        -0.35919E-01
        -0.49901E-01
        -0.64833E-01
        -0.71868E-01
        -0.63115E-01
        -0.59683E-01
        -0.59423E-01
        -0.41726E-01
        -0.21625E-01
        -0.20449E-01
        -0.11157E-01
        -0.70132E-02
        -0.65074E-02
        -0.16191E-02
        -0.84297E-02
        -0.38095E-02
        -0.30271E-02
        -0.10618E-01
        -0.69745E-02
        -0.10123E-01
         0.52469E-02
         0.22587E-01
         0.13415E-01
         0.19276E-02
         0.22465E-01
         0.42170E-02
        -0.13623E-02
         0.12060E-02
         0.55235E-02
         0.10167E-02
         0.48209E-02
         0.33817E-02
        -0.19638E-02
         0.16323E-02
        -0.68471E-02
         0.16105E-02
         0.45611E-03
         0.81548E-03
        -0.11421E-02
        -0.67160E-02
         0.45419E-02
         0.11607E-02
         0.29815E-02
         0.25788E-02
        -0.11345E-02
         0.37227E-02
         0.70716E-02
         0.17108E-01
         0.15156E-01
         0.13270E-01
         0.97280E-02
        -0.23179E-02
        -0.49412E-02
        -0.61905E-02
        -0.79321E-02
        -0.16169E-01
        -0.94174E-02
        -0.61980E-02
        -0.77471E-02
        -0.91392E-02
        -0.95293E-02
        -0.64099E-03
         0.11832E-01
        -0.17043E-01
         0.39695E-01
         0.51237E-01
         0.66064E-01
         0.79149E-01
         0.77486E-01
         0.67733E-01
         0.64955E-01
         0.64231E-01
         0.40364E-01
         0.13380E-01
         0.53105E-02
         0.46130E-02
        -0.19851E-02
        -0.17946E-01
        -0.35941E-01
        -0.49916E-01
        -0.64831E-01
        -0.71864E-01
        -0.63112E-01
        -0.59682E-01
        -0.59408E-01
        -0.41696E-01
        -0.21602E-01
        -0.20422E-01
        -0.11163E-01
        -0.70128E-02
        -0.65105E-02
        -0.16310E-02
        -0.84307E-02
        -0.38125E-02
        -0.30291E-02
        -0.10632E-01
        -0.69875E-02
        -0.10155E-01
         0.52514E-02
         0.22586E-01
         0.13419E-01
         0.19296E-02
         0.22494E-01
         0.42178E-02
        -0.13752E-02
         0.12041E-02
         0.55277E-02
         0.10097E-02
         0.48332E-02
         0.33843E-02
        -0.19667E-02
         0.16300E-02
        -0.68732E-02
         0.16045E-02
         0.46418E-03
         0.82430E-03
        -0.11277E-02
        -0.67260E-02
         0.45414E-02
         0.11538E-02
         0.29884E-02
         0.25834E-02
        -0.11227E-02
         0.37255E-02
         0.70720E-02
         0.17135E-01
         0.15190E-01
         0.13287E-01
         0.97389E-02
        -0.23060E-02
        -0.49436E-02
        -0.61996E-02
        -0.79377E-02
        -0.16173E-01
        -0.94215E-02
        -0.61976E-02
        -0.77397E-02
        -0.91278E-02
        -0.95256E-02
        -0.62996E-03
         0.11821E-01
        -0.17044E-01
         0.39702E-01
         0.51237E-01
         0.66056E-01
         0.79122E-01
         0.77453E-01
         0.67713E-01
         0.64942E-01
         0.64212E-01
         0.40357E-01
         0.13390E-01
         0.53114E-02
         0.46224E-02
        -0.19677E-02
        -0.17958E-01
        -0.35964E-01
        -0.49931E-01
        -0.64829E-01
        -0.71859E-01
        -0.63109E-01
        -0.59681E-01
        -0.59392E-01
        -0.41666E-01
        -0.21578E-01
        -0.20395E-01
        -0.11168E-01
        -0.70122E-02
        -0.65136E-02
        -0.16430E-02
        -0.84318E-02
        -0.38155E-02
        -0.30312E-02
        -0.10647E-01
        -0.70005E-02
        -0.10188E-01
         0.52561E-02
         0.22585E-01
         0.13424E-01
         0.19312E-02
         0.22522E-01
         0.42186E-02
        -0.13882E-02
         0.12021E-02
         0.55319E-02
         0.10027E-02
         0.48455E-02
         0.33867E-02
        -0.19695E-02
         0.16276E-02
        -0.68993E-02
         0.15985E-02
         0.47203E-03
         0.83303E-03
        -0.11134E-02
        -0.67360E-02
         0.45408E-02
         0.11469E-02
         0.29952E-02
         0.25881E-02
        -0.11109E-02
         0.37286E-02
         0.70726E-02
         0.17162E-01
         0.15224E-01
         0.13306E-01
         0.97498E-02
        -0.22941E-02
        -0.49461E-02
        -0.62085E-02
        -0.79431E-02
        -0.16177E-01
        -0.94259E-02
        -0.61974E-02
        -0.77323E-02
        -0.91162E-02
        -0.95216E-02
        -0.61898E-03
         0.11810E-01
        -0.17045E-01
         0.39709E-01
         0.51237E-01
         0.66048E-01
         0.79095E-01
         0.77419E-01
         0.67692E-01
         0.64928E-01
         0.64194E-01
         0.40351E-01
         0.13399E-01
         0.53123E-02
         0.46317E-02
        -0.19503E-02
        -0.17969E-01
        -0.35987E-01
        -0.49946E-01
        -0.64827E-01
        -0.71854E-01
        -0.63106E-01
        -0.59679E-01
        -0.59376E-01
        -0.41637E-01
        -0.21555E-01
        -0.20368E-01
        -0.11174E-01
        -0.70116E-02
        -0.65167E-02
        -0.16549E-02
        -0.84328E-02
        -0.38185E-02
        -0.30334E-02
        -0.10661E-01
        -0.70134E-02
        -0.10220E-01
         0.52608E-02
         0.22583E-01
         0.13428E-01
         0.19331E-02
         0.22552E-01
         0.42194E-02
        -0.14012E-02
         0.12002E-02
         0.55361E-02
         0.99573E-03
         0.48578E-02
         0.33891E-02
        -0.19724E-02
         0.16252E-02
        -0.69253E-02
         0.15925E-02
         0.48002E-03
         0.84162E-03
        -0.10991E-02
        -0.67460E-02
         0.45403E-02
         0.11400E-02
         0.30021E-02
         0.25928E-02
        -0.10991E-02
         0.37316E-02
         0.70731E-02
         0.17190E-01
         0.15259E-01
         0.13323E-01
         0.97607E-02
        -0.22823E-02
        -0.49485E-02
        -0.62174E-02
        -0.79485E-02
        -0.16180E-01
        -0.94303E-02
        -0.61970E-02
        -0.77249E-02
        -0.91048E-02
        -0.95178E-02
        -0.60796E-03
         0.11799E-01
        -0.17046E-01
         0.39715E-01
         0.51238E-01
         0.66040E-01
         0.79067E-01
         0.77386E-01
         0.67671E-01
         0.64915E-01
         0.64176E-01
         0.40344E-01
         0.13409E-01
         0.53131E-02
         0.46408E-02
        -0.19329E-02
        -0.17981E-01
        -0.36010E-01
        -0.49961E-01
        -0.64825E-01
        -0.71849E-01
        -0.63103E-01
        -0.59678E-01
        -0.59361E-01
        -0.41607E-01
        -0.21531E-01
        -0.20341E-01
        -0.11179E-01
        -0.70111E-02
        -0.65198E-02
        -0.16669E-02
        -0.84339E-02
        -0.38215E-02
        -0.30354E-02
        -0.10675E-01
        -0.70265E-02
        -0.10252E-01
         0.52655E-02
         0.22582E-01
         0.13432E-01
         0.19350E-02
         0.22580E-01
         0.42203E-02
        -0.14142E-02
         0.11983E-02
         0.55403E-02
         0.98877E-03
         0.48702E-02
         0.33915E-02
        -0.19754E-02
         0.16229E-02
        -0.69512E-02
         0.15866E-02
         0.48784E-03
         0.85018E-03
        -0.10848E-02
        -0.67560E-02
         0.45398E-02
         0.11331E-02
         0.30090E-02
         0.25976E-02
        -0.10872E-02
         0.37346E-02
         0.70735E-02
         0.17217E-01
         0.15293E-01
         0.13341E-01
         0.97716E-02
        -0.22705E-02
        -0.49509E-02
        -0.62264E-02
        -0.79539E-02
        -0.16184E-01
        -0.94344E-02
        -0.61968E-02
        -0.77176E-02
        -0.90934E-02
        -0.95140E-02
        -0.59696E-03
         0.11787E-01
        -0.17047E-01
         0.39722E-01
         0.51238E-01
         0.66032E-01
         0.79040E-01
         0.77353E-01
         0.67651E-01
         0.64902E-01
         0.64157E-01
         0.40337E-01
         0.13419E-01
         0.53139E-02
         0.46500E-02
        -0.19154E-02
        -0.17993E-01
        -0.36033E-01
        -0.49976E-01
        -0.64824E-01
        -0.71845E-01
        -0.63100E-01
        -0.59677E-01
        -0.59345E-01
        -0.41577E-01
        -0.21508E-01
        -0.20314E-01
        -0.11185E-01
        -0.70105E-02
        -0.65229E-02
        -0.16790E-02
        -0.84350E-02
        -0.38246E-02
        -0.30375E-02
        -0.10689E-01
        -0.70395E-02
        -0.10285E-01
         0.52702E-02
         0.22581E-01
         0.13437E-01
         0.19366E-02
         0.22609E-01
         0.42210E-02
        -0.14272E-02
         0.11963E-02
         0.55445E-02
         0.98185E-03
         0.48825E-02
         0.33939E-02
        -0.19782E-02
         0.16206E-02
        -0.69772E-02
         0.15806E-02
         0.49588E-03
         0.85864E-03
        -0.10706E-02
        -0.67659E-02
         0.45393E-02
         0.11262E-02
         0.30158E-02
         0.26023E-02
        -0.10754E-02
         0.37376E-02
         0.70740E-02
         0.17245E-01
         0.15328E-01
         0.13359E-01
         0.97825E-02
        -0.22586E-02
        -0.49532E-02
        -0.62354E-02
        -0.79595E-02
        -0.16187E-01
        -0.94389E-02
        -0.61965E-02
        -0.77103E-02
        -0.90820E-02
        -0.95100E-02
        -0.58599E-03
         0.11776E-01
        -0.17047E-01
         0.39729E-01
         0.51238E-01
         0.66025E-01
         0.79013E-01
         0.77319E-01
         0.67630E-01
         0.64888E-01
         0.64138E-01
         0.40330E-01
         0.13428E-01
         0.53147E-02
         0.46593E-02
        -0.18979E-02
        -0.18004E-01
        -0.36055E-01
        -0.49991E-01
        -0.64822E-01
        -0.71840E-01
        -0.63097E-01
        -0.59675E-01
        -0.59329E-01
        -0.41547E-01
        -0.21484E-01
        -0.20287E-01
        -0.11191E-01
        -0.70101E-02
        -0.65260E-02
        -0.16910E-02
        -0.84361E-02
        -0.38276E-02
        -0.30398E-02
        -0.10704E-01
        -0.70525E-02
        -0.10317E-01
         0.52749E-02
         0.22580E-01
         0.13442E-01
         0.19385E-02
         0.22638E-01
         0.42218E-02
        -0.14403E-02
         0.11943E-02
         0.55487E-02
         0.97492E-03
         0.48948E-02
         0.33963E-02
        -0.19811E-02
         0.16183E-02
        -0.70031E-02
         0.15746E-02
         0.50370E-03
         0.86699E-03
        -0.10564E-02
        -0.67759E-02
         0.45387E-02
         0.11193E-02
         0.30226E-02
         0.26070E-02
        -0.10634E-02
         0.37406E-02
         0.70744E-02
         0.17273E-01
         0.15362E-01
         0.13377E-01
         0.97935E-02
        -0.22467E-02
        -0.49556E-02
        -0.62443E-02
        -0.79650E-02
        -0.16191E-01
        -0.94433E-02
        -0.61961E-02
        -0.77028E-02
        -0.90706E-02
        -0.95063E-02
        -0.57508E-03
         0.11765E-01
        -0.17048E-01
         0.39736E-01
         0.51239E-01
         0.66017E-01
         0.78986E-01
         0.77285E-01
         0.67609E-01
         0.64875E-01
         0.64119E-01
         0.40324E-01
         0.13438E-01
         0.53155E-02
         0.46685E-02
        -0.18805E-02
        -0.18016E-01
        -0.36078E-01
        -0.50006E-01
        -0.64820E-01
        -0.71835E-01
        -0.63094E-01
        -0.59674E-01
        -0.59313E-01
        -0.41517E-01
        -0.21461E-01
        -0.20260E-01
        -0.11196E-01
        -0.70096E-02
        -0.65291E-02
        -0.17030E-02
        -0.84371E-02
        -0.38306E-02
        -0.30419E-02
        -0.10718E-01
        -0.70656E-02
        -0.10349E-01
         0.52796E-02
         0.22579E-01
         0.13446E-01
         0.19401E-02
         0.22667E-01
         0.42226E-02
        -0.14534E-02
         0.11924E-02
         0.55529E-02
         0.96793E-03
         0.49071E-02
         0.33987E-02
        -0.19840E-02
         0.16161E-02
        -0.70291E-02
         0.15687E-02
         0.51167E-03
         0.87519E-03
        -0.10423E-02
        -0.67858E-02
         0.45382E-02
         0.11123E-02
         0.30295E-02
         0.26117E-02
        -0.10515E-02
         0.37437E-02
         0.70749E-02
         0.17300E-01
         0.15397E-01
         0.13395E-01
         0.98044E-02
        -0.22348E-02
        -0.49581E-02
        -0.62533E-02
        -0.79705E-02
        -0.16195E-01
        -0.94475E-02
        -0.61960E-02
        -0.76955E-02
        -0.90591E-02
        -0.95025E-02
        -0.56410E-03
         0.11754E-01
        -0.17049E-01
         0.39742E-01
         0.51239E-01
         0.66009E-01
         0.78959E-01
         0.77252E-01
         0.67588E-01
         0.64862E-01
         0.64100E-01
         0.40317E-01
         0.13448E-01
         0.53163E-02
         0.46778E-02
        -0.18631E-02
        -0.18027E-01
        -0.36101E-01
        -0.50021E-01
        -0.64819E-01
        -0.71831E-01
        -0.63091E-01
        -0.59672E-01
        -0.59297E-01
        -0.41487E-01
        -0.21438E-01
        -0.20232E-01
        -0.11202E-01
        -0.70089E-02
        -0.65322E-02
        -0.17150E-02
        -0.84382E-02
        -0.38336E-02
        -0.30440E-02
        -0.10732E-01
        -0.70787E-02
        -0.10381E-01
         0.52843E-02
         0.22578E-01
         0.13451E-01
         0.19419E-02
         0.22696E-01
         0.42235E-02
        -0.14666E-02
         0.11904E-02
         0.55572E-02
         0.96097E-03
         0.49195E-02
         0.34010E-02
        -0.19868E-02
         0.16138E-02
        -0.70550E-02
         0.15627E-02
         0.51942E-03
         0.88330E-03
        -0.10282E-02
        -0.67958E-02
         0.45376E-02
         0.11054E-02
         0.30363E-02
         0.26165E-02
        -0.10395E-02
         0.37466E-02
         0.70753E-02
         0.17328E-01
         0.15431E-01
         0.13413E-01
         0.98152E-02
        -0.22230E-02
        -0.49605E-02
        -0.62621E-02
        -0.79761E-02
        -0.16199E-01
        -0.94519E-02
        -0.61956E-02
        -0.76882E-02
        -0.90477E-02
        -0.94985E-02
        -0.55312E-03
         0.11742E-01
        -0.17050E-01
         0.39749E-01
         0.51240E-01
         0.66001E-01
         0.78932E-01
         0.77218E-01
         0.67567E-01
         0.64849E-01
         0.64081E-01
         0.40311E-01
         0.13457E-01
         0.53170E-02
         0.46869E-02
        -0.18457E-02
        -0.18039E-01
        -0.36124E-01
        -0.50036E-01
        -0.64817E-01
        -0.71826E-01
        -0.63089E-01
        -0.59671E-01
        -0.59281E-01
        -0.41457E-01
        -0.21415E-01
        -0.20205E-01
        -0.11207E-01
        -0.70083E-02
        -0.65353E-02
        -0.17270E-02
        -0.84393E-02
        -0.38366E-02
        -0.30462E-02
        -0.10746E-01
        -0.70918E-02
        -0.10413E-01
         0.52891E-02
         0.22577E-01
         0.13455E-01
         0.19434E-02
         0.22725E-01
         0.42243E-02
        -0.14799E-02
         0.11884E-02
         0.55614E-02
         0.95410E-03
         0.49318E-02
         0.34031E-02
        -0.19897E-02
         0.16116E-02
        -0.70809E-02
         0.15566E-02
         0.52739E-03
         0.89131E-03
        -0.10141E-02
        -0.68055E-02
         0.45370E-02
         0.10985E-02
         0.30431E-02
         0.26213E-02
        -0.10275E-02
         0.37496E-02
         0.70757E-02
         0.17356E-01
         0.15466E-01
         0.13430E-01
         0.98261E-02
        -0.22113E-02
        -0.49630E-02
        -0.62711E-02
        -0.79816E-02
        -0.16202E-01
        -0.94563E-02
        -0.61955E-02
        -0.76809E-02
        -0.90362E-02
        -0.94947E-02
        -0.54223E-03
         0.11731E-01
        -0.17050E-01
         0.39755E-01
         0.51240E-01
         0.65993E-01
         0.78904E-01
         0.77184E-01
         0.67546E-01
         0.64835E-01
         0.64062E-01
         0.40304E-01
         0.13467E-01
         0.53176E-02
         0.46959E-02
        -0.18283E-02
        -0.18050E-01
        -0.36147E-01
        -0.50050E-01
        -0.64815E-01
        -0.71821E-01
        -0.63086E-01
        -0.59670E-01
        -0.59265E-01
        -0.41427E-01
        -0.21392E-01
        -0.20178E-01
        -0.11213E-01
        -0.70078E-02
        -0.65384E-02
        -0.17391E-02
        -0.84403E-02
        -0.38396E-02
        -0.30484E-02
        -0.10760E-01
        -0.71051E-02
        -0.10445E-01
         0.52938E-02
         0.22576E-01
         0.13460E-01
         0.19451E-02
         0.22754E-01
         0.42251E-02
        -0.14933E-02
         0.11864E-02
         0.55656E-02
         0.94753E-03
         0.49440E-02
         0.34053E-02
        -0.19926E-02
         0.16093E-02
        -0.71068E-02
         0.15507E-02
         0.53527E-03
         0.89927E-03
        -0.10000E-02
        -0.68146E-02
         0.45365E-02
         0.10915E-02
         0.30498E-02
         0.26261E-02
        -0.10154E-02
         0.37527E-02
         0.70762E-02
         0.17384E-01
         0.15500E-01
         0.13447E-01
         0.98368E-02
        -0.21994E-02
        -0.49655E-02
        -0.62800E-02
        -0.79872E-02
        -0.16206E-01
        -0.94605E-02
        -0.61952E-02
        -0.76735E-02
        -0.90248E-02
        -0.94911E-02
        -0.53132E-03
         0.11720E-01
        -0.17051E-01
         0.39762E-01
         0.51240E-01
         0.65985E-01
         0.78877E-01
         0.77150E-01
         0.67526E-01
         0.64822E-01
         0.64041E-01
         0.40299E-01
         0.13477E-01
         0.53179E-02
         0.47050E-02
        -0.18110E-02
        -0.18062E-01
        -0.36170E-01
        -0.50065E-01
        -0.64813E-01
        -0.71817E-01
        -0.63083E-01
        -0.59668E-01
        -0.59249E-01
        -0.41397E-01
        -0.21369E-01
        -0.20151E-01
        -0.11218E-01
        -0.70073E-02
        -0.65415E-02
        -0.17512E-02
        -0.84414E-02
        -0.38425E-02
        -0.30505E-02
        -0.10774E-01
        -0.71184E-02
        -0.10477E-01
         0.52985E-02
         0.22575E-01
         0.13464E-01
         0.19468E-02
         0.22783E-01
         0.42259E-02
        -0.15069E-02
         0.11844E-02
         0.55698E-02
         0.94125E-03
         0.49563E-02
         0.34074E-02
        -0.19955E-02
         0.16071E-02
        -0.71328E-02
         0.15447E-02
         0.54350E-03
         0.90714E-03
        -0.98599E-03
        -0.68232E-02
         0.45358E-02
         0.10845E-02
         0.30566E-02
         0.26308E-02
        -0.10033E-02
         0.37556E-02
         0.70766E-02
         0.17413E-01
         0.15534E-01
         0.13463E-01
         0.98473E-02
        -0.21876E-02
        -0.49683E-02
        -0.62889E-02
        -0.79928E-02
        -0.16210E-01
        -0.94650E-02
        -0.61948E-02
        -0.76662E-02
        -0.90132E-02
        -0.94871E-02
        -0.52034E-03
         0.11708E-01
        -0.17052E-01
         0.39768E-01
         0.51241E-01
         0.65977E-01
         0.78850E-01
         0.77116E-01
         0.67505E-01
         0.64808E-01
         0.64020E-01
         0.40294E-01
         0.13487E-01
         0.53177E-02
         0.47141E-02
        -0.17935E-02
        -0.18073E-01
        -0.36193E-01
        -0.50080E-01
        -0.64812E-01
        -0.71812E-01
        -0.63080E-01
        -0.59667E-01
        -0.59233E-01
        -0.41368E-01
        -0.21346E-01
        -0.20124E-01
        -0.11224E-01
        -0.70068E-02
        -0.65448E-02
        -0.17632E-02
        -0.84426E-02
        -0.38455E-02
        -0.30528E-02
        -0.10788E-01
        -0.71319E-02
        -0.10509E-01
         0.53032E-02
         0.22574E-01
         0.13469E-01
         0.19483E-02
         0.22812E-01
         0.42267E-02
        -0.15206E-02
         0.11824E-02
         0.55741E-02
         0.93513E-03
         0.49687E-02
         0.34094E-02
        -0.19982E-02
         0.16050E-02
        -0.71587E-02
         0.15389E-02
         0.55151E-03
         0.91469E-03
        -0.97214E-03
        -0.68316E-02
         0.45353E-02
         0.10777E-02
         0.30633E-02
         0.26357E-02
        -0.99127E-03
         0.37586E-02
         0.70768E-02
         0.17441E-01
         0.15568E-01
         0.13478E-01
         0.98576E-02
        -0.21759E-02
        -0.49711E-02
        -0.62976E-02
        -0.79982E-02
        -0.16214E-01
        -0.94693E-02
        -0.61946E-02
        -0.76589E-02
        -0.90018E-02
        -0.94834E-02
        -0.50943E-03
         0.11697E-01
        -0.17052E-01
         0.39774E-01
         0.51241E-01
         0.65969E-01
         0.78822E-01
         0.77082E-01
         0.67484E-01
         0.64794E-01
         0.63998E-01
         0.40289E-01
         0.13497E-01
         0.53171E-02
         0.47231E-02
        -0.17761E-02
        -0.18085E-01
        -0.36215E-01
        -0.50095E-01
        -0.64810E-01
        -0.71807E-01
        -0.63077E-01
        -0.59665E-01
        -0.59217E-01
        -0.41338E-01
        -0.21324E-01
        -0.20097E-01
        -0.11270E-01
        -0.70330E-02
        -0.65730E-02
        -0.17813E-02
        -0.84743E-02
        -0.38621E-02
        -0.30667E-02
        -0.10839E-01
        -0.71707E-02
        -0.10576E-01
         0.53265E-02
         0.22648E-01
         0.13518E-01
         0.19567E-02
         0.22918E-01
         0.42434E-02
        -0.15391E-02
         0.11848E-02
         0.55982E-02
         0.93305E-03
         0.49971E-02
         0.34232E-02
        -0.20060E-02
         0.16099E-02
        -0.72093E-02
         0.15406E-02
         0.56082E-03
         0.92374E-03
        -0.96438E-03
        -0.68653E-02
         0.45523E-02
         0.10769E-02
         0.30811E-02
         0.26501E-02
        -0.98384E-03
         0.37731E-02
         0.71004E-02
         0.17528E-01
         0.15655E-01
         0.13541E-01
         0.99011E-02
        -0.21747E-02
        -0.49926E-02
        -0.63247E-02
        -0.80283E-02
        -0.16268E-01
        -0.95036E-02
        -0.62139E-02
        -0.76780E-02
        -0.90223E-02
        -0.95123E-02
        -0.50042E-03
         0.11720E-01
        -0.17107E-01
         0.39901E-01
         0.51397E-01
         0.66166E-01
         0.79047E-01
         0.77300E-01
         0.67686E-01
         0.64993E-01
         0.64189E-01
         0.40415E-01
         0.13546E-01
         0.53314E-02
         0.47455E-02
        -0.17647E-02
        -0.18145E-01
        -0.36337E-01
        -0.50255E-01
        -0.65008E-01
        -0.72023E-01
        -0.63262E-01
        -0.59840E-01
        -0.59378E-01
        -0.41435E-01
        -0.21366E-01
        -0.20131E-01
        -0.16751E-01
        -0.10495E-01
        -0.97541E-02
        -0.26668E-02
        -0.12135E-01
        -0.55865E-02
        -0.45665E-02
        -0.16036E-01
        -0.10642E-01
        -0.15616E-01
         0.77938E-02
         0.31821E-01
         0.19287E-01
         0.28513E-02
         0.32385E-01
         0.63143E-02
        -0.22972E-02
         0.17619E-02
         0.82183E-02
         0.13692E-02
         0.71380E-02
         0.49459E-02
        -0.28673E-02
         0.23810E-02
        -0.10751E-01
         0.22970E-02
         0.83084E-03
         0.13778E-02
        -0.14314E-02
        -0.10218E-01
         0.67742E-02
         0.15968E-02
         0.46007E-02
         0.39512E-02
        -0.13635E-02
         0.54478E-02
         0.10252E-01
         0.25320E-01
         0.22942E-01
         0.19912E-01
         0.14359E-01
        -0.31713E-02
        -0.72957E-02
        -0.91122E-02
        -0.11525E-01
        -0.22681E-01
        -0.13596E-01
        -0.89975E-02
        -0.11174E-01
        -0.13070E-01
        -0.13452E-01
        -0.70998E-03
         0.14566E-01
        -0.21255E-01
         0.49577E-01
         0.64045E-01
         0.82381E-01
         0.98641E-01
         0.97529E-01
         0.86123E-01
         0.82544E-01
         0.81035E-01
         0.51090E-01
         0.17098E-01
         0.68017E-02
         0.60839E-02
        -0.22167E-02
        -0.22681E-01
        -0.45285E-01
        -0.62267E-01
        -0.80470E-01
        -0.89257E-01
        -0.79231E-01
        -0.75284E-01
        -0.74422E-01
        -0.52102E-01
        -0.26779E-01
        -0.25137E-01
  
SCALARS                      strain_xz  double 1
LOOKUP_TABLE default
        -0.25921E-04
         0.81985E-04
         0.48136E-03
        -0.59544E-04
        -0.18474E-09
         0.65503E-10
         0.21903E-09
         0.43744E-10
         0.74468E-03
         0.70152E-03
         0.65513E-09
         0.59010E-09
         0.23321E-04
        -0.10348E-03
        -0.80800E-10
        -0.37851E-09
         0.81305E-04
        -0.87495E-04
        -0.27341E-09
        -0.40720E-09
        -0.36542E-03
        -0.91356E-03
        -0.40832E-03
        -0.27191E-09
        -0.12538E-09
         0.21905E-09
        -0.95514E-03
        -0.11380E-02
        -0.50898E-09
        -0.40375E-09
        -0.18583E-03
         0.18136E-03
        -0.61762E-04
         0.51820E-10
        -0.20026E-09
        -0.12337E-09
        -0.37156E-03
         0.58749E-05
        -0.29732E-09
        -0.31656E-09
        -0.43469E-03
         0.20671E-03
        -0.67066E-09
        -0.49458E-09
        -0.10106E-02
        -0.66881E-03
        -0.73650E-09
        -0.35449E-09
        -0.18410E-03
        -0.22252E-09
        -0.82554E-03
        -0.61940E-10
        -0.39503E-03
        -0.43480E-09
         0.33344E-03
        -0.11502E-09
         0.14540E-02
         0.23317E-03
        -0.98527E-10
        -0.23815E-09
         0.19611E-04
        -0.42265E-03
         0.19706E-09
         0.13514E-09
         0.16007E-03
        -0.19822E-10
         0.41214E-03
         0.13038E-09
         0.66410E-03
         0.30066E-03
         0.81491E-09
         0.59103E-09
        -0.10476E-04
         0.43035E-09
         0.52211E-03
        -0.29770E-09
         0.17120E-02
        -0.58427E-10
         0.35402E-02
        -0.90646E-10
         0.40435E-02
         0.24174E-02
        -0.33220E-09
        -0.37992E-09
         0.12849E-02
        -0.40859E-09
        -0.12121E-02
        -0.58827E-09
        -0.53060E-03
        -0.37521E-09
        -0.55663E-03
        -0.28442E-03
        -0.16014E-09
         0.21961E-09
         0.96731E-04
         0.25759E-09
         0.32963E-03
         0.10816E-09
         0.65616E-03
         0.26709E-09
         0.91350E-03
         0.76144E-03
         0.61584E-09
         0.64263E-09
        -0.33116E-03
         0.11214E-02
         0.11379E-08
         0.11214E-08
        -0.51201E-03
         0.97213E-09
         0.93004E-03
         0.72649E-09
        -0.30095E-03
         0.39924E-09
        -0.16979E-02
         0.42692E-10
        -0.11332E-02
        -0.15205E-09
         0.18394E-02
        -0.12165E-09
         0.44819E-02
        -0.11957E-09
         0.66229E-02
        -0.26964E-09
         0.69588E-02
        -0.51299E-09
         0.37167E-02
        -0.61217E-09
        -0.18414E-02
        -0.57759E-09
        -0.50528E-02
        -0.62809E-09
        -0.77276E-02
        -0.81516E-09
        -0.88434E-02
        -0.96124E-09
        -0.77616E-02
        -0.89357E-09
        -0.29183E-02
        -0.72621E-09
        -0.42512E-03
        -0.34283E-09
        -0.35496E-05
         0.65465E-10
         0.40485E-03
         0.15894E-09
         0.92806E-03
         0.25990E-09
         0.58311E-03
         0.50864E-09
         0.74031E-03
         0.83464E-09
         0.20329E-02
         0.10028E-08
         0.39297E-02
         0.10257E-08
        -0.22037E-02
         0.11554E-02
         0.13542E-02
        -0.27015E-02
         0.10632E-01
         0.81596E-02
         0.12438E-02
        -0.18182E-02
        -0.92702E-03
        -0.16621E-02
         0.92497E-03
         0.40115E-02
         0.83471E-02
        -0.26689E-02
        -0.32196E-02
         0.35969E-02
         0.30238E-02
        -0.13949E-02
        -0.22003E-02
        -0.23613E-02
        -0.12953E-01
        -0.13762E-01
        -0.12479E-01
        -0.38737E-02
         0.15471E-02
        -0.11532E-02
        -0.37291E-02
        -0.41790E-03
        -0.42953E-02
        -0.29331E-02
         0.32141E-02
         0.63644E-03
        -0.15147E-02
        -0.49270E-03
         0.15866E-01
         0.10056E-01
         0.90769E-02
        -0.63741E-02
        -0.36321E-02
        -0.78056E-02
        -0.16114E-01
        -0.14899E-01
        -0.14580E-01
        -0.10731E-01
        -0.77330E-02
        -0.60948E-02
         0.11374E-02
         0.47156E-02
         0.13644E-02
         0.43504E-02
         0.11685E-01
         0.97692E-02
         0.46889E-01
         0.49001E-01
         0.43841E-01
         0.37260E-01
         0.27760E-01
         0.14183E-01
        -0.84350E-03
        -0.10130E-01
        -0.15428E-01
        -0.26497E-01
        -0.43227E-01
        -0.52264E-01
        -0.47716E-01
        -0.45701E-01
        -0.48190E-01
        -0.48111E-01
        -0.43717E-01
        -0.38387E-01
        -0.19592E-01
         0.30925E-02
         0.11853E-01
         0.13210E-01
         0.22381E-01
         0.35824E-01
         0.46308E-01
         0.48606E-01
        -0.37728E-02
         0.77448E-03
        -0.14744E-02
        -0.42931E-02
         0.88062E-02
         0.75256E-02
         0.21926E-02
        -0.47864E-02
        -0.21993E-02
        -0.45504E-02
        -0.91926E-03
         0.33538E-02
         0.11033E-01
        -0.84613E-02
        -0.87639E-02
         0.74122E-02
         0.41264E-02
        -0.24715E-02
        -0.16633E-02
        -0.29210E-02
        -0.17331E-01
        -0.16517E-01
        -0.16299E-01
        -0.39423E-02
         0.22392E-02
         0.15077E-02
        -0.81763E-02
         0.10856E-02
        -0.27364E-02
        -0.37315E-02
         0.56947E-02
         0.36850E-02
        -0.36935E-02
        -0.31877E-02
         0.15705E-01
         0.86680E-02
         0.99428E-02
        -0.97189E-02
        -0.16272E-02
        -0.47178E-02
        -0.17332E-01
        -0.17829E-01
        -0.17427E-01
        -0.12601E-01
        -0.97038E-02
        -0.56777E-02
         0.61363E-02
         0.72443E-02
        -0.95761E-03
         0.11530E-02
         0.11818E-01
         0.10411E-01
         0.65632E-01
         0.66139E-01
         0.59369E-01
         0.48967E-01
         0.36535E-01
         0.16825E-01
        -0.41776E-02
        -0.13538E-01
        -0.17834E-01
        -0.32689E-01
        -0.58065E-01
        -0.68499E-01
        -0.57450E-01
        -0.54658E-01
        -0.60214E-01
        -0.62009E-01
        -0.56595E-01
        -0.53530E-01
        -0.27275E-01
         0.70889E-02
         0.15680E-01
         0.15886E-01
         0.28243E-01
         0.48902E-01
         0.62592E-01
         0.62395E-01
        -0.37799E-02
         0.77735E-03
        -0.14772E-02
        -0.42960E-02
         0.87977E-02
         0.75186E-02
         0.22065E-02
        -0.47743E-02
        -0.22017E-02
        -0.45468E-02
        -0.90066E-03
         0.33620E-02
         0.11040E-01
        -0.84404E-02
        -0.87592E-02
         0.74199E-02
         0.41355E-02
        -0.24647E-02
        -0.16624E-02
        -0.29158E-02
        -0.17329E-01
        -0.16515E-01
        -0.16298E-01
        -0.39425E-02
         0.22442E-02
         0.15102E-02
        -0.81788E-02
         0.10652E-02
        -0.27556E-02
        -0.37339E-02
         0.57030E-02
         0.36845E-02
        -0.36781E-02
        -0.31891E-02
         0.15713E-01
         0.86640E-02
         0.99396E-02
        -0.97345E-02
        -0.16428E-02
        -0.47326E-02
        -0.17343E-01
        -0.17839E-01
        -0.17428E-01
        -0.12599E-01
        -0.97003E-02
        -0.56748E-02
         0.61351E-02
         0.72467E-02
        -0.95062E-03
         0.11491E-02
         0.11811E-01
         0.10395E-01
         0.65609E-01
         0.66121E-01
         0.59363E-01
         0.48967E-01
         0.36523E-01
         0.16820E-01
        -0.41824E-02
        -0.13546E-01
        -0.17819E-01
        -0.32676E-01
        -0.58056E-01
        -0.68501E-01
        -0.57445E-01
        -0.54655E-01
        -0.60221E-01
        -0.62022E-01
        -0.56605E-01
        -0.53540E-01
        -0.27267E-01
         0.70921E-02
         0.15668E-01
         0.15880E-01
         0.28222E-01
         0.48872E-01
         0.62561E-01
         0.62367E-01
        -0.37871E-02
         0.78018E-03
        -0.14800E-02
        -0.42989E-02
         0.87890E-02
         0.75118E-02
         0.22205E-02
        -0.47621E-02
        -0.22039E-02
        -0.45429E-02
        -0.88209E-03
         0.33701E-02
         0.11047E-01
        -0.84196E-02
        -0.87545E-02
         0.74278E-02
         0.41447E-02
        -0.24578E-02
        -0.16616E-02
        -0.29109E-02
        -0.17328E-01
        -0.16513E-01
        -0.16297E-01
        -0.39427E-02
         0.22496E-02
         0.15129E-02
        -0.81812E-02
         0.10451E-02
        -0.27750E-02
        -0.37363E-02
         0.57115E-02
         0.36842E-02
        -0.36626E-02
        -0.31906E-02
         0.15721E-01
         0.86603E-02
         0.99363E-02
        -0.97500E-02
        -0.16584E-02
        -0.47476E-02
        -0.17354E-01
        -0.17850E-01
        -0.17429E-01
        -0.12598E-01
        -0.96969E-02
        -0.56720E-02
         0.61340E-02
         0.72491E-02
        -0.94345E-03
         0.11450E-02
         0.11803E-01
         0.10380E-01
         0.65587E-01
         0.66104E-01
         0.59358E-01
         0.48967E-01
         0.36512E-01
         0.16815E-01
        -0.41872E-02
        -0.13554E-01
        -0.17804E-01
        -0.32664E-01
        -0.58047E-01
        -0.68502E-01
        -0.57440E-01
        -0.54652E-01
        -0.60229E-01
        -0.62037E-01
        -0.56615E-01
        -0.53551E-01
        -0.27260E-01
         0.70954E-02
         0.15657E-01
         0.15874E-01
         0.28202E-01
         0.48842E-01
         0.62530E-01
         0.62339E-01
        -0.37943E-02
         0.78311E-03
        -0.14827E-02
        -0.43017E-02
         0.87803E-02
         0.75049E-02
         0.22344E-02
        -0.47500E-02
        -0.22059E-02
        -0.45385E-02
        -0.86357E-03
         0.33784E-02
         0.11053E-01
        -0.83988E-02
        -0.87498E-02
         0.74364E-02
         0.41543E-02
        -0.24508E-02
        -0.16609E-02
        -0.29057E-02
        -0.17327E-01
        -0.16512E-01
        -0.16297E-01
        -0.39430E-02
         0.22560E-02
         0.15163E-02
        -0.81831E-02
         0.10255E-02
        -0.27943E-02
        -0.37385E-02
         0.57207E-02
         0.36846E-02
        -0.36471E-02
        -0.31920E-02
         0.15728E-01
         0.86564E-02
         0.99331E-02
        -0.97655E-02
        -0.16739E-02
        -0.47625E-02
        -0.17365E-01
        -0.17861E-01
        -0.17432E-01
        -0.12596E-01
        -0.96932E-02
        -0.56690E-02
         0.61331E-02
         0.72516E-02
        -0.93627E-03
         0.11409E-02
         0.11796E-01
         0.10365E-01
         0.65565E-01
         0.66087E-01
         0.59353E-01
         0.48968E-01
         0.36501E-01
         0.16810E-01
        -0.41920E-02
        -0.13563E-01
        -0.17789E-01
        -0.32650E-01
        -0.58038E-01
        -0.68504E-01
        -0.57436E-01
        -0.54650E-01
        -0.60238E-01
        -0.62053E-01
        -0.56627E-01
        -0.53561E-01
        -0.27252E-01
         0.70986E-02
         0.15646E-01
         0.15868E-01
         0.28181E-01
         0.48812E-01
         0.62499E-01
         0.62312E-01
        -0.38013E-02
         0.78604E-03
        -0.14855E-02
        -0.43045E-02
         0.87719E-02
         0.74980E-02
         0.22484E-02
        -0.47377E-02
        -0.22076E-02
        -0.45333E-02
        -0.84501E-03
         0.33866E-02
         0.11060E-01
        -0.83779E-02
        -0.87451E-02
         0.74456E-02
         0.41644E-02
        -0.24439E-02
        -0.16600E-02
        -0.29004E-02
        -0.17327E-01
        -0.16511E-01
        -0.16298E-01
        -0.39432E-02
         0.22634E-02
         0.15201E-02
        -0.81848E-02
         0.10066E-02
        -0.28135E-02
        -0.37405E-02
         0.57305E-02
         0.36855E-02
        -0.36315E-02
        -0.31934E-02
         0.15736E-01
         0.86525E-02
         0.99300E-02
        -0.97810E-02
        -0.16894E-02
        -0.47776E-02
        -0.17377E-01
        -0.17873E-01
        -0.17435E-01
        -0.12596E-01
        -0.96892E-02
        -0.56657E-02
         0.61324E-02
         0.72543E-02
        -0.92914E-03
         0.11369E-02
         0.11788E-01
         0.10349E-01
         0.65542E-01
         0.66070E-01
         0.59347E-01
         0.48968E-01
         0.36490E-01
         0.16805E-01
        -0.41967E-02
        -0.13571E-01
        -0.17774E-01
        -0.32637E-01
        -0.58029E-01
        -0.68507E-01
        -0.57433E-01
        -0.54648E-01
        -0.60248E-01
        -0.62071E-01
        -0.56639E-01
        -0.53571E-01
        -0.27244E-01
         0.71018E-02
         0.15634E-01
         0.15861E-01
         0.28160E-01
         0.48782E-01
         0.62468E-01
         0.62284E-01
        -0.38081E-02
         0.78921E-03
        -0.14879E-02
        -0.43073E-02
         0.87633E-02
         0.74910E-02
         0.22624E-02
        -0.47252E-02
        -0.22093E-02
        -0.45280E-02
        -0.82644E-03
         0.33948E-02
         0.11067E-01
        -0.83570E-02
        -0.87403E-02
         0.74550E-02
         0.41744E-02
        -0.24369E-02
        -0.16591E-02
        -0.28954E-02
        -0.17326E-01
        -0.16511E-01
        -0.16299E-01
        -0.39435E-02
         0.22708E-02
         0.15241E-02
        -0.81864E-02
         0.98784E-03
        -0.28328E-02
        -0.37429E-02
         0.57403E-02
         0.36863E-02
        -0.36157E-02
        -0.31947E-02
         0.15745E-01
         0.86490E-02
         0.99271E-02
        -0.97964E-02
        -0.17049E-02
        -0.47926E-02
        -0.17389E-01
        -0.17885E-01
        -0.17439E-01
        -0.12595E-01
        -0.96857E-02
        -0.56629E-02
         0.61315E-02
         0.72569E-02
        -0.92180E-03
         0.11332E-02
         0.11781E-01
         0.10334E-01
         0.65519E-01
         0.66053E-01
         0.59342E-01
         0.48968E-01
         0.36478E-01
         0.16800E-01
        -0.42013E-02
        -0.13580E-01
        -0.17759E-01
        -0.32624E-01
        -0.58020E-01
        -0.68510E-01
        -0.57431E-01
        -0.54646E-01
        -0.60257E-01
        -0.62090E-01
        -0.56652E-01
        -0.53581E-01
        -0.27237E-01
         0.71047E-02
         0.15622E-01
         0.15855E-01
         0.28140E-01
         0.48752E-01
         0.62437E-01
         0.62256E-01
        -0.38144E-02
         0.79302E-03
        -0.14898E-02
        -0.43099E-02
         0.87549E-02
         0.74843E-02
         0.22767E-02
        -0.47124E-02
        -0.22110E-02
        -0.45229E-02
        -0.80777E-03
         0.34030E-02
         0.11074E-01
        -0.83361E-02
        -0.87355E-02
         0.74644E-02
         0.41841E-02
        -0.24299E-02
        -0.16583E-02
        -0.28905E-02
        -0.17326E-01
        -0.16510E-01
        -0.16301E-01
        -0.39440E-02
         0.22774E-02
         0.15276E-02
        -0.81881E-02
         0.96861E-03
        -0.28523E-02
        -0.37457E-02
         0.57495E-02
         0.36864E-02
        -0.35996E-02
        -0.31956E-02
         0.15753E-01
         0.86458E-02
         0.99244E-02
        -0.98118E-02
        -0.17205E-02
        -0.48080E-02
        -0.17401E-01
        -0.17898E-01
        -0.17443E-01
        -0.12595E-01
        -0.96826E-02
        -0.56603E-02
         0.61302E-02
         0.72594E-02
        -0.91383E-03
         0.11304E-02
         0.11775E-01
         0.10319E-01
         0.65497E-01
         0.66036E-01
         0.59336E-01
         0.48968E-01
         0.36467E-01
         0.16795E-01
        -0.42060E-02
        -0.13588E-01
        -0.17744E-01
        -0.32612E-01
        -0.58010E-01
        -0.68512E-01
        -0.57429E-01
        -0.54644E-01
        -0.60267E-01
        -0.62109E-01
        -0.56665E-01
        -0.53590E-01
        -0.27229E-01
         0.71071E-02
         0.15610E-01
         0.15849E-01
         0.28119E-01
         0.48723E-01
         0.62406E-01
         0.62228E-01
        -0.38204E-02
         0.79703E-03
        -0.14914E-02
        -0.43125E-02
         0.87469E-02
         0.74773E-02
         0.22911E-02
        -0.46996E-02
        -0.22128E-02
        -0.45181E-02
        -0.78906E-03
         0.34112E-02
         0.11081E-01
        -0.83152E-02
        -0.87306E-02
         0.74737E-02
         0.41936E-02
        -0.24228E-02
        -0.16574E-02
        -0.28859E-02
        -0.17326E-01
        -0.16510E-01
        -0.16302E-01
        -0.39444E-02
         0.22835E-02
         0.15308E-02
        -0.81899E-02
         0.94927E-03
        -0.28722E-02
        -0.37487E-02
         0.57585E-02
         0.36862E-02
        -0.35833E-02
        -0.31963E-02
         0.15761E-01
         0.86430E-02
         0.99221E-02
        -0.98271E-02
        -0.17361E-02
        -0.48233E-02
        -0.17413E-01
        -0.17910E-01
        -0.17447E-01
        -0.12595E-01
        -0.96796E-02
        -0.56582E-02
         0.61286E-02
         0.72616E-02
        -0.90561E-03
         0.11279E-02
         0.11768E-01
         0.10305E-01
         0.65474E-01
         0.66020E-01
         0.59331E-01
         0.48969E-01
         0.36456E-01
         0.16790E-01
        -0.42106E-02
        -0.13596E-01
        -0.17729E-01
        -0.32599E-01
        -0.58000E-01
        -0.68515E-01
        -0.57427E-01
        -0.54642E-01
        -0.60277E-01
        -0.62128E-01
        -0.56678E-01
        -0.53600E-01
        -0.27221E-01
         0.71094E-02
         0.15598E-01
         0.15843E-01
         0.28099E-01
         0.48693E-01
         0.62375E-01
         0.62200E-01
        -0.38264E-02
         0.80108E-03
        -0.14930E-02
        -0.43151E-02
         0.87386E-02
         0.74703E-02
         0.23055E-02
        -0.46867E-02
        -0.22146E-02
        -0.45133E-02
        -0.77042E-03
         0.34194E-02
         0.11088E-01
        -0.82944E-02
        -0.87258E-02
         0.74830E-02
         0.42030E-02
        -0.24158E-02
        -0.16565E-02
        -0.28812E-02
        -0.17326E-01
        -0.16509E-01
        -0.16303E-01
        -0.39449E-02
         0.22895E-02
         0.15341E-02
        -0.81918E-02
         0.92995E-03
        -0.28919E-02
        -0.37517E-02
         0.57674E-02
         0.36860E-02
        -0.35671E-02
        -0.31971E-02
         0.15770E-01
         0.86399E-02
         0.99197E-02
        -0.98424E-02
        -0.17518E-02
        -0.48385E-02
        -0.17425E-01
        -0.17923E-01
        -0.17452E-01
        -0.12595E-01
        -0.96769E-02
        -0.56561E-02
         0.61270E-02
         0.72639E-02
        -0.89739E-03
         0.11255E-02
         0.11762E-01
         0.10290E-01
         0.65452E-01
         0.66003E-01
         0.59325E-01
         0.48969E-01
         0.36445E-01
         0.16785E-01
        -0.42153E-02
        -0.13604E-01
        -0.17714E-01
        -0.32586E-01
        -0.57991E-01
        -0.68518E-01
        -0.57424E-01
        -0.54641E-01
        -0.60286E-01
        -0.62147E-01
        -0.56691E-01
        -0.53609E-01
        -0.27213E-01
         0.71117E-02
         0.15586E-01
         0.15837E-01
         0.28079E-01
         0.48664E-01
         0.62344E-01
         0.62173E-01
        -0.38324E-02
         0.80518E-03
        -0.14946E-02
        -0.43178E-02
         0.87304E-02
         0.74634E-02
         0.23199E-02
        -0.46738E-02
        -0.22165E-02
        -0.45085E-02
        -0.75177E-03
         0.34276E-02
         0.11095E-01
        -0.82737E-02
        -0.87209E-02
         0.74923E-02
         0.42125E-02
        -0.24088E-02
        -0.16556E-02
        -0.28765E-02
        -0.17325E-01
        -0.16509E-01
        -0.16305E-01
        -0.39455E-02
         0.22956E-02
         0.15373E-02
        -0.81937E-02
         0.91075E-03
        -0.29116E-02
        -0.37546E-02
         0.57764E-02
         0.36857E-02
        -0.35508E-02
        -0.31979E-02
         0.15778E-01
         0.86372E-02
         0.99173E-02
        -0.98577E-02
        -0.17674E-02
        -0.48539E-02
        -0.17437E-01
        -0.17936E-01
        -0.17456E-01
        -0.12595E-01
        -0.96741E-02
        -0.56538E-02
         0.61254E-02
         0.72663E-02
        -0.88923E-03
         0.11230E-02
         0.11756E-01
         0.10275E-01
         0.65429E-01
         0.65986E-01
         0.59319E-01
         0.48969E-01
         0.36433E-01
         0.16779E-01
        -0.42199E-02
        -0.13613E-01
        -0.17699E-01
        -0.32573E-01
        -0.57982E-01
        -0.68521E-01
        -0.57422E-01
        -0.54639E-01
        -0.60296E-01
        -0.62166E-01
        -0.56703E-01
        -0.53618E-01
        -0.27205E-01
         0.71139E-02
         0.15574E-01
         0.15831E-01
         0.28059E-01
         0.48635E-01
         0.62313E-01
         0.62145E-01
        -0.38383E-02
         0.80924E-03
        -0.14962E-02
        -0.43203E-02
         0.87224E-02
         0.74567E-02
         0.23342E-02
        -0.46610E-02
        -0.22183E-02
        -0.45038E-02
        -0.73309E-03
         0.34359E-02
         0.11102E-01
        -0.82529E-02
        -0.87160E-02
         0.75016E-02
         0.42220E-02
        -0.24019E-02
        -0.16549E-02
        -0.28717E-02
        -0.17325E-01
        -0.16508E-01
        -0.16306E-01
        -0.39460E-02
         0.23016E-02
         0.15405E-02
        -0.81957E-02
         0.89153E-03
        -0.29313E-02
        -0.37575E-02
         0.57853E-02
         0.36854E-02
        -0.35346E-02
        -0.31987E-02
         0.15787E-01
         0.86342E-02
         0.99150E-02
        -0.98730E-02
        -0.17832E-02
        -0.48691E-02
        -0.17449E-01
        -0.17948E-01
        -0.17460E-01
        -0.12594E-01
        -0.96712E-02
        -0.56517E-02
         0.61238E-02
         0.72686E-02
        -0.88099E-03
         0.11205E-02
         0.11750E-01
         0.10260E-01
         0.65406E-01
         0.65969E-01
         0.59314E-01
         0.48969E-01
         0.36422E-01
         0.16774E-01
        -0.42243E-02
        -0.13621E-01
        -0.17684E-01
        -0.32560E-01
        -0.57972E-01
        -0.68523E-01
        -0.57420E-01
        -0.54637E-01
        -0.60306E-01
        -0.62185E-01
        -0.56716E-01
        -0.53628E-01
        -0.27197E-01
         0.71160E-02
         0.15561E-01
         0.15824E-01
         0.28039E-01
         0.48605E-01
         0.62283E-01
         0.62117E-01
        -0.38443E-02
         0.81328E-03
        -0.14978E-02
        -0.43229E-02
         0.87141E-02
         0.74498E-02
         0.23486E-02
        -0.46481E-02
        -0.22201E-02
        -0.44990E-02
        -0.71447E-03
         0.34442E-02
         0.11108E-01
        -0.82322E-02
        -0.87110E-02
         0.75109E-02
         0.42314E-02
        -0.23948E-02
        -0.16541E-02
        -0.28671E-02
        -0.17325E-01
        -0.16508E-01
        -0.16308E-01
        -0.39466E-02
         0.23076E-02
         0.15438E-02
        -0.81976E-02
         0.87240E-03
        -0.29508E-02
        -0.37605E-02
         0.57943E-02
         0.36852E-02
        -0.35183E-02
        -0.31995E-02
         0.15796E-01
         0.86313E-02
         0.99125E-02
        -0.98882E-02
        -0.17989E-02
        -0.48846E-02
        -0.17461E-01
        -0.17961E-01
        -0.17464E-01
        -0.12594E-01
        -0.96684E-02
        -0.56497E-02
         0.61222E-02
         0.72709E-02
        -0.87273E-03
         0.11181E-02
         0.11744E-01
         0.10245E-01
         0.65384E-01
         0.65952E-01
         0.59308E-01
         0.48969E-01
         0.36411E-01
         0.16769E-01
        -0.42289E-02
        -0.13629E-01
        -0.17669E-01
        -0.32547E-01
        -0.57963E-01
        -0.68526E-01
        -0.57417E-01
        -0.54635E-01
        -0.60315E-01
        -0.62204E-01
        -0.56729E-01
        -0.53637E-01
        -0.27189E-01
         0.71182E-02
         0.15549E-01
         0.15818E-01
         0.28019E-01
         0.48576E-01
         0.62252E-01
         0.62090E-01
        -0.38503E-02
         0.81738E-03
        -0.14993E-02
        -0.43254E-02
         0.87059E-02
         0.74428E-02
         0.23629E-02
        -0.46352E-02
        -0.22218E-02
        -0.44942E-02
        -0.69589E-03
         0.34524E-02
         0.11115E-01
        -0.82115E-02
        -0.87061E-02
         0.75201E-02
         0.42408E-02
        -0.23878E-02
        -0.16532E-02
        -0.28623E-02
        -0.17325E-01
        -0.16507E-01
        -0.16309E-01
        -0.39472E-02
         0.23136E-02
         0.15470E-02
        -0.81995E-02
         0.85323E-03
        -0.29704E-02
        -0.37634E-02
         0.58032E-02
         0.36849E-02
        -0.35019E-02
        -0.32002E-02
         0.15804E-01
         0.86286E-02
         0.99103E-02
        -0.99033E-02
        -0.18147E-02
        -0.48999E-02
        -0.17473E-01
        -0.17973E-01
        -0.17468E-01
        -0.12595E-01
        -0.96657E-02
        -0.56473E-02
         0.61206E-02
         0.72732E-02
        -0.86444E-03
         0.11156E-02
         0.11738E-01
         0.10230E-01
         0.65361E-01
         0.65936E-01
         0.59302E-01
         0.48969E-01
         0.36400E-01
         0.16764E-01
        -0.42335E-02
        -0.13637E-01
        -0.17654E-01
        -0.32534E-01
        -0.57953E-01
        -0.68529E-01
        -0.57415E-01
        -0.54633E-01
        -0.60325E-01
        -0.62223E-01
        -0.56742E-01
        -0.53646E-01
        -0.27181E-01
         0.71204E-02
         0.15537E-01
         0.15812E-01
         0.27999E-01
         0.48546E-01
         0.62221E-01
         0.62062E-01
        -0.38563E-02
         0.82140E-03
        -0.15009E-02
        -0.43280E-02
         0.86979E-02
         0.74359E-02
         0.23771E-02
        -0.46223E-02
        -0.22236E-02
        -0.44893E-02
        -0.67735E-03
         0.34606E-02
         0.11122E-01
        -0.81908E-02
        -0.87011E-02
         0.75293E-02
         0.42502E-02
        -0.23808E-02
        -0.16526E-02
        -0.28577E-02
        -0.17324E-01
        -0.16507E-01
        -0.16311E-01
        -0.39478E-02
         0.23195E-02
         0.15502E-02
        -0.82012E-02
         0.83418E-03
        -0.29901E-02
        -0.37663E-02
         0.58121E-02
         0.36846E-02
        -0.34856E-02
        -0.32010E-02
         0.15813E-01
         0.86257E-02
         0.99079E-02
        -0.99184E-02
        -0.18305E-02
        -0.49154E-02
        -0.17485E-01
        -0.17985E-01
        -0.17473E-01
        -0.12595E-01
        -0.96628E-02
        -0.56452E-02
         0.61190E-02
         0.72755E-02
        -0.85618E-03
         0.11132E-02
         0.11732E-01
         0.10216E-01
         0.65339E-01
         0.65919E-01
         0.59296E-01
         0.48969E-01
         0.36388E-01
         0.16759E-01
        -0.42380E-02
        -0.13645E-01
        -0.17639E-01
        -0.32521E-01
        -0.57944E-01
        -0.68532E-01
        -0.57413E-01
        -0.54632E-01
        -0.60335E-01
        -0.62242E-01
        -0.56755E-01
        -0.53655E-01
        -0.27173E-01
         0.71224E-02
         0.15525E-01
         0.15806E-01
         0.27979E-01
         0.48517E-01
         0.62191E-01
         0.62034E-01
        -0.38623E-02
         0.82540E-03
        -0.15024E-02
        -0.43305E-02
         0.86897E-02
         0.74289E-02
         0.23914E-02
        -0.46094E-02
        -0.22254E-02
        -0.44845E-02
        -0.65882E-03
         0.34689E-02
         0.11129E-01
        -0.81701E-02
        -0.86961E-02
         0.75386E-02
         0.42596E-02
        -0.23739E-02
        -0.16517E-02
        -0.28529E-02
        -0.17324E-01
        -0.16506E-01
        -0.16312E-01
        -0.39483E-02
         0.23253E-02
         0.15534E-02
        -0.82031E-02
         0.81514E-03
        -0.30097E-02
        -0.37692E-02
         0.58210E-02
         0.36843E-02
        -0.34692E-02
        -0.32017E-02
         0.15822E-01
         0.86230E-02
         0.99056E-02
        -0.99333E-02
        -0.18463E-02
        -0.49308E-02
        -0.17497E-01
        -0.17998E-01
        -0.17477E-01
        -0.12595E-01
        -0.96599E-02
        -0.56432E-02
         0.61173E-02
         0.72779E-02
        -0.84778E-03
         0.11107E-02
         0.11726E-01
         0.10201E-01
         0.65316E-01
         0.65902E-01
         0.59291E-01
         0.48969E-01
         0.36377E-01
         0.16754E-01
        -0.42425E-02
        -0.13653E-01
        -0.17624E-01
        -0.32508E-01
        -0.57934E-01
        -0.68535E-01
        -0.57410E-01
        -0.54630E-01
        -0.60345E-01
        -0.62261E-01
        -0.56768E-01
        -0.53664E-01
        -0.27165E-01
         0.71245E-02
         0.15512E-01
         0.15800E-01
         0.27959E-01
         0.48487E-01
         0.62160E-01
         0.62007E-01
        -0.38683E-02
         0.82950E-03
        -0.15040E-02
        -0.43330E-02
         0.86815E-02
         0.74222E-02
         0.24057E-02
        -0.45965E-02
        -0.22271E-02
        -0.44797E-02
        -0.64027E-03
         0.34772E-02
         0.11136E-01
        -0.81495E-02
        -0.86910E-02
         0.75479E-02
         0.42690E-02
        -0.23670E-02
        -0.16509E-02
        -0.28483E-02
        -0.17324E-01
        -0.16506E-01
        -0.16313E-01
        -0.39489E-02
         0.23311E-02
         0.15567E-02
        -0.82049E-02
         0.79610E-03
        -0.30292E-02
        -0.37720E-02
         0.58299E-02
         0.36840E-02
        -0.34529E-02
        -0.32025E-02
         0.15830E-01
         0.86201E-02
         0.99033E-02
        -0.99483E-02
        -0.18622E-02
        -0.49461E-02
        -0.17509E-01
        -0.18010E-01
        -0.17481E-01
        -0.12594E-01
        -0.96572E-02
        -0.56408E-02
         0.61157E-02
         0.72801E-02
        -0.83948E-03
         0.11082E-02
         0.11720E-01
         0.10186E-01
         0.65293E-01
         0.65886E-01
         0.59285E-01
         0.48969E-01
         0.36366E-01
         0.16749E-01
        -0.42468E-02
        -0.13661E-01
        -0.17609E-01
        -0.32495E-01
        -0.57925E-01
        -0.68538E-01
        -0.57408E-01
        -0.54628E-01
        -0.60354E-01
        -0.62280E-01
        -0.56781E-01
        -0.53674E-01
        -0.27157E-01
         0.71266E-02
         0.15500E-01
         0.15794E-01
         0.27939E-01
         0.48458E-01
         0.62129E-01
         0.61979E-01
        -0.38743E-02
         0.83354E-03
        -0.15055E-02
        -0.43356E-02
         0.86736E-02
         0.74153E-02
         0.24199E-02
        -0.45836E-02
        -0.22288E-02
        -0.44747E-02
        -0.62174E-03
         0.34855E-02
         0.11143E-01
        -0.81288E-02
        -0.86858E-02
         0.75571E-02
         0.42785E-02
        -0.23601E-02
        -0.16502E-02
        -0.28435E-02
        -0.17323E-01
        -0.16505E-01
        -0.16315E-01
        -0.39496E-02
         0.23368E-02
         0.15599E-02
        -0.82065E-02
         0.77690E-03
        -0.30486E-02
        -0.37749E-02
         0.58388E-02
         0.36838E-02
        -0.34366E-02
        -0.32034E-02
         0.15839E-01
         0.86172E-02
         0.99009E-02
        -0.99631E-02
        -0.18782E-02
        -0.49617E-02
        -0.17521E-01
        -0.18023E-01
        -0.17485E-01
        -0.12594E-01
        -0.96543E-02
        -0.56388E-02
         0.61142E-02
         0.72825E-02
        -0.83120E-03
         0.11057E-02
         0.11713E-01
         0.10171E-01
         0.65271E-01
         0.65869E-01
         0.59279E-01
         0.48969E-01
         0.36354E-01
         0.16743E-01
        -0.42511E-02
        -0.13669E-01
        -0.17595E-01
        -0.32482E-01
        -0.57916E-01
        -0.68541E-01
        -0.57406E-01
        -0.54626E-01
        -0.60364E-01
        -0.62299E-01
        -0.56794E-01
        -0.53683E-01
        -0.27149E-01
         0.71286E-02
         0.15488E-01
         0.15788E-01
         0.27919E-01
         0.48428E-01
         0.62098E-01
         0.61951E-01
        -0.38803E-02
         0.83757E-03
        -0.15070E-02
        -0.43381E-02
         0.86654E-02
         0.74084E-02
         0.24341E-02
        -0.45707E-02
        -0.22304E-02
        -0.44691E-02
        -0.60324E-03
         0.34938E-02
         0.11150E-01
        -0.81080E-02
        -0.86806E-02
         0.75664E-02
         0.42878E-02
        -0.23531E-02
        -0.16496E-02
        -0.28389E-02
        -0.17323E-01
        -0.16504E-01
        -0.16316E-01
        -0.39501E-02
         0.23421E-02
         0.15632E-02
        -0.82074E-02
         0.75721E-03
        -0.30682E-02
        -0.37779E-02
         0.58478E-02
         0.36834E-02
        -0.34202E-02
        -0.32041E-02
         0.15848E-01
         0.86145E-02
         0.98986E-02
        -0.99776E-02
        -0.18947E-02
        -0.49769E-02
        -0.17532E-01
        -0.18034E-01
        -0.17488E-01
        -0.12594E-01
        -0.96515E-02
        -0.56365E-02
         0.61126E-02
         0.72849E-02
        -0.82295E-03
         0.11032E-02
         0.11707E-01
         0.10156E-01
         0.65248E-01
         0.65852E-01
         0.59274E-01
         0.48969E-01
         0.36343E-01
         0.16738E-01
        -0.42555E-02
        -0.13676E-01
        -0.17580E-01
        -0.32468E-01
        -0.57906E-01
        -0.68546E-01
        -0.57405E-01
        -0.54625E-01
        -0.60373E-01
        -0.62318E-01
        -0.56806E-01
        -0.53692E-01
        -0.27142E-01
         0.71307E-02
         0.15476E-01
         0.15782E-01
         0.27899E-01
         0.48399E-01
         0.62068E-01
         0.61924E-01
        -0.38863E-02
         0.84158E-03
        -0.15085E-02
        -0.43405E-02
         0.86572E-02
         0.74015E-02
         0.24484E-02
        -0.45578E-02
        -0.22317E-02
        -0.44630E-02
        -0.58478E-03
         0.35020E-02
         0.11157E-01
        -0.80871E-02
        -0.86752E-02
         0.75756E-02
         0.42970E-02
        -0.23461E-02
        -0.16488E-02
        -0.28342E-02
        -0.17323E-01
        -0.16504E-01
        -0.16318E-01
        -0.39508E-02
         0.23469E-02
         0.15663E-02
        -0.82078E-02
         0.73692E-03
        -0.30877E-02
        -0.37808E-02
         0.58567E-02
         0.36832E-02
        -0.34038E-02
        -0.32049E-02
         0.15856E-01
         0.86117E-02
         0.98963E-02
        -0.99918E-02
        -0.19117E-02
        -0.49922E-02
        -0.17542E-01
        -0.18044E-01
        -0.17492E-01
        -0.12594E-01
        -0.96488E-02
        -0.56345E-02
         0.61110E-02
         0.72872E-02
        -0.81460E-03
         0.11008E-02
         0.11701E-01
         0.10141E-01
         0.65225E-01
         0.65836E-01
         0.59268E-01
         0.48969E-01
         0.36332E-01
         0.16733E-01
        -0.42598E-02
        -0.13684E-01
        -0.17565E-01
        -0.32455E-01
        -0.57896E-01
        -0.68553E-01
        -0.57406E-01
        -0.54623E-01
        -0.60383E-01
        -0.62336E-01
        -0.56819E-01
        -0.53701E-01
        -0.27134E-01
         0.71327E-02
         0.15463E-01
         0.15776E-01
         0.27879E-01
         0.48370E-01
         0.62037E-01
         0.61896E-01
        -0.38923E-02
         0.84561E-03
        -0.15101E-02
        -0.43431E-02
         0.86493E-02
         0.73948E-02
         0.24624E-02
        -0.45450E-02
        -0.22330E-02
        -0.44568E-02
        -0.56646E-03
         0.35102E-02
         0.11164E-01
        -0.80662E-02
        -0.86698E-02
         0.75848E-02
         0.43063E-02
        -0.23393E-02
        -0.16480E-02
        -0.28296E-02
        -0.17323E-01
        -0.16503E-01
        -0.16319E-01
        -0.39514E-02
         0.23517E-02
         0.15695E-02
        -0.82080E-02
         0.71657E-03
        -0.31070E-02
        -0.37837E-02
         0.58656E-02
         0.36829E-02
        -0.33876E-02
        -0.32058E-02
         0.15865E-01
         0.86090E-02
         0.98940E-02
        -0.10006E-01
        -0.19288E-02
        -0.50071E-02
        -0.17551E-01
        -0.18054E-01
        -0.17494E-01
        -0.12594E-01
        -0.96459E-02
        -0.56324E-02
         0.61095E-02
         0.72897E-02
        -0.80634E-03
         0.10982E-02
         0.11695E-01
         0.10127E-01
         0.65203E-01
         0.65819E-01
         0.59262E-01
         0.48969E-01
         0.36321E-01
         0.16728E-01
        -0.42640E-02
        -0.13692E-01
        -0.17551E-01
        -0.32440E-01
        -0.57886E-01
        -0.68561E-01
        -0.57406E-01
        -0.54622E-01
        -0.60393E-01
        -0.62355E-01
        -0.56832E-01
        -0.53710E-01
        -0.27126E-01
         0.71350E-02
         0.15451E-01
         0.15770E-01
         0.27859E-01
         0.48340E-01
         0.62007E-01
         0.61869E-01
        -0.39123E-02
         0.85189E-03
        -0.15173E-02
        -0.43610E-02
         0.86707E-02
         0.74140E-02
         0.24838E-02
        -0.45500E-02
        -0.22422E-02
        -0.44677E-02
        -0.55249E-03
         0.35282E-02
         0.11208E-01
        -0.80760E-02
        -0.86954E-02
         0.76205E-02
         0.43306E-02
        -0.23413E-02
        -0.16527E-02
        -0.28345E-02
        -0.17379E-01
        -0.16558E-01
        -0.16374E-01
        -0.39658E-02
         0.23644E-02
         0.15780E-02
        -0.82384E-02
         0.70005E-03
        -0.31359E-02
        -0.37997E-02
         0.58951E-02
         0.36954E-02
        -0.33849E-02
        -0.32184E-02
         0.15927E-01
         0.86362E-02
         0.99255E-02
        -0.10055E-01
        -0.19512E-02
        -0.50384E-02
        -0.17621E-01
        -0.18127E-01
        -0.17558E-01
        -0.12636E-01
        -0.96754E-02
        -0.56482E-02
         0.61292E-02
         0.73181E-02
        -0.80183E-03
         0.10995E-02
         0.11729E-01
         0.10148E-01
         0.65383E-01
         0.66003E-01
         0.59439E-01
         0.49119E-01
         0.36423E-01
         0.16773E-01
        -0.42832E-02
        -0.13742E-01
        -0.17594E-01
        -0.32532E-01
        -0.58065E-01
        -0.68783E-01
        -0.57581E-01
        -0.54783E-01
        -0.60577E-01
        -0.62550E-01
        -0.57005E-01
        -0.53876E-01
        -0.27201E-01
         0.71607E-02
         0.15488E-01
         0.15811E-01
         0.27925E-01
         0.48460E-01
         0.62163E-01
         0.62025E-01
        -0.58178E-02
         0.12752E-02
        -0.22517E-02
        -0.64961E-02
         0.12402E-01
         0.10707E-01
         0.37071E-02
        -0.67191E-02
        -0.33238E-02
        -0.65865E-02
        -0.79662E-03
         0.49586E-02
         0.15989E-01
        -0.11747E-01
        -0.12277E-01
         0.11342E-01
         0.64278E-02
        -0.34810E-02
        -0.24250E-02
        -0.41677E-02
        -0.24780E-01
        -0.23911E-01
        -0.23413E-01
        -0.58655E-02
         0.35207E-02
         0.23550E-02
        -0.12090E-01
         0.10237E-02
        -0.46963E-02
        -0.56500E-02
         0.87781E-02
         0.54848E-02
        -0.50301E-02
        -0.47939E-02
         0.22364E-01
         0.12464E-01
         0.14331E-01
        -0.14531E-01
        -0.28694E-02
        -0.74155E-02
        -0.25552E-01
        -0.26481E-01
        -0.25633E-01
        -0.18199E-01
        -0.13887E-01
        -0.78734E-02
         0.87665E-02
         0.10609E-01
        -0.11603E-02
         0.15920E-02
         0.16582E-01
         0.14609E-01
         0.81327E-01
         0.81965E-01
         0.73847E-01
         0.61207E-01
         0.45343E-01
         0.20925E-01
        -0.54123E-02
        -0.17489E-01
        -0.22334E-01
        -0.41064E-01
        -0.73401E-01
        -0.86814E-01
        -0.73497E-01
        -0.70155E-01
        -0.76585E-01
        -0.78182E-01
        -0.71032E-01
        -0.66750E-01
        -0.33664E-01
         0.88805E-02
         0.19395E-01
         0.19888E-01
         0.34995E-01
         0.60943E-01
         0.77939E-01
         0.77489E-01
  
SCALARS                      strain_xy  double 1
LOOKUP_TABLE default
        -0.70436E-06
        -0.16610E-05
        -0.14202E-04
         0.49814E-06
        -0.16426E-19
         0.16053E-20
         0.24135E-19
         0.36766E-20
        -0.15022E-03
         0.65922E-04
         0.10743E-18
         0.85195E-19
         0.56465E-05
        -0.11717E-05
         0.94827E-20
        -0.28481E-20
         0.16028E-05
         0.28332E-04
         0.47209E-21
         0.71940E-20
        -0.21577E-04
        -0.13681E-03
        -0.13465E-03
         0.73151E-19
         0.58254E-19
        -0.85069E-19
        -0.14246E-04
        -0.11872E-03
         0.98496E-19
         0.15158E-18
        -0.42875E-05
         0.83667E-05
         0.66782E-06
        -0.51988E-20
         0.20509E-19
        -0.26231E-21
        -0.37986E-04
        -0.17773E-04
         0.54888E-19
         0.45470E-19
        -0.74680E-04
        -0.67665E-04
         0.93569E-19
         0.63060E-19
        -0.72023E-04
        -0.13181E-04
        -0.34086E-20
         0.25377E-19
         0.19441E-04
         0.75000E-20
        -0.44941E-05
        -0.16909E-21
         0.11944E-05
         0.56688E-19
         0.59096E-05
         0.87230E-20
         0.84320E-04
        -0.41127E-05
         0.20272E-21
        -0.99454E-21
         0.55529E-06
        -0.56076E-04
         0.55244E-20
         0.14170E-19
         0.23970E-05
        -0.11217E-20
         0.34591E-04
         0.89879E-20
        -0.18623E-03
        -0.67662E-04
         0.69424E-20
        -0.66481E-19
        -0.15235E-03
        -0.10630E-18
         0.62209E-04
         0.71196E-19
         0.19630E-03
         0.10607E-19
         0.34290E-03
         0.13793E-19
         0.66640E-03
         0.36378E-03
         0.32427E-19
        -0.82225E-20
         0.44988E-04
        -0.98948E-21
        -0.13650E-03
        -0.89243E-19
        -0.20159E-03
        -0.99647E-19
        -0.44436E-03
        -0.20292E-03
        -0.63077E-19
         0.70015E-19
         0.32583E-04
         0.63751E-19
         0.80159E-04
         0.27386E-19
         0.18747E-03
         0.72713E-19
         0.46113E-03
         0.26280E-03
         0.15591E-18
         0.77956E-19
        -0.75974E-03
         0.31770E-03
        -0.10130E-18
         0.12405E-18
        -0.18494E-02
        -0.28789E-18
        -0.24067E-02
        -0.31471E-18
        -0.21187E-02
        -0.21359E-18
        -0.18090E-02
        -0.22655E-19
        -0.78915E-03
         0.63856E-19
         0.10373E-02
         0.39537E-19
         0.23304E-02
         0.36143E-19
         0.30815E-02
         0.77546E-19
         0.30297E-02
         0.94284E-19
         0.24866E-02
         0.37147E-19
         0.13200E-02
         0.22647E-19
        -0.90014E-04
         0.37016E-19
        -0.10869E-02
         0.24813E-19
        -0.17439E-02
        -0.88486E-19
        -0.23802E-02
        -0.23218E-18
        -0.21577E-02
        -0.29465E-18
        -0.13935E-02
        -0.18236E-18
        -0.15270E-03
         0.34792E-19
         0.10289E-02
         0.73738E-19
         0.14864E-02
         0.11751E-18
         0.18238E-02
         0.23141E-18
         0.16357E-02
         0.30028E-18
         0.15193E-02
         0.21334E-18
         0.12511E-02
         0.16872E-18
        -0.67487E-05
         0.18410E-05
         0.18823E-05
        -0.11569E-05
         0.15230E-04
         0.12349E-04
         0.19997E-06
        -0.44760E-05
        -0.19395E-05
        -0.51332E-05
        -0.15082E-05
        -0.27941E-04
        -0.39605E-04
         0.14682E-05
         0.22627E-04
        -0.29111E-05
         0.21714E-05
         0.64218E-06
         0.13372E-05
        -0.10827E-05
         0.54691E-05
         0.47830E-05
        -0.14618E-04
         0.38210E-06
         0.32614E-05
         0.35947E-06
         0.60497E-07
         0.11848E-06
         0.14829E-05
        -0.48616E-05
        -0.25410E-05
         0.54972E-06
         0.87086E-06
        -0.69326E-07
        -0.37361E-05
        -0.12785E-04
        -0.25830E-04
         0.39303E-04
         0.20468E-04
         0.37292E-04
         0.72664E-04
         0.16591E-04
        -0.13198E-04
        -0.26665E-04
        -0.31858E-04
        -0.41230E-04
         0.50262E-05
         0.14863E-04
         0.45900E-05
         0.15614E-04
         0.49387E-04
         0.18769E-04
        -0.17240E-03
         0.21591E-03
        -0.52361E-03
        -0.61442E-03
        -0.58385E-03
        -0.35503E-03
         0.21263E-04
         0.23117E-03
         0.33489E-03
         0.54381E-03
         0.57343E-03
         0.30304E-03
         0.12142E-03
         0.51215E-04
        -0.82606E-04
        -0.32572E-03
        -0.54410E-03
        -0.62480E-03
        -0.38794E-03
         0.70150E-04
         0.25273E-03
         0.26622E-03
         0.41977E-03
         0.46803E-03
         0.35254E-03
         0.32460E-03
        -0.20884E-04
         0.27038E-05
        -0.47633E-05
        -0.32897E-05
         0.36951E-04
         0.14202E-04
         0.32811E-05
        -0.25040E-04
        -0.75451E-05
        -0.22390E-04
         0.23914E-05
        -0.37762E-04
        -0.73595E-04
         0.81101E-05
         0.97220E-04
        -0.15559E-04
         0.26250E-05
         0.15010E-05
         0.45530E-05
         0.15459E-05
         0.40894E-04
         0.27670E-04
        -0.15830E-04
         0.32316E-05
         0.74192E-05
        -0.12356E-05
         0.16815E-05
        -0.41504E-06
        -0.16710E-05
        -0.12333E-04
        -0.12883E-04
        -0.21959E-05
         0.54008E-05
         0.40472E-05
         0.95078E-05
        -0.15996E-04
        -0.35033E-04
         0.81936E-04
         0.12097E-04
         0.30909E-04
         0.83424E-04
        -0.21205E-04
        -0.42693E-04
        -0.38559E-04
        -0.38235E-04
        -0.45701E-04
         0.28740E-04
         0.22437E-04
        -0.37276E-05
         0.52983E-05
         0.56274E-04
         0.37193E-05
        -0.38985E-03
         0.56198E-03
        -0.11740E-02
        -0.12513E-02
        -0.12051E-02
        -0.66609E-03
         0.16199E-03
         0.45831E-03
         0.57859E-03
         0.10494E-02
         0.11705E-02
         0.45510E-03
         0.15205E-03
         0.12395E-03
        -0.63249E-04
        -0.55259E-03
        -0.10104E-02
        -0.13303E-02
        -0.88208E-03
         0.25423E-03
         0.49372E-03
         0.47289E-03
         0.83826E-03
         0.10219E-02
         0.67951E-03
         0.64138E-03
        -0.20936E-04
         0.27143E-05
        -0.47747E-05
        -0.33161E-05
         0.36920E-04
         0.14200E-04
         0.33061E-05
        -0.25019E-04
        -0.75669E-05
        -0.22456E-04
         0.23443E-05
        -0.37850E-04
        -0.73658E-04
         0.80903E-05
         0.97292E-04
        -0.15576E-04
         0.26547E-05
         0.14946E-05
         0.45539E-05
         0.15346E-05
         0.40991E-04
         0.27694E-04
        -0.15833E-04
         0.32302E-05
         0.74697E-05
        -0.12354E-05
         0.17018E-05
        -0.40952E-06
        -0.16717E-05
        -0.12367E-04
        -0.12904E-04
        -0.21909E-05
         0.53902E-05
         0.40556E-05
         0.94233E-05
        -0.15999E-04
        -0.35020E-04
         0.82194E-04
         0.12239E-04
         0.31042E-04
         0.83541E-04
        -0.21160E-04
        -0.42739E-04
        -0.38573E-04
        -0.38223E-04
        -0.45677E-04
         0.28737E-04
         0.22431E-04
        -0.36954E-05
         0.52732E-05
         0.56213E-04
         0.36576E-05
        -0.38935E-03
         0.56186E-03
        -0.11741E-02
        -0.12514E-02
        -0.12046E-02
        -0.66566E-03
         0.16210E-03
         0.45846E-03
         0.57798E-03
         0.10487E-02
         0.11701E-02
         0.45532E-03
         0.15203E-03
         0.12420E-03
        -0.62741E-04
        -0.55300E-03
        -0.10111E-02
        -0.13308E-02
        -0.88182E-03
         0.25433E-03
         0.49333E-03
         0.47268E-03
         0.83743E-03
         0.10206E-02
         0.67842E-03
         0.64024E-03
        -0.20989E-04
         0.27247E-05
        -0.47861E-05
        -0.33427E-05
         0.36887E-04
         0.14199E-04
         0.33312E-05
        -0.24998E-04
        -0.75883E-05
        -0.22520E-04
         0.22974E-05
        -0.37939E-04
        -0.73721E-04
         0.80695E-05
         0.97363E-04
        -0.15594E-04
         0.26848E-05
         0.14882E-05
         0.45548E-05
         0.15232E-05
         0.41089E-04
         0.27717E-04
        -0.15838E-04
         0.32284E-05
         0.75210E-05
        -0.12351E-05
         0.17235E-05
        -0.40414E-06
        -0.16712E-05
        -0.12400E-04
        -0.12925E-04
        -0.21849E-05
         0.53794E-05
         0.40640E-05
         0.93382E-05
        -0.16003E-04
        -0.35006E-04
         0.82452E-04
         0.12382E-04
         0.31177E-04
         0.83662E-04
        -0.21109E-04
        -0.42783E-04
        -0.38593E-04
        -0.38214E-04
        -0.45657E-04
         0.28734E-04
         0.22424E-04
        -0.36627E-05
         0.52474E-05
         0.56155E-04
         0.35963E-05
        -0.38885E-03
         0.56175E-03
        -0.11742E-02
        -0.12514E-02
        -0.12041E-02
        -0.66524E-03
         0.16222E-03
         0.45860E-03
         0.57737E-03
         0.10480E-02
         0.11696E-02
         0.45555E-03
         0.15200E-03
         0.12445E-03
        -0.62231E-04
        -0.55342E-03
        -0.10117E-02
        -0.13314E-02
        -0.88156E-03
         0.25443E-03
         0.49293E-03
         0.47248E-03
         0.83660E-03
         0.10192E-02
         0.67734E-03
         0.63912E-03
        -0.21042E-04
         0.27355E-05
        -0.47973E-05
        -0.33694E-05
         0.36855E-04
         0.14197E-04
         0.33564E-05
        -0.24975E-04
        -0.76089E-05
        -0.22580E-04
         0.22505E-05
        -0.38029E-04
        -0.73786E-04
         0.80498E-05
         0.97436E-04
        -0.15613E-04
         0.27158E-05
         0.14817E-05
         0.45562E-05
         0.15112E-05
         0.41191E-04
         0.27738E-04
        -0.15851E-04
         0.32254E-05
         0.75747E-05
        -0.12344E-05
         0.17458E-05
        -0.39967E-06
        -0.16676E-05
        -0.12431E-04
        -0.12947E-04
        -0.21772E-05
         0.53683E-05
         0.40724E-05
         0.92532E-05
        -0.16006E-04
        -0.34993E-04
         0.82711E-04
         0.12526E-04
         0.31314E-04
         0.83794E-04
        -0.21042E-04
        -0.42823E-04
        -0.38627E-04
        -0.38211E-04
        -0.45634E-04
         0.28735E-04
         0.22418E-04
        -0.36300E-05
         0.52218E-05
         0.56093E-04
         0.35353E-05
        -0.38836E-03
         0.56164E-03
        -0.11743E-02
        -0.12514E-02
        -0.12036E-02
        -0.66481E-03
         0.16234E-03
         0.45875E-03
         0.57676E-03
         0.10473E-02
         0.11692E-02
         0.45584E-03
         0.15200E-03
         0.12469E-03
        -0.61718E-04
        -0.55389E-03
        -0.10125E-02
        -0.13320E-02
        -0.88130E-03
         0.25453E-03
         0.49254E-03
         0.47228E-03
         0.83578E-03
         0.10179E-02
         0.67626E-03
         0.63799E-03
        -0.21094E-04
         0.27462E-05
        -0.48086E-05
        -0.33961E-05
         0.36824E-04
         0.14195E-04
         0.33816E-05
        -0.24952E-04
        -0.76284E-05
        -0.22634E-04
         0.22035E-05
        -0.38118E-04
        -0.73849E-04
         0.80303E-05
         0.97507E-04
        -0.15634E-04
         0.27475E-05
         0.14751E-05
         0.45571E-05
         0.14988E-05
         0.41296E-04
         0.27757E-04
        -0.15873E-04
         0.32211E-05
         0.76309E-05
        -0.12333E-05
         0.17705E-05
        -0.39601E-06
        -0.16606E-05
        -0.12458E-04
        -0.12969E-04
        -0.21675E-05
         0.53571E-05
         0.40808E-05
         0.91677E-05
        -0.16010E-04
        -0.34980E-04
         0.82971E-04
         0.12670E-04
         0.31454E-04
         0.83940E-04
        -0.20958E-04
        -0.42857E-04
        -0.38676E-04
        -0.38214E-04
        -0.45613E-04
         0.28738E-04
         0.22415E-04
        -0.35976E-05
         0.51963E-05
         0.56035E-04
         0.34740E-05
        -0.38786E-03
         0.56152E-03
        -0.11744E-02
        -0.12514E-02
        -0.12031E-02
        -0.66438E-03
         0.16245E-03
         0.45889E-03
         0.57616E-03
         0.10466E-02
         0.11689E-02
         0.45617E-03
         0.15200E-03
         0.12493E-03
        -0.61204E-04
        -0.55441E-03
        -0.10133E-02
        -0.13327E-02
        -0.88105E-03
         0.25463E-03
         0.49214E-03
         0.47207E-03
         0.83495E-03
         0.10165E-02
         0.67519E-03
         0.63686E-03
        -0.21144E-04
         0.27576E-05
        -0.48188E-05
        -0.34230E-05
         0.36792E-04
         0.14193E-04
         0.34065E-05
        -0.24926E-04
        -0.76479E-05
        -0.22686E-04
         0.21565E-05
        -0.38207E-04
        -0.73913E-04
         0.80116E-05
         0.97577E-04
        -0.15656E-04
         0.27799E-05
         0.14687E-05
         0.45581E-05
         0.14863E-05
         0.41402E-04
         0.27776E-04
        -0.15898E-04
         0.32164E-05
         0.76864E-05
        -0.12319E-05
         0.17971E-05
        -0.39264E-06
        -0.16522E-05
        -0.12485E-04
        -0.12991E-04
        -0.21565E-05
         0.53457E-05
         0.40894E-05
         0.90816E-05
        -0.16015E-04
        -0.34969E-04
         0.83232E-04
         0.12815E-04
         0.31597E-04
         0.84088E-04
        -0.20868E-04
        -0.42889E-04
        -0.38731E-04
        -0.38224E-04
        -0.45598E-04
         0.28742E-04
         0.22413E-04
        -0.35647E-05
         0.51726E-05
         0.55976E-04
         0.34131E-05
        -0.38736E-03
         0.56141E-03
        -0.11745E-02
        -0.12514E-02
        -0.12026E-02
        -0.66396E-03
         0.16256E-03
         0.45904E-03
         0.57555E-03
         0.10459E-02
         0.11685E-02
         0.45653E-03
         0.15202E-03
         0.12518E-03
        -0.60691E-04
        -0.55494E-03
        -0.10142E-02
        -0.13333E-02
        -0.88079E-03
         0.25471E-03
         0.49174E-03
         0.47187E-03
         0.83412E-03
         0.10152E-02
         0.67411E-03
         0.63574E-03
        -0.21190E-04
         0.27708E-05
        -0.48273E-05
        -0.34505E-05
         0.36762E-04
         0.14192E-04
         0.34309E-05
        -0.24894E-04
        -0.76680E-05
        -0.22736E-04
         0.21095E-05
        -0.38298E-04
        -0.73984E-04
         0.79978E-05
         0.97649E-04
        -0.15678E-04
         0.28128E-05
         0.14622E-05
         0.45595E-05
         0.14739E-05
         0.41508E-04
         0.27796E-04
        -0.15924E-04
         0.32119E-05
         0.77385E-05
        -0.12301E-05
         0.18284E-05
        -0.38919E-06
        -0.16432E-05
        -0.12513E-04
        -0.13011E-04
        -0.21444E-05
         0.53341E-05
         0.40978E-05
         0.89952E-05
        -0.16021E-04
        -0.34961E-04
         0.83494E-04
         0.12961E-04
         0.31741E-04
         0.84241E-04
        -0.20775E-04
        -0.42920E-04
        -0.38786E-04
        -0.38236E-04
        -0.45587E-04
         0.28747E-04
         0.22417E-04
        -0.35302E-05
         0.51530E-05
         0.55923E-04
         0.33517E-05
        -0.38686E-03
         0.56130E-03
        -0.11747E-02
        -0.12515E-02
        -0.12020E-02
        -0.66353E-03
         0.16267E-03
         0.45918E-03
         0.57495E-03
         0.10452E-02
         0.11681E-02
         0.45688E-03
         0.15204E-03
         0.12542E-03
        -0.60177E-04
        -0.55547E-03
        -0.10151E-02
        -0.13340E-02
        -0.88051E-03
         0.25478E-03
         0.49134E-03
         0.47167E-03
         0.83331E-03
         0.10138E-02
         0.67304E-03
         0.63461E-03
        -0.21235E-04
         0.27847E-05
        -0.48349E-05
        -0.34783E-05
         0.36733E-04
         0.14190E-04
         0.34550E-05
        -0.24859E-04
        -0.76885E-05
        -0.22785E-04
         0.20625E-05
        -0.38388E-04
        -0.74054E-04
         0.79848E-05
         0.97719E-04
        -0.15701E-04
         0.28460E-05
         0.14556E-05
         0.45606E-05
         0.14616E-05
         0.41614E-04
         0.27815E-04
        -0.15949E-04
         0.32075E-05
         0.77890E-05
        -0.12282E-05
         0.18609E-05
        -0.38563E-06
        -0.16341E-05
        -0.12542E-04
        -0.13029E-04
        -0.21315E-05
         0.53223E-05
         0.41063E-05
         0.89081E-05
        -0.16029E-04
        -0.34955E-04
         0.83759E-04
         0.13108E-04
         0.31886E-04
         0.84394E-04
        -0.20683E-04
        -0.42952E-04
        -0.38842E-04
        -0.38251E-04
        -0.45580E-04
         0.28753E-04
         0.22422E-04
        -0.34951E-05
         0.51353E-05
         0.55870E-04
         0.32906E-05
        -0.38636E-03
         0.56118E-03
        -0.11747E-02
        -0.12515E-02
        -0.12015E-02
        -0.66310E-03
         0.16278E-03
         0.45932E-03
         0.57434E-03
         0.10444E-02
         0.11677E-02
         0.45724E-03
         0.15205E-03
         0.12567E-03
        -0.59662E-04
        -0.55600E-03
        -0.10159E-02
        -0.13346E-02
        -0.88023E-03
         0.25485E-03
         0.49093E-03
         0.47148E-03
         0.83250E-03
         0.10125E-02
         0.67196E-03
         0.63349E-03
        -0.21279E-04
         0.27986E-05
        -0.48423E-05
        -0.35062E-05
         0.36703E-04
         0.14188E-04
         0.34790E-05
        -0.24825E-04
        -0.77092E-05
        -0.22834E-04
         0.20155E-05
        -0.38478E-04
        -0.74125E-04
         0.79730E-05
         0.97792E-04
        -0.15723E-04
         0.28795E-05
         0.14491E-05
         0.45617E-05
         0.14493E-05
         0.41719E-04
         0.27836E-04
        -0.15974E-04
         0.32033E-05
         0.78395E-05
        -0.12262E-05
         0.18943E-05
        -0.38187E-06
        -0.16246E-05
        -0.12571E-04
        -0.13048E-04
        -0.21187E-05
         0.53105E-05
         0.41147E-05
         0.88205E-05
        -0.16036E-04
        -0.34949E-04
         0.84023E-04
         0.13257E-04
         0.32029E-04
         0.84548E-04
        -0.20591E-04
        -0.42983E-04
        -0.38900E-04
        -0.38267E-04
        -0.45574E-04
         0.28758E-04
         0.22427E-04
        -0.34601E-05
         0.51182E-05
         0.55820E-04
         0.32293E-05
        -0.38587E-03
         0.56107E-03
        -0.11748E-02
        -0.12515E-02
        -0.12010E-02
        -0.66267E-03
         0.16289E-03
         0.45946E-03
         0.57374E-03
         0.10437E-02
         0.11673E-02
         0.45759E-03
         0.15207E-03
         0.12592E-03
        -0.59148E-04
        -0.55653E-03
        -0.10168E-02
        -0.13352E-02
        -0.87994E-03
         0.25491E-03
         0.49052E-03
         0.47129E-03
         0.83168E-03
         0.10111E-02
         0.67090E-03
         0.63236E-03
        -0.21323E-04
         0.28127E-05
        -0.48498E-05
        -0.35340E-05
         0.36673E-04
         0.14186E-04
         0.35031E-05
        -0.24790E-04
        -0.77299E-05
        -0.22882E-04
         0.19685E-05
        -0.38569E-04
        -0.74198E-04
         0.79600E-05
         0.97862E-04
        -0.15746E-04
         0.29132E-05
         0.14426E-05
         0.45626E-05
         0.14369E-05
         0.41825E-04
         0.27855E-04
        -0.15998E-04
         0.31990E-05
         0.78902E-05
        -0.12242E-05
         0.19268E-05
        -0.37795E-06
        -0.16150E-05
        -0.12599E-04
        -0.13067E-04
        -0.21058E-05
         0.52984E-05
         0.41232E-05
         0.87327E-05
        -0.16044E-04
        -0.34943E-04
         0.84289E-04
         0.13406E-04
         0.32176E-04
         0.84701E-04
        -0.20500E-04
        -0.43014E-04
        -0.38956E-04
        -0.38281E-04
        -0.45565E-04
         0.28764E-04
         0.22434E-04
        -0.34253E-05
         0.51001E-05
         0.55767E-04
         0.31684E-05
        -0.38537E-03
         0.56095E-03
        -0.11749E-02
        -0.12515E-02
        -0.12005E-02
        -0.66223E-03
         0.16300E-03
         0.45959E-03
         0.57314E-03
         0.10430E-02
         0.11670E-02
         0.45794E-03
         0.15209E-03
         0.12617E-03
        -0.58636E-04
        -0.55707E-03
        -0.10177E-02
        -0.13359E-02
        -0.87966E-03
         0.25498E-03
         0.49011E-03
         0.47110E-03
         0.83087E-03
         0.10098E-02
         0.66983E-03
         0.63124E-03
        -0.21367E-04
         0.28267E-05
        -0.48574E-05
        -0.35617E-05
         0.36644E-04
         0.14185E-04
         0.35273E-05
        -0.24755E-04
        -0.77505E-05
        -0.22931E-04
         0.19213E-05
        -0.38660E-04
        -0.74269E-04
         0.79478E-05
         0.97933E-04
        -0.15768E-04
         0.29470E-05
         0.14361E-05
         0.45641E-05
         0.14245E-05
         0.41930E-04
         0.27874E-04
        -0.16024E-04
         0.31949E-05
         0.79406E-05
        -0.12222E-05
         0.19599E-05
        -0.37379E-06
        -0.16050E-05
        -0.12628E-04
        -0.13086E-04
        -0.20931E-05
         0.52863E-05
         0.41317E-05
         0.86446E-05
        -0.16051E-04
        -0.34938E-04
         0.84554E-04
         0.13555E-04
         0.32320E-04
         0.84854E-04
        -0.20408E-04
        -0.43046E-04
        -0.39011E-04
        -0.38296E-04
        -0.45559E-04
         0.28770E-04
         0.22440E-04
        -0.33904E-05
         0.50824E-05
         0.55717E-04
         0.31076E-05
        -0.38486E-03
         0.56084E-03
        -0.11750E-02
        -0.12515E-02
        -0.12000E-02
        -0.66181E-03
         0.16310E-03
         0.45973E-03
         0.57253E-03
         0.10423E-02
         0.11666E-02
         0.45828E-03
         0.15211E-03
         0.12641E-03
        -0.58121E-04
        -0.55760E-03
        -0.10186E-02
        -0.13365E-02
        -0.87938E-03
         0.25503E-03
         0.48970E-03
         0.47090E-03
         0.83005E-03
         0.10085E-02
         0.66877E-03
         0.63012E-03
        -0.21411E-04
         0.28406E-05
        -0.48647E-05
        -0.35898E-05
         0.36614E-04
         0.14183E-04
         0.35514E-05
        -0.24720E-04
        -0.77712E-05
        -0.22979E-04
         0.18741E-05
        -0.38751E-04
        -0.74339E-04
         0.79355E-05
         0.98002E-04
        -0.15791E-04
         0.29810E-05
         0.14296E-05
         0.45653E-05
         0.14123E-05
         0.42036E-04
         0.27892E-04
        -0.16049E-04
         0.31908E-05
         0.79912E-05
        -0.12202E-05
         0.19922E-05
        -0.36949E-06
        -0.15947E-05
        -0.12657E-04
        -0.13104E-04
        -0.20803E-05
         0.52738E-05
         0.41403E-05
         0.85560E-05
        -0.16058E-04
        -0.34931E-04
         0.84820E-04
         0.13706E-04
         0.32466E-04
         0.85007E-04
        -0.20316E-04
        -0.43077E-04
        -0.39067E-04
        -0.38311E-04
        -0.45553E-04
         0.28775E-04
         0.22446E-04
        -0.33554E-05
         0.50654E-05
         0.55665E-04
         0.30469E-05
        -0.38436E-03
         0.56072E-03
        -0.11751E-02
        -0.12515E-02
        -0.11994E-02
        -0.66138E-03
         0.16320E-03
         0.45987E-03
         0.57193E-03
         0.10416E-02
         0.11662E-02
         0.45864E-03
         0.15212E-03
         0.12666E-03
        -0.57604E-04
        -0.55813E-03
        -0.10194E-02
        -0.13371E-02
        -0.87910E-03
         0.25510E-03
         0.48929E-03
         0.47071E-03
         0.82924E-03
         0.10071E-02
         0.66772E-03
         0.62900E-03
        -0.21455E-04
         0.28547E-05
        -0.48721E-05
        -0.36179E-05
         0.36584E-04
         0.14181E-04
         0.35755E-05
        -0.24684E-04
        -0.77917E-05
        -0.23026E-04
         0.18270E-05
        -0.38842E-04
        -0.74412E-04
         0.79222E-05
         0.98073E-04
        -0.15814E-04
         0.30152E-05
         0.14230E-05
         0.45665E-05
         0.14000E-05
         0.42142E-04
         0.27912E-04
        -0.16073E-04
         0.31867E-05
         0.80415E-05
        -0.12181E-05
         0.20255E-05
        -0.36496E-06
        -0.15842E-05
        -0.12685E-04
        -0.13123E-04
        -0.20673E-05
         0.52612E-05
         0.41487E-05
         0.84671E-05
        -0.16067E-04
        -0.34926E-04
         0.85085E-04
         0.13858E-04
         0.32612E-04
         0.85162E-04
        -0.20224E-04
        -0.43108E-04
        -0.39124E-04
        -0.38328E-04
        -0.45543E-04
         0.28781E-04
         0.22452E-04
        -0.33204E-05
         0.50477E-05
         0.55612E-04
         0.29866E-05
        -0.38386E-03
         0.56061E-03
        -0.11752E-02
        -0.12515E-02
        -0.11989E-02
        -0.66095E-03
         0.16331E-03
         0.46000E-03
         0.57133E-03
         0.10409E-02
         0.11658E-02
         0.45899E-03
         0.15214E-03
         0.12690E-03
        -0.57088E-04
        -0.55866E-03
        -0.10203E-02
        -0.13378E-02
        -0.87882E-03
         0.25516E-03
         0.48888E-03
         0.47052E-03
         0.82843E-03
         0.10058E-02
         0.66666E-03
         0.62788E-03
        -0.21499E-04
         0.28685E-05
        -0.48794E-05
        -0.36459E-05
         0.36555E-04
         0.14179E-04
         0.35998E-05
        -0.24648E-04
        -0.78124E-05
        -0.23073E-04
         0.17800E-05
        -0.38932E-04
        -0.74483E-04
         0.79098E-05
         0.98142E-04
        -0.15836E-04
         0.30495E-05
         0.14166E-05
         0.45681E-05
         0.13879E-05
         0.42247E-04
         0.27930E-04
        -0.16098E-04
         0.31827E-05
         0.80920E-05
        -0.12160E-05
         0.20579E-05
        -0.36029E-06
        -0.15736E-05
        -0.12713E-04
        -0.13142E-04
        -0.20545E-05
         0.52486E-05
         0.41573E-05
         0.83778E-05
        -0.16074E-04
        -0.34919E-04
         0.85352E-04
         0.14010E-04
         0.32759E-04
         0.85316E-04
        -0.20131E-04
        -0.43139E-04
        -0.39180E-04
        -0.38343E-04
        -0.45537E-04
         0.28787E-04
         0.22458E-04
        -0.32855E-05
         0.50301E-05
         0.55562E-04
         0.29268E-05
        -0.38336E-03
         0.56049E-03
        -0.11753E-02
        -0.12515E-02
        -0.11984E-02
        -0.66052E-03
         0.16341E-03
         0.46012E-03
         0.57072E-03
         0.10401E-02
         0.11654E-02
         0.45934E-03
         0.15216E-03
         0.12715E-03
        -0.56574E-04
        -0.55919E-03
        -0.10212E-02
        -0.13384E-02
        -0.87854E-03
         0.25521E-03
         0.48847E-03
         0.47033E-03
         0.82761E-03
         0.10045E-02
         0.66561E-03
         0.62676E-03
        -0.21543E-04
         0.28823E-05
        -0.48868E-05
        -0.36740E-05
         0.36525E-04
         0.14177E-04
         0.36239E-05
        -0.24612E-04
        -0.78331E-05
        -0.23120E-04
         0.17328E-05
        -0.39024E-04
        -0.74553E-04
         0.78963E-05
         0.98211E-04
        -0.15858E-04
         0.30842E-05
         0.14101E-05
         0.45692E-05
         0.13756E-05
         0.42353E-04
         0.27949E-04
        -0.16123E-04
         0.31787E-05
         0.81426E-05
        -0.12139E-05
         0.20909E-05
        -0.35539E-06
        -0.15627E-05
        -0.12742E-04
        -0.13160E-04
        -0.20415E-05
         0.52358E-05
         0.41658E-05
         0.82883E-05
        -0.16082E-04
        -0.34913E-04
         0.85618E-04
         0.14162E-04
         0.32905E-04
         0.85469E-04
        -0.20039E-04
        -0.43170E-04
        -0.39236E-04
        -0.38357E-04
        -0.45531E-04
         0.28792E-04
         0.22465E-04
        -0.32501E-05
         0.50128E-05
         0.55510E-04
         0.28667E-05
        -0.38286E-03
         0.56037E-03
        -0.11753E-02
        -0.12515E-02
        -0.11979E-02
        -0.66008E-03
         0.16351E-03
         0.46024E-03
         0.57012E-03
         0.10394E-02
         0.11651E-02
         0.45969E-03
         0.15217E-03
         0.12740E-03
        -0.56059E-04
        -0.55973E-03
        -0.10221E-02
        -0.13390E-02
        -0.87826E-03
         0.25527E-03
         0.48807E-03
         0.47014E-03
         0.82680E-03
         0.10031E-02
         0.66456E-03
         0.62564E-03
        -0.21587E-04
         0.28963E-05
        -0.48941E-05
        -0.37020E-05
         0.36495E-04
         0.14175E-04
         0.36480E-05
        -0.24575E-04
        -0.78539E-05
        -0.23167E-04
         0.16855E-05
        -0.39115E-04
        -0.74626E-04
         0.78836E-05
         0.98278E-04
        -0.15881E-04
         0.31191E-05
         0.14037E-05
         0.45704E-05
         0.13635E-05
         0.42459E-04
         0.27967E-04
        -0.16148E-04
         0.31748E-05
         0.81929E-05
        -0.12118E-05
         0.21231E-05
        -0.35031E-06
        -0.15516E-05
        -0.12770E-04
        -0.13179E-04
        -0.20287E-05
         0.52228E-05
         0.41744E-05
         0.81981E-05
        -0.16089E-04
        -0.34908E-04
         0.85885E-04
         0.14316E-04
         0.33050E-04
         0.85623E-04
        -0.19947E-04
        -0.43202E-04
        -0.39290E-04
        -0.38374E-04
        -0.45523E-04
         0.28798E-04
         0.22470E-04
        -0.32153E-05
         0.49952E-05
         0.55459E-04
         0.28068E-05
        -0.38236E-03
         0.56025E-03
        -0.11754E-02
        -0.12515E-02
        -0.11974E-02
        -0.65965E-03
         0.16361E-03
         0.46036E-03
         0.56953E-03
         0.10387E-02
         0.11647E-02
         0.46004E-03
         0.15219E-03
         0.12764E-03
        -0.55543E-04
        -0.56025E-03
        -0.10230E-02
        -0.13397E-02
        -0.87798E-03
         0.25533E-03
         0.48766E-03
         0.46995E-03
         0.82598E-03
         0.10018E-02
         0.66352E-03
         0.62452E-03
        -0.21631E-04
         0.29102E-05
        -0.49016E-05
        -0.37301E-05
         0.36467E-04
         0.14173E-04
         0.36724E-05
        -0.24538E-04
        -0.78745E-05
        -0.23212E-04
         0.16382E-05
        -0.39206E-04
        -0.74698E-04
         0.78698E-05
         0.98346E-04
        -0.15904E-04
         0.31542E-05
         0.13973E-05
         0.45718E-05
         0.13515E-05
         0.42564E-04
         0.27984E-04
        -0.16172E-04
         0.31709E-05
         0.82430E-05
        -0.12096E-05
         0.21561E-05
        -0.34496E-06
        -0.15401E-05
        -0.12798E-04
        -0.13197E-04
        -0.20159E-05
         0.52098E-05
         0.41831E-05
         0.81077E-05
        -0.16097E-04
        -0.34901E-04
         0.86151E-04
         0.14472E-04
         0.33198E-04
         0.85774E-04
        -0.19855E-04
        -0.43233E-04
        -0.39347E-04
        -0.38389E-04
        -0.45517E-04
         0.28804E-04
         0.22477E-04
        -0.31806E-05
         0.49776E-05
         0.55407E-04
         0.27475E-05
        -0.38186E-03
         0.56013E-03
        -0.11755E-02
        -0.12516E-02
        -0.11969E-02
        -0.65922E-03
         0.16370E-03
         0.46049E-03
         0.56893E-03
         0.10379E-02
         0.11643E-02
         0.46040E-03
         0.15220E-03
         0.12789E-03
        -0.55029E-04
        -0.56078E-03
        -0.10238E-02
        -0.13403E-02
        -0.87770E-03
         0.25539E-03
         0.48725E-03
         0.46976E-03
         0.82517E-03
         0.10005E-02
         0.66248E-03
         0.62341E-03
        -0.21675E-04
         0.29240E-05
        -0.49088E-05
        -0.37584E-05
         0.36437E-04
         0.14171E-04
         0.36965E-05
        -0.24501E-04
        -0.78946E-05
        -0.23255E-04
         0.15909E-05
        -0.39298E-04
        -0.74768E-04
         0.78567E-05
         0.98411E-04
        -0.15926E-04
         0.31898E-05
         0.13908E-05
         0.45737E-05
         0.13401E-05
         0.42669E-04
         0.28000E-04
        -0.16197E-04
         0.31668E-05
         0.82919E-05
        -0.12076E-05
         0.21886E-05
        -0.33922E-06
        -0.15285E-05
        -0.12825E-04
        -0.13216E-04
        -0.20028E-05
         0.51965E-05
         0.41918E-05
         0.80170E-05
        -0.16105E-04
        -0.34895E-04
         0.86417E-04
         0.14631E-04
         0.33340E-04
         0.85921E-04
        -0.19761E-04
        -0.43264E-04
        -0.39403E-04
        -0.38404E-04
        -0.45509E-04
         0.28809E-04
         0.22483E-04
        -0.31459E-05
         0.49601E-05
         0.55358E-04
         0.26883E-05
        -0.38136E-03
         0.56001E-03
        -0.11756E-02
        -0.12516E-02
        -0.11964E-02
        -0.65879E-03
         0.16380E-03
         0.46061E-03
         0.56833E-03
         0.10372E-02
         0.11639E-02
         0.46077E-03
         0.15220E-03
         0.12813E-03
        -0.54517E-04
        -0.56131E-03
        -0.10247E-02
        -0.13409E-02
        -0.87742E-03
         0.25544E-03
         0.48684E-03
         0.46956E-03
         0.82435E-03
         0.99913E-03
         0.66144E-03
         0.62229E-03
        -0.21719E-04
         0.29378E-05
        -0.49160E-05
        -0.37867E-05
         0.36407E-04
         0.14168E-04
         0.37207E-05
        -0.24463E-04
        -0.79143E-05
        -0.23294E-04
         0.15436E-05
        -0.39389E-04
        -0.74841E-04
         0.78434E-05
         0.98475E-04
        -0.15948E-04
         0.32258E-05
         0.13843E-05
         0.45751E-05
         0.13290E-05
         0.42775E-04
         0.28016E-04
        -0.16222E-04
         0.31630E-05
         0.83395E-05
        -0.12053E-05
         0.22223E-05
        -0.33302E-06
        -0.15166E-05
        -0.12851E-04
        -0.13234E-04
        -0.19899E-05
         0.51830E-05
         0.42004E-05
         0.79256E-05
        -0.16112E-04
        -0.34889E-04
         0.86683E-04
         0.14795E-04
         0.33483E-04
         0.86061E-04
        -0.19665E-04
        -0.43296E-04
        -0.39459E-04
        -0.38421E-04
        -0.45503E-04
         0.28815E-04
         0.22489E-04
        -0.31111E-05
         0.49428E-05
         0.55304E-04
         0.26289E-05
        -0.38085E-03
         0.55989E-03
        -0.11756E-02
        -0.12516E-02
        -0.11958E-02
        -0.65836E-03
         0.16389E-03
         0.46073E-03
         0.56774E-03
         0.10364E-02
         0.11636E-02
         0.46116E-03
         0.15220E-03
         0.12837E-03
        -0.54000E-04
        -0.56184E-03
        -0.10256E-02
        -0.13415E-02
        -0.87714E-03
         0.25550E-03
         0.48644E-03
         0.46937E-03
         0.82354E-03
         0.99781E-03
         0.66041E-03
         0.62118E-03
        -0.21764E-04
         0.29517E-05
        -0.49236E-05
        -0.38149E-05
         0.36379E-04
         0.14167E-04
         0.37449E-05
        -0.24425E-04
        -0.79339E-05
        -0.23332E-04
         0.14965E-05
        -0.39478E-04
        -0.74911E-04
         0.78291E-05
         0.98538E-04
        -0.15971E-04
         0.32622E-05
         0.13779E-05
         0.45764E-05
         0.13182E-05
         0.42881E-04
         0.28031E-04
        -0.16245E-04
         0.31594E-05
         0.83867E-05
        -0.12032E-05
         0.22551E-05
        -0.32651E-06
        -0.15047E-05
        -0.12877E-04
        -0.13253E-04
        -0.19773E-05
         0.51697E-05
         0.42093E-05
         0.78351E-05
        -0.16120E-04
        -0.34882E-04
         0.86947E-04
         0.14960E-04
         0.33622E-04
         0.86198E-04
        -0.19572E-04
        -0.43328E-04
        -0.39514E-04
        -0.38435E-04
        -0.45496E-04
         0.28821E-04
         0.22496E-04
        -0.30766E-05
         0.49250E-05
         0.55256E-04
         0.25700E-05
        -0.38035E-03
         0.55978E-03
        -0.11757E-02
        -0.12516E-02
        -0.11953E-02
        -0.65792E-03
         0.16398E-03
         0.46085E-03
         0.56715E-03
         0.10356E-02
         0.11633E-02
         0.46154E-03
         0.15219E-03
         0.12861E-03
        -0.53484E-04
        -0.56236E-03
        -0.10265E-02
        -0.13422E-02
        -0.87687E-03
         0.25556E-03
         0.48603E-03
         0.46918E-03
         0.82273E-03
         0.99649E-03
         0.65938E-03
         0.62007E-03
        -0.21988E-04
         0.29878E-05
        -0.49734E-05
        -0.38736E-05
         0.36649E-04
         0.14280E-04
         0.37987E-05
        -0.24597E-04
        -0.80174E-05
        -0.23566E-04
         0.14678E-05
        -0.39869E-04
        -0.75580E-04
         0.78824E-05
         0.99436E-04
        -0.16125E-04
         0.33238E-05
         0.13832E-05
         0.46142E-05
         0.13190E-05
         0.43318E-04
         0.28272E-04
        -0.16382E-04
         0.31838E-05
         0.85012E-05
        -0.12122E-05
         0.23046E-05
        -0.32254E-06
        -0.15084E-05
        -0.13010E-04
        -0.13382E-04
        -0.19845E-05
         0.52005E-05
         0.42530E-05
         0.78168E-05
        -0.16252E-04
        -0.35151E-04
         0.87930E-04
         0.15239E-04
         0.34033E-04
         0.87043E-04
        -0.19665E-04
        -0.43726E-04
        -0.39858E-04
        -0.38742E-04
        -0.45839E-04
         0.29053E-04
         0.22679E-04
        -0.30703E-05
         0.49474E-05
         0.55655E-04
         0.25327E-05
        -0.38302E-03
         0.56441E-03
        -0.11857E-02
        -0.12620E-02
        -0.12050E-02
        -0.66316E-03
         0.16558E-03
         0.46501E-03
         0.57165E-03
         0.10442E-02
         0.11733E-02
         0.46577E-03
         0.15337E-03
         0.12985E-03
        -0.53406E-04
        -0.56712E-03
        -0.10351E-02
        -0.13536E-02
        -0.88403E-03
         0.25786E-03
         0.48968E-03
         0.47275E-03
         0.82868E-03
         0.10034E-02
         0.66375E-03
         0.62401E-03
        -0.49072E-04
         0.67418E-05
        -0.11062E-04
        -0.87176E-05
         0.75904E-04
         0.30146E-04
         0.85355E-05
        -0.54333E-04
        -0.17806E-04
        -0.51868E-04
         0.31341E-05
        -0.79787E-04
        -0.15571E-03
         0.16914E-04
         0.20115E-03
        -0.36045E-04
         0.74371E-05
         0.30849E-05
         0.10041E-04
         0.28767E-05
         0.89214E-04
         0.59664E-04
        -0.33843E-04
         0.70336E-05
         0.19089E-04
        -0.27233E-05
         0.50721E-05
        -0.71200E-06
        -0.33938E-05
        -0.29128E-04
        -0.29932E-04
        -0.44107E-05
         0.11646E-04
         0.95366E-05
         0.15397E-04
        -0.34248E-04
        -0.74111E-04
         0.18604E-03
         0.33274E-04
         0.74618E-04
         0.18548E-03
        -0.42420E-04
        -0.94399E-04
        -0.83576E-04
        -0.80698E-04
        -0.90176E-04
         0.60123E-04
         0.48116E-04
        -0.65334E-05
         0.10490E-04
         0.11257E-03
         0.52295E-05
        -0.60371E-03
         0.88742E-03
        -0.18660E-02
        -0.19967E-02
        -0.19043E-02
        -0.10537E-02
         0.26953E-03
         0.76870E-03
         0.94089E-03
         0.16996E-02
         0.19139E-02
         0.75656E-03
         0.25410E-03
         0.21670E-03
        -0.86216E-04
        -0.90091E-03
        -0.16347E-02
        -0.21161E-02
        -0.13809E-02
         0.40414E-03
         0.78200E-03
         0.76136E-03
         0.13254E-02
         0.16156E-02
         0.10618E-02
         0.99082E-03
  
SCALARS                      strain_eq  double 1
LOOKUP_TABLE default
         0.33919E+01
         0.33385E+01
         0.33724E+01
         0.34330E+01
         0.19071E-08
         0.21146E-08
         0.20545E-08
         0.18486E-08
         0.33371E+01
         0.33549E+01
         0.20798E-08
         0.19890E-08
         0.32613E+01
         0.32584E+01
         0.22754E-08
         0.21669E-08
         0.34241E+01
         0.32626E+01
         0.16975E-08
         0.19091E-08
         0.32032E+01
         0.31573E+01
         0.32307E+01
         0.23435E-08
         0.22356E-08
         0.22236E-08
         0.31590E+01
         0.30918E+01
         0.22700E-08
         0.20617E-08
         0.34212E+01
         0.33509E+01
         0.34893E+01
         0.18472E-08
         0.17346E-08
         0.16615E-08
         0.33806E+01
         0.32910E+01
         0.20138E-08
         0.18359E-08
         0.33452E+01
         0.32762E+01
         0.18732E-08
         0.16160E-08
         0.34037E+01
         0.34295E+01
         0.20227E-08
         0.20976E-08
         0.32206E+01
         0.18128E-08
         0.34245E+01
         0.21079E-08
         0.31395E+01
         0.19819E-08
         0.31183E+01
         0.18294E-08
         0.31188E+01
         0.31939E+01
         0.18538E-08
         0.18229E-08
         0.34198E+01
         0.33929E+01
         0.18705E-08
         0.21173E-08
         0.34366E+01
         0.17953E-08
         0.34046E+01
         0.19662E-08
         0.33209E+01
         0.33120E+01
         0.21032E-08
         0.21019E-08
         0.32927E+01
         0.21270E-08
         0.30679E+01
         0.17002E-08
         0.30562E+01
         0.15825E-08
         0.30623E+01
         0.16486E-08
         0.30953E+01
         0.31287E+01
         0.15945E-08
         0.16562E-08
         0.31966E+01
         0.15598E-08
         0.34024E+01
         0.20943E-08
         0.33706E+01
         0.21326E-08
         0.33447E+01
         0.33297E+01
         0.21306E-08
         0.20901E-08
         0.33473E+01
         0.18756E-08
         0.33599E+01
         0.18364E-08
         0.33486E+01
         0.19864E-08
         0.33450E+01
         0.33563E+01
         0.20421E-08
         0.20365E-08
         0.32834E+01
         0.33144E+01
         0.19417E-08
         0.18743E-08
         0.32783E+01
         0.18857E-08
         0.33140E+01
         0.18411E-08
         0.32792E+01
         0.18389E-08
         0.32028E+01
         0.17240E-08
         0.31291E+01
         0.14588E-08
         0.30847E+01
         0.12326E-08
         0.30802E+01
         0.11955E-08
         0.30815E+01
         0.12737E-08
         0.31295E+01
         0.13139E-08
         0.32203E+01
         0.12309E-08
         0.33196E+01
         0.11234E-08
         0.33771E+01
         0.11626E-08
         0.34341E+01
         0.13781E-08
         0.34718E+01
         0.16089E-08
         0.34707E+01
         0.17148E-08
         0.33780E+01
         0.18310E-08
         0.33131E+01
         0.19242E-08
         0.32920E+01
         0.17953E-08
         0.33270E+01
         0.15806E-08
         0.33446E+01
         0.15775E-08
         0.33137E+01
         0.17359E-08
         0.33135E+01
         0.18420E-08
         0.33368E+01
         0.17824E-08
         0.33670E+01
         0.17427E-08
         0.38305E+00
         0.38582E+00
         0.38545E+00
         0.38170E+00
         0.38850E+00
         0.38522E+00
         0.38906E+00
         0.38711E+00
         0.38234E+00
         0.38541E+00
         0.39109E+00
         0.39203E+00
         0.39033E+00
         0.38997E+00
         0.39137E+00
         0.38190E+00
         0.38261E+00
         0.38055E+00
         0.38610E+00
         0.38515E+00
         0.38673E+00
         0.38586E+00
         0.38746E+00
         0.38684E+00
         0.38526E+00
         0.38534E+00
         0.38803E+00
         0.38778E+00
         0.38967E+00
         0.38681E+00
         0.38225E+00
         0.38584E+00
         0.38227E+00
         0.38466E+00
         0.39239E+00
         0.39002E+00
         0.38895E+00
         0.39040E+00
         0.39048E+00
         0.39245E+00
         0.39405E+00
         0.39044E+00
         0.38674E+00
         0.38717E+00
         0.38909E+00
         0.39236E+00
         0.38951E+00
         0.38638E+00
         0.38658E+00
         0.38902E+00
         0.39148E+00
         0.38822E+00
         0.39952E+00
         0.39767E+00
         0.39830E+00
         0.39799E+00
         0.39854E+00
         0.40031E+00
         0.40126E+00
         0.40093E+00
         0.40060E+00
         0.40097E+00
         0.40120E+00
         0.39831E+00
         0.39625E+00
         0.39546E+00
         0.39490E+00
         0.39451E+00
         0.39480E+00
         0.39617E+00
         0.39915E+00
         0.39875E+00
         0.39731E+00
         0.39701E+00
         0.39727E+00
         0.39812E+00
         0.39677E+00
         0.39631E+00
         0.13550E-01
         0.81413E-02
         0.76793E-02
         0.52659E-02
         0.14071E-01
         0.97287E-02
         0.42943E-02
         0.13326E-01
         0.83476E-02
         0.12557E-01
         0.61224E-02
         0.26382E-01
         0.20034E-01
         0.10020E-01
         0.27631E-01
         0.98453E-02
         0.49877E-02
         0.31822E-02
         0.66293E-02
         0.35890E-02
         0.20747E-01
         0.19464E-01
         0.18955E-01
         0.49328E-02
         0.81035E-02
         0.25767E-02
         0.94533E-02
         0.15354E-02
         0.34623E-02
         0.87896E-02
         0.84105E-02
         0.44736E-02
         0.54476E-02
         0.47127E-02
         0.18189E-01
         0.10885E-01
         0.14089E-01
         0.22534E-01
         0.17334E-01
         0.16133E-01
         0.22914E-01
         0.20772E-01
         0.20910E-01
         0.16187E-01
         0.14456E-01
         0.19775E-01
         0.12964E-01
         0.11023E-01
         0.90900E-02
         0.10734E-01
         0.17551E-01
         0.12050E-01
         0.77065E-01
         0.78909E-01
         0.82484E-01
         0.81886E-01
         0.87291E-01
         0.93725E-01
         0.89936E-01
         0.79969E-01
         0.77930E-01
         0.83404E-01
         0.81740E-01
         0.80627E-01
         0.66648E-01
         0.63356E-01
         0.69603E-01
         0.74554E-01
         0.77369E-01
         0.84493E-01
         0.81274E-01
         0.83475E-01
         0.75162E-01
         0.71364E-01
         0.76108E-01
         0.74402E-01
         0.76563E-01
         0.75918E-01
         0.13560E-01
         0.81431E-02
         0.76836E-02
         0.52734E-02
         0.14065E-01
         0.97231E-02
         0.43073E-02
         0.13339E-01
         0.83621E-02
         0.12594E-01
         0.61223E-02
         0.26381E-01
         0.20041E-01
         0.99962E-02
         0.27660E-01
         0.98531E-02
         0.50017E-02
         0.31742E-02
         0.66331E-02
         0.35811E-02
         0.20749E-01
         0.19463E-01
         0.18954E-01
         0.49327E-02
         0.81384E-02
         0.25761E-02
         0.94564E-02
         0.15191E-02
         0.34788E-02
         0.88051E-02
         0.84186E-02
         0.44722E-02
         0.54384E-02
         0.47170E-02
         0.18197E-01
         0.10882E-01
         0.14086E-01
         0.22569E-01
         0.17372E-01
         0.16156E-01
         0.22929E-01
         0.20782E-01
         0.20912E-01
         0.16187E-01
         0.14453E-01
         0.19774E-01
         0.12964E-01
         0.11022E-01
         0.90770E-02
         0.10719E-01
         0.17541E-01
         0.12031E-01
         0.77037E-01
         0.78890E-01
         0.82484E-01
         0.81886E-01
         0.87277E-01
         0.93694E-01
         0.89899E-01
         0.79948E-01
         0.77910E-01
         0.83379E-01
         0.81726E-01
         0.80630E-01
         0.66642E-01
         0.63353E-01
         0.69611E-01
         0.74572E-01
         0.77389E-01
         0.84511E-01
         0.81269E-01
         0.83470E-01
         0.75154E-01
         0.71360E-01
         0.76082E-01
         0.74353E-01
         0.76520E-01
         0.75877E-01
         0.13570E-01
         0.81450E-02
         0.76880E-02
         0.52810E-02
         0.14058E-01
         0.97177E-02
         0.43204E-02
         0.13352E-01
         0.83766E-02
         0.12631E-01
         0.61222E-02
         0.26381E-01
         0.20049E-01
         0.99727E-02
         0.27688E-01
         0.98612E-02
         0.50159E-02
         0.31661E-02
         0.66371E-02
         0.35733E-02
         0.20751E-01
         0.19462E-01
         0.18953E-01
         0.49325E-02
         0.81730E-02
         0.25754E-02
         0.94595E-02
         0.15035E-02
         0.34951E-02
         0.88201E-02
         0.84268E-02
         0.44707E-02
         0.54292E-02
         0.47212E-02
         0.18206E-01
         0.10879E-01
         0.14083E-01
         0.22604E-01
         0.17411E-01
         0.16178E-01
         0.22944E-01
         0.20793E-01
         0.20915E-01
         0.16187E-01
         0.14450E-01
         0.19773E-01
         0.12964E-01
         0.11022E-01
         0.90642E-02
         0.10705E-01
         0.17532E-01
         0.12013E-01
         0.77010E-01
         0.78871E-01
         0.82484E-01
         0.81887E-01
         0.87263E-01
         0.93662E-01
         0.89862E-01
         0.79926E-01
         0.77890E-01
         0.83354E-01
         0.81712E-01
         0.80633E-01
         0.66636E-01
         0.63351E-01
         0.69619E-01
         0.74591E-01
         0.77409E-01
         0.84530E-01
         0.81265E-01
         0.83465E-01
         0.75146E-01
         0.71355E-01
         0.76056E-01
         0.74304E-01
         0.76477E-01
         0.75837E-01
         0.13580E-01
         0.81469E-02
         0.76924E-02
         0.52886E-02
         0.14052E-01
         0.97122E-02
         0.43336E-02
         0.13365E-01
         0.83910E-02
         0.12667E-01
         0.61223E-02
         0.26380E-01
         0.20058E-01
         0.99493E-02
         0.27717E-01
         0.98700E-02
         0.50307E-02
         0.31579E-02
         0.66413E-02
         0.35652E-02
         0.20753E-01
         0.19461E-01
         0.18953E-01
         0.49320E-02
         0.82069E-02
         0.25742E-02
         0.94621E-02
         0.14897E-02
         0.35106E-02
         0.88337E-02
         0.84354E-02
         0.44696E-02
         0.54199E-02
         0.47255E-02
         0.18213E-01
         0.10876E-01
         0.14080E-01
         0.22639E-01
         0.17451E-01
         0.16202E-01
         0.22961E-01
         0.20805E-01
         0.20919E-01
         0.16189E-01
         0.14449E-01
         0.19773E-01
         0.12965E-01
         0.11021E-01
         0.90513E-02
         0.10690E-01
         0.17522E-01
         0.11994E-01
         0.76982E-01
         0.78853E-01
         0.82483E-01
         0.81887E-01
         0.87248E-01
         0.93631E-01
         0.89824E-01
         0.79905E-01
         0.77870E-01
         0.83328E-01
         0.81699E-01
         0.80637E-01
         0.66631E-01
         0.63349E-01
         0.69629E-01
         0.74612E-01
         0.77432E-01
         0.84549E-01
         0.81260E-01
         0.83460E-01
         0.75137E-01
         0.71351E-01
         0.76030E-01
         0.74256E-01
         0.76434E-01
         0.75797E-01
         0.13590E-01
         0.81487E-02
         0.76968E-02
         0.52962E-02
         0.14046E-01
         0.97066E-02
         0.43467E-02
         0.13377E-01
         0.84053E-02
         0.12702E-01
         0.61224E-02
         0.26379E-01
         0.20065E-01
         0.99259E-02
         0.27746E-01
         0.98795E-02
         0.50460E-02
         0.31498E-02
         0.66457E-02
         0.35569E-02
         0.20756E-01
         0.19460E-01
         0.18954E-01
         0.49312E-02
         0.82399E-02
         0.25724E-02
         0.94643E-02
         0.14777E-02
         0.35251E-02
         0.88459E-02
         0.84442E-02
         0.44686E-02
         0.54107E-02
         0.47298E-02
         0.18222E-01
         0.10873E-01
         0.14076E-01
         0.22675E-01
         0.17492E-01
         0.16227E-01
         0.22978E-01
         0.20817E-01
         0.20924E-01
         0.16192E-01
         0.14448E-01
         0.19774E-01
         0.12966E-01
         0.11021E-01
         0.90386E-02
         0.10675E-01
         0.17512E-01
         0.11976E-01
         0.76954E-01
         0.78834E-01
         0.82483E-01
         0.81888E-01
         0.87234E-01
         0.93599E-01
         0.89787E-01
         0.79884E-01
         0.77851E-01
         0.83303E-01
         0.81685E-01
         0.80642E-01
         0.66628E-01
         0.63348E-01
         0.69639E-01
         0.74636E-01
         0.77458E-01
         0.84570E-01
         0.81256E-01
         0.83455E-01
         0.75129E-01
         0.71346E-01
         0.76004E-01
         0.74207E-01
         0.76391E-01
         0.75756E-01
         0.13600E-01
         0.81501E-02
         0.77010E-02
         0.53038E-02
         0.14039E-01
         0.97010E-02
         0.43594E-02
         0.13389E-01
         0.84197E-02
         0.12736E-01
         0.61231E-02
         0.26378E-01
         0.20074E-01
         0.99025E-02
         0.27774E-01
         0.98893E-02
         0.50614E-02
         0.31416E-02
         0.66500E-02
         0.35488E-02
         0.20760E-01
         0.19460E-01
         0.18956E-01
         0.49304E-02
         0.82723E-02
         0.25705E-02
         0.94665E-02
         0.14666E-02
         0.35394E-02
         0.88577E-02
         0.84529E-02
         0.44673E-02
         0.54014E-02
         0.47341E-02
         0.18230E-01
         0.10870E-01
         0.14074E-01
         0.22710E-01
         0.17532E-01
         0.16252E-01
         0.22996E-01
         0.20829E-01
         0.20929E-01
         0.16196E-01
         0.14449E-01
         0.19776E-01
         0.12968E-01
         0.11021E-01
         0.90265E-02
         0.10661E-01
         0.17503E-01
         0.11958E-01
         0.76926E-01
         0.78815E-01
         0.82482E-01
         0.81888E-01
         0.87220E-01
         0.93567E-01
         0.89749E-01
         0.79862E-01
         0.77831E-01
         0.83278E-01
         0.81672E-01
         0.80647E-01
         0.66626E-01
         0.63346E-01
         0.69649E-01
         0.74661E-01
         0.77485E-01
         0.84590E-01
         0.81252E-01
         0.83450E-01
         0.75122E-01
         0.71342E-01
         0.75978E-01
         0.74158E-01
         0.76348E-01
         0.75716E-01
         0.13609E-01
         0.81503E-02
         0.77050E-02
         0.53115E-02
         0.14033E-01
         0.96957E-02
         0.43717E-02
         0.13399E-01
         0.84344E-02
         0.12769E-01
         0.61247E-02
         0.26379E-01
         0.20083E-01
         0.98793E-02
         0.27803E-01
         0.98991E-02
         0.50765E-02
         0.31334E-02
         0.66545E-02
         0.35408E-02
         0.20764E-01
         0.19460E-01
         0.18959E-01
         0.49298E-02
         0.83036E-02
         0.25682E-02
         0.94690E-02
         0.14558E-02
         0.35540E-02
         0.88695E-02
         0.84609E-02
         0.44651E-02
         0.53921E-02
         0.47382E-02
         0.18238E-01
         0.10868E-01
         0.14071E-01
         0.22746E-01
         0.17574E-01
         0.16278E-01
         0.23015E-01
         0.20842E-01
         0.20934E-01
         0.16201E-01
         0.14449E-01
         0.19778E-01
         0.12971E-01
         0.11022E-01
         0.90162E-02
         0.10647E-01
         0.17494E-01
         0.11940E-01
         0.76898E-01
         0.78796E-01
         0.82482E-01
         0.81889E-01
         0.87205E-01
         0.93535E-01
         0.89711E-01
         0.79841E-01
         0.77811E-01
         0.83252E-01
         0.81659E-01
         0.80653E-01
         0.66624E-01
         0.63345E-01
         0.69660E-01
         0.74685E-01
         0.77512E-01
         0.84610E-01
         0.81247E-01
         0.83445E-01
         0.75115E-01
         0.71338E-01
         0.75951E-01
         0.74110E-01
         0.76305E-01
         0.75676E-01
         0.13618E-01
         0.81504E-02
         0.77090E-02
         0.53191E-02
         0.14027E-01
         0.96901E-02
         0.43836E-02
         0.13408E-01
         0.84492E-02
         0.12801E-01
         0.61268E-02
         0.26379E-01
         0.20092E-01
         0.98562E-02
         0.27832E-01
         0.99090E-02
         0.50915E-02
         0.31251E-02
         0.66589E-02
         0.35331E-02
         0.20767E-01
         0.19460E-01
         0.18960E-01
         0.49292E-02
         0.83345E-02
         0.25657E-02
         0.94716E-02
         0.14454E-02
         0.35691E-02
         0.88812E-02
         0.84687E-02
         0.44625E-02
         0.53827E-02
         0.47423E-02
         0.18247E-01
         0.10867E-01
         0.14069E-01
         0.22782E-01
         0.17615E-01
         0.16304E-01
         0.23033E-01
         0.20854E-01
         0.20940E-01
         0.16205E-01
         0.14451E-01
         0.19782E-01
         0.12974E-01
         0.11024E-01
         0.90065E-02
         0.10633E-01
         0.17486E-01
         0.11922E-01
         0.76870E-01
         0.78778E-01
         0.82481E-01
         0.81889E-01
         0.87191E-01
         0.93504E-01
         0.89673E-01
         0.79820E-01
         0.77792E-01
         0.83227E-01
         0.81646E-01
         0.80658E-01
         0.66621E-01
         0.63344E-01
         0.69670E-01
         0.74710E-01
         0.77538E-01
         0.84630E-01
         0.81241E-01
         0.83440E-01
         0.75108E-01
         0.71335E-01
         0.75925E-01
         0.74061E-01
         0.76263E-01
         0.75636E-01
         0.13626E-01
         0.81504E-02
         0.77129E-02
         0.53268E-02
         0.14021E-01
         0.96846E-02
         0.43956E-02
         0.13417E-01
         0.84641E-02
         0.12833E-01
         0.61287E-02
         0.26379E-01
         0.20101E-01
         0.98334E-02
         0.27861E-01
         0.99188E-02
         0.51065E-02
         0.31168E-02
         0.66633E-02
         0.35253E-02
         0.20771E-01
         0.19460E-01
         0.18963E-01
         0.49287E-02
         0.83653E-02
         0.25633E-02
         0.94743E-02
         0.14352E-02
         0.35842E-02
         0.88930E-02
         0.84765E-02
         0.44598E-02
         0.53734E-02
         0.47464E-02
         0.18256E-01
         0.10865E-01
         0.14067E-01
         0.22819E-01
         0.17657E-01
         0.16329E-01
         0.23051E-01
         0.20867E-01
         0.20945E-01
         0.16210E-01
         0.14452E-01
         0.19785E-01
         0.12977E-01
         0.11026E-01
         0.89970E-02
         0.10620E-01
         0.17478E-01
         0.11904E-01
         0.76842E-01
         0.78759E-01
         0.82479E-01
         0.81890E-01
         0.87176E-01
         0.93472E-01
         0.89635E-01
         0.79798E-01
         0.77772E-01
         0.83201E-01
         0.81632E-01
         0.80663E-01
         0.66619E-01
         0.63343E-01
         0.69681E-01
         0.74735E-01
         0.77565E-01
         0.84649E-01
         0.81235E-01
         0.83435E-01
         0.75101E-01
         0.71332E-01
         0.75899E-01
         0.74013E-01
         0.76220E-01
         0.75595E-01
         0.13634E-01
         0.81503E-02
         0.77168E-02
         0.53345E-02
         0.14015E-01
         0.96790E-02
         0.44075E-02
         0.13426E-01
         0.84790E-02
         0.12864E-01
         0.61310E-02
         0.26379E-01
         0.20110E-01
         0.98105E-02
         0.27890E-01
         0.99286E-02
         0.51215E-02
         0.31086E-02
         0.66677E-02
         0.35176E-02
         0.20774E-01
         0.19460E-01
         0.18964E-01
         0.49283E-02
         0.83961E-02
         0.25609E-02
         0.94770E-02
         0.14255E-02
         0.35995E-02
         0.89048E-02
         0.84842E-02
         0.44572E-02
         0.53641E-02
         0.47505E-02
         0.18265E-01
         0.10863E-01
         0.14066E-01
         0.22855E-01
         0.17698E-01
         0.16355E-01
         0.23069E-01
         0.20880E-01
         0.20951E-01
         0.16214E-01
         0.14454E-01
         0.19788E-01
         0.12981E-01
         0.11028E-01
         0.89874E-02
         0.10606E-01
         0.17469E-01
         0.11886E-01
         0.76814E-01
         0.78741E-01
         0.82478E-01
         0.81890E-01
         0.87162E-01
         0.93440E-01
         0.89596E-01
         0.79776E-01
         0.77753E-01
         0.83175E-01
         0.81619E-01
         0.80669E-01
         0.66616E-01
         0.63342E-01
         0.69692E-01
         0.74760E-01
         0.77592E-01
         0.84669E-01
         0.81230E-01
         0.83430E-01
         0.75094E-01
         0.71329E-01
         0.75873E-01
         0.73965E-01
         0.76178E-01
         0.75555E-01
         0.13643E-01
         0.81501E-02
         0.77207E-02
         0.53422E-02
         0.14009E-01
         0.96737E-02
         0.44197E-02
         0.13436E-01
         0.84940E-02
         0.12896E-01
         0.61334E-02
         0.26379E-01
         0.20119E-01
         0.97876E-02
         0.27919E-01
         0.99384E-02
         0.51366E-02
         0.31005E-02
         0.66721E-02
         0.35096E-02
         0.20778E-01
         0.19460E-01
         0.18967E-01
         0.49278E-02
         0.84267E-02
         0.25585E-02
         0.94798E-02
         0.14160E-02
         0.36149E-02
         0.89165E-02
         0.84919E-02
         0.44545E-02
         0.53549E-02
         0.47546E-02
         0.18274E-01
         0.10861E-01
         0.14064E-01
         0.22891E-01
         0.17740E-01
         0.16380E-01
         0.23088E-01
         0.20892E-01
         0.20956E-01
         0.16219E-01
         0.14455E-01
         0.19791E-01
         0.12984E-01
         0.11029E-01
         0.89779E-02
         0.10593E-01
         0.17461E-01
         0.11868E-01
         0.76786E-01
         0.78722E-01
         0.82477E-01
         0.81890E-01
         0.87147E-01
         0.93408E-01
         0.89558E-01
         0.79755E-01
         0.77733E-01
         0.83149E-01
         0.81606E-01
         0.80674E-01
         0.66613E-01
         0.63340E-01
         0.69702E-01
         0.74785E-01
         0.77618E-01
         0.84689E-01
         0.81224E-01
         0.83424E-01
         0.75087E-01
         0.71325E-01
         0.75846E-01
         0.73916E-01
         0.76135E-01
         0.75515E-01
         0.13651E-01
         0.81501E-02
         0.77246E-02
         0.53499E-02
         0.14003E-01
         0.96681E-02
         0.44317E-02
         0.13445E-01
         0.85089E-02
         0.12928E-01
         0.61358E-02
         0.26379E-01
         0.20128E-01
         0.97649E-02
         0.27948E-01
         0.99482E-02
         0.51517E-02
         0.30922E-02
         0.66765E-02
         0.35020E-02
         0.20781E-01
         0.19460E-01
         0.18969E-01
         0.49274E-02
         0.84574E-02
         0.25562E-02
         0.94826E-02
         0.14069E-02
         0.36303E-02
         0.89283E-02
         0.84997E-02
         0.44519E-02
         0.53457E-02
         0.47588E-02
         0.18283E-01
         0.10860E-01
         0.14062E-01
         0.22927E-01
         0.17781E-01
         0.16406E-01
         0.23106E-01
         0.20905E-01
         0.20961E-01
         0.16223E-01
         0.14457E-01
         0.19794E-01
         0.12987E-01
         0.11031E-01
         0.89684E-02
         0.10579E-01
         0.17453E-01
         0.11851E-01
         0.76758E-01
         0.78703E-01
         0.82476E-01
         0.81891E-01
         0.87133E-01
         0.93376E-01
         0.89520E-01
         0.79733E-01
         0.77714E-01
         0.83123E-01
         0.81592E-01
         0.80679E-01
         0.66611E-01
         0.63339E-01
         0.69713E-01
         0.74810E-01
         0.77645E-01
         0.84708E-01
         0.81219E-01
         0.83419E-01
         0.75081E-01
         0.71322E-01
         0.75820E-01
         0.73868E-01
         0.76093E-01
         0.75475E-01
         0.13660E-01
         0.81500E-02
         0.77285E-02
         0.53577E-02
         0.13998E-01
         0.96626E-02
         0.44437E-02
         0.13454E-01
         0.85238E-02
         0.12960E-01
         0.61384E-02
         0.26379E-01
         0.20137E-01
         0.97420E-02
         0.27978E-01
         0.99580E-02
         0.51667E-02
         0.30839E-02
         0.66809E-02
         0.34942E-02
         0.20785E-01
         0.19460E-01
         0.18971E-01
         0.49270E-02
         0.84879E-02
         0.25539E-02
         0.94853E-02
         0.13981E-02
         0.36460E-02
         0.89399E-02
         0.85075E-02
         0.44492E-02
         0.53365E-02
         0.47629E-02
         0.18292E-01
         0.10858E-01
         0.14060E-01
         0.22964E-01
         0.17823E-01
         0.16431E-01
         0.23124E-01
         0.20917E-01
         0.20967E-01
         0.16228E-01
         0.14458E-01
         0.19797E-01
         0.12990E-01
         0.11033E-01
         0.89590E-02
         0.10566E-01
         0.17444E-01
         0.11833E-01
         0.76730E-01
         0.78685E-01
         0.82475E-01
         0.81891E-01
         0.87119E-01
         0.93344E-01
         0.89481E-01
         0.79712E-01
         0.77695E-01
         0.83097E-01
         0.81579E-01
         0.80684E-01
         0.66608E-01
         0.63338E-01
         0.69723E-01
         0.74835E-01
         0.77672E-01
         0.84728E-01
         0.81214E-01
         0.83414E-01
         0.75074E-01
         0.71319E-01
         0.75793E-01
         0.73820E-01
         0.76050E-01
         0.75435E-01
         0.13668E-01
         0.81500E-02
         0.77324E-02
         0.53655E-02
         0.13992E-01
         0.96571E-02
         0.44559E-02
         0.13463E-01
         0.85388E-02
         0.12992E-01
         0.61410E-02
         0.26379E-01
         0.20146E-01
         0.97192E-02
         0.28007E-01
         0.99677E-02
         0.51819E-02
         0.30757E-02
         0.66853E-02
         0.34865E-02
         0.20788E-01
         0.19460E-01
         0.18973E-01
         0.49266E-02
         0.85185E-02
         0.25515E-02
         0.94878E-02
         0.13896E-02
         0.36618E-02
         0.89516E-02
         0.85152E-02
         0.44466E-02
         0.53274E-02
         0.47670E-02
         0.18301E-01
         0.10856E-01
         0.14058E-01
         0.23000E-01
         0.17865E-01
         0.16457E-01
         0.23143E-01
         0.20930E-01
         0.20972E-01
         0.16233E-01
         0.14460E-01
         0.19800E-01
         0.12993E-01
         0.11035E-01
         0.89493E-02
         0.10553E-01
         0.17436E-01
         0.11815E-01
         0.76702E-01
         0.78666E-01
         0.82474E-01
         0.81891E-01
         0.87105E-01
         0.93312E-01
         0.89443E-01
         0.79690E-01
         0.77675E-01
         0.83071E-01
         0.81566E-01
         0.80690E-01
         0.66606E-01
         0.63337E-01
         0.69734E-01
         0.74859E-01
         0.77699E-01
         0.84748E-01
         0.81208E-01
         0.83409E-01
         0.75067E-01
         0.71315E-01
         0.75767E-01
         0.73771E-01
         0.76008E-01
         0.75395E-01
         0.13676E-01
         0.81499E-02
         0.77363E-02
         0.53733E-02
         0.13986E-01
         0.96516E-02
         0.44680E-02
         0.13472E-01
         0.85538E-02
         0.13024E-01
         0.61437E-02
         0.26380E-01
         0.20155E-01
         0.96964E-02
         0.28036E-01
         0.99775E-02
         0.51971E-02
         0.30675E-02
         0.66897E-02
         0.34787E-02
         0.20792E-01
         0.19460E-01
         0.18975E-01
         0.49263E-02
         0.85491E-02
         0.25492E-02
         0.94905E-02
         0.13813E-02
         0.36778E-02
         0.89633E-02
         0.85229E-02
         0.44439E-02
         0.53183E-02
         0.47711E-02
         0.18310E-01
         0.10855E-01
         0.14056E-01
         0.23036E-01
         0.17907E-01
         0.16482E-01
         0.23161E-01
         0.20943E-01
         0.20978E-01
         0.16237E-01
         0.14461E-01
         0.19804E-01
         0.12996E-01
         0.11037E-01
         0.89398E-02
         0.10539E-01
         0.17428E-01
         0.11797E-01
         0.76673E-01
         0.78648E-01
         0.82472E-01
         0.81892E-01
         0.87090E-01
         0.93280E-01
         0.89404E-01
         0.79668E-01
         0.77656E-01
         0.83044E-01
         0.81552E-01
         0.80695E-01
         0.66603E-01
         0.63336E-01
         0.69745E-01
         0.74884E-01
         0.77725E-01
         0.84767E-01
         0.81203E-01
         0.83404E-01
         0.75061E-01
         0.71312E-01
         0.75740E-01
         0.73723E-01
         0.75966E-01
         0.75354E-01
         0.13684E-01
         0.81497E-02
         0.77401E-02
         0.53811E-02
         0.13980E-01
         0.96463E-02
         0.44801E-02
         0.13481E-01
         0.85689E-02
         0.13055E-01
         0.61465E-02
         0.26380E-01
         0.20165E-01
         0.96737E-02
         0.28065E-01
         0.99873E-02
         0.52123E-02
         0.30594E-02
         0.66941E-02
         0.34710E-02
         0.20795E-01
         0.19460E-01
         0.18977E-01
         0.49259E-02
         0.85796E-02
         0.25469E-02
         0.94932E-02
         0.13734E-02
         0.36939E-02
         0.89749E-02
         0.85306E-02
         0.44413E-02
         0.53093E-02
         0.47753E-02
         0.18319E-01
         0.10853E-01
         0.14054E-01
         0.23073E-01
         0.17948E-01
         0.16507E-01
         0.23179E-01
         0.20955E-01
         0.20983E-01
         0.16241E-01
         0.14463E-01
         0.19807E-01
         0.13000E-01
         0.11039E-01
         0.89304E-02
         0.10526E-01
         0.17420E-01
         0.11779E-01
         0.76645E-01
         0.78630E-01
         0.82471E-01
         0.81892E-01
         0.87076E-01
         0.93248E-01
         0.89365E-01
         0.79646E-01
         0.77636E-01
         0.83018E-01
         0.81539E-01
         0.80701E-01
         0.66600E-01
         0.63334E-01
         0.69755E-01
         0.74909E-01
         0.77752E-01
         0.84787E-01
         0.81198E-01
         0.83399E-01
         0.75054E-01
         0.71309E-01
         0.75714E-01
         0.73675E-01
         0.75923E-01
         0.75314E-01
         0.13693E-01
         0.81496E-02
         0.77440E-02
         0.53889E-02
         0.13974E-01
         0.96408E-02
         0.44923E-02
         0.13490E-01
         0.85840E-02
         0.13087E-01
         0.61494E-02
         0.26380E-01
         0.20174E-01
         0.96509E-02
         0.28094E-01
         0.99971E-02
         0.52276E-02
         0.30512E-02
         0.66985E-02
         0.34633E-02
         0.20799E-01
         0.19460E-01
         0.18979E-01
         0.49257E-02
         0.86101E-02
         0.25446E-02
         0.94956E-02
         0.13656E-02
         0.37099E-02
         0.89863E-02
         0.85383E-02
         0.44388E-02
         0.53004E-02
         0.47796E-02
         0.18328E-01
         0.10852E-01
         0.14052E-01
         0.23109E-01
         0.17990E-01
         0.16533E-01
         0.23197E-01
         0.20968E-01
         0.20988E-01
         0.16246E-01
         0.14465E-01
         0.19810E-01
         0.13003E-01
         0.11041E-01
         0.89210E-02
         0.10512E-01
         0.17411E-01
         0.11762E-01
         0.76617E-01
         0.78611E-01
         0.82470E-01
         0.81892E-01
         0.87061E-01
         0.93216E-01
         0.89326E-01
         0.79624E-01
         0.77617E-01
         0.82991E-01
         0.81526E-01
         0.80707E-01
         0.66598E-01
         0.63333E-01
         0.69766E-01
         0.74934E-01
         0.77779E-01
         0.84806E-01
         0.81192E-01
         0.83394E-01
         0.75047E-01
         0.71305E-01
         0.75687E-01
         0.73626E-01
         0.75881E-01
         0.75274E-01
         0.13701E-01
         0.81496E-02
         0.77479E-02
         0.53967E-02
         0.13968E-01
         0.96352E-02
         0.45044E-02
         0.13499E-01
         0.85991E-02
         0.13118E-01
         0.61523E-02
         0.26380E-01
         0.20183E-01
         0.96280E-02
         0.28123E-01
         0.10007E-01
         0.52428E-02
         0.30430E-02
         0.67029E-02
         0.34559E-02
         0.20803E-01
         0.19460E-01
         0.18981E-01
         0.49252E-02
         0.86404E-02
         0.25425E-02
         0.94973E-02
         0.13578E-02
         0.37263E-02
         0.89972E-02
         0.85461E-02
         0.44361E-02
         0.52915E-02
         0.47838E-02
         0.18337E-01
         0.10850E-01
         0.14050E-01
         0.23146E-01
         0.18032E-01
         0.16557E-01
         0.23214E-01
         0.20979E-01
         0.20993E-01
         0.16251E-01
         0.14466E-01
         0.19813E-01
         0.13006E-01
         0.11042E-01
         0.89114E-02
         0.10499E-01
         0.17403E-01
         0.11744E-01
         0.76589E-01
         0.78593E-01
         0.82468E-01
         0.81893E-01
         0.87047E-01
         0.93184E-01
         0.89287E-01
         0.79603E-01
         0.77597E-01
         0.82963E-01
         0.81513E-01
         0.80715E-01
         0.66597E-01
         0.63332E-01
         0.69776E-01
         0.74958E-01
         0.77806E-01
         0.84826E-01
         0.81187E-01
         0.83388E-01
         0.75041E-01
         0.71302E-01
         0.75660E-01
         0.73578E-01
         0.75839E-01
         0.75234E-01
         0.13709E-01
         0.81495E-02
         0.77517E-02
         0.54046E-02
         0.13962E-01
         0.96297E-02
         0.45166E-02
         0.13508E-01
         0.86143E-02
         0.13150E-01
         0.61553E-02
         0.26380E-01
         0.20192E-01
         0.96050E-02
         0.28152E-01
         0.10017E-01
         0.52581E-02
         0.30348E-02
         0.67073E-02
         0.34484E-02
         0.20806E-01
         0.19459E-01
         0.18983E-01
         0.49249E-02
         0.86706E-02
         0.25402E-02
         0.94983E-02
         0.13499E-02
         0.37427E-02
         0.90075E-02
         0.85538E-02
         0.44335E-02
         0.52826E-02
         0.47879E-02
         0.18347E-01
         0.10849E-01
         0.14049E-01
         0.23183E-01
         0.18073E-01
         0.16580E-01
         0.23230E-01
         0.20989E-01
         0.20997E-01
         0.16255E-01
         0.14468E-01
         0.19817E-01
         0.13009E-01
         0.11044E-01
         0.89021E-02
         0.10485E-01
         0.17395E-01
         0.11726E-01
         0.76561E-01
         0.78574E-01
         0.82467E-01
         0.81893E-01
         0.87033E-01
         0.93151E-01
         0.89248E-01
         0.79581E-01
         0.77578E-01
         0.82933E-01
         0.81500E-01
         0.80725E-01
         0.66598E-01
         0.63331E-01
         0.69787E-01
         0.74983E-01
         0.77832E-01
         0.84845E-01
         0.81182E-01
         0.83383E-01
         0.75034E-01
         0.71299E-01
         0.75634E-01
         0.73530E-01
         0.75797E-01
         0.75194E-01
         0.13717E-01
         0.81495E-02
         0.77558E-02
         0.54125E-02
         0.13957E-01
         0.96245E-02
         0.45289E-02
         0.13517E-01
         0.86296E-02
         0.13181E-01
         0.61584E-02
         0.26381E-01
         0.20201E-01
         0.95820E-02
         0.28181E-01
         0.10026E-01
         0.52734E-02
         0.30266E-02
         0.67118E-02
         0.34412E-02
         0.20810E-01
         0.19459E-01
         0.18985E-01
         0.49247E-02
         0.87008E-02
         0.25381E-02
         0.94992E-02
         0.13420E-02
         0.37592E-02
         0.90176E-02
         0.85616E-02
         0.44309E-02
         0.52738E-02
         0.47923E-02
         0.18356E-01
         0.10847E-01
         0.14046E-01
         0.23219E-01
         0.18115E-01
         0.16603E-01
         0.23245E-01
         0.20998E-01
         0.21001E-01
         0.16260E-01
         0.14469E-01
         0.19820E-01
         0.13013E-01
         0.11046E-01
         0.88927E-02
         0.10472E-01
         0.17387E-01
         0.11708E-01
         0.76533E-01
         0.78556E-01
         0.82466E-01
         0.81894E-01
         0.87019E-01
         0.93119E-01
         0.89209E-01
         0.79559E-01
         0.77558E-01
         0.82904E-01
         0.81487E-01
         0.80735E-01
         0.66598E-01
         0.63331E-01
         0.69797E-01
         0.75008E-01
         0.77859E-01
         0.84864E-01
         0.81177E-01
         0.83378E-01
         0.75027E-01
         0.71295E-01
         0.75607E-01
         0.73482E-01
         0.75755E-01
         0.75154E-01
         0.13998E-01
         0.85673E-02
         0.81889E-02
         0.59075E-02
         0.14310E-01
         0.10035E-01
         0.53126E-02
         0.13862E-01
         0.90044E-02
         0.13553E-01
         0.68896E-02
         0.26729E-01
         0.20540E-01
         0.10096E-01
         0.28566E-01
         0.10344E-01
         0.58722E-02
         0.37425E-02
         0.72305E-02
         0.43953E-02
         0.21099E-01
         0.19759E-01
         0.19265E-01
         0.55360E-02
         0.91944E-02
         0.34891E-02
         0.10026E-01
         0.32704E-02
         0.48354E-02
         0.95103E-02
         0.89213E-02
         0.50861E-02
         0.57705E-02
         0.53888E-02
         0.18723E-01
         0.11268E-01
         0.14398E-01
         0.23608E-01
         0.18531E-01
         0.17013E-01
         0.23603E-01
         0.21337E-01
         0.21309E-01
         0.16550E-01
         0.14799E-01
         0.20166E-01
         0.13394E-01
         0.11426E-01
         0.93119E-02
         0.10865E-01
         0.17724E-01
         0.12072E-01
         0.77079E-01
         0.79101E-01
         0.83048E-01
         0.82458E-01
         0.87601E-01
         0.93733E-01
         0.89815E-01
         0.80153E-01
         0.78153E-01
         0.83519E-01
         0.82095E-01
         0.81322E-01
         0.67081E-01
         0.63778E-01
         0.70268E-01
         0.75507E-01
         0.78371E-01
         0.85433E-01
         0.81758E-01
         0.83968E-01
         0.75547E-01
         0.71790E-01
         0.76108E-01
         0.73957E-01
         0.76234E-01
         0.75632E-01
         0.33230E-01
         0.29937E-01
         0.29327E-01
         0.25971E-01
         0.36239E-01
         0.31632E-01
         0.30249E-01
         0.35893E-01
         0.28640E-01
         0.35597E-01
         0.33514E-01
         0.51969E-01
         0.43813E-01
         0.36010E-01
         0.54876E-01
         0.29230E-01
         0.28014E-01
         0.24006E-01
         0.29447E-01
         0.29556E-01
         0.42437E-01
         0.41797E-01
         0.39812E-01
         0.27690E-01
         0.32754E-01
         0.26080E-01
         0.35917E-01
         0.32567E-01
         0.33141E-01
         0.33863E-01
         0.28398E-01
         0.27400E-01
         0.26077E-01
         0.26928E-01
         0.41943E-01
         0.34134E-01
         0.36605E-01
         0.49554E-01
         0.44284E-01
         0.42660E-01
         0.49129E-01
         0.45751E-01
         0.44438E-01
         0.36815E-01
         0.36075E-01
         0.43115E-01
         0.35800E-01
         0.32946E-01
         0.31042E-01
         0.32932E-01
         0.40154E-01
         0.33822E-01
         0.10963E+00
         0.11115E+00
         0.11612E+00
         0.11502E+00
         0.12147E+00
         0.12989E+00
         0.12690E+00
         0.11652E+00
         0.11425E+00
         0.12040E+00
         0.11815E+00
         0.11563E+00
         0.97810E-01
         0.93088E-01
         0.99621E-01
         0.10494E+00
         0.10814E+00
         0.11729E+00
         0.11454E+00
         0.11723E+00
         0.10690E+00
         0.10233E+00
         0.10763E+00
         0.10531E+00
         0.10741E+00
         0.10635E+00
  
SCALARS                     nodal_mass  double 1
LOOKUP_TABLE default
         0.24608E-05
         0.19551E-05
         0.20945E-05
         0.35953E-05
         0.12304E-05
         0.97770E-06
         0.10472E-05
         0.17973E-05
         0.19315E-05
         0.24627E-05
         0.96570E-06
         0.12312E-05
         0.13823E-05
         0.16614E-05
         0.69133E-06
         0.83095E-06
         0.27274E-05
         0.20125E-05
         0.13635E-05
         0.10066E-05
         0.81737E-06
         0.15393E-05
         0.16929E-05
         0.40889E-06
         0.76975E-06
         0.84649E-06
         0.13859E-05
         0.17532E-05
         0.69345E-06
         0.87672E-06
         0.32470E-05
         0.25355E-05
         0.32225E-05
         0.16233E-05
         0.12675E-05
         0.16109E-05
         0.18980E-05
         0.21673E-05
         0.94902E-06
         0.10836E-05
         0.20482E-05
         0.22683E-05
         0.10242E-05
         0.11342E-05
         0.17426E-05
         0.10823E-05
         0.87140E-06
         0.54121E-06
         0.20598E-05
         0.10301E-05
         0.17103E-05
         0.85523E-06
         0.17977E-05
         0.89958E-06
         0.18362E-05
         0.91859E-06
         0.15911E-05
         0.19369E-05
         0.79575E-06
         0.96860E-06
         0.24553E-05
         0.17361E-05
         0.12277E-05
         0.86816E-06
         0.27409E-05
         0.13702E-05
         0.23792E-05
         0.11891E-05
         0.10821E-05
         0.16705E-05
         0.54106E-06
         0.83538E-06
         0.18955E-05
         0.94787E-06
         0.20026E-05
         0.10014E-05
         0.19316E-05
         0.96578E-06
         0.15181E-05
         0.75906E-06
         0.95443E-06
         0.15782E-05
         0.47723E-06
         0.78918E-06
         0.20886E-05
         0.10443E-05
         0.16867E-05
         0.84342E-06
         0.14838E-05
         0.74203E-06
         0.97224E-06
         0.16569E-05
         0.48620E-06
         0.82849E-06
         0.22482E-05
         0.11241E-05
         0.23568E-05
         0.11783E-05
         0.19018E-05
         0.95085E-06
         0.11709E-05
         0.20091E-05
         0.58544E-06
         0.10044E-05
         0.74681E-06
         0.94889E-06
         0.37348E-06
         0.47447E-06
         0.88885E-06
         0.44455E-06
         0.10466E-05
         0.52333E-06
         0.10205E-05
         0.51021E-06
         0.99108E-06
         0.49550E-06
         0.10560E-05
         0.52791E-06
         0.11142E-05
         0.55694E-06
         0.10497E-05
         0.52469E-06
         0.82085E-06
         0.41039E-06
         0.66950E-06
         0.33475E-06
         0.86397E-06
         0.43199E-06
         0.11504E-05
         0.57519E-06
         0.12637E-05
         0.63182E-06
         0.12132E-05
         0.60658E-06
         0.10948E-05
         0.54745E-06
         0.99429E-06
         0.49718E-06
         0.80759E-06
         0.40382E-06
         0.67982E-06
         0.33995E-06
         0.88797E-06
         0.44401E-06
         0.11753E-05
         0.58766E-06
         0.12140E-05
         0.60702E-06
         0.98236E-06
         0.49125E-06
         0.79766E-06
         0.39889E-06
         0.97540E-06
         0.48769E-06
         0.11548E-05
         0.57743E-06
         0.24609E-05
         0.19547E-05
         0.20946E-05
         0.35969E-05
         0.19318E-05
         0.24634E-05
         0.13815E-05
         0.16603E-05
         0.27283E-05
         0.20111E-05
         0.81658E-06
         0.15390E-05
         0.16927E-05
         0.13839E-05
         0.17528E-05
         0.32479E-05
         0.25367E-05
         0.32241E-05
         0.18980E-05
         0.21675E-05
         0.20481E-05
         0.22684E-05
         0.17424E-05
         0.10822E-05
         0.20589E-05
         0.17102E-05
         0.17950E-05
         0.18344E-05
         0.15904E-05
         0.19365E-05
         0.24555E-05
         0.17359E-05
         0.27423E-05
         0.23814E-05
         0.10820E-05
         0.16702E-05
         0.18953E-05
         0.20025E-05
         0.19317E-05
         0.15181E-05
         0.95442E-06
         0.15780E-05
         0.20884E-05
         0.16864E-05
         0.14835E-05
         0.97197E-06
         0.16567E-05
         0.22482E-05
         0.23571E-05
         0.19022E-05
         0.11709E-05
         0.20101E-05
         0.74658E-06
         0.94886E-06
         0.88841E-06
         0.10467E-05
         0.10207E-05
         0.99128E-06
         0.10565E-05
         0.11150E-05
         0.10503E-05
         0.82102E-06
         0.66954E-06
         0.86398E-06
         0.11506E-05
         0.12640E-05
         0.12133E-05
         0.10948E-05
         0.99421E-06
         0.80751E-06
         0.67970E-06
         0.88789E-06
         0.11752E-05
         0.12140E-05
         0.98215E-06
         0.79747E-06
         0.97551E-06
         0.11548E-05
         0.24611E-05
         0.19543E-05
         0.20949E-05
         0.35987E-05
         0.19321E-05
         0.24642E-05
         0.13808E-05
         0.16594E-05
         0.27293E-05
         0.20098E-05
         0.81582E-06
         0.15388E-05
         0.16927E-05
         0.13821E-05
         0.17525E-05
         0.32489E-05
         0.25379E-05
         0.32257E-05
         0.18982E-05
         0.21678E-05
         0.20480E-05
         0.22685E-05
         0.17423E-05
         0.10821E-05
         0.20580E-05
         0.17101E-05
         0.17924E-05
         0.18326E-05
         0.15898E-05
         0.19361E-05
         0.24558E-05
         0.17357E-05
         0.27438E-05
         0.23836E-05
         0.10821E-05
         0.16699E-05
         0.18951E-05
         0.20024E-05
         0.19318E-05
         0.15183E-05
         0.95445E-06
         0.15778E-05
         0.20884E-05
         0.16862E-05
         0.14831E-05
         0.97174E-06
         0.16566E-05
         0.22483E-05
         0.23575E-05
         0.19026E-05
         0.11709E-05
         0.20112E-05
         0.74636E-06
         0.94886E-06
         0.88800E-06
         0.10467E-05
         0.10210E-05
         0.99152E-06
         0.10570E-05
         0.11159E-05
         0.10509E-05
         0.82122E-06
         0.66961E-06
         0.86402E-06
         0.11507E-05
         0.12643E-05
         0.12135E-05
         0.10948E-05
         0.99417E-06
         0.80747E-06
         0.67961E-06
         0.88784E-06
         0.11752E-05
         0.12140E-05
         0.98197E-06
         0.79731E-06
         0.97565E-06
         0.11548E-05
         0.24612E-05
         0.19539E-05
         0.20950E-05
         0.36004E-05
         0.19324E-05
         0.24650E-05
         0.13801E-05
         0.16584E-05
         0.27303E-05
         0.20085E-05
         0.81504E-06
         0.15385E-05
         0.16925E-05
         0.13801E-05
         0.17521E-05
         0.32498E-05
         0.25390E-05
         0.32274E-05
         0.18982E-05
         0.21681E-05
         0.20479E-05
         0.22686E-05
         0.17421E-05
         0.10820E-05
         0.20571E-05
         0.17099E-05
         0.17897E-05
         0.18308E-05
         0.15891E-05
         0.19356E-05
         0.24561E-05
         0.17355E-05
         0.27453E-05
         0.23857E-05
         0.10820E-05
         0.16696E-05
         0.18948E-05
         0.20022E-05
         0.19320E-05
         0.15183E-05
         0.95445E-06
         0.15776E-05
         0.20883E-05
         0.16859E-05
         0.14828E-05
         0.97149E-06
         0.16564E-05
         0.22483E-05
         0.23578E-05
         0.19030E-05
         0.11710E-05
         0.20122E-05
         0.74613E-06
         0.94884E-06
         0.88756E-06
         0.10467E-05
         0.10212E-05
         0.99173E-06
         0.10574E-05
         0.11167E-05
         0.10515E-05
         0.82140E-06
         0.66966E-06
         0.86404E-06
         0.11509E-05
         0.12646E-05
         0.12136E-05
         0.10947E-05
         0.99410E-06
         0.80740E-06
         0.67950E-06
         0.88777E-06
         0.11752E-05
         0.12140E-05
         0.98177E-06
         0.79713E-06
         0.97576E-06
         0.11547E-05
         0.24613E-05
         0.19535E-05
         0.20952E-05
         0.36022E-05
         0.19327E-05
         0.24657E-05
         0.13794E-05
         0.16574E-05
         0.27313E-05
         0.20072E-05
         0.81426E-06
         0.15382E-05
         0.16924E-05
         0.13782E-05
         0.17517E-05
         0.32508E-05
         0.25402E-05
         0.32290E-05
         0.18983E-05
         0.21684E-05
         0.20479E-05
         0.22687E-05
         0.17420E-05
         0.10819E-05
         0.20563E-05
         0.17098E-05
         0.17870E-05
         0.18290E-05
         0.15884E-05
         0.19352E-05
         0.24563E-05
         0.17353E-05
         0.27467E-05
         0.23879E-05
         0.10820E-05
         0.16693E-05
         0.18946E-05
         0.20021E-05
         0.19321E-05
         0.15184E-05
         0.95445E-06
         0.15773E-05
         0.20882E-05
         0.16857E-05
         0.14824E-05
         0.97124E-06
         0.16563E-05
         0.22484E-05
         0.23582E-05
         0.19034E-05
         0.11710E-05
         0.20132E-05
         0.74590E-06
         0.94883E-06
         0.88713E-06
         0.10468E-05
         0.10215E-05
         0.99194E-06
         0.10579E-05
         0.11175E-05
         0.10521E-05
         0.82159E-06
         0.66972E-06
         0.86406E-06
         0.11510E-05
         0.12649E-05
         0.12138E-05
         0.10947E-05
         0.99404E-06
         0.80734E-06
         0.67940E-06
         0.88771E-06
         0.11752E-05
         0.12140E-05
         0.98157E-06
         0.79696E-06
         0.97588E-06
         0.11547E-05
         0.24615E-05
         0.19531E-05
         0.20954E-05
         0.36039E-05
         0.19331E-05
         0.24665E-05
         0.13787E-05
         0.16564E-05
         0.27322E-05
         0.20059E-05
         0.81349E-06
         0.15380E-05
         0.16923E-05
         0.13763E-05
         0.17514E-05
         0.32518E-05
         0.25414E-05
         0.32306E-05
         0.18984E-05
         0.21687E-05
         0.20478E-05
         0.22688E-05
         0.17418E-05
         0.10818E-05
         0.20554E-05
         0.17096E-05
         0.17843E-05
         0.18272E-05
         0.15878E-05
         0.19347E-05
         0.24566E-05
         0.17351E-05
         0.27482E-05
         0.23901E-05
         0.10820E-05
         0.16690E-05
         0.18943E-05
         0.20019E-05
         0.19322E-05
         0.15185E-05
         0.95446E-06
         0.15771E-05
         0.20881E-05
         0.16855E-05
         0.14821E-05
         0.97100E-06
         0.16562E-05
         0.22484E-05
         0.23586E-05
         0.19038E-05
         0.11710E-05
         0.20142E-05
         0.74568E-06
         0.94882E-06
         0.88671E-06
         0.10468E-05
         0.10217E-05
         0.99216E-06
         0.10583E-05
         0.11183E-05
         0.10528E-05
         0.82178E-06
         0.66977E-06
         0.86408E-06
         0.11512E-05
         0.12652E-05
         0.12139E-05
         0.10947E-05
         0.99398E-06
         0.80728E-06
         0.67930E-06
         0.88766E-06
         0.11752E-05
         0.12140E-05
         0.98138E-06
         0.79679E-06
         0.97601E-06
         0.11547E-05
         0.24616E-05
         0.19527E-05
         0.20956E-05
         0.36056E-05
         0.19334E-05
         0.24672E-05
         0.13779E-05
         0.16554E-05
         0.27332E-05
         0.20046E-05
         0.81271E-06
         0.15377E-05
         0.16922E-05
         0.13744E-05
         0.17510E-05
         0.32527E-05
         0.25425E-05
         0.32322E-05
         0.18984E-05
         0.21689E-05
         0.20477E-05
         0.22689E-05
         0.17416E-05
         0.10816E-05
         0.20545E-05
         0.17095E-05
         0.17817E-05
         0.18254E-05
         0.15871E-05
         0.19343E-05
         0.24568E-05
         0.17349E-05
         0.27496E-05
         0.23922E-05
         0.10820E-05
         0.16686E-05
         0.18941E-05
         0.20018E-05
         0.19324E-05
         0.15186E-05
         0.95446E-06
         0.15769E-05
         0.20880E-05
         0.16852E-05
         0.14817E-05
         0.97074E-06
         0.16560E-05
         0.22484E-05
         0.23589E-05
         0.19042E-05
         0.11710E-05
         0.20152E-05
         0.74544E-06
         0.94880E-06
         0.88627E-06
         0.10469E-05
         0.10219E-05
         0.99237E-06
         0.10588E-05
         0.11191E-05
         0.10534E-05
         0.82196E-06
         0.66982E-06
         0.86410E-06
         0.11513E-05
         0.12654E-05
         0.12140E-05
         0.10947E-05
         0.99391E-06
         0.80721E-06
         0.67919E-06
         0.88759E-06
         0.11751E-05
         0.12140E-05
         0.98118E-06
         0.79661E-06
         0.97612E-06
         0.11546E-05
         0.24618E-05
         0.19523E-05
         0.20957E-05
         0.36073E-05
         0.19337E-05
         0.24680E-05
         0.13772E-05
         0.16545E-05
         0.27341E-05
         0.20033E-05
         0.81194E-06
         0.15374E-05
         0.16921E-05
         0.13725E-05
         0.17506E-05
         0.32537E-05
         0.25437E-05
         0.32339E-05
         0.18985E-05
         0.21692E-05
         0.20476E-05
         0.22690E-05
         0.17414E-05
         0.10815E-05
         0.20536E-05
         0.17093E-05
         0.17790E-05
         0.18236E-05
         0.15864E-05
         0.19339E-05
         0.24571E-05
         0.17347E-05
         0.27511E-05
         0.23944E-05
         0.10820E-05
         0.16683E-05
         0.18938E-05
         0.20016E-05
         0.19325E-05
         0.15186E-05
         0.95446E-06
         0.15767E-05
         0.20878E-05
         0.16850E-05
         0.14814E-05
         0.97050E-06
         0.16559E-05
         0.22484E-05
         0.23593E-05
         0.19046E-05
         0.11711E-05
         0.20162E-05
         0.74522E-06
         0.94878E-06
         0.88584E-06
         0.10469E-05
         0.10222E-05
         0.99258E-06
         0.10593E-05
         0.11199E-05
         0.10540E-05
         0.82215E-06
         0.66988E-06
         0.86413E-06
         0.11515E-05
         0.12657E-05
         0.12142E-05
         0.10946E-05
         0.99385E-06
         0.80715E-06
         0.67909E-06
         0.88752E-06
         0.11751E-05
         0.12140E-05
         0.98098E-06
         0.79643E-06
         0.97624E-06
         0.11546E-05
         0.24619E-05
         0.19519E-05
         0.20959E-05
         0.36091E-05
         0.19340E-05
         0.24688E-05
         0.13765E-05
         0.16535E-05
         0.27351E-05
         0.20020E-05
         0.81117E-06
         0.15372E-05
         0.16920E-05
         0.13706E-05
         0.17503E-05
         0.32546E-05
         0.25448E-05
         0.32355E-05
         0.18986E-05
         0.21695E-05
         0.20475E-05
         0.22691E-05
         0.17413E-05
         0.10814E-05
         0.20527E-05
         0.17092E-05
         0.17763E-05
         0.18219E-05
         0.15858E-05
         0.19334E-05
         0.24573E-05
         0.17345E-05
         0.27525E-05
         0.23966E-05
         0.10820E-05
         0.16680E-05
         0.18936E-05
         0.20015E-05
         0.19326E-05
         0.15187E-05
         0.95447E-06
         0.15765E-05
         0.20878E-05
         0.16848E-05
         0.14810E-05
         0.97025E-06
         0.16557E-05
         0.22485E-05
         0.23597E-05
         0.19050E-05
         0.11711E-05
         0.20172E-05
         0.74499E-06
         0.94877E-06
         0.88541E-06
         0.10469E-05
         0.10224E-05
         0.99280E-06
         0.10597E-05
         0.11207E-05
         0.10546E-05
         0.82234E-06
         0.66994E-06
         0.86415E-06
         0.11517E-05
         0.12660E-05
         0.12143E-05
         0.10946E-05
         0.99379E-06
         0.80709E-06
         0.67898E-06
         0.88746E-06
         0.11751E-05
         0.12140E-05
         0.98079E-06
         0.79626E-06
         0.97636E-06
         0.11546E-05
         0.24621E-05
         0.19515E-05
         0.20961E-05
         0.36108E-05
         0.19343E-05
         0.24695E-05
         0.13758E-05
         0.16525E-05
         0.27361E-05
         0.20006E-05
         0.81039E-06
         0.15369E-05
         0.16919E-05
         0.13686E-05
         0.17499E-05
         0.32556E-05
         0.25460E-05
         0.32371E-05
         0.18986E-05
         0.21697E-05
         0.20474E-05
         0.22692E-05
         0.17411E-05
         0.10813E-05
         0.20519E-05
         0.17091E-05
         0.17736E-05
         0.18201E-05
         0.15851E-05
         0.19330E-05
         0.24575E-05
         0.17342E-05
         0.27540E-05
         0.23987E-05
         0.10820E-05
         0.16677E-05
         0.18933E-05
         0.20014E-05
         0.19328E-05
         0.15188E-05
         0.95448E-06
         0.15763E-05
         0.20876E-05
         0.16845E-05
         0.14807E-05
         0.97000E-06
         0.16556E-05
         0.22485E-05
         0.23600E-05
         0.19053E-05
         0.11711E-05
         0.20182E-05
         0.74476E-06
         0.94875E-06
         0.88498E-06
         0.10470E-05
         0.10227E-05
         0.99301E-06
         0.10602E-05
         0.11215E-05
         0.10553E-05
         0.82252E-06
         0.66999E-06
         0.86417E-06
         0.11518E-05
         0.12663E-05
         0.12145E-05
         0.10946E-05
         0.99373E-06
         0.80702E-06
         0.67888E-06
         0.88740E-06
         0.11751E-05
         0.12140E-05
         0.98058E-06
         0.79608E-06
         0.97648E-06
         0.11546E-05
         0.24622E-05
         0.19511E-05
         0.20963E-05
         0.36125E-05
         0.19346E-05
         0.24703E-05
         0.13751E-05
         0.16515E-05
         0.27370E-05
         0.19993E-05
         0.80962E-06
         0.15366E-05
         0.16917E-05
         0.13667E-05
         0.17495E-05
         0.32565E-05
         0.25471E-05
         0.32388E-05
         0.18987E-05
         0.21700E-05
         0.20473E-05
         0.22693E-05
         0.17409E-05
         0.10812E-05
         0.20510E-05
         0.17089E-05
         0.17710E-05
         0.18183E-05
         0.15844E-05
         0.19325E-05
         0.24578E-05
         0.17340E-05
         0.27554E-05
         0.24009E-05
         0.10820E-05
         0.16674E-05
         0.18931E-05
         0.20012E-05
         0.19329E-05
         0.15189E-05
         0.95448E-06
         0.15760E-05
         0.20875E-05
         0.16843E-05
         0.14803E-05
         0.96975E-06
         0.16555E-05
         0.22485E-05
         0.23604E-05
         0.19057E-05
         0.11712E-05
         0.20192E-05
         0.74453E-06
         0.94874E-06
         0.88455E-06
         0.10470E-05
         0.10229E-05
         0.99322E-06
         0.10606E-05
         0.11223E-05
         0.10559E-05
         0.82270E-06
         0.67004E-06
         0.86419E-06
         0.11520E-05
         0.12666E-05
         0.12146E-05
         0.10945E-05
         0.99366E-06
         0.80696E-06
         0.67877E-06
         0.88733E-06
         0.11751E-05
         0.12140E-05
         0.98038E-06
         0.79590E-06
         0.97660E-06
         0.11545E-05
         0.24623E-05
         0.19507E-05
         0.20964E-05
         0.36142E-05
         0.19349E-05
         0.24710E-05
         0.13743E-05
         0.16505E-05
         0.27380E-05
         0.19980E-05
         0.80885E-06
         0.15364E-05
         0.16916E-05
         0.13648E-05
         0.17492E-05
         0.32575E-05
         0.25483E-05
         0.32404E-05
         0.18988E-05
         0.21703E-05
         0.20473E-05
         0.22694E-05
         0.17407E-05
         0.10811E-05
         0.20501E-05
         0.17088E-05
         0.17683E-05
         0.18165E-05
         0.15837E-05
         0.19321E-05
         0.24580E-05
         0.17338E-05
         0.27569E-05
         0.24031E-05
         0.10820E-05
         0.16670E-05
         0.18928E-05
         0.20011E-05
         0.19330E-05
         0.15189E-05
         0.95448E-06
         0.15758E-05
         0.20874E-05
         0.16840E-05
         0.14800E-05
         0.96950E-06
         0.16553E-05
         0.22485E-05
         0.23608E-05
         0.19061E-05
         0.11712E-05
         0.20202E-05
         0.74430E-06
         0.94872E-06
         0.88412E-06
         0.10470E-05
         0.10231E-05
         0.99344E-06
         0.10611E-05
         0.11231E-05
         0.10565E-05
         0.82289E-06
         0.67009E-06
         0.86422E-06
         0.11521E-05
         0.12669E-05
         0.12147E-05
         0.10945E-05
         0.99360E-06
         0.80690E-06
         0.67867E-06
         0.88727E-06
         0.11750E-05
         0.12140E-05
         0.98019E-06
         0.79573E-06
         0.97672E-06
         0.11545E-05
         0.24625E-05
         0.19503E-05
         0.20966E-05
         0.36160E-05
         0.19352E-05
         0.24718E-05
         0.13736E-05
         0.16496E-05
         0.27389E-05
         0.19967E-05
         0.80807E-06
         0.15361E-05
         0.16915E-05
         0.13629E-05
         0.17488E-05
         0.32584E-05
         0.25495E-05
         0.32420E-05
         0.18988E-05
         0.21705E-05
         0.20472E-05
         0.22695E-05
         0.17406E-05
         0.10810E-05
         0.20492E-05
         0.17086E-05
         0.17656E-05
         0.18147E-05
         0.15831E-05
         0.19317E-05
         0.24583E-05
         0.17336E-05
         0.27583E-05
         0.24053E-05
         0.10820E-05
         0.16667E-05
         0.18926E-05
         0.20009E-05
         0.19331E-05
         0.15190E-05
         0.95449E-06
         0.15756E-05
         0.20873E-05
         0.16838E-05
         0.14796E-05
         0.96925E-06
         0.16552E-05
         0.22486E-05
         0.23611E-05
         0.19065E-05
         0.11712E-05
         0.20212E-05
         0.74407E-06
         0.94870E-06
         0.88368E-06
         0.10471E-05
         0.10234E-05
         0.99365E-06
         0.10616E-05
         0.11239E-05
         0.10571E-05
         0.82307E-06
         0.67014E-06
         0.86424E-06
         0.11523E-05
         0.12672E-05
         0.12149E-05
         0.10945E-05
         0.99354E-06
         0.80683E-06
         0.67856E-06
         0.88721E-06
         0.11750E-05
         0.12140E-05
         0.97999E-06
         0.79555E-06
         0.97684E-06
         0.11545E-05
         0.24626E-05
         0.19499E-05
         0.20968E-05
         0.36177E-05
         0.19355E-05
         0.24725E-05
         0.13729E-05
         0.16486E-05
         0.27399E-05
         0.19954E-05
         0.80730E-06
         0.15358E-05
         0.16914E-05
         0.13610E-05
         0.17484E-05
         0.32594E-05
         0.25506E-05
         0.32437E-05
         0.18989E-05
         0.21708E-05
         0.20471E-05
         0.22696E-05
         0.17404E-05
         0.10808E-05
         0.20483E-05
         0.17085E-05
         0.17629E-05
         0.18129E-05
         0.15824E-05
         0.19312E-05
         0.24585E-05
         0.17334E-05
         0.27598E-05
         0.24074E-05
         0.10820E-05
         0.16664E-05
         0.18923E-05
         0.20008E-05
         0.19333E-05
         0.15191E-05
         0.95449E-06
         0.15754E-05
         0.20872E-05
         0.16835E-05
         0.14793E-05
         0.96901E-06
         0.16550E-05
         0.22486E-05
         0.23615E-05
         0.19069E-05
         0.11713E-05
         0.20222E-05
         0.74384E-06
         0.94869E-06
         0.88325E-06
         0.10471E-05
         0.10236E-05
         0.99386E-06
         0.10620E-05
         0.11247E-05
         0.10577E-05
         0.82326E-06
         0.67020E-06
         0.86426E-06
         0.11524E-05
         0.12674E-05
         0.12150E-05
         0.10944E-05
         0.99348E-06
         0.80677E-06
         0.67846E-06
         0.88714E-06
         0.11750E-05
         0.12140E-05
         0.97979E-06
         0.79538E-06
         0.97696E-06
         0.11544E-05
         0.24628E-05
         0.19495E-05
         0.20970E-05
         0.36194E-05
         0.19358E-05
         0.24733E-05
         0.13722E-05
         0.16476E-05
         0.27409E-05
         0.19941E-05
         0.80652E-06
         0.15355E-05
         0.16913E-05
         0.13591E-05
         0.17481E-05
         0.32604E-05
         0.25518E-05
         0.32453E-05
         0.18990E-05
         0.21711E-05
         0.20470E-05
         0.22697E-05
         0.17402E-05
         0.10807E-05
         0.20474E-05
         0.17084E-05
         0.17603E-05
         0.18111E-05
         0.15817E-05
         0.19308E-05
         0.24588E-05
         0.17332E-05
         0.27613E-05
         0.24096E-05
         0.10819E-05
         0.16661E-05
         0.18921E-05
         0.20006E-05
         0.19334E-05
         0.15192E-05
         0.95450E-06
         0.15752E-05
         0.20871E-05
         0.16833E-05
         0.14789E-05
         0.96876E-06
         0.16549E-05
         0.22486E-05
         0.23619E-05
         0.19073E-05
         0.11713E-05
         0.20232E-05
         0.74362E-06
         0.94868E-06
         0.88282E-06
         0.10472E-05
         0.10238E-05
         0.99408E-06
         0.10625E-05
         0.11255E-05
         0.10584E-05
         0.82345E-06
         0.67025E-06
         0.86428E-06
         0.11526E-05
         0.12677E-05
         0.12152E-05
         0.10944E-05
         0.99342E-06
         0.80671E-06
         0.67836E-06
         0.88709E-06
         0.11750E-05
         0.12140E-05
         0.97959E-06
         0.79521E-06
         0.97708E-06
         0.11544E-05
         0.24629E-05
         0.19491E-05
         0.20972E-05
         0.36212E-05
         0.19361E-05
         0.24741E-05
         0.13715E-05
         0.16466E-05
         0.27418E-05
         0.19928E-05
         0.80575E-06
         0.15353E-05
         0.16912E-05
         0.13572E-05
         0.17477E-05
         0.32613E-05
         0.25529E-05
         0.32469E-05
         0.18990E-05
         0.21714E-05
         0.20469E-05
         0.22698E-05
         0.17400E-05
         0.10806E-05
         0.20466E-05
         0.17082E-05
         0.17576E-05
         0.18093E-05
         0.15810E-05
         0.19303E-05
         0.24590E-05
         0.17330E-05
         0.27627E-05
         0.24118E-05
         0.10819E-05
         0.16658E-05
         0.18919E-05
         0.20005E-05
         0.19335E-05
         0.15192E-05
         0.95450E-06
         0.15750E-05
         0.20870E-05
         0.16831E-05
         0.14786E-05
         0.96851E-06
         0.16548E-05
         0.22487E-05
         0.23622E-05
         0.19077E-05
         0.11713E-05
         0.20242E-05
         0.74339E-06
         0.94866E-06
         0.88239E-06
         0.10472E-05
         0.10241E-05
         0.99429E-06
         0.10630E-05
         0.11263E-05
         0.10590E-05
         0.82363E-06
         0.67030E-06
         0.86430E-06
         0.11527E-05
         0.12680E-05
         0.12153E-05
         0.10944E-05
         0.99335E-06
         0.80665E-06
         0.67825E-06
         0.88702E-06
         0.11749E-05
         0.12140E-05
         0.97939E-06
         0.79503E-06
         0.97720E-06
         0.11544E-05
         0.24631E-05
         0.19487E-05
         0.20973E-05
         0.36229E-05
         0.19364E-05
         0.24748E-05
         0.13707E-05
         0.16456E-05
         0.27428E-05
         0.19915E-05
         0.80498E-06
         0.15350E-05
         0.16911E-05
         0.13553E-05
         0.17473E-05
         0.32623E-05
         0.25541E-05
         0.32486E-05
         0.18991E-05
         0.21716E-05
         0.20468E-05
         0.22699E-05
         0.17399E-05
         0.10805E-05
         0.20457E-05
         0.17081E-05
         0.17549E-05
         0.18075E-05
         0.15804E-05
         0.19299E-05
         0.24592E-05
         0.17328E-05
         0.27642E-05
         0.24140E-05
         0.10819E-05
         0.16654E-05
         0.18916E-05
         0.20003E-05
         0.19337E-05
         0.15193E-05
         0.95450E-06
         0.15748E-05
         0.20869E-05
         0.16828E-05
         0.14782E-05
         0.96826E-06
         0.16546E-05
         0.22487E-05
         0.23626E-05
         0.19081E-05
         0.11714E-05
         0.20253E-05
         0.74316E-06
         0.94864E-06
         0.88196E-06
         0.10472E-05
         0.10243E-05
         0.99450E-06
         0.10634E-05
         0.11271E-05
         0.10596E-05
         0.82381E-06
         0.67036E-06
         0.86432E-06
         0.11529E-05
         0.12683E-05
         0.12154E-05
         0.10943E-05
         0.99329E-06
         0.80658E-06
         0.67815E-06
         0.88696E-06
         0.11749E-05
         0.12140E-05
         0.97919E-06
         0.79485E-06
         0.97732E-06
         0.11544E-05
         0.24632E-05
         0.19483E-05
         0.20975E-05
         0.36246E-05
         0.19368E-05
         0.24756E-05
         0.13700E-05
         0.16447E-05
         0.27437E-05
         0.19902E-05
         0.80421E-06
         0.15347E-05
         0.16910E-05
         0.13534E-05
         0.17470E-05
         0.32632E-05
         0.25552E-05
         0.32502E-05
         0.18992E-05
         0.21719E-05
         0.20467E-05
         0.22700E-05
         0.17397E-05
         0.10804E-05
         0.20448E-05
         0.17079E-05
         0.17523E-05
         0.18057E-05
         0.15797E-05
         0.19295E-05
         0.24595E-05
         0.17326E-05
         0.27656E-05
         0.24161E-05
         0.10819E-05
         0.16651E-05
         0.18914E-05
         0.20002E-05
         0.19338E-05
         0.15194E-05
         0.95451E-06
         0.15745E-05
         0.20868E-05
         0.16826E-05
         0.14779E-05
         0.96801E-06
         0.16545E-05
         0.22487E-05
         0.23630E-05
         0.19085E-05
         0.11714E-05
         0.20263E-05
         0.74293E-06
         0.94863E-06
         0.88153E-06
         0.10473E-05
         0.10245E-05
         0.99472E-06
         0.10639E-05
         0.11279E-05
         0.10602E-05
         0.82400E-06
         0.67041E-06
         0.86435E-06
         0.11530E-05
         0.12686E-05
         0.12156E-05
         0.10943E-05
         0.99323E-06
         0.80652E-06
         0.67804E-06
         0.88690E-06
         0.11749E-05
         0.12140E-05
         0.97900E-06
         0.79468E-06
         0.97744E-06
         0.11543E-05
         0.24633E-05
         0.19479E-05
         0.20977E-05
         0.36264E-05
         0.19371E-05
         0.24763E-05
         0.13693E-05
         0.16437E-05
         0.27447E-05
         0.19888E-05
         0.80343E-06
         0.15345E-05
         0.16908E-05
         0.13515E-05
         0.17466E-05
         0.32642E-05
         0.25564E-05
         0.32518E-05
         0.18992E-05
         0.21722E-05
         0.20466E-05
         0.22701E-05
         0.17395E-05
         0.10803E-05
         0.20439E-05
         0.17078E-05
         0.17496E-05
         0.18039E-05
         0.15790E-05
         0.19290E-05
         0.24597E-05
         0.17323E-05
         0.27671E-05
         0.24183E-05
         0.10819E-05
         0.16648E-05
         0.18911E-05
         0.20001E-05
         0.19339E-05
         0.15195E-05
         0.95452E-06
         0.15743E-05
         0.20867E-05
         0.16823E-05
         0.14775E-05
         0.96776E-06
         0.16543E-05
         0.22487E-05
         0.23633E-05
         0.19089E-05
         0.11714E-05
         0.20273E-05
         0.74270E-06
         0.94861E-06
         0.88109E-06
         0.10473E-05
         0.10248E-05
         0.99493E-06
         0.10643E-05
         0.11287E-05
         0.10609E-05
         0.82418E-06
         0.67046E-06
         0.86437E-06
         0.11532E-05
         0.12689E-05
         0.12157E-05
         0.10943E-05
         0.99316E-06
         0.80646E-06
         0.67794E-06
         0.88683E-06
         0.11749E-05
         0.12140E-05
         0.97879E-06
         0.79450E-06
         0.97755E-06
         0.11543E-05
         0.24635E-05
         0.19475E-05
         0.20979E-05
         0.36281E-05
         0.19374E-05
         0.24771E-05
         0.13686E-05
         0.16427E-05
         0.27456E-05
         0.19875E-05
         0.80266E-06
         0.15342E-05
         0.16907E-05
         0.13496E-05
         0.17463E-05
         0.32651E-05
         0.25575E-05
         0.32534E-05
         0.18993E-05
         0.21724E-05
         0.20466E-05
         0.22702E-05
         0.17393E-05
         0.10802E-05
         0.20430E-05
         0.17076E-05
         0.17469E-05
         0.18021E-05
         0.15784E-05
         0.19286E-05
         0.24600E-05
         0.17321E-05
         0.27685E-05
         0.24205E-05
         0.10819E-05
         0.16645E-05
         0.18909E-05
         0.19999E-05
         0.19341E-05
         0.15195E-05
         0.95452E-06
         0.15741E-05
         0.20866E-05
         0.16821E-05
         0.14772E-05
         0.96751E-06
         0.16542E-05
         0.22488E-05
         0.23637E-05
         0.19092E-05
         0.11715E-05
         0.20283E-05
         0.74247E-06
         0.94860E-06
         0.88066E-06
         0.10473E-05
         0.10250E-05
         0.99514E-06
         0.10648E-05
         0.11295E-05
         0.10615E-05
         0.82437E-06
         0.67052E-06
         0.86439E-06
         0.11533E-05
         0.12691E-05
         0.12159E-05
         0.10942E-05
         0.99310E-06
         0.80639E-06
         0.67783E-06
         0.88676E-06
         0.11748E-05
         0.12140E-05
         0.97859E-06
         0.79433E-06
         0.97767E-06
         0.11543E-05
         0.24636E-05
         0.19471E-05
         0.20980E-05
         0.36298E-05
         0.19377E-05
         0.24779E-05
         0.13679E-05
         0.16417E-05
         0.27466E-05
         0.19862E-05
         0.80189E-06
         0.15339E-05
         0.16906E-05
         0.13477E-05
         0.17459E-05
         0.32661E-05
         0.25587E-05
         0.32551E-05
         0.18994E-05
         0.21727E-05
         0.20465E-05
         0.22703E-05
         0.17392E-05
         0.10800E-05
         0.20421E-05
         0.17075E-05
         0.17443E-05
         0.18003E-05
         0.15777E-05
         0.19281E-05
         0.24602E-05
         0.17319E-05
         0.27700E-05
         0.24227E-05
         0.10819E-05
         0.16642E-05
         0.18906E-05
         0.19998E-05
         0.19342E-05
         0.15196E-05
         0.95453E-06
         0.15739E-05
         0.20865E-05
         0.16819E-05
         0.14768E-05
         0.96727E-06
         0.16541E-05
         0.22488E-05
         0.23640E-05
         0.19096E-05
         0.11715E-05
         0.20293E-05
         0.74225E-06
         0.94859E-06
         0.88023E-06
         0.10474E-05
         0.10253E-05
         0.99535E-06
         0.10653E-05
         0.11303E-05
         0.10621E-05
         0.82456E-06
         0.67057E-06
         0.86441E-06
         0.11535E-05
         0.12694E-05
         0.12160E-05
         0.10942E-05
         0.99304E-06
         0.80633E-06
         0.67773E-06
         0.88671E-06
         0.11748E-05
         0.12140E-05
         0.97840E-06
         0.79415E-06
         0.97780E-06
         0.11542E-05
         0.24637E-05
         0.19466E-05
         0.20982E-05
         0.36315E-05
         0.19380E-05
         0.24786E-05
         0.13671E-05
         0.16407E-05
         0.27475E-05
         0.19849E-05
         0.80110E-06
         0.15336E-05
         0.16905E-05
         0.13457E-05
         0.17455E-05
         0.32669E-05
         0.25598E-05
         0.32567E-05
         0.18994E-05
         0.21729E-05
         0.20464E-05
         0.22703E-05
         0.17390E-05
         0.10799E-05
         0.20412E-05
         0.17073E-05
         0.17416E-05
         0.17985E-05
         0.15770E-05
         0.19277E-05
         0.24604E-05
         0.17317E-05
         0.27714E-05
         0.24248E-05
         0.10819E-05
         0.16638E-05
         0.18903E-05
         0.19996E-05
         0.19343E-05
         0.15196E-05
         0.95451E-06
         0.15737E-05
         0.20864E-05
         0.16816E-05
         0.14765E-05
         0.96700E-06
         0.16539E-05
         0.22488E-05
         0.23644E-05
         0.19100E-05
         0.11715E-05
         0.20303E-05
         0.74200E-06
         0.94855E-06
         0.87978E-06
         0.10474E-05
         0.10255E-05
         0.99555E-06
         0.10657E-05
         0.11311E-05
         0.10627E-05
         0.82472E-06
         0.67061E-06
         0.86442E-06
         0.11536E-05
         0.12697E-05
         0.12161E-05
         0.10941E-05
         0.99295E-06
         0.80625E-06
         0.67761E-06
         0.88662E-06
         0.11748E-05
         0.12140E-05
         0.97818E-06
         0.79396E-06
         0.97790E-06
         0.11542E-05
         0.24639E-05
         0.19463E-05
         0.20984E-05
         0.36333E-05
         0.19383E-05
         0.24794E-05
         0.13664E-05
         0.16398E-05
         0.27485E-05
         0.19836E-05
         0.80034E-06
         0.15334E-05
         0.16904E-05
         0.13439E-05
         0.17452E-05
         0.32679E-05
         0.25610E-05
         0.32583E-05
         0.18995E-05
         0.21732E-05
         0.20463E-05
         0.22704E-05
         0.17388E-05
         0.10798E-05
         0.20404E-05
         0.17072E-05
         0.17389E-05
         0.17967E-05
         0.15763E-05
         0.19272E-05
         0.24607E-05
         0.17315E-05
         0.27729E-05
         0.24270E-05
         0.10819E-05
         0.16635E-05
         0.18901E-05
         0.19995E-05
         0.19345E-05
         0.15197E-05
         0.95453E-06
         0.15735E-05
         0.20863E-05
         0.16814E-05
         0.14761E-05
         0.96677E-06
         0.16538E-05
         0.22488E-05
         0.23647E-05
         0.19104E-05
         0.11716E-05
         0.20313E-05
         0.74179E-06
         0.94855E-06
         0.87936E-06
         0.10475E-05
         0.10257E-05
         0.99577E-06
         0.10662E-05
         0.11319E-05
         0.10633E-05
         0.82492E-06
         0.67068E-06
         0.86446E-06
         0.11538E-05
         0.12700E-05
         0.12163E-05
         0.10941E-05
         0.99291E-06
         0.80620E-06
         0.67752E-06
         0.88657E-06
         0.11748E-05
         0.12140E-05
         0.97800E-06
         0.79380E-06
         0.97803E-06
         0.11542E-05
         0.12320E-05
         0.97306E-06
         0.10493E-05
         0.18171E-05
         0.96926E-06
         0.12399E-05
         0.68306E-06
         0.81967E-06
         0.13745E-05
         0.99152E-06
         0.39999E-06
         0.76665E-06
         0.84519E-06
         0.67148E-06
         0.87252E-06
         0.16343E-05
         0.12808E-05
         0.16296E-05
         0.94981E-06
         0.10867E-05
         0.10232E-05
         0.11353E-05
         0.86940E-06
         0.53990E-06
         0.10200E-05
         0.85360E-06
         0.86884E-06
         0.89793E-06
         0.78802E-06
         0.96354E-06
         0.12305E-05
         0.86572E-06
         0.13869E-05
         0.12141E-05
         0.54095E-06
         0.83170E-06
         0.94503E-06
         0.99975E-06
         0.96729E-06
         0.75992E-06
         0.47728E-06
         0.78670E-06
         0.10432E-05
         0.84065E-06
         0.73800E-06
         0.48334E-06
         0.82688E-06
         0.11245E-05
         0.11825E-05
         0.95534E-06
         0.58581E-06
         0.10159E-05
         0.37085E-06
         0.47429E-06
         0.43959E-06
         0.52375E-06
         0.51294E-06
         0.49796E-06
         0.53322E-06
         0.56619E-06
         0.53185E-06
         0.41252E-06
         0.33536E-06
         0.43225E-06
         0.57696E-06
         0.63509E-06
         0.60820E-06
         0.54708E-06
         0.49646E-06
         0.40310E-06
         0.33875E-06
         0.44329E-06
         0.58740E-06
         0.60700E-06
         0.48897E-06
         0.39687E-06
         0.48906E-06
         0.57710E-06
  
SCALARS                 Poissons_ratio  double 1
LOOKUP_TABLE default
         0.30000E+00
         0.30000E+00
         0.30000E+00
         0.30000E+00
         0.30000E+00
         0.30000E+00
         0.30000E+00
         0.30000E+00
         0.30000E+00
         0.30000E+00
         0.30000E+00
         0.30000E+00
         0.30000E+00
         0.30000E+00
         0.30000E+00
         0.30000E+00
         0.30000E+00
         0.30000E+00
         0.30000E+00
         0.30000E+00
         0.30000E+00
         0.30000E+00
         0.30000E+00
         0.30000E+00
         0.30000E+00
         0.30000E+00
         0.30000E+00
         0.30000E+00
         0.30000E+00
         0.30000E+00
         0.30000E+00
         0.30000E+00
         0.30000E+00
         0.30000E+00
         0.30000E+00
         0.30000E+00
         0.30000E+00
         0.30000E+00
         0.30000E+00
         0.30000E+00
         0.30000E+00
         0.30000E+00
         0.30000E+00
         0.30000E+00
         0.30000E+00
         0.30000E+00
         0.30000E+00
         0.30000E+00
         0.30000E+00
         0.30000E+00
         0.30000E+00
         0.30000E+00
         0.30000E+00
         0.30000E+00
         0.30000E+00
         0.30000E+00
         0.30000E+00
         0.30000E+00
         0.30000E+00
         0.30000E+00
         0.30000E+00
         0.30000E+00
         0.30000E+00
         0.30000E+00
         0.30000E+00
         0.30000E+00
         0.30000E+00
         0.30000E+00
         0.30000E+00
         0.30000E+00
         0.30000E+00
         0.30000E+00
         0.30000E+00
         0.30000E+00
         0.30000E+00
         0.30000E+00
         0.30000E+00
         0.30000E+00
         0.30000E+00
         0.30000E+00
         0.30000E+00
         0.30000E+00
         0.30000E+00
         0.30000E+00
         0.30000E+00
         0.30000E+00
         0.30000E+00
         0.30000E+00
         0.30000E+00
         0.30000E+00
         0.30000E+00
         0.30000E+00
         0.30000E+00
         0.30000E+00
         0.30000E+00
         0.30000E+00
         0.30000E+00
         0.30000E+00
         0.30000E+00
         0.30000E+00
         0.30000E+00
         0.30000E+00
         0.30000E+00
         0.30000E+00
         0.30000E+00
         0.30000E+00
         0.30000E+00
         0.30000E+00
         0.30000E+00
         0.30000E+00
         0.30000E+00
         0.30000E+00
         0.30000E+00
         0.30000E+00
         0.30000E+00
         0.30000E+00
         0.30000E+00
         0.30000E+00
         0.30000E+00
         0.30000E+00
         0.30000E+00
         0.30000E+00
         0.30000E+00
         0.30000E+00
         0.30000E+00
         0.30000E+00
         0.30000E+00
         0.30000E+00
         0.30000E+00
         0.30000E+00
         0.30000E+00
         0.30000E+00
         0.30000E+00
         0.30000E+00
         0.30000E+00
         0.30000E+00
         0.30000E+00
         0.30000E+00
         0.30000E+00
         0.30000E+00
         0.30000E+00
         0.30000E+00
         0.30000E+00
         0.30000E+00
         0.30000E+00
         0.30000E+00
         0.30000E+00
         0.30000E+00
         0.30000E+00
         0.30000E+00
         0.30000E+00
         0.30000E+00
         0.30000E+00
         0.30000E+00
         0.30000E+00
         0.30000E+00
         0.30000E+00
         0.30000E+00
         0.30000E+00
         0.30000E+00
         0.30000E+00
         0.30000E+00
         0.30000E+00
         0.30000E+00
         0.30000E+00
         0.30000E+00
         0.30000E+00
         0.30000E+00
         0.30000E+00
         0.30000E+00
         0.30000E+00
         0.30000E+00
         0.30000E+00
         0.30000E+00
         0.30000E+00
         0.30000E+00
         0.30000E+00
         0.30000E+00
         0.30000E+00
         0.30000E+00
         0.30000E+00
         0.30000E+00
         0.30000E+00
         0.30000E+00
         0.30000E+00
         0.30000E+00
         0.30000E+00
         0.30000E+00
         0.30000E+00
         0.30000E+00
         0.30000E+00
         0.30000E+00
         0.30000E+00
         0.30000E+00
         0.30000E+00
         0.30000E+00
         0.30000E+00
         0.30000E+00
         0.30000E+00
         0.30000E+00
         0.30000E+00
         0.30000E+00
         0.30000E+00
         0.30000E+00
         0.30000E+00
         0.30000E+00
         0.30000E+00
         0.30000E+00
         0.30000E+00
         0.30000E+00
         0.30000E+00
         0.30000E+00
         0.30000E+00
         0.30000E+00
         0.30000E+00
         0.30000E+00
         0.30000E+00
         0.30000E+00
         0.30000E+00
         0.30000E+00
         0.30000E+00
         0.30000E+00
         0.30000E+00
         0.30000E+00
         0.30000E+00
         0.30000E+00
         0.30000E+00
         0.30000E+00
         0.30000E+00
         0.30000E+00
         0.30000E+00
         0.30000E+00
         0.30000E+00
         0.30000E+00
         0.30000E+00
         0.30000E+00
         0.30000E+00
         0.30000E+00
         0.30000E+00
         0.30000E+00
         0.30000E+00
         0.30000E+00
         0.30000E+00
         0.30000E+00
         0.30000E+00
         0.30000E+00
         0.30000E+00
         0.30000E+00
         0.30000E+00
         0.30000E+00
         0.30000E+00
         0.30000E+00
         0.30000E+00
         0.30000E+00
         0.30000E+00
         0.30000E+00
         0.30000E+00
         0.30000E+00
         0.30000E+00
         0.30000E+00
         0.30000E+00
         0.30000E+00
         0.30000E+00
         0.30000E+00
         0.30000E+00
         0.30000E+00
         0.30000E+00
         0.30000E+00
         0.30000E+00
         0.30000E+00
         0.30000E+00
         0.30000E+00
         0.30000E+00
         0.30000E+00
         0.30000E+00
         0.30000E+00
         0.30000E+00
         0.30000E+00
         0.30000E+00
         0.30000E+00
         0.30000E+00
         0.30000E+00
         0.30000E+00
         0.30000E+00
         0.30000E+00
         0.30000E+00
         0.30000E+00
         0.30000E+00
         0.30000E+00
         0.30000E+00
         0.30000E+00
         0.30000E+00
         0.30000E+00
         0.30000E+00
         0.30000E+00
         0.30000E+00
         0.30000E+00
         0.30000E+00
         0.30000E+00
         0.30000E+00
         0.30000E+00
         0.30000E+00
         0.30000E+00
         0.30000E+00
         0.30000E+00
         0.30000E+00
         0.30000E+00
         0.30000E+00
         0.30000E+00
         0.30000E+00
         0.30000E+00
         0.30000E+00
         0.30000E+00
         0.30000E+00
         0.30000E+00
         0.30000E+00
         0.30000E+00
         0.30000E+00
         0.30000E+00
         0.30000E+00
         0.30000E+00
         0.30000E+00
         0.30000E+00
         0.30000E+00
         0.30000E+00
         0.30000E+00
         0.30000E+00
         0.30000E+00
         0.30000E+00
         0.30000E+00
         0.30000E+00
         0.30000E+00
         0.30000E+00
         0.30000E+00
         0.30000E+00
         0.30000E+00
         0.30000E+00
         0.30000E+00
         0.30000E+00
         0.30000E+00
         0.30000E+00
         0.30000E+00
         0.30000E+00
         0.30000E+00
         0.30000E+00
         0.30000E+00
         0.30000E+00
         0.30000E+00
         0.30000E+00
         0.30000E+00
         0.30000E+00
         0.30000E+00
         0.30000E+00
         0.30000E+00
         0.30000E+00
         0.30000E+00
         0.30000E+00
         0.30000E+00
         0.30000E+00
         0.30000E+00
         0.30000E+00
         0.30000E+00
         0.30000E+00
         0.30000E+00
         0.30000E+00
         0.30000E+00
         0.30000E+00
         0.30000E+00
         0.30000E+00
         0.30000E+00
         0.30000E+00
         0.30000E+00
         0.30000E+00
         0.30000E+00
         0.30000E+00
         0.30000E+00
         0.30000E+00
         0.30000E+00
         0.30000E+00
         0.30000E+00
         0.30000E+00
         0.30000E+00
         0.30000E+00
         0.30000E+00
         0.30000E+00
         0.30000E+00
         0.30000E+00
         0.30000E+00
         0.30000E+00
         0.30000E+00
         0.30000E+00
         0.30000E+00
         0.30000E+00
         0.30000E+00
         0.30000E+00
         0.30000E+00
         0.30000E+00
         0.30000E+00
         0.30000E+00
         0.30000E+00
         0.30000E+00
         0.30000E+00
         0.30000E+00
         0.30000E+00
         0.30000E+00
         0.30000E+00
         0.30000E+00
         0.30000E+00
         0.30000E+00
         0.30000E+00
         0.30000E+00
         0.30000E+00
         0.30000E+00
         0.30000E+00
         0.30000E+00
         0.30000E+00
         0.30000E+00
         0.30000E+00
         0.30000E+00
         0.30000E+00
         0.30000E+00
         0.30000E+00
         0.30000E+00
         0.30000E+00
         0.30000E+00
         0.30000E+00
         0.30000E+00
         0.30000E+00
         0.30000E+00
         0.30000E+00
         0.30000E+00
         0.30000E+00
         0.30000E+00
         0.30000E+00
         0.30000E+00
         0.30000E+00
         0.30000E+00
         0.30000E+00
         0.30000E+00
         0.30000E+00
         0.30000E+00
         0.30000E+00
         0.30000E+00
         0.30000E+00
         0.30000E+00
         0.30000E+00
         0.30000E+00
         0.30000E+00
         0.30000E+00
         0.30000E+00
         0.30000E+00
         0.30000E+00
         0.30000E+00
         0.30000E+00
         0.30000E+00
         0.30000E+00
         0.30000E+00
         0.30000E+00
         0.30000E+00
         0.30000E+00
         0.30000E+00
         0.30000E+00
         0.30000E+00
         0.30000E+00
         0.30000E+00
         0.30000E+00
         0.30000E+00
         0.30000E+00
         0.30000E+00
         0.30000E+00
         0.30000E+00
         0.30000E+00
         0.30000E+00
         0.30000E+00
         0.30000E+00
         0.30000E+00
         0.30000E+00
         0.30000E+00
         0.30000E+00
         0.30000E+00
         0.30000E+00
         0.30000E+00
         0.30000E+00
         0.30000E+00
         0.30000E+00
         0.30000E+00
         0.30000E+00
         0.30000E+00
         0.30000E+00
         0.30000E+00
         0.30000E+00
         0.30000E+00
         0.30000E+00
         0.30000E+00
         0.30000E+00
         0.30000E+00
         0.30000E+00
         0.30000E+00
         0.30000E+00
         0.30000E+00
         0.30000E+00
         0.30000E+00
         0.30000E+00
         0.30000E+00
         0.30000E+00
         0.30000E+00
         0.30000E+00
         0.30000E+00
         0.30000E+00
         0.30000E+00
         0.30000E+00
         0.30000E+00
         0.30000E+00
         0.30000E+00
         0.30000E+00
         0.30000E+00
         0.30000E+00
         0.30000E+00
         0.30000E+00
         0.30000E+00
         0.30000E+00
         0.30000E+00
         0.30000E+00
         0.30000E+00
         0.30000E+00
         0.30000E+00
         0.30000E+00
         0.30000E+00
         0.30000E+00
         0.30000E+00
         0.30000E+00
         0.30000E+00
         0.30000E+00
         0.30000E+00
         0.30000E+00
         0.30000E+00
         0.30000E+00
         0.30000E+00
         0.30000E+00
         0.30000E+00
         0.30000E+00
         0.30000E+00
         0.30000E+00
         0.30000E+00
         0.30000E+00
         0.30000E+00
         0.30000E+00
         0.30000E+00
         0.30000E+00
         0.30000E+00
         0.30000E+00
         0.30000E+00
         0.30000E+00
         0.30000E+00
         0.30000E+00
         0.30000E+00
         0.30000E+00
         0.30000E+00
         0.30000E+00
         0.30000E+00
         0.30000E+00
         0.30000E+00
         0.30000E+00
         0.30000E+00
         0.30000E+00
         0.30000E+00
         0.30000E+00
         0.30000E+00
         0.30000E+00
         0.30000E+00
         0.30000E+00
         0.30000E+00
         0.30000E+00
         0.30000E+00
         0.30000E+00
         0.30000E+00
         0.30000E+00
         0.30000E+00
         0.30000E+00
         0.30000E+00
         0.30000E+00
         0.30000E+00
         0.30000E+00
         0.30000E+00
         0.30000E+00
         0.30000E+00
         0.30000E+00
         0.30000E+00
         0.30000E+00
         0.30000E+00
         0.30000E+00
         0.30000E+00
         0.30000E+00
         0.30000E+00
         0.30000E+00
         0.30000E+00
         0.30000E+00
         0.30000E+00
         0.30000E+00
         0.30000E+00
         0.30000E+00
         0.30000E+00
         0.30000E+00
         0.30000E+00
         0.30000E+00
         0.30000E+00
         0.30000E+00
         0.30000E+00
         0.30000E+00
         0.30000E+00
         0.30000E+00
         0.30000E+00
         0.30000E+00
         0.30000E+00
         0.30000E+00
         0.30000E+00
         0.30000E+00
         0.30000E+00
         0.30000E+00
         0.30000E+00
         0.30000E+00
         0.30000E+00
         0.30000E+00
         0.30000E+00
         0.30000E+00
         0.30000E+00
         0.30000E+00
         0.30000E+00
         0.30000E+00
         0.30000E+00
         0.30000E+00
         0.30000E+00
         0.30000E+00
         0.30000E+00
         0.30000E+00
         0.30000E+00
         0.30000E+00
         0.30000E+00
         0.30000E+00
         0.30000E+00
         0.30000E+00
         0.30000E+00
         0.30000E+00
         0.30000E+00
         0.30000E+00
         0.30000E+00
         0.30000E+00
         0.30000E+00
         0.30000E+00
         0.30000E+00
         0.30000E+00
         0.30000E+00
         0.30000E+00
         0.30000E+00
         0.30000E+00
         0.30000E+00
         0.30000E+00
         0.30000E+00
         0.30000E+00
         0.30000E+00
         0.30000E+00
         0.30000E+00
         0.30000E+00
         0.30000E+00
         0.30000E+00
         0.30000E+00
         0.30000E+00
         0.30000E+00
         0.30000E+00
         0.30000E+00
         0.30000E+00
         0.30000E+00
         0.30000E+00
         0.30000E+00
         0.30000E+00
         0.30000E+00
         0.30000E+00
         0.30000E+00
         0.30000E+00
         0.30000E+00
         0.30000E+00
         0.30000E+00
         0.30000E+00
         0.30000E+00
         0.30000E+00
         0.30000E+00
         0.30000E+00
         0.30000E+00
         0.30000E+00
         0.30000E+00
         0.30000E+00
         0.30000E+00
         0.30000E+00
         0.30000E+00
         0.30000E+00
         0.30000E+00
         0.30000E+00
         0.30000E+00
         0.30000E+00
         0.30000E+00
         0.30000E+00
         0.30000E+00
         0.30000E+00
         0.30000E+00
         0.30000E+00
         0.30000E+00
         0.30000E+00
         0.30000E+00
         0.30000E+00
         0.30000E+00
         0.30000E+00
         0.30000E+00
         0.30000E+00
         0.30000E+00
         0.30000E+00
         0.30000E+00
         0.30000E+00
         0.30000E+00
         0.30000E+00
         0.30000E+00
         0.30000E+00
         0.30000E+00
         0.30000E+00
         0.30000E+00
         0.30000E+00
         0.30000E+00
         0.30000E+00
         0.30000E+00
         0.30000E+00
         0.30000E+00
         0.30000E+00
         0.30000E+00
         0.30000E+00
         0.30000E+00
         0.30000E+00
         0.30000E+00
         0.30000E+00
         0.30000E+00
         0.30000E+00
         0.30000E+00
         0.30000E+00
         0.30000E+00
         0.30000E+00
         0.30000E+00
         0.30000E+00
         0.30000E+00
         0.30000E+00
         0.30000E+00
         0.30000E+00
         0.30000E+00
         0.30000E+00
         0.30000E+00
         0.30000E+00
         0.30000E+00
         0.30000E+00
         0.30000E+00
         0.30000E+00
         0.30000E+00
         0.30000E+00
         0.30000E+00
         0.30000E+00
         0.30000E+00
         0.30000E+00
         0.30000E+00
         0.30000E+00
         0.30000E+00
         0.30000E+00
         0.30000E+00
         0.30000E+00
         0.30000E+00
         0.30000E+00
         0.30000E+00
         0.30000E+00
         0.30000E+00
         0.30000E+00
         0.30000E+00
         0.30000E+00
         0.30000E+00
         0.30000E+00
         0.30000E+00
         0.30000E+00
         0.30000E+00
         0.30000E+00
         0.30000E+00
         0.30000E+00
         0.30000E+00
         0.30000E+00
         0.30000E+00
         0.30000E+00
         0.30000E+00
         0.30000E+00
         0.30000E+00
         0.30000E+00
         0.30000E+00
         0.30000E+00
         0.30000E+00
         0.30000E+00
         0.30000E+00
         0.30000E+00
         0.30000E+00
         0.30000E+00
         0.30000E+00
         0.30000E+00
         0.30000E+00
         0.30000E+00
         0.30000E+00
         0.30000E+00
         0.30000E+00
         0.30000E+00
         0.30000E+00
         0.30000E+00
         0.30000E+00
         0.30000E+00
         0.30000E+00
         0.30000E+00
         0.30000E+00
         0.30000E+00
         0.30000E+00
         0.30000E+00
         0.30000E+00
         0.30000E+00
         0.30000E+00
         0.30000E+00
         0.30000E+00
         0.30000E+00
         0.30000E+00
         0.30000E+00
         0.30000E+00
         0.30000E+00
         0.30000E+00
         0.30000E+00
         0.30000E+00
         0.30000E+00
         0.30000E+00
         0.30000E+00
         0.30000E+00
         0.30000E+00
         0.30000E+00
         0.30000E+00
         0.30000E+00
         0.30000E+00
         0.30000E+00
         0.30000E+00
         0.30000E+00
         0.30000E+00
         0.30000E+00
         0.30000E+00
         0.30000E+00
         0.30000E+00
         0.30000E+00
         0.30000E+00
         0.30000E+00
         0.30000E+00
         0.30000E+00
         0.30000E+00
         0.30000E+00
         0.30000E+00
         0.30000E+00
         0.30000E+00
         0.30000E+00
         0.30000E+00
         0.30000E+00
         0.30000E+00
         0.30000E+00
         0.30000E+00
         0.30000E+00
         0.30000E+00
         0.30000E+00
         0.30000E+00
         0.30000E+00
         0.30000E+00
         0.30000E+00
         0.30000E+00
         0.30000E+00
         0.30000E+00
         0.30000E+00
         0.30000E+00
         0.30000E+00
         0.30000E+00
         0.30000E+00
         0.30000E+00
         0.30000E+00
         0.30000E+00
         0.30000E+00
         0.30000E+00
         0.30000E+00
         0.30000E+00
         0.30000E+00
         0.30000E+00
         0.30000E+00
         0.30000E+00
         0.30000E+00
         0.30000E+00
         0.30000E+00
         0.30000E+00
         0.30000E+00
         0.30000E+00
         0.30000E+00
         0.30000E+00
         0.30000E+00
         0.30000E+00
         0.30000E+00
         0.30000E+00
         0.30000E+00
         0.30000E+00
         0.30000E+00
         0.30000E+00
         0.30000E+00
         0.30000E+00
         0.30000E+00
         0.30000E+00
         0.30000E+00
         0.30000E+00
         0.30000E+00
         0.30000E+00
         0.30000E+00
         0.30000E+00
         0.30000E+00
         0.30000E+00
         0.30000E+00
         0.30000E+00
         0.30000E+00
         0.30000E+00
         0.30000E+00
         0.30000E+00
         0.30000E+00
         0.30000E+00
         0.30000E+00
         0.30000E+00
         0.30000E+00
         0.30000E+00
         0.30000E+00
         0.30000E+00
         0.30000E+00
         0.30000E+00
         0.30000E+00
         0.30000E+00
         0.30000E+00
         0.30000E+00
         0.30000E+00
         0.30000E+00
         0.30000E+00
         0.30000E+00
         0.30000E+00
         0.30000E+00
         0.30000E+00
         0.30000E+00
         0.30000E+00
         0.30000E+00
         0.30000E+00
         0.30000E+00
         0.30000E+00
         0.30000E+00
         0.30000E+00
         0.30000E+00
         0.30000E+00
         0.30000E+00
         0.30000E+00
         0.30000E+00
         0.30000E+00
         0.30000E+00
         0.30000E+00
         0.30000E+00
         0.30000E+00
         0.30000E+00
         0.30000E+00
         0.30000E+00
         0.30000E+00
         0.30000E+00
         0.30000E+00
         0.30000E+00
         0.30000E+00
         0.30000E+00
         0.30000E+00
         0.30000E+00
         0.30000E+00
         0.30000E+00
         0.30000E+00
         0.30000E+00
         0.30000E+00
         0.30000E+00
         0.30000E+00
         0.30000E+00
         0.30000E+00
         0.30000E+00
         0.30000E+00
         0.30000E+00
         0.30000E+00
         0.30000E+00
         0.30000E+00
         0.30000E+00
         0.30000E+00
         0.30000E+00
         0.30000E+00
         0.30000E+00
         0.30000E+00
         0.30000E+00
         0.30000E+00
         0.30000E+00
         0.30000E+00
         0.30000E+00
         0.30000E+00
         0.30000E+00
         0.30000E+00
         0.30000E+00
         0.30000E+00
         0.30000E+00
         0.30000E+00
         0.30000E+00
         0.30000E+00
         0.30000E+00
         0.30000E+00
         0.30000E+00
         0.30000E+00
         0.30000E+00
         0.30000E+00
         0.30000E+00
         0.30000E+00
         0.30000E+00
         0.30000E+00
         0.30000E+00
         0.30000E+00
         0.30000E+00
         0.30000E+00
         0.30000E+00
         0.30000E+00
         0.30000E+00
         0.30000E+00
         0.30000E+00
         0.30000E+00
         0.30000E+00
         0.30000E+00
         0.30000E+00
         0.30000E+00
         0.30000E+00
         0.30000E+00
         0.30000E+00
         0.30000E+00
         0.30000E+00
         0.30000E+00
         0.30000E+00
         0.30000E+00
         0.30000E+00
         0.30000E+00
         0.30000E+00
         0.30000E+00
         0.30000E+00
         0.30000E+00
         0.30000E+00
         0.30000E+00
         0.30000E+00
         0.30000E+00
         0.30000E+00
         0.30000E+00
         0.30000E+00
         0.30000E+00
         0.30000E+00
         0.30000E+00
         0.30000E+00
         0.30000E+00
         0.30000E+00
         0.30000E+00
         0.30000E+00
         0.30000E+00
         0.30000E+00
         0.30000E+00
         0.30000E+00
         0.30000E+00
         0.30000E+00
         0.30000E+00
         0.30000E+00
         0.30000E+00
         0.30000E+00
         0.30000E+00
         0.30000E+00
         0.30000E+00
         0.30000E+00
         0.30000E+00
         0.30000E+00
         0.30000E+00
         0.30000E+00
         0.30000E+00
         0.30000E+00
         0.30000E+00
         0.30000E+00
         0.30000E+00
         0.30000E+00
         0.30000E+00
         0.30000E+00
         0.30000E+00
         0.30000E+00
         0.30000E+00
         0.30000E+00
         0.30000E+00
         0.30000E+00
         0.30000E+00
         0.30000E+00
         0.30000E+00
         0.30000E+00
         0.30000E+00
         0.30000E+00
         0.30000E+00
         0.30000E+00
         0.30000E+00
         0.30000E+00
         0.30000E+00
         0.30000E+00
         0.30000E+00
         0.30000E+00
         0.30000E+00
         0.30000E+00
         0.30000E+00
         0.30000E+00
         0.30000E+00
         0.30000E+00
         0.30000E+00
         0.30000E+00
         0.30000E+00
         0.30000E+00
         0.30000E+00
         0.30000E+00
         0.30000E+00
         0.30000E+00
         0.30000E+00
         0.30000E+00
         0.30000E+00
         0.30000E+00
         0.30000E+00
         0.30000E+00
         0.30000E+00
         0.30000E+00
         0.30000E+00
         0.30000E+00
         0.30000E+00
         0.30000E+00
         0.30000E+00
         0.30000E+00
         0.30000E+00
         0.30000E+00
         0.30000E+00
         0.30000E+00
         0.30000E+00
         0.30000E+00
         0.30000E+00
         0.30000E+00
         0.30000E+00
         0.30000E+00
         0.30000E+00
         0.30000E+00
         0.30000E+00
         0.30000E+00
         0.30000E+00
         0.30000E+00
         0.30000E+00
         0.30000E+00
         0.30000E+00
         0.30000E+00
         0.30000E+00
         0.30000E+00
         0.30000E+00
         0.30000E+00
         0.30000E+00
         0.30000E+00
         0.30000E+00
         0.30000E+00
         0.30000E+00
         0.30000E+00
         0.30000E+00
         0.30000E+00
         0.30000E+00
         0.30000E+00
         0.30000E+00
         0.30000E+00
         0.30000E+00
         0.30000E+00
         0.30000E+00
         0.30000E+00
         0.30000E+00
         0.30000E+00
         0.30000E+00
         0.30000E+00
         0.30000E+00
         0.30000E+00
         0.30000E+00
         0.30000E+00
         0.30000E+00
         0.30000E+00
         0.30000E+00
         0.30000E+00
         0.30000E+00
         0.30000E+00
         0.30000E+00
         0.30000E+00
         0.30000E+00
         0.30000E+00
         0.30000E+00
         0.30000E+00
         0.30000E+00
         0.30000E+00
         0.30000E+00
         0.30000E+00
         0.30000E+00
         0.30000E+00
         0.30000E+00
         0.30000E+00
         0.30000E+00
         0.30000E+00
         0.30000E+00
         0.30000E+00
         0.30000E+00
         0.30000E+00
         0.30000E+00
         0.30000E+00
         0.30000E+00
         0.30000E+00
         0.30000E+00
         0.30000E+00
         0.30000E+00
         0.30000E+00
         0.30000E+00
         0.30000E+00
         0.30000E+00
         0.30000E+00
         0.30000E+00
         0.30000E+00
         0.30000E+00
         0.30000E+00
         0.30000E+00
         0.30000E+00
         0.30000E+00
         0.30000E+00
         0.30000E+00
         0.30000E+00
         0.30000E+00
         0.30000E+00
         0.30000E+00
         0.30000E+00
         0.30000E+00
         0.30000E+00
         0.30000E+00
         0.30000E+00
         0.30000E+00
         0.30000E+00
         0.30000E+00
         0.30000E+00
         0.30000E+00
         0.30000E+00
         0.30000E+00
         0.30000E+00
         0.30000E+00
         0.30000E+00
         0.30000E+00
         0.30000E+00
         0.30000E+00
         0.30000E+00
         0.30000E+00
         0.30000E+00
         0.30000E+00
         0.30000E+00
         0.30000E+00
         0.30000E+00
         0.30000E+00
         0.30000E+00
         0.30000E+00
         0.30000E+00
         0.30000E+00
         0.30000E+00
         0.30000E+00
         0.30000E+00
         0.30000E+00
         0.30000E+00
         0.30000E+00
         0.30000E+00
         0.30000E+00
         0.30000E+00
         0.30000E+00
         0.30000E+00
         0.30000E+00
         0.30000E+00
         0.30000E+00
         0.30000E+00
         0.30000E+00
         0.30000E+00
         0.30000E+00
         0.30000E+00
         0.30000E+00
         0.30000E+00
         0.30000E+00
         0.30000E+00
         0.30000E+00
         0.30000E+00
         0.30000E+00
         0.30000E+00
         0.30000E+00
         0.30000E+00
         0.30000E+00
         0.30000E+00
         0.30000E+00
         0.30000E+00
         0.30000E+00
         0.30000E+00
         0.30000E+00
         0.30000E+00
         0.30000E+00
         0.30000E+00
         0.30000E+00
         0.30000E+00
         0.30000E+00
         0.30000E+00
         0.30000E+00
         0.30000E+00
         0.30000E+00
         0.30000E+00
         0.30000E+00
         0.30000E+00
         0.30000E+00
         0.30000E+00
         0.30000E+00
         0.30000E+00
         0.30000E+00
         0.30000E+00
         0.30000E+00
         0.30000E+00
         0.30000E+00
         0.30000E+00
         0.30000E+00
         0.30000E+00
         0.30000E+00
         0.30000E+00
         0.30000E+00
         0.30000E+00
         0.30000E+00
         0.30000E+00
         0.30000E+00
         0.30000E+00
         0.30000E+00
         0.30000E+00
         0.30000E+00
         0.30000E+00
         0.30000E+00
         0.30000E+00
         0.30000E+00
         0.30000E+00
         0.30000E+00
         0.30000E+00
         0.30000E+00
         0.30000E+00
         0.30000E+00
         0.30000E+00
         0.30000E+00
         0.30000E+00
         0.30000E+00
         0.30000E+00
         0.30000E+00
         0.30000E+00
         0.30000E+00
         0.30000E+00
         0.30000E+00
         0.30000E+00
         0.30000E+00
         0.30000E+00
         0.30000E+00
         0.30000E+00
         0.30000E+00
         0.30000E+00
         0.30000E+00
         0.30000E+00
         0.30000E+00
         0.30000E+00
         0.30000E+00
         0.30000E+00
         0.30000E+00
         0.30000E+00
         0.30000E+00
         0.30000E+00
         0.30000E+00
         0.30000E+00
         0.30000E+00
         0.30000E+00
         0.30000E+00
         0.30000E+00
         0.30000E+00
         0.30000E+00
         0.30000E+00
         0.30000E+00
         0.30000E+00
         0.30000E+00
         0.30000E+00
         0.30000E+00
         0.30000E+00
         0.30000E+00
         0.30000E+00
         0.30000E+00
         0.30000E+00
         0.30000E+00
         0.30000E+00
         0.30000E+00
         0.30000E+00
         0.30000E+00
         0.30000E+00
         0.30000E+00
         0.30000E+00
         0.30000E+00
         0.30000E+00
         0.30000E+00
         0.30000E+00
         0.30000E+00
         0.30000E+00
         0.30000E+00
         0.30000E+00
         0.30000E+00
         0.30000E+00
         0.30000E+00
         0.30000E+00
         0.30000E+00
         0.30000E+00
         0.30000E+00
         0.30000E+00
         0.30000E+00
         0.30000E+00
         0.30000E+00
         0.30000E+00
         0.30000E+00
         0.30000E+00
         0.30000E+00
         0.30000E+00
         0.30000E+00
         0.30000E+00
         0.30000E+00
         0.30000E+00
         0.30000E+00
         0.30000E+00
         0.30000E+00
         0.30000E+00
         0.30000E+00
         0.30000E+00
         0.30000E+00
         0.30000E+00
         0.30000E+00
         0.30000E+00
         0.30000E+00
         0.30000E+00
         0.30000E+00
         0.30000E+00
         0.30000E+00
         0.30000E+00
         0.30000E+00
         0.30000E+00
         0.30000E+00
         0.30000E+00
         0.30000E+00
         0.30000E+00
         0.30000E+00
         0.30000E+00
         0.30000E+00
         0.30000E+00
         0.30000E+00
         0.30000E+00
         0.30000E+00
         0.30000E+00
         0.30000E+00
         0.30000E+00
         0.30000E+00
         0.30000E+00
         0.30000E+00
         0.30000E+00
         0.30000E+00
         0.30000E+00
         0.30000E+00
         0.30000E+00
         0.30000E+00
         0.30000E+00
         0.30000E+00
         0.30000E+00
         0.30000E+00
         0.30000E+00
         0.30000E+00
         0.30000E+00
         0.30000E+00
         0.30000E+00
         0.30000E+00
         0.30000E+00
         0.30000E+00
         0.30000E+00
         0.30000E+00
         0.30000E+00
         0.30000E+00
         0.30000E+00
         0.30000E+00
         0.30000E+00
         0.30000E+00
         0.30000E+00
         0.30000E+00
         0.30000E+00
         0.30000E+00
         0.30000E+00
         0.30000E+00
         0.30000E+00
         0.30000E+00
         0.30000E+00
         0.30000E+00
         0.30000E+00
         0.30000E+00
         0.30000E+00
         0.30000E+00
         0.30000E+00
         0.30000E+00
         0.30000E+00
         0.30000E+00
         0.30000E+00
         0.30000E+00
         0.30000E+00
         0.30000E+00
         0.30000E+00
         0.30000E+00
         0.30000E+00
         0.30000E+00
         0.30000E+00
         0.30000E+00
         0.30000E+00
         0.30000E+00
         0.30000E+00
         0.30000E+00
         0.30000E+00
         0.30000E+00
         0.30000E+00
         0.30000E+00
         0.30000E+00
         0.30000E+00
         0.30000E+00
         0.30000E+00
         0.30000E+00
         0.30000E+00
         0.30000E+00
         0.30000E+00
         0.30000E+00
         0.30000E+00
         0.30000E+00
         0.30000E+00
         0.30000E+00
         0.30000E+00
         0.30000E+00
         0.30000E+00
         0.30000E+00
         0.30000E+00
         0.30000E+00
         0.30000E+00
         0.30000E+00
         0.30000E+00
         0.30000E+00
         0.30000E+00
         0.30000E+00
         0.30000E+00
         0.30000E+00
         0.30000E+00
         0.30000E+00
         0.30000E+00
         0.30000E+00
         0.30000E+00
         0.30000E+00
         0.30000E+00
         0.30000E+00
         0.30000E+00
         0.30000E+00
         0.30000E+00
         0.30000E+00
         0.30000E+00
         0.30000E+00
         0.30000E+00
         0.30000E+00
         0.30000E+00
         0.30000E+00
         0.30000E+00
         0.30000E+00
         0.30000E+00
         0.30000E+00
         0.30000E+00
         0.30000E+00
         0.30000E+00
         0.30000E+00
         0.30000E+00
         0.30000E+00
         0.30000E+00
         0.30000E+00
         0.30000E+00
         0.30000E+00
         0.30000E+00
         0.30000E+00
         0.30000E+00
         0.30000E+00
         0.30000E+00
         0.30000E+00
         0.30000E+00
         0.30000E+00
         0.30000E+00
         0.30000E+00
         0.30000E+00
         0.30000E+00
         0.30000E+00
         0.30000E+00
         0.30000E+00
         0.30000E+00
         0.30000E+00
         0.30000E+00
         0.30000E+00
         0.30000E+00
         0.30000E+00
         0.30000E+00
         0.30000E+00
         0.30000E+00
         0.30000E+00
         0.30000E+00
         0.30000E+00
         0.30000E+00
         0.30000E+00
         0.30000E+00
         0.30000E+00
         0.30000E+00
         0.30000E+00
         0.30000E+00
         0.30000E+00
         0.30000E+00
         0.30000E+00
         0.30000E+00
         0.30000E+00
         0.30000E+00
         0.30000E+00
         0.30000E+00
         0.30000E+00
         0.30000E+00
         0.30000E+00
         0.30000E+00
         0.30000E+00
         0.30000E+00
         0.30000E+00
         0.30000E+00
         0.30000E+00
         0.30000E+00
         0.30000E+00
         0.30000E+00
         0.30000E+00
         0.30000E+00
         0.30000E+00
         0.30000E+00
         0.30000E+00
         0.30000E+00
         0.30000E+00
         0.30000E+00
         0.30000E+00
         0.30000E+00
         0.30000E+00
         0.30000E+00
         0.30000E+00
         0.30000E+00
         0.30000E+00
         0.30000E+00
         0.30000E+00
         0.30000E+00
         0.30000E+00
         0.30000E+00
         0.30000E+00
         0.30000E+00
         0.30000E+00
         0.30000E+00
         0.30000E+00
         0.30000E+00
         0.30000E+00
         0.30000E+00
         0.30000E+00
         0.30000E+00
         0.30000E+00
         0.30000E+00
         0.30000E+00
         0.30000E+00
         0.30000E+00
         0.30000E+00
         0.30000E+00
         0.30000E+00
         0.30000E+00
         0.30000E+00
         0.30000E+00
         0.30000E+00
         0.30000E+00
         0.30000E+00
         0.30000E+00
         0.30000E+00
         0.30000E+00
         0.30000E+00
         0.30000E+00
         0.30000E+00
         0.30000E+00
         0.30000E+00
         0.30000E+00
         0.30000E+00
         0.30000E+00
         0.30000E+00
         0.30000E+00
         0.30000E+00
         0.30000E+00
         0.30000E+00
         0.30000E+00
         0.30000E+00
         0.30000E+00
         0.30000E+00
         0.30000E+00
         0.30000E+00
         0.30000E+00
         0.30000E+00
         0.30000E+00
         0.30000E+00
         0.30000E+00
         0.30000E+00
         0.30000E+00
         0.30000E+00
         0.30000E+00
         0.30000E+00
         0.30000E+00
         0.30000E+00
         0.30000E+00
         0.30000E+00
         0.30000E+00
         0.30000E+00
         0.30000E+00
         0.30000E+00
         0.30000E+00
         0.30000E+00
         0.30000E+00
         0.30000E+00
         0.30000E+00
         0.30000E+00
         0.30000E+00
         0.30000E+00
         0.30000E+00
         0.30000E+00
         0.30000E+00
         0.30000E+00
         0.30000E+00
         0.30000E+00
         0.30000E+00
         0.30000E+00
         0.30000E+00
         0.30000E+00
         0.30000E+00
         0.30000E+00
         0.30000E+00
         0.30000E+00
         0.30000E+00
         0.30000E+00
         0.30000E+00
         0.30000E+00
         0.30000E+00
         0.30000E+00
         0.30000E+00
         0.30000E+00
         0.30000E+00
         0.30000E+00
         0.30000E+00
         0.30000E+00
         0.30000E+00
         0.30000E+00
         0.30000E+00
         0.30000E+00
         0.30000E+00
         0.30000E+00
         0.30000E+00
         0.30000E+00
         0.30000E+00
         0.30000E+00
         0.30000E+00
         0.30000E+00
         0.30000E+00
         0.30000E+00
         0.30000E+00
         0.30000E+00
         0.30000E+00
         0.30000E+00
         0.30000E+00
         0.30000E+00
         0.30000E+00
         0.30000E+00
         0.30000E+00
         0.30000E+00
         0.30000E+00
         0.30000E+00
         0.30000E+00
         0.30000E+00
         0.30000E+00
         0.30000E+00
         0.30000E+00
         0.30000E+00
         0.30000E+00
         0.30000E+00
         0.30000E+00
         0.30000E+00
         0.30000E+00
         0.30000E+00
         0.30000E+00
         0.30000E+00
         0.30000E+00
         0.30000E+00
         0.30000E+00
         0.30000E+00
         0.30000E+00
         0.30000E+00
         0.30000E+00
         0.30000E+00
         0.30000E+00
         0.30000E+00
         0.30000E+00
         0.30000E+00
         0.30000E+00
         0.30000E+00
         0.30000E+00
         0.30000E+00
         0.30000E+00
         0.30000E+00
         0.30000E+00
         0.30000E+00
         0.30000E+00
         0.30000E+00
         0.30000E+00
         0.30000E+00
         0.30000E+00
         0.30000E+00
         0.30000E+00
         0.30000E+00
         0.30000E+00
         0.30000E+00
         0.30000E+00
         0.30000E+00
         0.30000E+00
         0.30000E+00
         0.30000E+00
         0.30000E+00
         0.30000E+00
         0.30000E+00
         0.30000E+00
         0.30000E+00
         0.30000E+00
         0.30000E+00
         0.30000E+00
         0.30000E+00
         0.30000E+00
         0.30000E+00
         0.30000E+00
         0.30000E+00
         0.30000E+00
         0.30000E+00
         0.30000E+00
         0.30000E+00
         0.30000E+00
         0.30000E+00
         0.30000E+00
         0.30000E+00
         0.30000E+00
         0.30000E+00
         0.30000E+00
         0.30000E+00
         0.30000E+00
         0.30000E+00
         0.30000E+00
         0.30000E+00
         0.30000E+00
         0.30000E+00
         0.30000E+00
         0.30000E+00
         0.30000E+00
         0.30000E+00
         0.30000E+00
         0.30000E+00
         0.30000E+00
         0.30000E+00
         0.30000E+00
         0.30000E+00
         0.30000E+00
         0.30000E+00
         0.30000E+00
         0.30000E+00
         0.30000E+00
         0.30000E+00
         0.30000E+00
         0.30000E+00
         0.30000E+00
         0.30000E+00
         0.30000E+00
         0.30000E+00
         0.30000E+00
         0.30000E+00
         0.30000E+00
         0.30000E+00
         0.30000E+00
         0.30000E+00
         0.30000E+00
         0.30000E+00
         0.30000E+00
         0.30000E+00
         0.30000E+00
         0.30000E+00
         0.30000E+00
         0.30000E+00
         0.30000E+00
         0.30000E+00
         0.30000E+00
         0.30000E+00
         0.30000E+00
         0.30000E+00
         0.30000E+00
         0.30000E+00
         0.30000E+00
         0.30000E+00
         0.30000E+00
         0.30000E+00
         0.30000E+00
         0.30000E+00
         0.30000E+00
         0.30000E+00
         0.30000E+00
         0.30000E+00
         0.30000E+00
         0.30000E+00
         0.30000E+00
         0.30000E+00
         0.30000E+00
         0.30000E+00
         0.30000E+00
         0.30000E+00
         0.30000E+00
         0.30000E+00
         0.30000E+00
         0.30000E+00
         0.30000E+00
         0.30000E+00
         0.30000E+00
         0.30000E+00
         0.30000E+00
         0.30000E+00
         0.30000E+00
         0.30000E+00
         0.30000E+00
         0.30000E+00
         0.30000E+00
         0.30000E+00
         0.30000E+00
         0.30000E+00
         0.30000E+00
         0.30000E+00
         0.30000E+00
         0.30000E+00
         0.30000E+00
         0.30000E+00
  
SCALARS                 Youngs_modulus  double 1
LOOKUP_TABLE default
         0.78200E+11
         0.78200E+11
         0.78200E+11
         0.78200E+11
         0.78200E+11
         0.78200E+11
         0.78200E+11
         0.78200E+11
         0.78200E+11
         0.78200E+11
         0.78200E+11
         0.78200E+11
         0.78200E+11
         0.78200E+11
         0.78200E+11
         0.78200E+11
         0.78200E+11
         0.78200E+11
         0.78200E+11
         0.78200E+11
         0.78200E+11
         0.78200E+11
         0.78200E+11
         0.78200E+11
         0.78200E+11
         0.78200E+11
         0.78200E+11
         0.78200E+11
         0.78200E+11
         0.78200E+11
         0.78200E+11
         0.78200E+11
         0.78200E+11
         0.78200E+11
         0.78200E+11
         0.78200E+11
         0.78200E+11
         0.78200E+11
         0.78200E+11
         0.78200E+11
         0.78200E+11
         0.78200E+11
         0.78200E+11
         0.78200E+11
         0.78200E+11
         0.78200E+11
         0.78200E+11
         0.78200E+11
         0.78200E+11
         0.78200E+11
         0.78200E+11
         0.78200E+11
         0.78200E+11
         0.78200E+11
         0.78200E+11
         0.78200E+11
         0.78200E+11
         0.78200E+11
         0.78200E+11
         0.78200E+11
         0.78200E+11
         0.78200E+11
         0.78200E+11
         0.78200E+11
         0.78200E+11
         0.78200E+11
         0.78200E+11
         0.78200E+11
         0.78200E+11
         0.78200E+11
         0.78200E+11
         0.78200E+11
         0.78200E+11
         0.78200E+11
         0.78200E+11
         0.78200E+11
         0.78200E+11
         0.78200E+11
         0.78200E+11
         0.78200E+11
         0.78200E+11
         0.78200E+11
         0.78200E+11
         0.78200E+11
         0.78200E+11
         0.78200E+11
         0.78200E+11
         0.78200E+11
         0.78200E+11
         0.78200E+11
         0.78200E+11
         0.78200E+11
         0.78200E+11
         0.78200E+11
         0.78200E+11
         0.78200E+11
         0.78200E+11
         0.78200E+11
         0.78200E+11
         0.78200E+11
         0.78200E+11
         0.78200E+11
         0.78200E+11
         0.78200E+11
         0.78200E+11
         0.78200E+11
         0.78200E+11
         0.78200E+11
         0.78200E+11
         0.78200E+11
         0.78200E+11
         0.78200E+11
         0.78200E+11
         0.78200E+11
         0.78200E+11
         0.78200E+11
         0.78200E+11
         0.78200E+11
         0.78200E+11
         0.78200E+11
         0.78200E+11
         0.78200E+11
         0.78200E+11
         0.78200E+11
         0.78200E+11
         0.78200E+11
         0.78200E+11
         0.78200E+11
         0.78200E+11
         0.78200E+11
         0.78200E+11
         0.78200E+11
         0.78200E+11
         0.78200E+11
         0.78200E+11
         0.78200E+11
         0.78200E+11
         0.78200E+11
         0.78200E+11
         0.78200E+11
         0.78200E+11
         0.78200E+11
         0.78200E+11
         0.78200E+11
         0.78200E+11
         0.78200E+11
         0.78200E+11
         0.78200E+11
         0.78200E+11
         0.78200E+11
         0.78200E+11
         0.78200E+11
         0.78200E+11
         0.78200E+11
         0.78200E+11
         0.78200E+11
         0.78200E+11
         0.78200E+11
         0.78200E+11
         0.78200E+11
         0.78200E+11
         0.78200E+11
         0.78200E+11
         0.78200E+11
         0.78200E+11
         0.78200E+11
         0.78200E+11
         0.78200E+11
         0.78200E+11
         0.78200E+11
         0.78200E+11
         0.78200E+11
         0.78200E+11
         0.78200E+11
         0.78200E+11
         0.78200E+11
         0.78200E+11
         0.78200E+11
         0.78200E+11
         0.78200E+11
         0.78200E+11
         0.78200E+11
         0.78200E+11
         0.78200E+11
         0.78200E+11
         0.78200E+11
         0.78200E+11
         0.78200E+11
         0.78200E+11
         0.78200E+11
         0.78200E+11
         0.78200E+11
         0.78200E+11
         0.78200E+11
         0.78200E+11
         0.78200E+11
         0.78200E+11
         0.78200E+11
         0.78200E+11
         0.78200E+11
         0.78200E+11
         0.78200E+11
         0.78200E+11
         0.78200E+11
         0.78200E+11
         0.78200E+11
         0.78200E+11
         0.78200E+11
         0.78200E+11
         0.78200E+11
         0.78200E+11
         0.78200E+11
         0.78200E+11
         0.78200E+11
         0.78200E+11
         0.78200E+11
         0.78200E+11
         0.78200E+11
         0.78200E+11
         0.78200E+11
         0.78200E+11
         0.78200E+11
         0.78200E+11
         0.78200E+11
         0.78200E+11
         0.78200E+11
         0.78200E+11
         0.78200E+11
         0.78200E+11
         0.78200E+11
         0.78200E+11
         0.78200E+11
         0.78200E+11
         0.78200E+11
         0.78200E+11
         0.78200E+11
         0.78200E+11
         0.78200E+11
         0.78200E+11
         0.78200E+11
         0.78200E+11
         0.78200E+11
         0.78200E+11
         0.78200E+11
         0.78200E+11
         0.78200E+11
         0.78200E+11
         0.78200E+11
         0.78200E+11
         0.78200E+11
         0.78200E+11
         0.78200E+11
         0.78200E+11
         0.78200E+11
         0.78200E+11
         0.78200E+11
         0.78200E+11
         0.78200E+11
         0.78200E+11
         0.78200E+11
         0.78200E+11
         0.78200E+11
         0.78200E+11
         0.78200E+11
         0.78200E+11
         0.78200E+11
         0.78200E+11
         0.78200E+11
         0.78200E+11
         0.78200E+11
         0.78200E+11
         0.78200E+11
         0.78200E+11
         0.78200E+11
         0.78200E+11
         0.78200E+11
         0.78200E+11
         0.78200E+11
         0.78200E+11
         0.78200E+11
         0.78200E+11
         0.78200E+11
         0.78200E+11
         0.78200E+11
         0.78200E+11
         0.78200E+11
         0.78200E+11
         0.78200E+11
         0.78200E+11
         0.78200E+11
         0.78200E+11
         0.78200E+11
         0.78200E+11
         0.78200E+11
         0.78200E+11
         0.78200E+11
         0.78200E+11
         0.78200E+11
         0.78200E+11
         0.78200E+11
         0.78200E+11
         0.78200E+11
         0.78200E+11
         0.78200E+11
         0.78200E+11
         0.78200E+11
         0.78200E+11
         0.78200E+11
         0.78200E+11
         0.78200E+11
         0.78200E+11
         0.78200E+11
         0.78200E+11
         0.78200E+11
         0.78200E+11
         0.78200E+11
         0.78200E+11
         0.78200E+11
         0.78200E+11
         0.78200E+11
         0.78200E+11
         0.78200E+11
         0.78200E+11
         0.78200E+11
         0.78200E+11
         0.78200E+11
         0.78200E+11
         0.78200E+11
         0.78200E+11
         0.78200E+11
         0.78200E+11
         0.78200E+11
         0.78200E+11
         0.78200E+11
         0.78200E+11
         0.78200E+11
         0.78200E+11
         0.78200E+11
         0.78200E+11
         0.78200E+11
         0.78200E+11
         0.78200E+11
         0.78200E+11
         0.78200E+11
         0.78200E+11
         0.78200E+11
         0.78200E+11
         0.78200E+11
         0.78200E+11
         0.78200E+11
         0.78200E+11
         0.78200E+11
         0.78200E+11
         0.78200E+11
         0.78200E+11
         0.78200E+11
         0.78200E+11
         0.78200E+11
         0.78200E+11
         0.78200E+11
         0.78200E+11
         0.78200E+11
         0.78200E+11
         0.78200E+11
         0.78200E+11
         0.78200E+11
         0.78200E+11
         0.78200E+11
         0.78200E+11
         0.78200E+11
         0.78200E+11
         0.78200E+11
         0.78200E+11
         0.78200E+11
         0.78200E+11
         0.78200E+11
         0.78200E+11
         0.78200E+11
         0.78200E+11
         0.78200E+11
         0.78200E+11
         0.78200E+11
         0.78200E+11
         0.78200E+11
         0.78200E+11
         0.78200E+11
         0.78200E+11
         0.78200E+11
         0.78200E+11
         0.78200E+11
         0.78200E+11
         0.78200E+11
         0.78200E+11
         0.78200E+11
         0.78200E+11
         0.78200E+11
         0.78200E+11
         0.78200E+11
         0.78200E+11
         0.78200E+11
         0.78200E+11
         0.78200E+11
         0.78200E+11
         0.78200E+11
         0.78200E+11
         0.78200E+11
         0.78200E+11
         0.78200E+11
         0.78200E+11
         0.78200E+11
         0.78200E+11
         0.78200E+11
         0.78200E+11
         0.78200E+11
         0.78200E+11
         0.78200E+11
         0.78200E+11
         0.78200E+11
         0.78200E+11
         0.78200E+11
         0.78200E+11
         0.78200E+11
         0.78200E+11
         0.78200E+11
         0.78200E+11
         0.78200E+11
         0.78200E+11
         0.78200E+11
         0.78200E+11
         0.78200E+11
         0.78200E+11
         0.78200E+11
         0.78200E+11
         0.78200E+11
         0.78200E+11
         0.78200E+11
         0.78200E+11
         0.78200E+11
         0.78200E+11
         0.78200E+11
         0.78200E+11
         0.78200E+11
         0.78200E+11
         0.78200E+11
         0.78200E+11
         0.78200E+11
         0.78200E+11
         0.78200E+11
         0.78200E+11
         0.78200E+11
         0.78200E+11
         0.78200E+11
         0.78200E+11
         0.78200E+11
         0.78200E+11
         0.78200E+11
         0.78200E+11
         0.78200E+11
         0.78200E+11
         0.78200E+11
         0.78200E+11
         0.78200E+11
         0.78200E+11
         0.78200E+11
         0.78200E+11
         0.78200E+11
         0.78200E+11
         0.78200E+11
         0.78200E+11
         0.78200E+11
         0.78200E+11
         0.78200E+11
         0.78200E+11
         0.78200E+11
         0.78200E+11
         0.78200E+11
         0.78200E+11
         0.78200E+11
         0.78200E+11
         0.78200E+11
         0.78200E+11
         0.78200E+11
         0.78200E+11
         0.78200E+11
         0.78200E+11
         0.78200E+11
         0.78200E+11
         0.78200E+11
         0.78200E+11
         0.78200E+11
         0.78200E+11
         0.78200E+11
         0.78200E+11
         0.78200E+11
         0.78200E+11
         0.78200E+11
         0.78200E+11
         0.78200E+11
         0.78200E+11
         0.78200E+11
         0.78200E+11
         0.78200E+11
         0.78200E+11
         0.78200E+11
         0.78200E+11
         0.78200E+11
         0.78200E+11
         0.78200E+11
         0.78200E+11
         0.78200E+11
         0.78200E+11
         0.78200E+11
         0.78200E+11
         0.78200E+11
         0.78200E+11
         0.78200E+11
         0.78200E+11
         0.78200E+11
         0.78200E+11
         0.78200E+11
         0.78200E+11
         0.78200E+11
         0.78200E+11
         0.78200E+11
         0.78200E+11
         0.78200E+11
         0.78200E+11
         0.78200E+11
         0.78200E+11
         0.78200E+11
         0.78200E+11
         0.78200E+11
         0.78200E+11
         0.78200E+11
         0.78200E+11
         0.78200E+11
         0.78200E+11
         0.78200E+11
         0.78200E+11
         0.78200E+11
         0.78200E+11
         0.78200E+11
         0.78200E+11
         0.78200E+11
         0.78200E+11
         0.78200E+11
         0.78200E+11
         0.78200E+11
         0.78200E+11
         0.78200E+11
         0.78200E+11
         0.78200E+11
         0.78200E+11
         0.78200E+11
         0.78200E+11
         0.78200E+11
         0.78200E+11
         0.78200E+11
         0.78200E+11
         0.78200E+11
         0.78200E+11
         0.78200E+11
         0.78200E+11
         0.78200E+11
         0.78200E+11
         0.78200E+11
         0.78200E+11
         0.78200E+11
         0.78200E+11
         0.78200E+11
         0.78200E+11
         0.78200E+11
         0.78200E+11
         0.78200E+11
         0.78200E+11
         0.78200E+11
         0.78200E+11
         0.78200E+11
         0.78200E+11
         0.78200E+11
         0.78200E+11
         0.78200E+11
         0.78200E+11
         0.78200E+11
         0.78200E+11
         0.78200E+11
         0.78200E+11
         0.78200E+11
         0.78200E+11
         0.78200E+11
         0.78200E+11
         0.78200E+11
         0.78200E+11
         0.78200E+11
         0.78200E+11
         0.78200E+11
         0.78200E+11
         0.78200E+11
         0.78200E+11
         0.78200E+11
         0.78200E+11
         0.78200E+11
         0.78200E+11
         0.78200E+11
         0.78200E+11
         0.78200E+11
         0.78200E+11
         0.78200E+11
         0.78200E+11
         0.78200E+11
         0.78200E+11
         0.78200E+11
         0.78200E+11
         0.78200E+11
         0.78200E+11
         0.78200E+11
         0.78200E+11
         0.78200E+11
         0.78200E+11
         0.78200E+11
         0.78200E+11
         0.78200E+11
         0.78200E+11
         0.78200E+11
         0.78200E+11
         0.78200E+11
         0.78200E+11
         0.78200E+11
         0.78200E+11
         0.78200E+11
         0.78200E+11
         0.78200E+11
         0.78200E+11
         0.78200E+11
         0.78200E+11
         0.78200E+11
         0.78200E+11
         0.78200E+11
         0.78200E+11
         0.78200E+11
         0.78200E+11
         0.78200E+11
         0.78200E+11
         0.78200E+11
         0.78200E+11
         0.78200E+11
         0.78200E+11
         0.78200E+11
         0.78200E+11
         0.78200E+11
         0.78200E+11
         0.78200E+11
         0.78200E+11
         0.78200E+11
         0.78200E+11
         0.78200E+11
         0.78200E+11
         0.78200E+11
         0.78200E+11
         0.78200E+11
         0.78200E+11
         0.78200E+11
         0.78200E+11
         0.78200E+11
         0.78200E+11
         0.78200E+11
         0.78200E+11
         0.78200E+11
         0.78200E+11
         0.78200E+11
         0.78200E+11
         0.78200E+11
         0.78200E+11
         0.78200E+11
         0.78200E+11
         0.78200E+11
         0.78200E+11
         0.78200E+11
         0.78200E+11
         0.78200E+11
         0.78200E+11
         0.78200E+11
         0.78200E+11
         0.78200E+11
         0.78200E+11
         0.78200E+11
         0.78200E+11
         0.78200E+11
         0.78200E+11
         0.78200E+11
         0.78200E+11
         0.78200E+11
         0.78200E+11
         0.78200E+11
         0.78200E+11
         0.78200E+11
         0.78200E+11
         0.78200E+11
         0.78200E+11
         0.78200E+11
         0.78200E+11
         0.78200E+11
         0.78200E+11
         0.78200E+11
         0.78200E+11
         0.78200E+11
         0.78200E+11
         0.78200E+11
         0.78200E+11
         0.78200E+11
         0.78200E+11
         0.78200E+11
         0.78200E+11
         0.78200E+11
         0.78200E+11
         0.78200E+11
         0.78200E+11
         0.78200E+11
         0.78200E+11
         0.78200E+11
         0.78200E+11
         0.78200E+11
         0.78200E+11
         0.78200E+11
         0.78200E+11
         0.78200E+11
         0.78200E+11
         0.78200E+11
         0.78200E+11
         0.78200E+11
         0.78200E+11
         0.78200E+11
         0.78200E+11
         0.78200E+11
         0.78200E+11
         0.78200E+11
         0.78200E+11
         0.78200E+11
         0.78200E+11
         0.78200E+11
         0.78200E+11
         0.78200E+11
         0.78200E+11
         0.78200E+11
         0.78200E+11
         0.78200E+11
         0.78200E+11
         0.78200E+11
         0.78200E+11
         0.78200E+11
         0.78200E+11
         0.78200E+11
         0.78200E+11
         0.78200E+11
         0.78200E+11
         0.78200E+11
         0.78200E+11
         0.78200E+11
         0.78200E+11
         0.78200E+11
         0.78200E+11
         0.78200E+11
         0.78200E+11
         0.78200E+11
         0.78200E+11
         0.78200E+11
         0.78200E+11
         0.78200E+11
         0.78200E+11
         0.78200E+11
         0.78200E+11
         0.78200E+11
         0.78200E+11
         0.78200E+11
         0.78200E+11
         0.78200E+11
         0.78200E+11
         0.78200E+11
         0.78200E+11
         0.78200E+11
         0.78200E+11
         0.78200E+11
         0.78200E+11
         0.78200E+11
         0.78200E+11
         0.78200E+11
         0.78200E+11
         0.78200E+11
         0.78200E+11
         0.78200E+11
         0.78200E+11
         0.78200E+11
         0.78200E+11
         0.78200E+11
         0.78200E+11
         0.78200E+11
         0.78200E+11
         0.78200E+11
         0.78200E+11
         0.78200E+11
         0.78200E+11
         0.78200E+11
         0.78200E+11
         0.78200E+11
         0.78200E+11
         0.78200E+11
         0.78200E+11
         0.78200E+11
         0.78200E+11
         0.78200E+11
         0.78200E+11
         0.78200E+11
         0.78200E+11
         0.78200E+11
         0.78200E+11
         0.78200E+11
         0.78200E+11
         0.78200E+11
         0.78200E+11
         0.78200E+11
         0.78200E+11
         0.78200E+11
         0.78200E+11
         0.78200E+11
         0.78200E+11
         0.78200E+11
         0.78200E+11
         0.78200E+11
         0.78200E+11
         0.78200E+11
         0.78200E+11
         0.78200E+11
         0.78200E+11
         0.78200E+11
         0.78200E+11
         0.78200E+11
         0.78200E+11
         0.78200E+11
         0.78200E+11
         0.78200E+11
         0.78200E+11
         0.78200E+11
         0.78200E+11
         0.78200E+11
         0.78200E+11
         0.78200E+11
         0.78200E+11
         0.78200E+11
         0.78200E+11
         0.78200E+11
         0.78200E+11
         0.78200E+11
         0.78200E+11
         0.78200E+11
         0.78200E+11
         0.78200E+11
         0.78200E+11
         0.78200E+11
         0.78200E+11
         0.78200E+11
         0.78200E+11
         0.78200E+11
         0.78200E+11
         0.78200E+11
         0.78200E+11
         0.78200E+11
         0.78200E+11
         0.78200E+11
         0.78200E+11
         0.78200E+11
         0.78200E+11
         0.78200E+11
         0.78200E+11
         0.78200E+11
         0.78200E+11
         0.78200E+11
         0.78200E+11
         0.78200E+11
         0.78200E+11
         0.78200E+11
         0.78200E+11
         0.78200E+11
         0.78200E+11
         0.78200E+11
         0.78200E+11
         0.78200E+11
         0.78200E+11
         0.78200E+11
         0.78200E+11
         0.78200E+11
         0.78200E+11
         0.78200E+11
         0.78200E+11
         0.78200E+11
         0.78200E+11
         0.78200E+11
         0.78200E+11
         0.78200E+11
         0.78200E+11
         0.78200E+11
         0.78200E+11
         0.78200E+11
         0.78200E+11
         0.78200E+11
         0.78200E+11
         0.78200E+11
         0.78200E+11
         0.78200E+11
         0.78200E+11
         0.78200E+11
         0.78200E+11
         0.78200E+11
         0.78200E+11
         0.78200E+11
         0.78200E+11
         0.78200E+11
         0.78200E+11
         0.78200E+11
         0.78200E+11
         0.78200E+11
         0.78200E+11
         0.78200E+11
         0.78200E+11
         0.78200E+11
         0.78200E+11
         0.78200E+11
         0.78200E+11
         0.78200E+11
         0.78200E+11
         0.78200E+11
         0.78200E+11
         0.78200E+11
         0.78200E+11
         0.78200E+11
         0.78200E+11
         0.78200E+11
         0.78200E+11
         0.78200E+11
         0.78200E+11
         0.78200E+11
         0.78200E+11
         0.78200E+11
         0.78200E+11
         0.78200E+11
         0.78200E+11
         0.78200E+11
         0.78200E+11
         0.78200E+11
         0.78200E+11
         0.78200E+11
         0.78200E+11
         0.78200E+11
         0.78200E+11
         0.78200E+11
         0.78200E+11
         0.78200E+11
         0.78200E+11
         0.78200E+11
         0.78200E+11
         0.78200E+11
         0.78200E+11
         0.78200E+11
         0.78200E+11
         0.78200E+11
         0.78200E+11
         0.78200E+11
         0.78200E+11
         0.78200E+11
         0.78200E+11
         0.78200E+11
         0.78200E+11
         0.78200E+11
         0.78200E+11
         0.78200E+11
         0.78200E+11
         0.78200E+11
         0.78200E+11
         0.78200E+11
         0.78200E+11
         0.78200E+11
         0.78200E+11
         0.78200E+11
         0.78200E+11
         0.78200E+11
         0.78200E+11
         0.78200E+11
         0.78200E+11
         0.78200E+11
         0.78200E+11
         0.78200E+11
         0.78200E+11
         0.78200E+11
         0.78200E+11
         0.78200E+11
         0.78200E+11
         0.78200E+11
         0.78200E+11
         0.78200E+11
         0.78200E+11
         0.78200E+11
         0.78200E+11
         0.78200E+11
         0.78200E+11
         0.78200E+11
         0.78200E+11
         0.78200E+11
         0.78200E+11
         0.78200E+11
         0.78200E+11
         0.78200E+11
         0.78200E+11
         0.78200E+11
         0.78200E+11
         0.78200E+11
         0.78200E+11
         0.78200E+11
         0.78200E+11
         0.78200E+11
         0.78200E+11
         0.78200E+11
         0.78200E+11
         0.78200E+11
         0.78200E+11
         0.78200E+11
         0.78200E+11
         0.78200E+11
         0.78200E+11
         0.78200E+11
         0.78200E+11
         0.78200E+11
         0.78200E+11
         0.78200E+11
         0.78200E+11
         0.78200E+11
         0.78200E+11
         0.78200E+11
         0.78200E+11
         0.78200E+11
         0.78200E+11
         0.78200E+11
         0.78200E+11
         0.78200E+11
         0.78200E+11
         0.78200E+11
         0.78200E+11
         0.78200E+11
         0.78200E+11
         0.78200E+11
         0.78200E+11
         0.78200E+11
         0.78200E+11
         0.78200E+11
         0.78200E+11
         0.78200E+11
         0.78200E+11
         0.78200E+11
         0.78200E+11
         0.78200E+11
         0.78200E+11
         0.78200E+11
         0.78200E+11
         0.78200E+11
         0.78200E+11
         0.78200E+11
         0.78200E+11
         0.78200E+11
         0.78200E+11
         0.78200E+11
         0.78200E+11
         0.78200E+11
         0.78200E+11
         0.78200E+11
         0.78200E+11
         0.78200E+11
         0.78200E+11
         0.78200E+11
         0.78200E+11
         0.78200E+11
         0.78200E+11
         0.78200E+11
         0.78200E+11
         0.78200E+11
         0.78200E+11
         0.78200E+11
         0.78200E+11
         0.78200E+11
         0.78200E+11
         0.78200E+11
         0.78200E+11
         0.78200E+11
         0.78200E+11
         0.78200E+11
         0.78200E+11
         0.78200E+11
         0.78200E+11
         0.78200E+11
         0.78200E+11
         0.78200E+11
         0.78200E+11
         0.78200E+11
         0.78200E+11
         0.78200E+11
         0.78200E+11
         0.78200E+11
         0.78200E+11
         0.78200E+11
         0.78200E+11
         0.78200E+11
         0.78200E+11
         0.78200E+11
         0.78200E+11
         0.78200E+11
         0.78200E+11
         0.78200E+11
         0.78200E+11
         0.78200E+11
         0.78200E+11
         0.78200E+11
         0.78200E+11
         0.78200E+11
         0.78200E+11
         0.78200E+11
         0.78200E+11
         0.78200E+11
         0.78200E+11
         0.78200E+11
         0.78200E+11
         0.78200E+11
         0.78200E+11
         0.78200E+11
         0.78200E+11
         0.78200E+11
         0.78200E+11
         0.78200E+11
         0.78200E+11
         0.78200E+11
         0.78200E+11
         0.78200E+11
         0.78200E+11
         0.78200E+11
         0.78200E+11
         0.78200E+11
         0.78200E+11
         0.78200E+11
         0.78200E+11
         0.78200E+11
         0.78200E+11
         0.78200E+11
         0.78200E+11
         0.78200E+11
         0.78200E+11
         0.78200E+11
         0.78200E+11
         0.78200E+11
         0.78200E+11
         0.78200E+11
         0.78200E+11
         0.78200E+11
         0.78200E+11
         0.78200E+11
         0.78200E+11
         0.78200E+11
         0.78200E+11
         0.78200E+11
         0.78200E+11
         0.78200E+11
         0.78200E+11
         0.78200E+11
         0.78200E+11
         0.78200E+11
         0.78200E+11
         0.78200E+11
         0.78200E+11
         0.78200E+11
         0.78200E+11
         0.78200E+11
         0.78200E+11
         0.78200E+11
         0.78200E+11
         0.78200E+11
         0.78200E+11
         0.78200E+11
         0.78200E+11
         0.78200E+11
         0.78200E+11
         0.78200E+11
         0.78200E+11
         0.78200E+11
         0.78200E+11
         0.78200E+11
         0.78200E+11
         0.78200E+11
         0.78200E+11
         0.78200E+11
         0.78200E+11
         0.78200E+11
         0.78200E+11
         0.78200E+11
         0.78200E+11
         0.78200E+11
         0.78200E+11
         0.78200E+11
         0.78200E+11
         0.78200E+11
         0.78200E+11
         0.78200E+11
         0.78200E+11
         0.78200E+11
         0.78200E+11
         0.78200E+11
         0.78200E+11
         0.78200E+11
         0.78200E+11
         0.78200E+11
         0.78200E+11
         0.78200E+11
         0.78200E+11
         0.78200E+11
         0.78200E+11
         0.78200E+11
         0.78200E+11
         0.78200E+11
         0.78200E+11
         0.78200E+11
         0.78200E+11
         0.78200E+11
         0.78200E+11
         0.78200E+11
         0.78200E+11
         0.78200E+11
         0.78200E+11
         0.78200E+11
         0.78200E+11
         0.78200E+11
         0.78200E+11
         0.78200E+11
         0.78200E+11
         0.78200E+11
         0.78200E+11
         0.78200E+11
         0.78200E+11
         0.78200E+11
         0.78200E+11
         0.78200E+11
         0.78200E+11
         0.78200E+11
         0.78200E+11
         0.78200E+11
         0.78200E+11
         0.78200E+11
         0.78200E+11
         0.78200E+11
         0.78200E+11
         0.78200E+11
         0.78200E+11
         0.78200E+11
         0.78200E+11
         0.78200E+11
         0.78200E+11
         0.78200E+11
         0.78200E+11
         0.78200E+11
         0.78200E+11
         0.78200E+11
         0.78200E+11
         0.78200E+11
         0.78200E+11
         0.78200E+11
         0.78200E+11
         0.78200E+11
         0.78200E+11
         0.78200E+11
         0.78200E+11
         0.78200E+11
         0.78200E+11
         0.78200E+11
         0.78200E+11
         0.78200E+11
         0.78200E+11
         0.78200E+11
         0.78200E+11
         0.78200E+11
         0.78200E+11
         0.78200E+11
         0.78200E+11
         0.78200E+11
         0.78200E+11
         0.78200E+11
         0.78200E+11
         0.78200E+11
         0.78200E+11
         0.78200E+11
         0.78200E+11
         0.78200E+11
         0.78200E+11
         0.78200E+11
         0.78200E+11
         0.78200E+11
         0.78200E+11
         0.78200E+11
         0.78200E+11
         0.78200E+11
         0.78200E+11
         0.78200E+11
         0.78200E+11
         0.78200E+11
         0.78200E+11
         0.78200E+11
         0.78200E+11
         0.78200E+11
         0.78200E+11
         0.78200E+11
         0.78200E+11
         0.78200E+11
         0.78200E+11
         0.78200E+11
         0.78200E+11
         0.78200E+11
         0.78200E+11
         0.78200E+11
         0.78200E+11
         0.78200E+11
         0.78200E+11
         0.78200E+11
         0.78200E+11
         0.78200E+11
         0.78200E+11
         0.78200E+11
         0.78200E+11
         0.78200E+11
         0.78200E+11
         0.78200E+11
         0.78200E+11
         0.78200E+11
         0.78200E+11
         0.78200E+11
         0.78200E+11
         0.78200E+11
         0.78200E+11
         0.78200E+11
         0.78200E+11
         0.78200E+11
         0.78200E+11
         0.78200E+11
         0.78200E+11
         0.78200E+11
         0.78200E+11
         0.78200E+11
         0.78200E+11
         0.78200E+11
         0.78200E+11
         0.78200E+11
         0.78200E+11
         0.78200E+11
         0.78200E+11
         0.78200E+11
         0.78200E+11
         0.78200E+11
         0.78200E+11
         0.78200E+11
         0.78200E+11
         0.78200E+11
         0.78200E+11
         0.78200E+11
         0.78200E+11
         0.78200E+11
         0.78200E+11
         0.78200E+11
         0.78200E+11
         0.78200E+11
         0.78200E+11
         0.78200E+11
         0.78200E+11
         0.78200E+11
         0.78200E+11
         0.78200E+11
         0.78200E+11
         0.78200E+11
         0.78200E+11
         0.78200E+11
         0.78200E+11
         0.78200E+11
         0.78200E+11
         0.78200E+11
         0.78200E+11
         0.78200E+11
         0.78200E+11
         0.78200E+11
         0.78200E+11
         0.78200E+11
         0.78200E+11
         0.78200E+11
         0.78200E+11
         0.78200E+11
         0.78200E+11
         0.78200E+11
         0.78200E+11
         0.78200E+11
         0.78200E+11
         0.78200E+11
         0.78200E+11
         0.78200E+11
         0.78200E+11
         0.78200E+11
         0.78200E+11
         0.78200E+11
         0.78200E+11
         0.78200E+11
         0.78200E+11
         0.78200E+11
         0.78200E+11
         0.78200E+11
         0.78200E+11
         0.78200E+11
         0.78200E+11
         0.78200E+11
         0.78200E+11
         0.78200E+11
         0.78200E+11
         0.78200E+11
         0.78200E+11
         0.78200E+11
         0.78200E+11
         0.78200E+11
         0.78200E+11
         0.78200E+11
         0.78200E+11
         0.78200E+11
         0.78200E+11
         0.78200E+11
         0.78200E+11
         0.78200E+11
         0.78200E+11
         0.78200E+11
         0.78200E+11
         0.78200E+11
         0.78200E+11
         0.78200E+11
         0.78200E+11
         0.78200E+11
         0.78200E+11
         0.78200E+11
         0.78200E+11
         0.78200E+11
         0.78200E+11
         0.78200E+11
         0.78200E+11
         0.78200E+11
         0.78200E+11
         0.78200E+11
         0.78200E+11
         0.78200E+11
         0.78200E+11
         0.78200E+11
         0.78200E+11
         0.78200E+11
         0.78200E+11
         0.78200E+11
         0.78200E+11
         0.78200E+11
         0.78200E+11
         0.78200E+11
         0.78200E+11
         0.78200E+11
         0.78200E+11
         0.78200E+11
         0.78200E+11
         0.78200E+11
         0.78200E+11
         0.78200E+11
         0.78200E+11
         0.78200E+11
         0.78200E+11
         0.78200E+11
         0.78200E+11
         0.78200E+11
         0.78200E+11
         0.78200E+11
         0.78200E+11
         0.78200E+11
         0.78200E+11
         0.78200E+11
         0.78200E+11
         0.78200E+11
         0.78200E+11
         0.78200E+11
         0.78200E+11
         0.78200E+11
         0.78200E+11
         0.78200E+11
         0.78200E+11
         0.78200E+11
         0.78200E+11
         0.78200E+11
         0.78200E+11
         0.78200E+11
         0.78200E+11
         0.78200E+11
         0.78200E+11
         0.78200E+11
         0.78200E+11
         0.78200E+11
         0.78200E+11
         0.78200E+11
         0.78200E+11
         0.78200E+11
         0.78200E+11
         0.78200E+11
         0.78200E+11
         0.78200E+11
         0.78200E+11
         0.78200E+11
         0.78200E+11
         0.78200E+11
         0.78200E+11
         0.78200E+11
         0.78200E+11
         0.78200E+11
         0.78200E+11
         0.78200E+11
         0.78200E+11
         0.78200E+11
         0.78200E+11
         0.78200E+11
         0.78200E+11
         0.78200E+11
         0.78200E+11
         0.78200E+11
         0.78200E+11
         0.78200E+11
         0.78200E+11
         0.78200E+11
         0.78200E+11
         0.78200E+11
         0.78200E+11
         0.78200E+11
         0.78200E+11
         0.78200E+11
         0.78200E+11
         0.78200E+11
         0.78200E+11
         0.78200E+11
         0.78200E+11
         0.78200E+11
         0.78200E+11
         0.78200E+11
         0.78200E+11
         0.78200E+11
         0.78200E+11
         0.78200E+11
         0.78200E+11
         0.78200E+11
         0.78200E+11
         0.78200E+11
         0.78200E+11
         0.78200E+11
         0.78200E+11
         0.78200E+11
         0.78200E+11
         0.78200E+11
         0.78200E+11
         0.78200E+11
         0.78200E+11
         0.78200E+11
         0.78200E+11
         0.78200E+11
         0.78200E+11
         0.78200E+11
         0.78200E+11
         0.78200E+11
         0.78200E+11
         0.78200E+11
         0.78200E+11
         0.78200E+11
         0.78200E+11
         0.78200E+11
         0.78200E+11
         0.78200E+11
         0.78200E+11
         0.78200E+11
         0.78200E+11
         0.78200E+11
         0.78200E+11
         0.78200E+11
         0.78200E+11
         0.78200E+11
         0.78200E+11
         0.78200E+11
         0.78200E+11
         0.78200E+11
         0.78200E+11
         0.78200E+11
         0.78200E+11
         0.78200E+11
         0.78200E+11
         0.78200E+11
         0.78200E+11
         0.78200E+11
         0.78200E+11
         0.78200E+11
         0.78200E+11
         0.78200E+11
         0.78200E+11
         0.78200E+11
         0.78200E+11
         0.78200E+11
         0.78200E+11
         0.78200E+11
         0.78200E+11
         0.78200E+11
         0.78200E+11
         0.78200E+11
         0.78200E+11
         0.78200E+11
         0.78200E+11
         0.78200E+11
         0.78200E+11
         0.78200E+11
         0.78200E+11
         0.78200E+11
         0.78200E+11
         0.78200E+11
         0.78200E+11
         0.78200E+11
         0.78200E+11
         0.78200E+11
         0.78200E+11
         0.78200E+11
         0.78200E+11
         0.78200E+11
         0.78200E+11
         0.78200E+11
         0.78200E+11
         0.78200E+11
         0.78200E+11
         0.78200E+11
         0.78200E+11
         0.78200E+11
         0.78200E+11
         0.78200E+11
         0.78200E+11
         0.78200E+11
         0.78200E+11
         0.78200E+11
         0.78200E+11
         0.78200E+11
         0.78200E+11
         0.78200E+11
         0.78200E+11
         0.78200E+11
         0.78200E+11
         0.78200E+11
         0.78200E+11
         0.78200E+11
         0.78200E+11
         0.78200E+11
         0.78200E+11
         0.78200E+11
         0.78200E+11
         0.78200E+11
         0.78200E+11
         0.78200E+11
         0.78200E+11
         0.78200E+11
         0.78200E+11
         0.78200E+11
         0.78200E+11
         0.78200E+11
         0.78200E+11
         0.78200E+11
         0.78200E+11
         0.78200E+11
         0.78200E+11
         0.78200E+11
         0.78200E+11
         0.78200E+11
         0.78200E+11
         0.78200E+11
         0.78200E+11
         0.78200E+11
         0.78200E+11
         0.78200E+11
         0.78200E+11
         0.78200E+11
         0.78200E+11
         0.78200E+11
         0.78200E+11
         0.78200E+11
         0.78200E+11
         0.78200E+11
         0.78200E+11
         0.78200E+11
         0.78200E+11
         0.78200E+11
         0.78200E+11
         0.78200E+11
         0.78200E+11
         0.78200E+11
         0.78200E+11
         0.78200E+11
         0.78200E+11
         0.78200E+11
         0.78200E+11
         0.78200E+11
         0.78200E+11
         0.78200E+11
         0.78200E+11
         0.78200E+11
         0.78200E+11
         0.78200E+11
         0.78200E+11
         0.78200E+11
         0.78200E+11
         0.78200E+11
         0.78200E+11
         0.78200E+11
         0.78200E+11
         0.78200E+11
         0.78200E+11
         0.78200E+11
         0.78200E+11
         0.78200E+11
         0.78200E+11
         0.78200E+11
         0.78200E+11
         0.78200E+11
         0.78200E+11
         0.78200E+11
         0.78200E+11
         0.78200E+11
         0.78200E+11
         0.78200E+11
         0.78200E+11
         0.78200E+11
         0.78200E+11
         0.78200E+11
         0.78200E+11
         0.78200E+11
         0.78200E+11
         0.78200E+11
         0.78200E+11
         0.78200E+11
         0.78200E+11
         0.78200E+11
         0.78200E+11
         0.78200E+11
         0.78200E+11
         0.78200E+11
         0.78200E+11
         0.78200E+11
         0.78200E+11
         0.78200E+11
         0.78200E+11
         0.78200E+11
         0.78200E+11
         0.78200E+11
         0.78200E+11
         0.78200E+11
         0.78200E+11
         0.78200E+11
         0.78200E+11
         0.78200E+11
         0.78200E+11
         0.78200E+11
         0.78200E+11
         0.78200E+11
         0.78200E+11
         0.78200E+11
         0.78200E+11
         0.78200E+11
         0.78200E+11
         0.78200E+11
         0.78200E+11
         0.78200E+11
         0.78200E+11
         0.78200E+11
         0.78200E+11
         0.78200E+11
         0.78200E+11
         0.78200E+11
         0.78200E+11
         0.78200E+11
         0.78200E+11
         0.78200E+11
         0.78200E+11
         0.78200E+11
         0.78200E+11
         0.78200E+11
         0.78200E+11
         0.78200E+11
         0.78200E+11
         0.78200E+11
         0.78200E+11
         0.78200E+11
         0.78200E+11
         0.78200E+11
         0.78200E+11
         0.78200E+11
         0.78200E+11
         0.78200E+11
         0.78200E+11
         0.78200E+11
         0.78200E+11
         0.78200E+11
         0.78200E+11
         0.78200E+11
         0.78200E+11
         0.78200E+11
         0.78200E+11
         0.78200E+11
         0.78200E+11
         0.78200E+11
         0.78200E+11
         0.78200E+11
         0.78200E+11
         0.78200E+11
         0.78200E+11
         0.78200E+11
         0.78200E+11
         0.78200E+11
         0.78200E+11
         0.78200E+11
         0.78200E+11
         0.78200E+11
         0.78200E+11
         0.78200E+11
         0.78200E+11
         0.78200E+11
         0.78200E+11
         0.78200E+11
         0.78200E+11
         0.78200E+11
         0.78200E+11
         0.78200E+11
         0.78200E+11
         0.78200E+11
         0.78200E+11
         0.78200E+11
         0.78200E+11
         0.78200E+11
         0.78200E+11
         0.78200E+11
         0.78200E+11
         0.78200E+11
         0.78200E+11
         0.78200E+11
         0.78200E+11
         0.78200E+11
         0.78200E+11
         0.78200E+11
         0.78200E+11
         0.78200E+11
         0.78200E+11
         0.78200E+11
         0.78200E+11
         0.78200E+11
         0.78200E+11
         0.78200E+11
         0.78200E+11
         0.78200E+11
         0.78200E+11
         0.78200E+11
         0.78200E+11
         0.78200E+11
         0.78200E+11
         0.78200E+11
         0.78200E+11
         0.78200E+11
         0.78200E+11
         0.78200E+11
         0.78200E+11
         0.78200E+11
         0.78200E+11
         0.78200E+11
         0.78200E+11
         0.78200E+11
         0.78200E+11
         0.78200E+11
         0.78200E+11
         0.78200E+11
         0.78200E+11
         0.78200E+11
         0.78200E+11
         0.78200E+11
         0.78200E+11
         0.78200E+11
         0.78200E+11
         0.78200E+11
         0.78200E+11
         0.78200E+11
         0.78200E+11
         0.78200E+11
         0.78200E+11
         0.78200E+11
         0.78200E+11
         0.78200E+11
         0.78200E+11
         0.78200E+11
         0.78200E+11
         0.78200E+11
         0.78200E+11
         0.78200E+11
         0.78200E+11
         0.78200E+11
         0.78200E+11
         0.78200E+11
         0.78200E+11
         0.78200E+11
         0.78200E+11
         0.78200E+11
         0.78200E+11
         0.78200E+11
         0.78200E+11
         0.78200E+11
         0.78200E+11
         0.78200E+11
         0.78200E+11
         0.78200E+11
         0.78200E+11
         0.78200E+11
         0.78200E+11
         0.78200E+11
         0.78200E+11
         0.78200E+11
         0.78200E+11
         0.78200E+11
         0.78200E+11
         0.78200E+11
         0.78200E+11
         0.78200E+11
         0.78200E+11
         0.78200E+11
         0.78200E+11
         0.78200E+11
         0.78200E+11
         0.78200E+11
         0.78200E+11
         0.78200E+11
         0.78200E+11
         0.78200E+11
         0.78200E+11
         0.78200E+11
         0.78200E+11
         0.78200E+11
         0.78200E+11
         0.78200E+11
         0.78200E+11
         0.78200E+11
         0.78200E+11
         0.78200E+11
  
SCALARS                        density  double 1
LOOKUP_TABLE default
         0.27000E+04
         0.27000E+04
         0.27000E+04
         0.27000E+04
         0.27000E+04
         0.27000E+04
         0.27000E+04
         0.27000E+04
         0.27000E+04
         0.27000E+04
         0.27000E+04
         0.27000E+04
         0.27000E+04
         0.27000E+04
         0.27000E+04
         0.27000E+04
         0.27000E+04
         0.27000E+04
         0.27000E+04
         0.27000E+04
         0.27000E+04
         0.27000E+04
         0.27000E+04
         0.27000E+04
         0.27000E+04
         0.27000E+04
         0.27000E+04
         0.27000E+04
         0.27000E+04
         0.27000E+04
         0.27000E+04
         0.27000E+04
         0.27000E+04
         0.27000E+04
         0.27000E+04
         0.27000E+04
         0.27000E+04
         0.27000E+04
         0.27000E+04
         0.27000E+04
         0.27000E+04
         0.27000E+04
         0.27000E+04
         0.27000E+04
         0.27000E+04
         0.27000E+04
         0.27000E+04
         0.27000E+04
         0.27000E+04
         0.27000E+04
         0.27000E+04
         0.27000E+04
         0.27000E+04
         0.27000E+04
         0.27000E+04
         0.27000E+04
         0.27000E+04
         0.27000E+04
         0.27000E+04
         0.27000E+04
         0.27000E+04
         0.27000E+04
         0.27000E+04
         0.27000E+04
         0.27000E+04
         0.27000E+04
         0.27000E+04
         0.27000E+04
         0.27000E+04
         0.27000E+04
         0.27000E+04
         0.27000E+04
         0.27000E+04
         0.27000E+04
         0.27000E+04
         0.27000E+04
         0.27000E+04
         0.27000E+04
         0.27000E+04
         0.27000E+04
         0.27000E+04
         0.27000E+04
         0.27000E+04
         0.27000E+04
         0.27000E+04
         0.27000E+04
         0.27000E+04
         0.27000E+04
         0.27000E+04
         0.27000E+04
         0.27000E+04
         0.27000E+04
         0.27000E+04
         0.27000E+04
         0.27000E+04
         0.27000E+04
         0.27000E+04
         0.27000E+04
         0.27000E+04
         0.27000E+04
         0.27000E+04
         0.27000E+04
         0.27000E+04
         0.27000E+04
         0.27000E+04
         0.27000E+04
         0.27000E+04
         0.27000E+04
         0.27000E+04
         0.27000E+04
         0.27000E+04
         0.27000E+04
         0.27000E+04
         0.27000E+04
         0.27000E+04
         0.27000E+04
         0.27000E+04
         0.27000E+04
         0.27000E+04
         0.27000E+04
         0.27000E+04
         0.27000E+04
         0.27000E+04
         0.27000E+04
         0.27000E+04
         0.27000E+04
         0.27000E+04
         0.27000E+04
         0.27000E+04
         0.27000E+04
         0.27000E+04
         0.27000E+04
         0.27000E+04
         0.27000E+04
         0.27000E+04
         0.27000E+04
         0.27000E+04
         0.27000E+04
         0.27000E+04
         0.27000E+04
         0.27000E+04
         0.27000E+04
         0.27000E+04
         0.27000E+04
         0.27000E+04
         0.27000E+04
         0.27000E+04
         0.27000E+04
         0.27000E+04
         0.27000E+04
         0.27000E+04
         0.27000E+04
         0.27000E+04
         0.27000E+04
         0.27000E+04
         0.27000E+04
         0.27000E+04
         0.27000E+04
         0.27000E+04
         0.27000E+04
         0.27000E+04
         0.27000E+04
         0.27000E+04
         0.27000E+04
         0.27000E+04
         0.27000E+04
         0.27000E+04
         0.27000E+04
         0.27000E+04
         0.27000E+04
         0.27000E+04
         0.27000E+04
         0.27000E+04
         0.27000E+04
         0.27000E+04
         0.27000E+04
         0.27000E+04
         0.27000E+04
         0.27000E+04
         0.27000E+04
         0.27000E+04
         0.27000E+04
         0.27000E+04
         0.27000E+04
         0.27000E+04
         0.27000E+04
         0.27000E+04
         0.27000E+04
         0.27000E+04
         0.27000E+04
         0.27000E+04
         0.27000E+04
         0.27000E+04
         0.27000E+04
         0.27000E+04
         0.27000E+04
         0.27000E+04
         0.27000E+04
         0.27000E+04
         0.27000E+04
         0.27000E+04
         0.27000E+04
         0.27000E+04
         0.27000E+04
         0.27000E+04
         0.27000E+04
         0.27000E+04
         0.27000E+04
         0.27000E+04
         0.27000E+04
         0.27000E+04
         0.27000E+04
         0.27000E+04
         0.27000E+04
         0.27000E+04
         0.27000E+04
         0.27000E+04
         0.27000E+04
         0.27000E+04
         0.27000E+04
         0.27000E+04
         0.27000E+04
         0.27000E+04
         0.27000E+04
         0.27000E+04
         0.27000E+04
         0.27000E+04
         0.27000E+04
         0.27000E+04
         0.27000E+04
         0.27000E+04
         0.27000E+04
         0.27000E+04
         0.27000E+04
         0.27000E+04
         0.27000E+04
         0.27000E+04
         0.27000E+04
         0.27000E+04
         0.27000E+04
         0.27000E+04
         0.27000E+04
         0.27000E+04
         0.27000E+04
         0.27000E+04
         0.27000E+04
         0.27000E+04
         0.27000E+04
         0.27000E+04
         0.27000E+04
         0.27000E+04
         0.27000E+04
         0.27000E+04
         0.27000E+04
         0.27000E+04
         0.27000E+04
         0.27000E+04
         0.27000E+04
         0.27000E+04
         0.27000E+04
         0.27000E+04
         0.27000E+04
         0.27000E+04
         0.27000E+04
         0.27000E+04
         0.27000E+04
         0.27000E+04
         0.27000E+04
         0.27000E+04
         0.27000E+04
         0.27000E+04
         0.27000E+04
         0.27000E+04
         0.27000E+04
         0.27000E+04
         0.27000E+04
         0.27000E+04
         0.27000E+04
         0.27000E+04
         0.27000E+04
         0.27000E+04
         0.27000E+04
         0.27000E+04
         0.27000E+04
         0.27000E+04
         0.27000E+04
         0.27000E+04
         0.27000E+04
         0.27000E+04
         0.27000E+04
         0.27000E+04
         0.27000E+04
         0.27000E+04
         0.27000E+04
         0.27000E+04
         0.27000E+04
         0.27000E+04
         0.27000E+04
         0.27000E+04
         0.27000E+04
         0.27000E+04
         0.27000E+04
         0.27000E+04
         0.27000E+04
         0.27000E+04
         0.27000E+04
         0.27000E+04
         0.27000E+04
         0.27000E+04
         0.27000E+04
         0.27000E+04
         0.27000E+04
         0.27000E+04
         0.27000E+04
         0.27000E+04
         0.27000E+04
         0.27000E+04
         0.27000E+04
         0.27000E+04
         0.27000E+04
         0.27000E+04
         0.27000E+04
         0.27000E+04
         0.27000E+04
         0.27000E+04
         0.27000E+04
         0.27000E+04
         0.27000E+04
         0.27000E+04
         0.27000E+04
         0.27000E+04
         0.27000E+04
         0.27000E+04
         0.27000E+04
         0.27000E+04
         0.27000E+04
         0.27000E+04
         0.27000E+04
         0.27000E+04
         0.27000E+04
         0.27000E+04
         0.27000E+04
         0.27000E+04
         0.27000E+04
         0.27000E+04
         0.27000E+04
         0.27000E+04
         0.27000E+04
         0.27000E+04
         0.27000E+04
         0.27000E+04
         0.27000E+04
         0.27000E+04
         0.27000E+04
         0.27000E+04
         0.27000E+04
         0.27000E+04
         0.27000E+04
         0.27000E+04
         0.27000E+04
         0.27000E+04
         0.27000E+04
         0.27000E+04
         0.27000E+04
         0.27000E+04
         0.27000E+04
         0.27000E+04
         0.27000E+04
         0.27000E+04
         0.27000E+04
         0.27000E+04
         0.27000E+04
         0.27000E+04
         0.27000E+04
         0.27000E+04
         0.27000E+04
         0.27000E+04
         0.27000E+04
         0.27000E+04
         0.27000E+04
         0.27000E+04
         0.27000E+04
         0.27000E+04
         0.27000E+04
         0.27000E+04
         0.27000E+04
         0.27000E+04
         0.27000E+04
         0.27000E+04
         0.27000E+04
         0.27000E+04
         0.27000E+04
         0.27000E+04
         0.27000E+04
         0.27000E+04
         0.27000E+04
         0.27000E+04
         0.27000E+04
         0.27000E+04
         0.27000E+04
         0.27000E+04
         0.27000E+04
         0.27000E+04
         0.27000E+04
         0.27000E+04
         0.27000E+04
         0.27000E+04
         0.27000E+04
         0.27000E+04
         0.27000E+04
         0.27000E+04
         0.27000E+04
         0.27000E+04
         0.27000E+04
         0.27000E+04
         0.27000E+04
         0.27000E+04
         0.27000E+04
         0.27000E+04
         0.27000E+04
         0.27000E+04
         0.27000E+04
         0.27000E+04
         0.27000E+04
         0.27000E+04
         0.27000E+04
         0.27000E+04
         0.27000E+04
         0.27000E+04
         0.27000E+04
         0.27000E+04
         0.27000E+04
         0.27000E+04
         0.27000E+04
         0.27000E+04
         0.27000E+04
         0.27000E+04
         0.27000E+04
         0.27000E+04
         0.27000E+04
         0.27000E+04
         0.27000E+04
         0.27000E+04
         0.27000E+04
         0.27000E+04
         0.27000E+04
         0.27000E+04
         0.27000E+04
         0.27000E+04
         0.27000E+04
         0.27000E+04
         0.27000E+04
         0.27000E+04
         0.27000E+04
         0.27000E+04
         0.27000E+04
         0.27000E+04
         0.27000E+04
         0.27000E+04
         0.27000E+04
         0.27000E+04
         0.27000E+04
         0.27000E+04
         0.27000E+04
         0.27000E+04
         0.27000E+04
         0.27000E+04
         0.27000E+04
         0.27000E+04
         0.27000E+04
         0.27000E+04
         0.27000E+04
         0.27000E+04
         0.27000E+04
         0.27000E+04
         0.27000E+04
         0.27000E+04
         0.27000E+04
         0.27000E+04
         0.27000E+04
         0.27000E+04
         0.27000E+04
         0.27000E+04
         0.27000E+04
         0.27000E+04
         0.27000E+04
         0.27000E+04
         0.27000E+04
         0.27000E+04
         0.27000E+04
         0.27000E+04
         0.27000E+04
         0.27000E+04
         0.27000E+04
         0.27000E+04
         0.27000E+04
         0.27000E+04
         0.27000E+04
         0.27000E+04
         0.27000E+04
         0.27000E+04
         0.27000E+04
         0.27000E+04
         0.27000E+04
         0.27000E+04
         0.27000E+04
         0.27000E+04
         0.27000E+04
         0.27000E+04
         0.27000E+04
         0.27000E+04
         0.27000E+04
         0.27000E+04
         0.27000E+04
         0.27000E+04
         0.27000E+04
         0.27000E+04
         0.27000E+04
         0.27000E+04
         0.27000E+04
         0.27000E+04
         0.27000E+04
         0.27000E+04
         0.27000E+04
         0.27000E+04
         0.27000E+04
         0.27000E+04
         0.27000E+04
         0.27000E+04
         0.27000E+04
         0.27000E+04
         0.27000E+04
         0.27000E+04
         0.27000E+04
         0.27000E+04
         0.27000E+04
         0.27000E+04
         0.27000E+04
         0.27000E+04
         0.27000E+04
         0.27000E+04
         0.27000E+04
         0.27000E+04
         0.27000E+04
         0.27000E+04
         0.27000E+04
         0.27000E+04
         0.27000E+04
         0.27000E+04
         0.27000E+04
         0.27000E+04
         0.27000E+04
         0.27000E+04
         0.27000E+04
         0.27000E+04
         0.27000E+04
         0.27000E+04
         0.27000E+04
         0.27000E+04
         0.27000E+04
         0.27000E+04
         0.27000E+04
         0.27000E+04
         0.27000E+04
         0.27000E+04
         0.27000E+04
         0.27000E+04
         0.27000E+04
         0.27000E+04
         0.27000E+04
         0.27000E+04
         0.27000E+04
         0.27000E+04
         0.27000E+04
         0.27000E+04
         0.27000E+04
         0.27000E+04
         0.27000E+04
         0.27000E+04
         0.27000E+04
         0.27000E+04
         0.27000E+04
         0.27000E+04
         0.27000E+04
         0.27000E+04
         0.27000E+04
         0.27000E+04
         0.27000E+04
         0.27000E+04
         0.27000E+04
         0.27000E+04
         0.27000E+04
         0.27000E+04
         0.27000E+04
         0.27000E+04
         0.27000E+04
         0.27000E+04
         0.27000E+04
         0.27000E+04
         0.27000E+04
         0.27000E+04
         0.27000E+04
         0.27000E+04
         0.27000E+04
         0.27000E+04
         0.27000E+04
         0.27000E+04
         0.27000E+04
         0.27000E+04
         0.27000E+04
         0.27000E+04
         0.27000E+04
         0.27000E+04
         0.27000E+04
         0.27000E+04
         0.27000E+04
         0.27000E+04
         0.27000E+04
         0.27000E+04
         0.27000E+04
         0.27000E+04
         0.27000E+04
         0.27000E+04
         0.27000E+04
         0.27000E+04
         0.27000E+04
         0.27000E+04
         0.27000E+04
         0.27000E+04
         0.27000E+04
         0.27000E+04
         0.27000E+04
         0.27000E+04
         0.27000E+04
         0.27000E+04
         0.27000E+04
         0.27000E+04
         0.27000E+04
         0.27000E+04
         0.27000E+04
         0.27000E+04
         0.27000E+04
         0.27000E+04
         0.27000E+04
         0.27000E+04
         0.27000E+04
         0.27000E+04
         0.27000E+04
         0.27000E+04
         0.27000E+04
         0.27000E+04
         0.27000E+04
         0.27000E+04
         0.27000E+04
         0.27000E+04
         0.27000E+04
         0.27000E+04
         0.27000E+04
         0.27000E+04
         0.27000E+04
         0.27000E+04
         0.27000E+04
         0.27000E+04
         0.27000E+04
         0.27000E+04
         0.27000E+04
         0.27000E+04
         0.27000E+04
         0.27000E+04
         0.27000E+04
         0.27000E+04
         0.27000E+04
         0.27000E+04
         0.27000E+04
         0.27000E+04
         0.27000E+04
         0.27000E+04
         0.27000E+04
         0.27000E+04
         0.27000E+04
         0.27000E+04
         0.27000E+04
         0.27000E+04
         0.27000E+04
         0.27000E+04
         0.27000E+04
         0.27000E+04
         0.27000E+04
         0.27000E+04
         0.27000E+04
         0.27000E+04
         0.27000E+04
         0.27000E+04
         0.27000E+04
         0.27000E+04
         0.27000E+04
         0.27000E+04
         0.27000E+04
         0.27000E+04
         0.27000E+04
         0.27000E+04
         0.27000E+04
         0.27000E+04
         0.27000E+04
         0.27000E+04
         0.27000E+04
         0.27000E+04
         0.27000E+04
         0.27000E+04
         0.27000E+04
         0.27000E+04
         0.27000E+04
         0.27000E+04
         0.27000E+04
         0.27000E+04
         0.27000E+04
         0.27000E+04
         0.27000E+04
         0.27000E+04
         0.27000E+04
         0.27000E+04
         0.27000E+04
         0.27000E+04
         0.27000E+04
         0.27000E+04
         0.27000E+04
         0.27000E+04
         0.27000E+04
         0.27000E+04
         0.27000E+04
         0.27000E+04
         0.27000E+04
         0.27000E+04
         0.27000E+04
         0.27000E+04
         0.27000E+04
         0.27000E+04
         0.27000E+04
         0.27000E+04
         0.27000E+04
         0.27000E+04
         0.27000E+04
         0.27000E+04
         0.27000E+04
         0.27000E+04
         0.27000E+04
         0.27000E+04
         0.27000E+04
         0.27000E+04
         0.27000E+04
         0.27000E+04
         0.27000E+04
         0.27000E+04
         0.27000E+04
         0.27000E+04
         0.27000E+04
         0.27000E+04
         0.27000E+04
         0.27000E+04
         0.27000E+04
         0.27000E+04
         0.27000E+04
         0.27000E+04
         0.27000E+04
         0.27000E+04
         0.27000E+04
         0.27000E+04
         0.27000E+04
         0.27000E+04
         0.27000E+04
         0.27000E+04
         0.27000E+04
         0.27000E+04
         0.27000E+04
         0.27000E+04
         0.27000E+04
         0.27000E+04
         0.27000E+04
         0.27000E+04
         0.27000E+04
         0.27000E+04
         0.27000E+04
         0.27000E+04
         0.27000E+04
         0.27000E+04
         0.27000E+04
         0.27000E+04
         0.27000E+04
         0.27000E+04
         0.27000E+04
         0.27000E+04
         0.27000E+04
         0.27000E+04
         0.27000E+04
         0.27000E+04
         0.27000E+04
         0.27000E+04
         0.27000E+04
         0.27000E+04
         0.27000E+04
         0.27000E+04
         0.27000E+04
         0.27000E+04
         0.27000E+04
         0.27000E+04
         0.27000E+04
         0.27000E+04
         0.27000E+04
         0.27000E+04
         0.27000E+04
         0.27000E+04
         0.27000E+04
         0.27000E+04
         0.27000E+04
         0.27000E+04
         0.27000E+04
         0.27000E+04
         0.27000E+04
         0.27000E+04
         0.27000E+04
         0.27000E+04
         0.27000E+04
         0.27000E+04
         0.27000E+04
         0.27000E+04
         0.27000E+04
         0.27000E+04
         0.27000E+04
         0.27000E+04
         0.27000E+04
         0.27000E+04
         0.27000E+04
         0.27000E+04
         0.27000E+04
         0.27000E+04
         0.27000E+04
         0.27000E+04
         0.27000E+04
         0.27000E+04
         0.27000E+04
         0.27000E+04
         0.27000E+04
         0.27000E+04
         0.27000E+04
         0.27000E+04
         0.27000E+04
         0.27000E+04
         0.27000E+04
         0.27000E+04
         0.27000E+04
         0.27000E+04
         0.27000E+04
         0.27000E+04
         0.27000E+04
         0.27000E+04
         0.27000E+04
         0.27000E+04
         0.27000E+04
         0.27000E+04
         0.27000E+04
         0.27000E+04
         0.27000E+04
         0.27000E+04
         0.27000E+04
         0.27000E+04
         0.27000E+04
         0.27000E+04
         0.27000E+04
         0.27000E+04
         0.27000E+04
         0.27000E+04
         0.27000E+04
         0.27000E+04
         0.27000E+04
         0.27000E+04
         0.27000E+04
         0.27000E+04
         0.27000E+04
         0.27000E+04
         0.27000E+04
         0.27000E+04
         0.27000E+04
         0.27000E+04
         0.27000E+04
         0.27000E+04
         0.27000E+04
         0.27000E+04
         0.27000E+04
         0.27000E+04
         0.27000E+04
         0.27000E+04
         0.27000E+04
         0.27000E+04
         0.27000E+04
         0.27000E+04
         0.27000E+04
         0.27000E+04
         0.27000E+04
         0.27000E+04
         0.27000E+04
         0.27000E+04
         0.27000E+04
         0.27000E+04
         0.27000E+04
         0.27000E+04
         0.27000E+04
         0.27000E+04
         0.27000E+04
         0.27000E+04
         0.27000E+04
         0.27000E+04
         0.27000E+04
         0.27000E+04
         0.27000E+04
         0.27000E+04
         0.27000E+04
         0.27000E+04
         0.27000E+04
         0.27000E+04
         0.27000E+04
         0.27000E+04
         0.27000E+04
         0.27000E+04
         0.27000E+04
         0.27000E+04
         0.27000E+04
         0.27000E+04
         0.27000E+04
         0.27000E+04
         0.27000E+04
         0.27000E+04
         0.27000E+04
         0.27000E+04
         0.27000E+04
         0.27000E+04
         0.27000E+04
         0.27000E+04
         0.27000E+04
         0.27000E+04
         0.27000E+04
         0.27000E+04
         0.27000E+04
         0.27000E+04
         0.27000E+04
         0.27000E+04
         0.27000E+04
         0.27000E+04
         0.27000E+04
         0.27000E+04
         0.27000E+04
         0.27000E+04
         0.27000E+04
         0.27000E+04
         0.27000E+04
         0.27000E+04
         0.27000E+04
         0.27000E+04
         0.27000E+04
         0.27000E+04
         0.27000E+04
         0.27000E+04
         0.27000E+04
         0.27000E+04
         0.27000E+04
         0.27000E+04
         0.27000E+04
         0.27000E+04
         0.27000E+04
         0.27000E+04
         0.27000E+04
         0.27000E+04
         0.27000E+04
         0.27000E+04
         0.27000E+04
         0.27000E+04
         0.27000E+04
         0.27000E+04
         0.27000E+04
         0.27000E+04
         0.27000E+04
         0.27000E+04
         0.27000E+04
         0.27000E+04
         0.27000E+04
         0.27000E+04
         0.27000E+04
         0.27000E+04
         0.27000E+04
         0.27000E+04
         0.27000E+04
         0.27000E+04
         0.27000E+04
         0.27000E+04
         0.27000E+04
         0.27000E+04
         0.27000E+04
         0.27000E+04
         0.27000E+04
         0.27000E+04
         0.27000E+04
         0.27000E+04
         0.27000E+04
         0.27000E+04
         0.27000E+04
         0.27000E+04
         0.27000E+04
         0.27000E+04
         0.27000E+04
         0.27000E+04
         0.27000E+04
         0.27000E+04
         0.27000E+04
         0.27000E+04
         0.27000E+04
         0.27000E+04
         0.27000E+04
         0.27000E+04
         0.27000E+04
         0.27000E+04
         0.27000E+04
         0.27000E+04
         0.27000E+04
         0.27000E+04
         0.27000E+04
         0.27000E+04
         0.27000E+04
         0.27000E+04
         0.27000E+04
         0.27000E+04
         0.27000E+04
         0.27000E+04
         0.27000E+04
         0.27000E+04
         0.27000E+04
         0.27000E+04
         0.27000E+04
         0.27000E+04
         0.27000E+04
         0.27000E+04
         0.27000E+04
         0.27000E+04
         0.27000E+04
         0.27000E+04
         0.27000E+04
         0.27000E+04
         0.27000E+04
         0.27000E+04
         0.27000E+04
         0.27000E+04
         0.27000E+04
         0.27000E+04
         0.27000E+04
         0.27000E+04
         0.27000E+04
         0.27000E+04
         0.27000E+04
         0.27000E+04
         0.27000E+04
         0.27000E+04
         0.27000E+04
         0.27000E+04
         0.27000E+04
         0.27000E+04
         0.27000E+04
         0.27000E+04
         0.27000E+04
         0.27000E+04
         0.27000E+04
         0.27000E+04
         0.27000E+04
         0.27000E+04
         0.27000E+04
         0.27000E+04
         0.27000E+04
         0.27000E+04
         0.27000E+04
         0.27000E+04
         0.27000E+04
         0.27000E+04
         0.27000E+04
         0.27000E+04
         0.27000E+04
         0.27000E+04
         0.27000E+04
         0.27000E+04
         0.27000E+04
         0.27000E+04
         0.27000E+04
         0.27000E+04
         0.27000E+04
         0.27000E+04
         0.27000E+04
         0.27000E+04
         0.27000E+04
         0.27000E+04
         0.27000E+04
         0.27000E+04
         0.27000E+04
         0.27000E+04
         0.27000E+04
         0.27000E+04
         0.27000E+04
         0.27000E+04
         0.27000E+04
         0.27000E+04
         0.27000E+04
         0.27000E+04
         0.27000E+04
         0.27000E+04
         0.27000E+04
         0.27000E+04
         0.27000E+04
         0.27000E+04
         0.27000E+04
         0.27000E+04
         0.27000E+04
         0.27000E+04
         0.27000E+04
         0.27000E+04
         0.27000E+04
         0.27000E+04
         0.27000E+04
         0.27000E+04
         0.27000E+04
         0.27000E+04
         0.27000E+04
         0.27000E+04
         0.27000E+04
         0.27000E+04
         0.27000E+04
         0.27000E+04
         0.27000E+04
         0.27000E+04
         0.27000E+04
         0.27000E+04
         0.27000E+04
         0.27000E+04
         0.27000E+04
         0.27000E+04
         0.27000E+04
         0.27000E+04
         0.27000E+04
         0.27000E+04
         0.27000E+04
         0.27000E+04
         0.27000E+04
         0.27000E+04
         0.27000E+04
         0.27000E+04
         0.27000E+04
         0.27000E+04
         0.27000E+04
         0.27000E+04
         0.27000E+04
         0.27000E+04
         0.27000E+04
         0.27000E+04
         0.27000E+04
         0.27000E+04
         0.27000E+04
         0.27000E+04
         0.27000E+04
         0.27000E+04
         0.27000E+04
         0.27000E+04
         0.27000E+04
         0.27000E+04
         0.27000E+04
         0.27000E+04
         0.27000E+04
         0.27000E+04
         0.27000E+04
         0.27000E+04
         0.27000E+04
         0.27000E+04
         0.27000E+04
         0.27000E+04
         0.27000E+04
         0.27000E+04
         0.27000E+04
         0.27000E+04
         0.27000E+04
         0.27000E+04
         0.27000E+04
         0.27000E+04
         0.27000E+04
         0.27000E+04
         0.27000E+04
         0.27000E+04
         0.27000E+04
         0.27000E+04
         0.27000E+04
         0.27000E+04
         0.27000E+04
         0.27000E+04
         0.27000E+04
         0.27000E+04
         0.27000E+04
         0.27000E+04
         0.27000E+04
         0.27000E+04
         0.27000E+04
         0.27000E+04
         0.27000E+04
         0.27000E+04
         0.27000E+04
         0.27000E+04
         0.27000E+04
         0.27000E+04
         0.27000E+04
         0.27000E+04
         0.27000E+04
         0.27000E+04
         0.27000E+04
         0.27000E+04
         0.27000E+04
         0.27000E+04
         0.27000E+04
         0.27000E+04
         0.27000E+04
         0.27000E+04
         0.27000E+04
         0.27000E+04
         0.27000E+04
         0.27000E+04
         0.27000E+04
         0.27000E+04
         0.27000E+04
         0.27000E+04
         0.27000E+04
         0.27000E+04
         0.27000E+04
         0.27000E+04
         0.27000E+04
         0.27000E+04
         0.27000E+04
         0.27000E+04
         0.27000E+04
         0.27000E+04
         0.27000E+04
         0.27000E+04
         0.27000E+04
         0.27000E+04
         0.27000E+04
         0.27000E+04
         0.27000E+04
         0.27000E+04
         0.27000E+04
         0.27000E+04
         0.27000E+04
         0.27000E+04
         0.27000E+04
         0.27000E+04
         0.27000E+04
         0.27000E+04
         0.27000E+04
         0.27000E+04
         0.27000E+04
         0.27000E+04
         0.27000E+04
         0.27000E+04
         0.27000E+04
         0.27000E+04
         0.27000E+04
         0.27000E+04
         0.27000E+04
         0.27000E+04
         0.27000E+04
         0.27000E+04
         0.27000E+04
         0.27000E+04
         0.27000E+04
         0.27000E+04
         0.27000E+04
         0.27000E+04
         0.27000E+04
         0.27000E+04
         0.27000E+04
         0.27000E+04
         0.27000E+04
         0.27000E+04
         0.27000E+04
         0.27000E+04
         0.27000E+04
         0.27000E+04
         0.27000E+04
         0.27000E+04
         0.27000E+04
         0.27000E+04
         0.27000E+04
         0.27000E+04
         0.27000E+04
         0.27000E+04
         0.27000E+04
         0.27000E+04
         0.27000E+04
         0.27000E+04
         0.27000E+04
         0.27000E+04
         0.27000E+04
         0.27000E+04
         0.27000E+04
         0.27000E+04
         0.27000E+04
         0.27000E+04
         0.27000E+04
         0.27000E+04
         0.27000E+04
         0.27000E+04
         0.27000E+04
         0.27000E+04
         0.27000E+04
         0.27000E+04
         0.27000E+04
         0.27000E+04
         0.27000E+04
         0.27000E+04
         0.27000E+04
         0.27000E+04
         0.27000E+04
         0.27000E+04
         0.27000E+04
         0.27000E+04
         0.27000E+04
         0.27000E+04
         0.27000E+04
         0.27000E+04
         0.27000E+04
         0.27000E+04
         0.27000E+04
         0.27000E+04
         0.27000E+04
         0.27000E+04
         0.27000E+04
         0.27000E+04
         0.27000E+04
         0.27000E+04
         0.27000E+04
         0.27000E+04
         0.27000E+04
         0.27000E+04
         0.27000E+04
         0.27000E+04
         0.27000E+04
         0.27000E+04
         0.27000E+04
         0.27000E+04
         0.27000E+04
         0.27000E+04
         0.27000E+04
         0.27000E+04
         0.27000E+04
         0.27000E+04
         0.27000E+04
         0.27000E+04
         0.27000E+04
         0.27000E+04
         0.27000E+04
         0.27000E+04
         0.27000E+04
         0.27000E+04
         0.27000E+04
         0.27000E+04
         0.27000E+04
         0.27000E+04
         0.27000E+04
         0.27000E+04
         0.27000E+04
         0.27000E+04
         0.27000E+04
         0.27000E+04
         0.27000E+04
         0.27000E+04
         0.27000E+04
         0.27000E+04
         0.27000E+04
         0.27000E+04
         0.27000E+04
         0.27000E+04
         0.27000E+04
         0.27000E+04
         0.27000E+04
         0.27000E+04
         0.27000E+04
         0.27000E+04
         0.27000E+04
         0.27000E+04
         0.27000E+04
         0.27000E+04
         0.27000E+04
         0.27000E+04
         0.27000E+04
         0.27000E+04
         0.27000E+04
         0.27000E+04
         0.27000E+04
         0.27000E+04
         0.27000E+04
         0.27000E+04
         0.27000E+04
         0.27000E+04
         0.27000E+04
         0.27000E+04
         0.27000E+04
         0.27000E+04
         0.27000E+04
         0.27000E+04
         0.27000E+04
         0.27000E+04
         0.27000E+04
         0.27000E+04
         0.27000E+04
         0.27000E+04
         0.27000E+04
         0.27000E+04
         0.27000E+04
         0.27000E+04
         0.27000E+04
         0.27000E+04
         0.27000E+04
         0.27000E+04
         0.27000E+04
         0.27000E+04
         0.27000E+04
         0.27000E+04
         0.27000E+04
         0.27000E+04
         0.27000E+04
         0.27000E+04
         0.27000E+04
         0.27000E+04
         0.27000E+04
         0.27000E+04
         0.27000E+04
         0.27000E+04
         0.27000E+04
         0.27000E+04
         0.27000E+04
         0.27000E+04
         0.27000E+04
         0.27000E+04
         0.27000E+04
         0.27000E+04
         0.27000E+04
         0.27000E+04
         0.27000E+04
         0.27000E+04
         0.27000E+04
         0.27000E+04
         0.27000E+04
         0.27000E+04
         0.27000E+04
         0.27000E+04
         0.27000E+04
         0.27000E+04
         0.27000E+04
         0.27000E+04
         0.27000E+04
         0.27000E+04
         0.27000E+04
         0.27000E+04
         0.27000E+04
         0.27000E+04
         0.27000E+04
         0.27000E+04
         0.27000E+04
         0.27000E+04
         0.27000E+04
         0.27000E+04
         0.27000E+04
         0.27000E+04
         0.27000E+04
         0.27000E+04
         0.27000E+04
         0.27000E+04
         0.27000E+04
         0.27000E+04
         0.27000E+04
         0.27000E+04
         0.27000E+04
         0.27000E+04
         0.27000E+04
         0.27000E+04
         0.27000E+04
         0.27000E+04
         0.27000E+04
         0.27000E+04
         0.27000E+04
         0.27000E+04
         0.27000E+04
         0.27000E+04
         0.27000E+04
         0.27000E+04
         0.27000E+04
         0.27000E+04
         0.27000E+04
         0.27000E+04
         0.27000E+04
         0.27000E+04
         0.27000E+04
         0.27000E+04
         0.27000E+04
         0.27000E+04
         0.27000E+04
         0.27000E+04
         0.27000E+04
         0.27000E+04
         0.27000E+04
         0.27000E+04
         0.27000E+04
         0.27000E+04
         0.27000E+04
         0.27000E+04
         0.27000E+04
         0.27000E+04
         0.27000E+04
         0.27000E+04
         0.27000E+04
         0.27000E+04
         0.27000E+04
         0.27000E+04
         0.27000E+04
         0.27000E+04
         0.27000E+04
         0.27000E+04
         0.27000E+04
         0.27000E+04
         0.27000E+04
         0.27000E+04
         0.27000E+04
         0.27000E+04
         0.27000E+04
         0.27000E+04
         0.27000E+04
         0.27000E+04
         0.27000E+04
         0.27000E+04
         0.27000E+04
         0.27000E+04
         0.27000E+04
         0.27000E+04
         0.27000E+04
         0.27000E+04
         0.27000E+04
         0.27000E+04
         0.27000E+04
         0.27000E+04
         0.27000E+04
         0.27000E+04
         0.27000E+04
         0.27000E+04
         0.27000E+04
         0.27000E+04
         0.27000E+04
         0.27000E+04
         0.27000E+04
         0.27000E+04
         0.27000E+04
         0.27000E+04
         0.27000E+04
         0.27000E+04
         0.27000E+04
         0.27000E+04
         0.27000E+04
         0.27000E+04
         0.27000E+04
         0.27000E+04
         0.27000E+04
         0.27000E+04
         0.27000E+04
         0.27000E+04
         0.27000E+04
         0.27000E+04
         0.27000E+04
         0.27000E+04
         0.27000E+04
         0.27000E+04
         0.27000E+04
         0.27000E+04
         0.27000E+04
         0.27000E+04
         0.27000E+04
         0.27000E+04
         0.27000E+04
         0.27000E+04
         0.27000E+04
         0.27000E+04
         0.27000E+04
         0.27000E+04
         0.27000E+04
         0.27000E+04
         0.27000E+04
         0.27000E+04
         0.27000E+04
         0.27000E+04
         0.27000E+04
         0.27000E+04
         0.27000E+04
         0.27000E+04
         0.27000E+04
         0.27000E+04
         0.27000E+04
         0.27000E+04
         0.27000E+04
         0.27000E+04
         0.27000E+04
         0.27000E+04
         0.27000E+04
         0.27000E+04
         0.27000E+04
         0.27000E+04
         0.27000E+04
         0.27000E+04
         0.27000E+04
         0.27000E+04
         0.27000E+04
         0.27000E+04
         0.27000E+04
         0.27000E+04
         0.27000E+04
         0.27000E+04
         0.27000E+04
         0.27000E+04
         0.27000E+04
         0.27000E+04
         0.27000E+04
         0.27000E+04
         0.27000E+04
         0.27000E+04
         0.27000E+04
         0.27000E+04
         0.27000E+04
         0.27000E+04
         0.27000E+04
         0.27000E+04
         0.27000E+04
         0.27000E+04
         0.27000E+04
         0.27000E+04
         0.27000E+04
         0.27000E+04
         0.27000E+04
         0.27000E+04
         0.27000E+04
         0.27000E+04
         0.27000E+04
         0.27000E+04
         0.27000E+04
         0.27000E+04
         0.27000E+04
         0.27000E+04
         0.27000E+04
         0.27000E+04
         0.27000E+04
         0.27000E+04
         0.27000E+04
         0.27000E+04
         0.27000E+04
         0.27000E+04
         0.27000E+04
         0.27000E+04
         0.27000E+04
         0.27000E+04
         0.27000E+04
         0.27000E+04
         0.27000E+04
         0.27000E+04
         0.27000E+04
         0.27000E+04
         0.27000E+04
         0.27000E+04
         0.27000E+04
         0.27000E+04
         0.27000E+04
         0.27000E+04
         0.27000E+04
         0.27000E+04
         0.27000E+04
         0.27000E+04
         0.27000E+04
         0.27000E+04
         0.27000E+04
         0.27000E+04
         0.27000E+04
         0.27000E+04
         0.27000E+04
         0.27000E+04
         0.27000E+04
         0.27000E+04
         0.27000E+04
         0.27000E+04
         0.27000E+04
         0.27000E+04
         0.27000E+04
         0.27000E+04
         0.27000E+04
         0.27000E+04
         0.27000E+04
         0.27000E+04
         0.27000E+04
         0.27000E+04
         0.27000E+04
         0.27000E+04
         0.27000E+04
         0.27000E+04
         0.27000E+04
         0.27000E+04
         0.27000E+04
         0.27000E+04
         0.27000E+04
         0.27000E+04
         0.27000E+04
         0.27000E+04
         0.27000E+04
         0.27000E+04
         0.27000E+04
         0.27000E+04
         0.27000E+04
         0.27000E+04
         0.27000E+04
         0.27000E+04
         0.27000E+04
         0.27000E+04
         0.27000E+04
         0.27000E+04
         0.27000E+04
         0.27000E+04
         0.27000E+04
         0.27000E+04
         0.27000E+04
         0.27000E+04
         0.27000E+04
         0.27000E+04
         0.27000E+04
         0.27000E+04
         0.27000E+04
         0.27000E+04
         0.27000E+04
         0.27000E+04
         0.27000E+04
         0.27000E+04
         0.27000E+04
         0.27000E+04
         0.27000E+04
         0.27000E+04
         0.27000E+04
         0.27000E+04
         0.27000E+04
         0.27000E+04
         0.27000E+04
         0.27000E+04
         0.27000E+04
         0.27000E+04
         0.27000E+04
         0.27000E+04
         0.27000E+04
         0.27000E+04
         0.27000E+04
         0.27000E+04
         0.27000E+04
         0.27000E+04
         0.27000E+04
         0.27000E+04
         0.27000E+04
         0.27000E+04
         0.27000E+04
         0.27000E+04
         0.27000E+04
         0.27000E+04
         0.27000E+04
         0.27000E+04
         0.27000E+04
         0.27000E+04
         0.27000E+04
         0.27000E+04
         0.27000E+04
         0.27000E+04
         0.27000E+04
         0.27000E+04
         0.27000E+04
         0.27000E+04
         0.27000E+04
         0.27000E+04
         0.27000E+04
         0.27000E+04
         0.27000E+04
         0.27000E+04
         0.27000E+04
         0.27000E+04
         0.27000E+04
         0.27000E+04
         0.27000E+04
         0.27000E+04
         0.27000E+04
         0.27000E+04
         0.27000E+04
         0.27000E+04
         0.27000E+04
         0.27000E+04
         0.27000E+04
         0.27000E+04
         0.27000E+04
         0.27000E+04
         0.27000E+04
         0.27000E+04
         0.27000E+04
         0.27000E+04
         0.27000E+04
         0.27000E+04
         0.27000E+04
         0.27000E+04
         0.27000E+04
         0.27000E+04
         0.27000E+04
         0.27000E+04
         0.27000E+04
         0.27000E+04
         0.27000E+04
         0.27000E+04
         0.27000E+04
         0.27000E+04
         0.27000E+04
         0.27000E+04
         0.27000E+04
         0.27000E+04
         0.27000E+04
         0.27000E+04
         0.27000E+04
         0.27000E+04
         0.27000E+04
         0.27000E+04
         0.27000E+04
         0.27000E+04
         0.27000E+04
         0.27000E+04
         0.27000E+04
         0.27000E+04
         0.27000E+04
         0.27000E+04
         0.27000E+04
         0.27000E+04
         0.27000E+04
         0.27000E+04
         0.27000E+04
         0.27000E+04
         0.27000E+04
         0.27000E+04
         0.27000E+04
         0.27000E+04
         0.27000E+04
         0.27000E+04
         0.27000E+04
         0.27000E+04
         0.27000E+04
         0.27000E+04
         0.27000E+04
         0.27000E+04
         0.27000E+04
         0.27000E+04
         0.27000E+04
         0.27000E+04
         0.27000E+04
         0.27000E+04
         0.27000E+04
         0.27000E+04
         0.27000E+04
         0.27000E+04
         0.27000E+04
         0.27000E+04
         0.27000E+04
         0.27000E+04
         0.27000E+04
         0.27000E+04
         0.27000E+04
         0.27000E+04
         0.27000E+04
         0.27000E+04
         0.27000E+04
         0.27000E+04
         0.27000E+04
         0.27000E+04
         0.27000E+04
         0.27000E+04
         0.27000E+04
         0.27000E+04
         0.27000E+04
         0.27000E+04
         0.27000E+04
         0.27000E+04
         0.27000E+04
         0.27000E+04
         0.27000E+04
         0.27000E+04
         0.27000E+04
         0.27000E+04
         0.27000E+04
         0.27000E+04
         0.27000E+04
         0.27000E+04
         0.27000E+04
         0.27000E+04
         0.27000E+04
         0.27000E+04
         0.27000E+04
         0.27000E+04
         0.27000E+04
         0.27000E+04
         0.27000E+04
         0.27000E+04
         0.27000E+04
         0.27000E+04
         0.27000E+04
         0.27000E+04
         0.27000E+04
         0.27000E+04
         0.27000E+04
         0.27000E+04
         0.27000E+04
         0.27000E+04
         0.27000E+04
         0.27000E+04
         0.27000E+04
         0.27000E+04
         0.27000E+04
         0.27000E+04
         0.27000E+04
         0.27000E+04
         0.27000E+04
         0.27000E+04
         0.27000E+04
         0.27000E+04
         0.27000E+04
         0.27000E+04
         0.27000E+04
         0.27000E+04
         0.27000E+04
         0.27000E+04
         0.27000E+04
         0.27000E+04
         0.27000E+04
         0.27000E+04
         0.27000E+04
         0.27000E+04
         0.27000E+04
         0.27000E+04
         0.27000E+04
         0.27000E+04
         0.27000E+04
         0.27000E+04
         0.27000E+04
