# vtk DataFile Version 2.0
               (MEGA VTK FILE)
ASCII
DATASET UNSTRUCTURED_GRID
POINTS       1950    double
  0.10378E-02  0.67292E-03 -0.17597E-01
  0.17452E-02  0.12308E-02 -0.17586E-01
  0.23177E-02  0.59151E-03 -0.17584E-01
  0.16698E-02 -0.33775E-03 -0.17605E-01
  0.10379E-02  0.67237E-03 -0.11750E-01
  0.17453E-02  0.12301E-02 -0.11750E-01
  0.23178E-02  0.59098E-03 -0.11750E-01
  0.16700E-02 -0.33851E-03 -0.11750E-01
  0.30377E-02  0.14882E-03 -0.17564E-01
  0.27791E-02 -0.67643E-03 -0.17588E-01
  0.30377E-02  0.14846E-03 -0.11750E-01
  0.27788E-02 -0.67692E-03 -0.11750E-01
  0.12850E-02  0.18412E-02 -0.17574E-01
  0.65139E-03  0.14576E-02 -0.17590E-01
  0.12851E-02  0.18410E-02 -0.11750E-01
  0.65164E-03  0.14566E-02 -0.11750E-01
  0.12757E-03  0.29933E-03 -0.17598E-01
 -0.12822E-03  0.11672E-02 -0.17601E-01
  0.12783E-03  0.29819E-03 -0.11750E-01
 -0.12804E-03  0.11655E-02 -0.11750E-01
  0.94500E-03  0.22748E-02 -0.17566E-01
  0.11327E-02  0.28286E-02 -0.17557E-01
  0.17490E-02  0.24238E-02 -0.17561E-01
  0.94533E-03  0.22746E-02 -0.11750E-01
  0.11330E-02  0.28291E-02 -0.11750E-01
  0.17494E-02  0.24236E-02 -0.11750E-01
  0.40588E-03  0.21685E-02 -0.17585E-01
  0.39779E-03  0.29366E-02 -0.17579E-01
  0.40594E-03  0.21684E-02 -0.11750E-01
  0.39781E-03  0.29369E-02 -0.11750E-01
 -0.76303E-03 -0.10033E-02 -0.17607E-01
 -0.86604E-03  0.78969E-04 -0.17612E-01
  0.46119E-03 -0.70318E-03 -0.17603E-01
 -0.76268E-03 -0.10032E-02 -0.11750E-01
 -0.86593E-03  0.78160E-04 -0.11750E-01
  0.46164E-03 -0.70391E-03 -0.11750E-01
 -0.18300E-02 -0.71196E-03 -0.17585E-01
 -0.18440E-02  0.82749E-04 -0.17607E-01
 -0.18297E-02 -0.71210E-03 -0.11750E-01
 -0.18441E-02  0.82626E-04 -0.11750E-01
 -0.27238E-02 -0.77865E-03 -0.17578E-01
 -0.28028E-02  0.40713E-04 -0.17597E-01
 -0.27238E-02 -0.77882E-03 -0.11750E-01
 -0.28031E-02  0.40439E-04 -0.11750E-01
 -0.25365E-02 -0.15195E-02 -0.17561E-01
 -0.19287E-02 -0.13230E-02 -0.17570E-01
 -0.25363E-02 -0.15195E-02 -0.11750E-01
 -0.19283E-02 -0.13231E-02 -0.11750E-01
 -0.99363E-03  0.98847E-03 -0.17613E-01
 -0.99377E-03  0.98712E-03 -0.11750E-01
 -0.14380E-02 -0.17325E-02 -0.17582E-01
 -0.14377E-02 -0.17325E-02 -0.11750E-01
 -0.31574E-03  0.20220E-02 -0.17605E-01
 -0.31594E-03  0.20217E-02 -0.11750E-01
 -0.11068E-02  0.18615E-02 -0.17612E-01
 -0.11071E-02  0.18616E-02 -0.11750E-01
 -0.18845E-02  0.17175E-02 -0.17593E-01
 -0.18713E-02  0.90940E-03 -0.17608E-01
 -0.18846E-02  0.17175E-02 -0.11750E-01
 -0.18714E-02  0.90916E-03 -0.11750E-01
 -0.15871E-03 -0.19800E-02 -0.17602E-01
 -0.94089E-03 -0.23489E-02 -0.17582E-01
 -0.15844E-03 -0.19800E-02 -0.11750E-01
 -0.94029E-03 -0.23489E-02 -0.11750E-01
  0.78856E-03 -0.17074E-02 -0.17600E-01
  0.78922E-03 -0.17074E-02 -0.11750E-01
  0.17211E-02 -0.14894E-02 -0.17592E-01
  0.17211E-02 -0.14892E-02 -0.11750E-01
  0.32050E-02  0.76036E-03 -0.17534E-01
  0.28046E-02  0.12477E-02 -0.17557E-01
  0.32047E-02  0.75936E-03 -0.11750E-01
  0.28047E-02  0.12473E-02 -0.11750E-01
  0.23059E-02  0.18665E-02 -0.17566E-01
  0.23060E-02  0.18664E-02 -0.11750E-01
 -0.40614E-03  0.29038E-02 -0.17592E-01
 -0.40627E-03  0.29049E-02 -0.11750E-01
 -0.12092E-02  0.27207E-02 -0.17589E-01
 -0.12092E-02  0.27212E-02 -0.11750E-01
 -0.19448E-02  0.24642E-02 -0.17567E-01
 -0.19448E-02  0.24645E-02 -0.11750E-01
 -0.25029E-02  0.22359E-02 -0.17542E-01
 -0.26371E-02  0.16503E-02 -0.17573E-01
 -0.25029E-02  0.22359E-02 -0.11750E-01
 -0.26372E-02  0.16503E-02 -0.11750E-01
 -0.27671E-02  0.87493E-03 -0.17599E-01
 -0.27674E-02  0.87466E-03 -0.11750E-01
 -0.21123E-02 -0.21373E-02 -0.17563E-01
 -0.21122E-02 -0.21373E-02 -0.11750E-01
 -0.16087E-02 -0.26931E-02 -0.17554E-01
 -0.16087E-02 -0.26931E-02 -0.11750E-01
 -0.11939E-02 -0.31291E-02 -0.17531E-01
 -0.58641E-03 -0.30382E-02 -0.17563E-01
 -0.11937E-02 -0.31291E-02 -0.11750E-01
 -0.58606E-03 -0.30382E-02 -0.11750E-01
  0.20912E-03 -0.28748E-02 -0.17584E-01
  0.20952E-03 -0.28748E-02 -0.11750E-01
  0.10586E-02 -0.26423E-02 -0.17581E-01
  0.10589E-02 -0.26420E-02 -0.11750E-01
  0.18413E-02 -0.23707E-02 -0.17564E-01
  0.18413E-02 -0.23705E-02 -0.11750E-01
  0.24544E-02 -0.21445E-02 -0.17539E-01
  0.26022E-02 -0.15105E-02 -0.17568E-01
  0.24543E-02 -0.21439E-02 -0.11750E-01
  0.26021E-02 -0.15106E-02 -0.11750E-01
  0.37964E-02  0.93572E-03 -0.17469E-01
  0.39100E-02  0.00000E+00 -0.17480E-01
  0.37964E-02  0.93572E-03 -0.11750E-01
  0.39100E-02  0.00000E+00 -0.11750E-01
  0.34621E-02  0.18171E-02 -0.17479E-01
  0.34621E-02  0.18171E-02 -0.11750E-01
  0.29267E-02  0.25928E-02 -0.17470E-01
  0.29267E-02  0.25928E-02 -0.11750E-01
  0.22211E-02  0.32179E-02 -0.17471E-01
  0.22211E-02  0.32179E-02 -0.11750E-01
  0.13865E-02  0.36559E-02 -0.17470E-01
  0.13865E-02  0.36559E-02 -0.11750E-01
  0.47130E-03  0.38815E-02 -0.17477E-01
  0.47130E-03  0.38815E-02 -0.11750E-01
 -0.47130E-03  0.38815E-02 -0.17479E-01
 -0.47130E-03  0.38815E-02 -0.11750E-01
 -0.13865E-02  0.36559E-02 -0.17478E-01
 -0.13865E-02  0.36559E-02 -0.11750E-01
 -0.22211E-02  0.32179E-02 -0.17476E-01
 -0.22211E-02  0.32179E-02 -0.11750E-01
 -0.29267E-02  0.25928E-02 -0.17466E-01
 -0.29267E-02  0.25928E-02 -0.11750E-01
 -0.34621E-02  0.18171E-02 -0.17479E-01
 -0.34621E-02  0.18171E-02 -0.11750E-01
 -0.37964E-02  0.93572E-03 -0.17484E-01
 -0.37964E-02  0.93572E-03 -0.11750E-01
 -0.39100E-02  0.22152E-17 -0.17482E-01
 -0.39100E-02 -0.47884E-18 -0.11750E-01
 -0.37964E-02 -0.93572E-03 -0.17477E-01
 -0.37964E-02 -0.93572E-03 -0.11750E-01
 -0.34621E-02 -0.18171E-02 -0.17472E-01
 -0.34621E-02 -0.18171E-02 -0.11750E-01
 -0.29267E-02 -0.25928E-02 -0.17470E-01
 -0.29267E-02 -0.25928E-02 -0.11750E-01
 -0.22211E-02 -0.32179E-02 -0.17478E-01
 -0.22211E-02 -0.32179E-02 -0.11750E-01
 -0.13865E-02 -0.36559E-02 -0.17470E-01
 -0.13865E-02 -0.36559E-02 -0.11750E-01
 -0.47130E-03 -0.38815E-02 -0.17481E-01
 -0.47130E-03 -0.38815E-02 -0.11750E-01
  0.47130E-03 -0.38815E-02 -0.17478E-01
  0.47130E-03 -0.38815E-02 -0.11750E-01
  0.13865E-02 -0.36559E-02 -0.17474E-01
  0.13865E-02 -0.36559E-02 -0.11750E-01
  0.22211E-02 -0.32179E-02 -0.17480E-01
  0.22211E-02 -0.32179E-02 -0.11750E-01
  0.29267E-02 -0.25928E-02 -0.17471E-01
  0.29267E-02 -0.25928E-02 -0.11750E-01
  0.34621E-02 -0.18171E-02 -0.17480E-01
  0.34621E-02 -0.18171E-02 -0.11750E-01
  0.37964E-02 -0.93572E-03 -0.17481E-01
  0.37964E-02 -0.93572E-03 -0.11750E-01
  0.10376E-02  0.67348E-03 -0.19413E-01
  0.17450E-02  0.12314E-02 -0.19411E-01
  0.23175E-02  0.59203E-03 -0.19411E-01
  0.16696E-02 -0.33700E-03 -0.19414E-01
  0.30377E-02  0.14918E-03 -0.19408E-01
  0.27795E-02 -0.67594E-03 -0.19411E-01
  0.12849E-02  0.18414E-02 -0.19409E-01
  0.65115E-03  0.14586E-02 -0.19412E-01
  0.12731E-03  0.30048E-03 -0.19413E-01
 -0.12841E-03  0.11690E-02 -0.19414E-01
  0.94467E-03  0.22749E-02 -0.19408E-01
  0.11323E-02  0.28282E-02 -0.19407E-01
  0.17487E-02  0.24239E-02 -0.19407E-01
  0.40583E-03  0.21685E-02 -0.19411E-01
  0.39777E-03  0.29364E-02 -0.19410E-01
 -0.76338E-03 -0.10035E-02 -0.19414E-01
 -0.86615E-03  0.79778E-04 -0.19415E-01
  0.46074E-03 -0.70245E-03 -0.19414E-01
 -0.18303E-02 -0.71182E-03 -0.19411E-01
 -0.18439E-02  0.82873E-04 -0.19415E-01
 -0.27238E-02 -0.77848E-03 -0.19410E-01
 -0.28025E-02  0.40986E-04 -0.19413E-01
 -0.25366E-02 -0.15194E-02 -0.19407E-01
 -0.19292E-02 -0.13228E-02 -0.19409E-01
 -0.99349E-03  0.98983E-03 -0.19415E-01
 -0.14384E-02 -0.17324E-02 -0.19410E-01
 -0.31554E-03  0.20223E-02 -0.19414E-01
 -0.11064E-02  0.18614E-02 -0.19415E-01
 -0.18845E-02  0.17175E-02 -0.19412E-01
 -0.18712E-02  0.90964E-03 -0.19415E-01
 -0.15899E-03 -0.19800E-02 -0.19414E-01
 -0.94149E-03 -0.23489E-02 -0.19410E-01
  0.78790E-03 -0.17074E-02 -0.19413E-01
  0.17210E-02 -0.14896E-02 -0.19412E-01
  0.32053E-02  0.76137E-03 -0.19404E-01
  0.28046E-02  0.12481E-02 -0.19407E-01
  0.23058E-02  0.18665E-02 -0.19408E-01
 -0.40600E-03  0.29027E-02 -0.19412E-01
 -0.12092E-02  0.27202E-02 -0.19412E-01
 -0.19447E-02  0.24640E-02 -0.19408E-01
 -0.25028E-02  0.22359E-02 -0.19405E-01
 -0.26370E-02  0.16503E-02 -0.19409E-01
 -0.27668E-02  0.87519E-03 -0.19413E-01
 -0.21125E-02 -0.21373E-02 -0.19407E-01
 -0.16088E-02 -0.26932E-02 -0.19406E-01
 -0.11940E-02 -0.31291E-02 -0.19403E-01
 -0.58676E-03 -0.30382E-02 -0.19407E-01
  0.20871E-03 -0.28748E-02 -0.19411E-01
  0.10583E-02 -0.26426E-02 -0.19410E-01
  0.18413E-02 -0.23709E-02 -0.19408E-01
  0.24545E-02 -0.21450E-02 -0.19404E-01
  0.26022E-02 -0.15104E-02 -0.19408E-01
  0.37964E-02  0.93572E-03 -0.19397E-01
  0.39100E-02  0.00000E+00 -0.19398E-01
  0.34621E-02  0.18171E-02 -0.19398E-01
  0.29267E-02  0.25928E-02 -0.19397E-01
  0.22211E-02  0.32179E-02 -0.19397E-01
  0.13865E-02  0.36559E-02 -0.19398E-01
  0.47130E-03  0.38815E-02 -0.19398E-01
 -0.47130E-03  0.38815E-02 -0.19399E-01
 -0.13865E-02  0.36559E-02 -0.19398E-01
 -0.22211E-02  0.32179E-02 -0.19398E-01
 -0.29267E-02  0.25928E-02 -0.19396E-01
 -0.34621E-02  0.18171E-02 -0.19398E-01
 -0.37964E-02  0.93572E-03 -0.19399E-01
 -0.39100E-02 -0.47884E-18 -0.19399E-01
 -0.37964E-02 -0.93572E-03 -0.19398E-01
 -0.34621E-02 -0.18171E-02 -0.19398E-01
 -0.29267E-02 -0.25928E-02 -0.19397E-01
 -0.22211E-02 -0.32179E-02 -0.19398E-01
 -0.13865E-02 -0.36559E-02 -0.19397E-01
 -0.47130E-03 -0.38815E-02 -0.19399E-01
  0.47130E-03 -0.38815E-02 -0.19399E-01
  0.13865E-02 -0.36559E-02 -0.19398E-01
  0.22211E-02 -0.32179E-02 -0.19399E-01
  0.29267E-02 -0.25928E-02 -0.19397E-01
  0.34621E-02 -0.18171E-02 -0.19399E-01
  0.37964E-02 -0.93572E-03 -0.19399E-01
  0.10375E-02  0.67403E-03 -0.18663E-01
  0.17448E-02  0.12321E-02 -0.18663E-01
  0.23174E-02  0.59255E-03 -0.18663E-01
  0.16694E-02 -0.33624E-03 -0.18663E-01
  0.30377E-02  0.14955E-03 -0.18663E-01
  0.27798E-02 -0.67544E-03 -0.18663E-01
  0.12848E-02  0.18415E-02 -0.18663E-01
  0.65090E-03  0.14596E-02 -0.18663E-01
  0.12705E-03  0.30163E-03 -0.18663E-01
 -0.12859E-03  0.11707E-02 -0.18663E-01
  0.94434E-03  0.22750E-02 -0.18663E-01
  0.11320E-02  0.28277E-02 -0.18663E-01
  0.17483E-02  0.24241E-02 -0.18663E-01
  0.40577E-03  0.21685E-02 -0.18663E-01
  0.39776E-03  0.29361E-02 -0.18663E-01
 -0.76374E-03 -0.10036E-02 -0.18663E-01
 -0.86626E-03  0.80588E-04 -0.18663E-01
  0.46029E-03 -0.70173E-03 -0.18663E-01
 -0.18306E-02 -0.71168E-03 -0.18663E-01
 -0.18438E-02  0.82996E-04 -0.18663E-01
 -0.27238E-02 -0.77831E-03 -0.18663E-01
 -0.28022E-02  0.41259E-04 -0.18663E-01
 -0.25368E-02 -0.15194E-02 -0.18663E-01
 -0.19296E-02 -0.13227E-02 -0.18663E-01
 -0.99334E-03  0.99119E-03 -0.18663E-01
 -0.14387E-02 -0.17324E-02 -0.18663E-01
 -0.31534E-03  0.20226E-02 -0.18663E-01
 -0.11061E-02  0.18613E-02 -0.18663E-01
 -0.18844E-02  0.17175E-02 -0.18663E-01
 -0.18710E-02  0.90988E-03 -0.18663E-01
 -0.15926E-03 -0.19801E-02 -0.18663E-01
 -0.94209E-03 -0.23490E-02 -0.18663E-01
  0.78724E-03 -0.17074E-02 -0.18663E-01
  0.17210E-02 -0.14899E-02 -0.18663E-01
  0.32056E-02  0.76237E-03 -0.18663E-01
  0.28046E-02  0.12485E-02 -0.18663E-01
  0.23057E-02  0.18666E-02 -0.18663E-01
 -0.40586E-03  0.29017E-02 -0.18663E-01
 -0.12092E-02  0.27198E-02 -0.18663E-01
 -0.19447E-02  0.24638E-02 -0.18663E-01
 -0.25028E-02  0.22359E-02 -0.18663E-01
 -0.26369E-02  0.16503E-02 -0.18663E-01
 -0.27665E-02  0.87545E-03 -0.18663E-01
 -0.21126E-02 -0.21374E-02 -0.18663E-01
 -0.16088E-02 -0.26932E-02 -0.18663E-01
 -0.11941E-02 -0.31291E-02 -0.18663E-01
 -0.58711E-03 -0.30382E-02 -0.18663E-01
  0.20830E-03 -0.28748E-02 -0.18663E-01
  0.10580E-02 -0.26428E-02 -0.18663E-01
  0.18414E-02 -0.23711E-02 -0.18663E-01
  0.24546E-02 -0.21456E-02 -0.18663E-01
  0.26023E-02 -0.15103E-02 -0.18663E-01
  0.37964E-02  0.93572E-03 -0.18663E-01
  0.39100E-02  0.00000E+00 -0.18663E-01
  0.34621E-02  0.18171E-02 -0.18663E-01
  0.29267E-02  0.25928E-02 -0.18663E-01
  0.22211E-02  0.32179E-02 -0.18663E-01
  0.13865E-02  0.36559E-02 -0.18663E-01
  0.47130E-03  0.38815E-02 -0.18663E-01
 -0.47130E-03  0.38815E-02 -0.18663E-01
 -0.13865E-02  0.36559E-02 -0.18663E-01
 -0.22211E-02  0.32179E-02 -0.18663E-01
 -0.29267E-02  0.25928E-02 -0.18663E-01
 -0.34621E-02  0.18171E-02 -0.18663E-01
 -0.37964E-02  0.93572E-03 -0.18663E-01
 -0.39100E-02  0.39516E-17 -0.18663E-01
 -0.37964E-02 -0.93572E-03 -0.18663E-01
 -0.34621E-02 -0.18171E-02 -0.18663E-01
 -0.29267E-02 -0.25928E-02 -0.18663E-01
 -0.22211E-02 -0.32179E-02 -0.18663E-01
 -0.13865E-02 -0.36559E-02 -0.18663E-01
 -0.47130E-03 -0.38815E-02 -0.18663E-01
  0.47130E-03 -0.38815E-02 -0.18663E-01
  0.13865E-02 -0.36559E-02 -0.18663E-01
  0.22211E-02 -0.32179E-02 -0.18663E-01
  0.29267E-02 -0.25928E-02 -0.18663E-01
  0.34621E-02 -0.18171E-02 -0.18663E-01
  0.37964E-02 -0.93572E-03 -0.18663E-01
  0.10374E-02  0.67459E-03 -0.17684E-01
  0.17446E-02  0.12328E-02 -0.17684E-01
  0.23173E-02  0.59308E-03 -0.17684E-01
  0.16692E-02 -0.33549E-03 -0.17684E-01
  0.30376E-02  0.14991E-03 -0.17684E-01
  0.27801E-02 -0.67495E-03 -0.17684E-01
  0.12847E-02  0.18417E-02 -0.17684E-01
  0.65065E-03  0.14606E-02 -0.17684E-01
  0.12678E-03  0.30278E-03 -0.17684E-01
 -0.12878E-03  0.11725E-02 -0.17684E-01
  0.94401E-03  0.22752E-02 -0.17684E-01
  0.11316E-02  0.28273E-02 -0.17684E-01
  0.17479E-02  0.24242E-02 -0.17684E-01
  0.40572E-03  0.21686E-02 -0.17684E-01
  0.39774E-03  0.29359E-02 -0.17684E-01
 -0.76409E-03 -0.10038E-02 -0.17684E-01
 -0.86637E-03  0.81397E-04 -0.17684E-01
  0.45985E-03 -0.70100E-03 -0.17684E-01
 -0.18309E-02 -0.71154E-03 -0.17684E-01
 -0.18437E-02  0.83120E-04 -0.17684E-01
 -0.27237E-02 -0.77814E-03 -0.17684E-01
 -0.28020E-02  0.41533E-04 -0.17684E-01
 -0.25369E-02 -0.15193E-02 -0.17684E-01
 -0.19300E-02 -0.13227E-02 -0.17684E-01
 -0.99320E-03  0.99254E-03 -0.17684E-01
 -0.14391E-02 -0.17324E-02 -0.17684E-01
 -0.31514E-03  0.20228E-02 -0.17684E-01
 -0.11057E-02  0.18611E-02 -0.17684E-01
 -0.18844E-02  0.17175E-02 -0.17684E-01
 -0.18709E-02  0.91012E-03 -0.17684E-01
 -0.15954E-03 -0.19801E-02 -0.17684E-01
 -0.94269E-03 -0.23490E-02 -0.17684E-01
  0.78658E-03 -0.17074E-02 -0.17684E-01
  0.17209E-02 -0.14901E-02 -0.17684E-01
  0.32060E-02  0.76338E-03 -0.17684E-01
  0.28046E-02  0.12490E-02 -0.17684E-01
  0.23056E-02  0.18666E-02 -0.17684E-01
 -0.40572E-03  0.29006E-02 -0.17684E-01
 -0.12092E-02  0.27193E-02 -0.17684E-01
 -0.19446E-02  0.24636E-02 -0.17684E-01
 -0.25028E-02  0.22359E-02 -0.17684E-01
 -0.26368E-02  0.16503E-02 -0.17684E-01
 -0.27662E-02  0.87571E-03 -0.17684E-01
 -0.21128E-02 -0.21374E-02 -0.17684E-01
 -0.16088E-02 -0.26932E-02 -0.17684E-01
 -0.11942E-02 -0.31291E-02 -0.17684E-01
 -0.58746E-03 -0.30382E-02 -0.17684E-01
  0.20790E-03 -0.28748E-02 -0.17684E-01
  0.10577E-02 -0.26431E-02 -0.17684E-01
  0.18414E-02 -0.23713E-02 -0.17684E-01
  0.24548E-02 -0.21461E-02 -0.17684E-01
  0.26024E-02 -0.15102E-02 -0.17684E-01
  0.37964E-02  0.93572E-03 -0.17684E-01
  0.39100E-02  0.00000E+00 -0.17684E-01
  0.34621E-02  0.18171E-02 -0.17684E-01
  0.29267E-02  0.25928E-02 -0.17684E-01
  0.22211E-02  0.32179E-02 -0.17684E-01
  0.13865E-02  0.36559E-02 -0.17684E-01
  0.47130E-03  0.38815E-02 -0.17684E-01
 -0.47130E-03  0.38815E-02 -0.17684E-01
 -0.13865E-02  0.36559E-02 -0.17684E-01
 -0.22211E-02  0.32179E-02 -0.17684E-01
 -0.29267E-02  0.25928E-02 -0.17684E-01
 -0.34621E-02  0.18171E-02 -0.17684E-01
 -0.37964E-02  0.93572E-03 -0.17684E-01
 -0.39100E-02 -0.47884E-18 -0.17684E-01
 -0.37964E-02 -0.93572E-03 -0.17684E-01
 -0.34621E-02 -0.18171E-02 -0.17684E-01
 -0.29267E-02 -0.25928E-02 -0.17684E-01
 -0.22211E-02 -0.32179E-02 -0.17684E-01
 -0.13865E-02 -0.36559E-02 -0.17684E-01
 -0.47130E-03 -0.38815E-02 -0.17684E-01
  0.47130E-03 -0.38815E-02 -0.17684E-01
  0.13865E-02 -0.36559E-02 -0.17684E-01
  0.22211E-02 -0.32179E-02 -0.17684E-01
  0.29267E-02 -0.25928E-02 -0.17684E-01
  0.34621E-02 -0.18171E-02 -0.17684E-01
  0.37964E-02 -0.93572E-03 -0.17684E-01
  0.10373E-02  0.67514E-03 -0.16704E-01
  0.17445E-02  0.12334E-02 -0.16704E-01
  0.23172E-02  0.59360E-03 -0.16704E-01
  0.16689E-02 -0.33474E-03 -0.16704E-01
  0.30376E-02  0.15027E-03 -0.16704E-01
  0.27805E-02 -0.67446E-03 -0.16704E-01
  0.12846E-02  0.18419E-02 -0.16704E-01
  0.65041E-03  0.14616E-02 -0.16704E-01
  0.12652E-03  0.30393E-03 -0.16704E-01
 -0.12896E-03  0.11742E-02 -0.16704E-01
  0.94367E-03  0.22753E-02 -0.16704E-01
  0.11313E-02  0.28269E-02 -0.16704E-01
  0.17475E-02  0.24244E-02 -0.16704E-01
  0.40566E-03  0.21686E-02 -0.16704E-01
  0.39772E-03  0.29356E-02 -0.16704E-01
 -0.76444E-03 -0.10039E-02 -0.16704E-01
 -0.86648E-03  0.82206E-04 -0.16704E-01
  0.45940E-03 -0.70028E-03 -0.16704E-01
 -0.18312E-02 -0.71140E-03 -0.16704E-01
 -0.18436E-02  0.83243E-04 -0.16704E-01
 -0.27237E-02 -0.77797E-03 -0.16704E-01
 -0.28017E-02  0.41806E-04 -0.16704E-01
 -0.25371E-02 -0.15193E-02 -0.16704E-01
 -0.19305E-02 -0.13226E-02 -0.16704E-01
 -0.99305E-03  0.99390E-03 -0.16704E-01
 -0.14394E-02 -0.17323E-02 -0.16704E-01
 -0.31494E-03  0.20231E-02 -0.16704E-01
 -0.11054E-02  0.18610E-02 -0.16704E-01
 -0.18843E-02  0.17175E-02 -0.16704E-01
 -0.18708E-02  0.91036E-03 -0.16704E-01
 -0.15981E-03 -0.19801E-02 -0.16704E-01
 -0.94328E-03 -0.23490E-02 -0.16704E-01
  0.78592E-03 -0.17074E-02 -0.16704E-01
  0.17209E-02 -0.14904E-02 -0.16704E-01
  0.32063E-02  0.76439E-03 -0.16704E-01
  0.28045E-02  0.12494E-02 -0.16704E-01
  0.23055E-02  0.18666E-02 -0.16704E-01
 -0.40558E-03  0.28995E-02 -0.16704E-01
 -0.12092E-02  0.27188E-02 -0.16704E-01
 -0.19446E-02  0.24633E-02 -0.16704E-01
 -0.25027E-02  0.22359E-02 -0.16704E-01
 -0.26367E-02  0.16503E-02 -0.16704E-01
 -0.27658E-02  0.87597E-03 -0.16704E-01
 -0.21129E-02 -0.21374E-02 -0.16704E-01
 -0.16089E-02 -0.26932E-02 -0.16704E-01
 -0.11943E-02 -0.31291E-02 -0.16704E-01
 -0.58781E-03 -0.30382E-02 -0.16704E-01
  0.20749E-03 -0.28748E-02 -0.16704E-01
  0.10574E-02 -0.26434E-02 -0.16704E-01
  0.18415E-02 -0.23715E-02 -0.16704E-01
  0.24549E-02 -0.21467E-02 -0.16704E-01
  0.26025E-02 -0.15101E-02 -0.16704E-01
  0.37964E-02  0.93572E-03 -0.16704E-01
  0.39100E-02  0.00000E+00 -0.16704E-01
  0.34621E-02  0.18171E-02 -0.16704E-01
  0.29267E-02  0.25928E-02 -0.16704E-01
  0.22211E-02  0.32179E-02 -0.16704E-01
  0.13865E-02  0.36559E-02 -0.16704E-01
  0.47130E-03  0.38815E-02 -0.16704E-01
 -0.47130E-03  0.38815E-02 -0.16704E-01
 -0.13865E-02  0.36559E-02 -0.16704E-01
 -0.22211E-02  0.32179E-02 -0.16704E-01
 -0.29267E-02  0.25928E-02 -0.16704E-01
 -0.34621E-02  0.18171E-02 -0.16704E-01
 -0.37964E-02  0.93572E-03 -0.16704E-01
 -0.39100E-02 -0.47884E-18 -0.16704E-01
 -0.37964E-02 -0.93572E-03 -0.16704E-01
 -0.34621E-02 -0.18171E-02 -0.16704E-01
 -0.29267E-02 -0.25928E-02 -0.16704E-01
 -0.22211E-02 -0.32179E-02 -0.16704E-01
 -0.13865E-02 -0.36559E-02 -0.16704E-01
 -0.47130E-03 -0.38815E-02 -0.16704E-01
  0.47130E-03 -0.38815E-02 -0.16704E-01
  0.13865E-02 -0.36559E-02 -0.16704E-01
  0.22211E-02 -0.32179E-02 -0.16704E-01
  0.29267E-02 -0.25928E-02 -0.16704E-01
  0.34621E-02 -0.18171E-02 -0.16704E-01
  0.37964E-02 -0.93572E-03 -0.16704E-01
  0.10372E-02  0.67570E-03 -0.15725E-01
  0.17443E-02  0.12341E-02 -0.15725E-01
  0.23171E-02  0.59412E-03 -0.15725E-01
  0.16687E-02 -0.33398E-03 -0.15725E-01
  0.30376E-02  0.15064E-03 -0.15725E-01
  0.27808E-02 -0.67396E-03 -0.15725E-01
  0.12845E-02  0.18421E-02 -0.15725E-01
  0.65016E-03  0.14626E-02 -0.15725E-01
  0.12626E-03  0.30507E-03 -0.15725E-01
 -0.12915E-03  0.11760E-02 -0.15725E-01
  0.94334E-03  0.22754E-02 -0.15725E-01
  0.11310E-02  0.28264E-02 -0.15725E-01
  0.17471E-02  0.24245E-02 -0.15725E-01
  0.40561E-03  0.21686E-02 -0.15725E-01
  0.39770E-03  0.29353E-02 -0.15725E-01
 -0.76480E-03 -0.10040E-02 -0.15725E-01
 -0.86659E-03  0.83015E-04 -0.15725E-01
  0.45895E-03 -0.69955E-03 -0.15725E-01
 -0.18315E-02 -0.71126E-03 -0.15725E-01
 -0.18435E-02  0.83367E-04 -0.15725E-01
 -0.27237E-02 -0.77780E-03 -0.15725E-01
 -0.28014E-02  0.42080E-04 -0.15725E-01
 -0.25372E-02 -0.15192E-02 -0.15725E-01
 -0.19309E-02 -0.13224E-02 -0.15725E-01
 -0.99291E-03  0.99526E-03 -0.15725E-01
 -0.14398E-02 -0.17323E-02 -0.15725E-01
 -0.31474E-03  0.20234E-02 -0.15725E-01
 -0.11051E-02  0.18609E-02 -0.15725E-01
 -0.18843E-02  0.17175E-02 -0.15725E-01
 -0.18706E-02  0.91060E-03 -0.15725E-01
 -0.16009E-03 -0.19801E-02 -0.15725E-01
 -0.94388E-03 -0.23490E-02 -0.15725E-01
  0.78526E-03 -0.17074E-02 -0.15725E-01
  0.17208E-02 -0.14906E-02 -0.15725E-01
  0.32066E-02  0.76539E-03 -0.15725E-01
  0.28045E-02  0.12498E-02 -0.15725E-01
  0.23053E-02  0.18667E-02 -0.15725E-01
 -0.40545E-03  0.28984E-02 -0.15725E-01
 -0.12092E-02  0.27184E-02 -0.15725E-01
 -0.19446E-02  0.24631E-02 -0.15725E-01
 -0.25027E-02  0.22359E-02 -0.15725E-01
 -0.26366E-02  0.16503E-02 -0.15725E-01
 -0.27655E-02  0.87623E-03 -0.15725E-01
 -0.21130E-02 -0.21374E-02 -0.15725E-01
 -0.16089E-02 -0.26932E-02 -0.15725E-01
 -0.11944E-02 -0.31291E-02 -0.15725E-01
 -0.58816E-03 -0.30382E-02 -0.15725E-01
  0.20709E-03 -0.28748E-02 -0.15725E-01
  0.10571E-02 -0.26436E-02 -0.15725E-01
  0.18415E-02 -0.23717E-02 -0.15725E-01
  0.24550E-02 -0.21472E-02 -0.15725E-01
  0.26025E-02 -0.15100E-02 -0.15725E-01
  0.37964E-02  0.93572E-03 -0.15725E-01
  0.39100E-02  0.00000E+00 -0.15725E-01
  0.34621E-02  0.18171E-02 -0.15725E-01
  0.29267E-02  0.25928E-02 -0.15725E-01
  0.22211E-02  0.32179E-02 -0.15725E-01
  0.13865E-02  0.36559E-02 -0.15725E-01
  0.47130E-03  0.38815E-02 -0.15725E-01
 -0.47130E-03  0.38815E-02 -0.15725E-01
 -0.13865E-02  0.36559E-02 -0.15725E-01
 -0.22211E-02  0.32179E-02 -0.15725E-01
 -0.29267E-02  0.25928E-02 -0.15725E-01
 -0.34621E-02  0.18171E-02 -0.15725E-01
 -0.37964E-02  0.93572E-03 -0.15725E-01
 -0.39100E-02 -0.47884E-18 -0.15725E-01
 -0.37964E-02 -0.93572E-03 -0.15725E-01
 -0.34621E-02 -0.18171E-02 -0.15725E-01
 -0.29267E-02 -0.25928E-02 -0.15725E-01
 -0.22211E-02 -0.32179E-02 -0.15725E-01
 -0.13865E-02 -0.36559E-02 -0.15725E-01
 -0.47130E-03 -0.38815E-02 -0.15725E-01
  0.47130E-03 -0.38815E-02 -0.15725E-01
  0.13865E-02 -0.36559E-02 -0.15725E-01
  0.22211E-02 -0.32179E-02 -0.15725E-01
  0.29267E-02 -0.25928E-02 -0.15725E-01
  0.34621E-02 -0.18171E-02 -0.15725E-01
  0.37964E-02 -0.93572E-03 -0.15725E-01
  0.10371E-02  0.67625E-03 -0.14746E-01
  0.17441E-02  0.12348E-02 -0.14746E-01
  0.23169E-02  0.59465E-03 -0.14746E-01
  0.16685E-02 -0.33323E-03 -0.14746E-01
  0.30376E-02  0.15100E-03 -0.14746E-01
  0.27812E-02 -0.67347E-03 -0.14746E-01
  0.12844E-02  0.18423E-02 -0.14746E-01
  0.64992E-03  0.14636E-02 -0.14746E-01
  0.12600E-03  0.30622E-03 -0.14746E-01
 -0.12933E-03  0.11777E-02 -0.14746E-01
  0.94301E-03  0.22755E-02 -0.14746E-01
  0.11306E-02  0.28260E-02 -0.14746E-01
  0.17467E-02  0.24247E-02 -0.14746E-01
  0.40556E-03  0.21687E-02 -0.14746E-01
  0.39769E-03  0.29351E-02 -0.14746E-01
 -0.76515E-03 -0.10042E-02 -0.14746E-01
 -0.86670E-03  0.83825E-04 -0.14746E-01
  0.45850E-03 -0.69882E-03 -0.14746E-01
 -0.18318E-02 -0.71112E-03 -0.14746E-01
 -0.18434E-02  0.83490E-04 -0.14746E-01
 -0.27236E-02 -0.77763E-03 -0.14746E-01
 -0.28011E-02  0.42353E-04 -0.14746E-01
 -0.25374E-02 -0.15192E-02 -0.14746E-01
 -0.19313E-02 -0.13223E-02 -0.14746E-01
 -0.99277E-03  0.99661E-03 -0.14746E-01
 -0.14401E-02 -0.17322E-02 -0.14746E-01
 -0.31454E-03  0.20237E-02 -0.14746E-01
 -0.11047E-02  0.18607E-02 -0.14746E-01
 -0.18842E-02  0.17175E-02 -0.14746E-01
 -0.18705E-02  0.91084E-03 -0.14746E-01
 -0.16036E-03 -0.19801E-02 -0.14746E-01
 -0.94448E-03 -0.23491E-02 -0.14746E-01
  0.78460E-03 -0.17074E-02 -0.14746E-01
  0.17208E-02 -0.14909E-02 -0.14746E-01
  0.32070E-02  0.76640E-03 -0.14746E-01
  0.28045E-02  0.12503E-02 -0.14746E-01
  0.23052E-02  0.18667E-02 -0.14746E-01
 -0.40531E-03  0.28974E-02 -0.14746E-01
 -0.12092E-02  0.27179E-02 -0.14746E-01
 -0.19445E-02  0.24629E-02 -0.14746E-01
 -0.25027E-02  0.22359E-02 -0.14746E-01
 -0.26366E-02  0.16503E-02 -0.14746E-01
 -0.27652E-02  0.87650E-03 -0.14746E-01
 -0.21132E-02 -0.21374E-02 -0.14746E-01
 -0.16090E-02 -0.26933E-02 -0.14746E-01
 -0.11946E-02 -0.31291E-02 -0.14746E-01
 -0.58851E-03 -0.30382E-02 -0.14746E-01
  0.20668E-03 -0.28749E-02 -0.14746E-01
  0.10567E-02 -0.26439E-02 -0.14746E-01
  0.18416E-02 -0.23719E-02 -0.14746E-01
  0.24551E-02 -0.21478E-02 -0.14746E-01
  0.26026E-02 -0.15099E-02 -0.14746E-01
  0.37964E-02  0.93572E-03 -0.14746E-01
  0.39100E-02  0.00000E+00 -0.14746E-01
  0.34621E-02  0.18171E-02 -0.14746E-01
  0.29267E-02  0.25928E-02 -0.14746E-01
  0.22211E-02  0.32179E-02 -0.14746E-01
  0.13865E-02  0.36559E-02 -0.14746E-01
  0.47130E-03  0.38815E-02 -0.14746E-01
 -0.47130E-03  0.38815E-02 -0.14746E-01
 -0.13865E-02  0.36559E-02 -0.14746E-01
 -0.22211E-02  0.32179E-02 -0.14746E-01
 -0.29267E-02  0.25928E-02 -0.14746E-01
 -0.34621E-02  0.18171E-02 -0.14746E-01
 -0.37964E-02  0.93572E-03 -0.14746E-01
 -0.39100E-02 -0.47884E-18 -0.14746E-01
 -0.37964E-02 -0.93572E-03 -0.14746E-01
 -0.34621E-02 -0.18171E-02 -0.14746E-01
 -0.29267E-02 -0.25928E-02 -0.14746E-01
 -0.22211E-02 -0.32179E-02 -0.14746E-01
 -0.13865E-02 -0.36559E-02 -0.14746E-01
 -0.47130E-03 -0.38815E-02 -0.14746E-01
  0.47130E-03 -0.38815E-02 -0.14746E-01
  0.13865E-02 -0.36559E-02 -0.14746E-01
  0.22211E-02 -0.32179E-02 -0.14746E-01
  0.29267E-02 -0.25928E-02 -0.14746E-01
  0.34621E-02 -0.18171E-02 -0.14746E-01
  0.37964E-02 -0.93572E-03 -0.14746E-01
  0.10370E-02  0.67680E-03 -0.13767E-01
  0.17439E-02  0.12354E-02 -0.13767E-01
  0.23168E-02  0.59517E-03 -0.13767E-01
  0.16683E-02 -0.33247E-03 -0.13767E-01
  0.30375E-02  0.15136E-03 -0.13767E-01
  0.27815E-02 -0.67298E-03 -0.13767E-01
  0.12843E-02  0.18425E-02 -0.13767E-01
  0.64967E-03  0.14646E-02 -0.13767E-01
  0.12573E-03  0.30737E-03 -0.13767E-01
 -0.12952E-03  0.11795E-02 -0.13767E-01
  0.94268E-03  0.22757E-02 -0.13767E-01
  0.11303E-02  0.28255E-02 -0.13767E-01
  0.17463E-02  0.24248E-02 -0.13767E-01
  0.40550E-03  0.21687E-02 -0.13767E-01
  0.39767E-03  0.29348E-02 -0.13767E-01
 -0.76551E-03 -0.10043E-02 -0.13767E-01
 -0.86680E-03  0.84634E-04 -0.13767E-01
  0.45806E-03 -0.69810E-03 -0.13767E-01
 -0.18321E-02 -0.71098E-03 -0.13767E-01
 -0.18433E-02  0.83614E-04 -0.13767E-01
 -0.27236E-02 -0.77746E-03 -0.13767E-01
 -0.28009E-02  0.42626E-04 -0.13767E-01
 -0.25375E-02 -0.15191E-02 -0.13767E-01
 -0.19317E-02 -0.13223E-02 -0.13767E-01
 -0.99262E-03  0.99797E-03 -0.13767E-01
 -0.14405E-02 -0.17322E-02 -0.13767E-01
 -0.31434E-03  0.20240E-02 -0.13767E-01
 -0.11044E-02  0.18606E-02 -0.13767E-01
 -0.18842E-02  0.17175E-02 -0.13767E-01
 -0.18704E-02  0.91108E-03 -0.13767E-01
 -0.16064E-03 -0.19802E-02 -0.13767E-01
 -0.94508E-03 -0.23491E-02 -0.13767E-01
  0.78394E-03 -0.17074E-02 -0.13767E-01
  0.17208E-02 -0.14911E-02 -0.13767E-01
  0.32073E-02  0.76740E-03 -0.13767E-01
  0.28045E-02  0.12507E-02 -0.13767E-01
  0.23051E-02  0.18668E-02 -0.13767E-01
 -0.40517E-03  0.28963E-02 -0.13767E-01
 -0.12092E-02  0.27174E-02 -0.13767E-01
 -0.19445E-02  0.24627E-02 -0.13767E-01
 -0.25026E-02  0.22358E-02 -0.13767E-01
 -0.26365E-02  0.16503E-02 -0.13767E-01
 -0.27649E-02  0.87676E-03 -0.13767E-01
 -0.21133E-02 -0.21374E-02 -0.13767E-01
 -0.16090E-02 -0.26933E-02 -0.13767E-01
 -0.11947E-02 -0.31291E-02 -0.13767E-01
 -0.58886E-03 -0.30382E-02 -0.13767E-01
  0.20627E-03 -0.28749E-02 -0.13767E-01
  0.10564E-02 -0.26442E-02 -0.13767E-01
  0.18416E-02 -0.23721E-02 -0.13767E-01
  0.24553E-02 -0.21483E-02 -0.13767E-01
  0.26027E-02 -0.15097E-02 -0.13767E-01
  0.37964E-02  0.93572E-03 -0.13767E-01
  0.39100E-02  0.00000E+00 -0.13767E-01
  0.34621E-02  0.18171E-02 -0.13767E-01
  0.29267E-02  0.25928E-02 -0.13767E-01
  0.22211E-02  0.32179E-02 -0.13767E-01
  0.13865E-02  0.36559E-02 -0.13767E-01
  0.47130E-03  0.38815E-02 -0.13767E-01
 -0.47130E-03  0.38815E-02 -0.13767E-01
 -0.13865E-02  0.36559E-02 -0.13767E-01
 -0.22211E-02  0.32179E-02 -0.13767E-01
 -0.29267E-02  0.25928E-02 -0.13767E-01
 -0.34621E-02  0.18171E-02 -0.13767E-01
 -0.37964E-02  0.93572E-03 -0.13767E-01
 -0.39100E-02 -0.47884E-18 -0.13767E-01
 -0.37964E-02 -0.93572E-03 -0.13767E-01
 -0.34621E-02 -0.18171E-02 -0.13767E-01
 -0.29267E-02 -0.25928E-02 -0.13767E-01
 -0.22211E-02 -0.32179E-02 -0.13767E-01
 -0.13865E-02 -0.36559E-02 -0.13767E-01
 -0.47130E-03 -0.38815E-02 -0.13767E-01
  0.47130E-03 -0.38815E-02 -0.13767E-01
  0.13865E-02 -0.36559E-02 -0.13767E-01
  0.22211E-02 -0.32179E-02 -0.13767E-01
  0.29267E-02 -0.25928E-02 -0.13767E-01
  0.34621E-02 -0.18171E-02 -0.13767E-01
  0.37964E-02 -0.93572E-03 -0.13767E-01
  0.10368E-02  0.67736E-03 -0.12788E-01
  0.17438E-02  0.12361E-02 -0.12788E-01
  0.23167E-02  0.59570E-03 -0.12788E-01
  0.16681E-02 -0.33172E-03 -0.12788E-01
  0.30375E-02  0.15173E-03 -0.12788E-01
  0.27819E-02 -0.67248E-03 -0.12788E-01
  0.12842E-02  0.18427E-02 -0.12788E-01
  0.64943E-03  0.14656E-02 -0.12788E-01
  0.12547E-03  0.30852E-03 -0.12788E-01
 -0.12970E-03  0.11812E-02 -0.12788E-01
  0.94235E-03  0.22758E-02 -0.12788E-01
  0.11300E-02  0.28251E-02 -0.12788E-01
  0.17459E-02  0.24249E-02 -0.12788E-01
  0.40545E-03  0.21688E-02 -0.12788E-01
  0.39766E-03  0.29345E-02 -0.12788E-01
 -0.76586E-03 -0.10044E-02 -0.12788E-01
 -0.86691E-03  0.85443E-04 -0.12788E-01
  0.45761E-03 -0.69737E-03 -0.12788E-01
 -0.18324E-02 -0.71084E-03 -0.12788E-01
 -0.18432E-02  0.83737E-04 -0.12788E-01
 -0.27236E-02 -0.77729E-03 -0.12788E-01
 -0.28006E-02  0.42899E-04 -0.12788E-01
 -0.25377E-02 -0.15191E-02 -0.12788E-01
 -0.19322E-02 -0.13222E-02 -0.12788E-01
 -0.99248E-03  0.99932E-03 -0.12788E-01
 -0.14408E-02 -0.17322E-02 -0.12788E-01
 -0.31414E-03  0.20243E-02 -0.12788E-01
 -0.11040E-02  0.18605E-02 -0.12788E-01
 -0.18841E-02  0.17175E-02 -0.12788E-01
 -0.18703E-02  0.91132E-03 -0.12788E-01
 -0.16091E-03 -0.19802E-02 -0.12788E-01
 -0.94568E-03 -0.23491E-02 -0.12788E-01
  0.78328E-03 -0.17074E-02 -0.12788E-01
  0.17207E-02 -0.14914E-02 -0.12788E-01
  0.32076E-02  0.76841E-03 -0.12788E-01
  0.28044E-02  0.12511E-02 -0.12788E-01
  0.23050E-02  0.18668E-02 -0.12788E-01
 -0.40503E-03  0.28952E-02 -0.12788E-01
 -0.12092E-02  0.27170E-02 -0.12788E-01
 -0.19445E-02  0.24624E-02 -0.12788E-01
 -0.25026E-02  0.22358E-02 -0.12788E-01
 -0.26364E-02  0.16503E-02 -0.12788E-01
 -0.27646E-02  0.87702E-03 -0.12788E-01
 -0.21134E-02 -0.21374E-02 -0.12788E-01
 -0.16091E-02 -0.26933E-02 -0.12788E-01
 -0.11948E-02 -0.31291E-02 -0.12788E-01
 -0.58921E-03 -0.30382E-02 -0.12788E-01
  0.20587E-03 -0.28749E-02 -0.12788E-01
  0.10561E-02 -0.26444E-02 -0.12788E-01
  0.18416E-02 -0.23723E-02 -0.12788E-01
  0.24554E-02 -0.21489E-02 -0.12788E-01
  0.26027E-02 -0.15096E-02 -0.12788E-01
  0.37964E-02  0.93572E-03 -0.12788E-01
  0.39100E-02  0.00000E+00 -0.12788E-01
  0.34621E-02  0.18171E-02 -0.12788E-01
  0.29267E-02  0.25928E-02 -0.12788E-01
  0.22211E-02  0.32179E-02 -0.12788E-01
  0.13865E-02  0.36559E-02 -0.12788E-01
  0.47130E-03  0.38815E-02 -0.12788E-01
 -0.47130E-03  0.38815E-02 -0.12788E-01
 -0.13865E-02  0.36559E-02 -0.12788E-01
 -0.22211E-02  0.32179E-02 -0.12788E-01
 -0.29267E-02  0.25928E-02 -0.12788E-01
 -0.34621E-02  0.18171E-02 -0.12788E-01
 -0.37964E-02  0.93572E-03 -0.12788E-01
 -0.39100E-02 -0.47884E-18 -0.12788E-01
 -0.37964E-02 -0.93572E-03 -0.12788E-01
 -0.34621E-02 -0.18171E-02 -0.12788E-01
 -0.29267E-02 -0.25928E-02 -0.12788E-01
 -0.22211E-02 -0.32179E-02 -0.12788E-01
 -0.13865E-02 -0.36559E-02 -0.12788E-01
 -0.47130E-03 -0.38815E-02 -0.12788E-01
  0.47130E-03 -0.38815E-02 -0.12788E-01
  0.13865E-02 -0.36559E-02 -0.12788E-01
  0.22211E-02 -0.32179E-02 -0.12788E-01
  0.29267E-02 -0.25928E-02 -0.12788E-01
  0.34621E-02 -0.18171E-02 -0.12788E-01
  0.37964E-02 -0.93572E-03 -0.12788E-01
  0.10367E-02  0.67791E-03 -0.11809E-01
  0.17436E-02  0.12368E-02 -0.11809E-01
  0.23166E-02  0.59622E-03 -0.11809E-01
  0.16679E-02 -0.33096E-03 -0.11809E-01
  0.30375E-02  0.15209E-03 -0.11809E-01
  0.27822E-02 -0.67199E-03 -0.11809E-01
  0.12841E-02  0.18429E-02 -0.11809E-01
  0.64918E-03  0.14666E-02 -0.11809E-01
  0.12521E-03  0.30967E-03 -0.11809E-01
 -0.12989E-03  0.11830E-02 -0.11809E-01
  0.94202E-03  0.22759E-02 -0.11809E-01
  0.11296E-02  0.28247E-02 -0.11809E-01
  0.17455E-02  0.24251E-02 -0.11809E-01
  0.40539E-03  0.21688E-02 -0.11809E-01
  0.39764E-03  0.29343E-02 -0.11809E-01
 -0.76621E-03 -0.10046E-02 -0.11809E-01
 -0.86702E-03  0.86253E-04 -0.11809E-01
  0.45716E-03 -0.69665E-03 -0.11809E-01
 -0.18326E-02 -0.71070E-03 -0.11809E-01
 -0.18431E-02  0.83861E-04 -0.11809E-01
 -0.27235E-02 -0.77712E-03 -0.11809E-01
 -0.28003E-02  0.43173E-04 -0.11809E-01
 -0.25379E-02 -0.15190E-02 -0.11809E-01
 -0.19326E-02 -0.13220E-02 -0.11809E-01
 -0.99233E-03  0.10007E-02 -0.11809E-01
 -0.14412E-02 -0.17321E-02 -0.11809E-01
 -0.31394E-03  0.20245E-02 -0.11809E-01
 -0.11037E-02  0.18603E-02 -0.11809E-01
 -0.18841E-02  0.17175E-02 -0.11809E-01
 -0.18701E-02  0.91156E-03 -0.11809E-01
 -0.16119E-03 -0.19802E-02 -0.11809E-01
 -0.94628E-03 -0.23491E-02 -0.11809E-01
  0.78262E-03 -0.17074E-02 -0.11809E-01
  0.17207E-02 -0.14916E-02 -0.11809E-01
  0.32079E-02  0.76941E-03 -0.11809E-01
  0.28044E-02  0.12515E-02 -0.11809E-01
  0.23049E-02  0.18668E-02 -0.11809E-01
 -0.40490E-03  0.28942E-02 -0.11809E-01
 -0.12093E-02  0.27165E-02 -0.11809E-01
 -0.19444E-02  0.24622E-02 -0.11809E-01
 -0.25026E-02  0.22358E-02 -0.11809E-01
 -0.26363E-02  0.16503E-02 -0.11809E-01
 -0.27643E-02  0.87728E-03 -0.11809E-01
 -0.21136E-02 -0.21374E-02 -0.11809E-01
 -0.16091E-02 -0.26933E-02 -0.11809E-01
 -0.11949E-02 -0.31291E-02 -0.11809E-01
 -0.58956E-03 -0.30382E-02 -0.11809E-01
  0.20546E-03 -0.28749E-02 -0.11809E-01
  0.10558E-02 -0.26447E-02 -0.11809E-01
  0.18417E-02 -0.23725E-02 -0.11809E-01
  0.24555E-02 -0.21494E-02 -0.11809E-01
  0.26028E-02 -0.15095E-02 -0.11809E-01
  0.37964E-02  0.93572E-03 -0.11809E-01
  0.39100E-02  0.00000E+00 -0.11809E-01
  0.34621E-02  0.18171E-02 -0.11809E-01
  0.29267E-02  0.25928E-02 -0.11809E-01
  0.22211E-02  0.32179E-02 -0.11809E-01
  0.13865E-02  0.36559E-02 -0.11809E-01
  0.47130E-03  0.38815E-02 -0.11809E-01
 -0.47130E-03  0.38815E-02 -0.11809E-01
 -0.13865E-02  0.36559E-02 -0.11809E-01
 -0.22211E-02  0.32179E-02 -0.11809E-01
 -0.29267E-02  0.25928E-02 -0.11809E-01
 -0.34621E-02  0.18171E-02 -0.11809E-01
 -0.37964E-02  0.93572E-03 -0.11809E-01
 -0.39100E-02 -0.47884E-18 -0.11809E-01
 -0.37964E-02 -0.93572E-03 -0.11809E-01
 -0.34621E-02 -0.18171E-02 -0.11809E-01
 -0.29267E-02 -0.25928E-02 -0.11809E-01
 -0.22211E-02 -0.32179E-02 -0.11809E-01
 -0.13865E-02 -0.36559E-02 -0.11809E-01
 -0.47130E-03 -0.38815E-02 -0.11809E-01
  0.47130E-03 -0.38815E-02 -0.11809E-01
  0.13865E-02 -0.36559E-02 -0.11809E-01
  0.22211E-02 -0.32179E-02 -0.11809E-01
  0.29267E-02 -0.25928E-02 -0.11809E-01
  0.34621E-02 -0.18171E-02 -0.11809E-01
  0.37964E-02 -0.93572E-03 -0.11809E-01
  0.10366E-02  0.67847E-03 -0.10829E-01
  0.17434E-02  0.12374E-02 -0.10829E-01
  0.23164E-02  0.59674E-03 -0.10829E-01
  0.16677E-02 -0.33021E-03 -0.10829E-01
  0.30375E-02  0.15245E-03 -0.10829E-01
  0.27825E-02 -0.67150E-03 -0.10829E-01
  0.12840E-02  0.18430E-02 -0.10829E-01
  0.64894E-03  0.14676E-02 -0.10829E-01
  0.12495E-03  0.31081E-03 -0.10829E-01
 -0.13007E-03  0.11847E-02 -0.10829E-01
  0.94169E-03  0.22761E-02 -0.10829E-01
  0.11293E-02  0.28242E-02 -0.10829E-01
  0.17451E-02  0.24252E-02 -0.10829E-01
  0.40534E-03  0.21688E-02 -0.10829E-01
  0.39762E-03  0.29340E-02 -0.10829E-01
 -0.76657E-03 -0.10047E-02 -0.10829E-01
 -0.86713E-03  0.87062E-04 -0.10829E-01
  0.45671E-03 -0.69592E-03 -0.10829E-01
 -0.18329E-02 -0.71056E-03 -0.10829E-01
 -0.18430E-02  0.83985E-04 -0.10829E-01
 -0.27235E-02 -0.77695E-03 -0.10829E-01
 -0.28001E-02  0.43446E-04 -0.10829E-01
 -0.25380E-02 -0.15190E-02 -0.10829E-01
 -0.19330E-02 -0.13219E-02 -0.10829E-01
 -0.99219E-03  0.10020E-02 -0.10829E-01
 -0.14415E-02 -0.17321E-02 -0.10829E-01
 -0.31374E-03  0.20248E-02 -0.10829E-01
 -0.11033E-02  0.18602E-02 -0.10829E-01
 -0.18840E-02  0.17175E-02 -0.10829E-01
 -0.18700E-02  0.91180E-03 -0.10829E-01
 -0.16146E-03 -0.19803E-02 -0.10829E-01
 -0.94687E-03 -0.23491E-02 -0.10829E-01
  0.78195E-03 -0.17073E-02 -0.10829E-01
  0.17207E-02 -0.14919E-02 -0.10829E-01
  0.32083E-02  0.77042E-03 -0.10829E-01
  0.28044E-02  0.12520E-02 -0.10829E-01
  0.23048E-02  0.18669E-02 -0.10829E-01
 -0.40476E-03  0.28931E-02 -0.10829E-01
 -0.12093E-02  0.27160E-02 -0.10829E-01
 -0.19444E-02  0.24620E-02 -0.10829E-01
 -0.25026E-02  0.22358E-02 -0.10829E-01
 -0.26362E-02  0.16503E-02 -0.10829E-01
 -0.27640E-02  0.87754E-03 -0.10829E-01
 -0.21137E-02 -0.21374E-02 -0.10829E-01
 -0.16091E-02 -0.26933E-02 -0.10829E-01
 -0.11950E-02 -0.31291E-02 -0.10829E-01
 -0.58991E-03 -0.30382E-02 -0.10829E-01
  0.20505E-03 -0.28749E-02 -0.10829E-01
  0.10555E-02 -0.26450E-02 -0.10829E-01
  0.18417E-02 -0.23727E-02 -0.10829E-01
  0.24556E-02 -0.21500E-02 -0.10829E-01
  0.26029E-02 -0.15094E-02 -0.10829E-01
  0.37964E-02  0.93572E-03 -0.10829E-01
  0.39100E-02  0.00000E+00 -0.10829E-01
  0.34621E-02  0.18171E-02 -0.10829E-01
  0.29267E-02  0.25928E-02 -0.10829E-01
  0.22211E-02  0.32179E-02 -0.10829E-01
  0.13865E-02  0.36559E-02 -0.10829E-01
  0.47130E-03  0.38815E-02 -0.10829E-01
 -0.47130E-03  0.38815E-02 -0.10829E-01
 -0.13865E-02  0.36559E-02 -0.10829E-01
 -0.22211E-02  0.32179E-02 -0.10829E-01
 -0.29267E-02  0.25928E-02 -0.10829E-01
 -0.34621E-02  0.18171E-02 -0.10829E-01
 -0.37964E-02  0.93572E-03 -0.10829E-01
 -0.39100E-02  0.39516E-17 -0.10829E-01
 -0.37964E-02 -0.93572E-03 -0.10829E-01
 -0.34621E-02 -0.18171E-02 -0.10829E-01
 -0.29267E-02 -0.25928E-02 -0.10829E-01
 -0.22211E-02 -0.32179E-02 -0.10829E-01
 -0.13865E-02 -0.36559E-02 -0.10829E-01
 -0.47130E-03 -0.38815E-02 -0.10829E-01
  0.47130E-03 -0.38815E-02 -0.10829E-01
  0.13865E-02 -0.36559E-02 -0.10829E-01
  0.22211E-02 -0.32179E-02 -0.10829E-01
  0.29267E-02 -0.25928E-02 -0.10829E-01
  0.34621E-02 -0.18171E-02 -0.10829E-01
  0.37964E-02 -0.93572E-03 -0.10829E-01
  0.10365E-02  0.67902E-03 -0.98503E-02
  0.17432E-02  0.12381E-02 -0.98503E-02
  0.23163E-02  0.59727E-03 -0.98503E-02
  0.16675E-02 -0.32945E-03 -0.98503E-02
  0.30374E-02  0.15282E-03 -0.98503E-02
  0.27829E-02 -0.67100E-03 -0.98503E-02
  0.12839E-02  0.18432E-02 -0.98503E-02
  0.64869E-03  0.14686E-02 -0.98503E-02
  0.12468E-03  0.31196E-03 -0.98503E-02
 -0.13026E-03  0.11865E-02 -0.98503E-02
  0.94135E-03  0.22762E-02 -0.98503E-02
  0.11289E-02  0.28238E-02 -0.98503E-02
  0.17447E-02  0.24254E-02 -0.98503E-02
  0.40528E-03  0.21688E-02 -0.98503E-02
  0.39760E-03  0.29337E-02 -0.98503E-02
 -0.76692E-03 -0.10049E-02 -0.98503E-02
 -0.86724E-03  0.87871E-04 -0.98503E-02
  0.45626E-03 -0.69519E-03 -0.98503E-02
 -0.18332E-02 -0.71042E-03 -0.98503E-02
 -0.18430E-02  0.84108E-04 -0.98503E-02
 -0.27235E-02 -0.77678E-03 -0.98503E-02
 -0.27998E-02  0.43720E-04 -0.98503E-02
 -0.25382E-02 -0.15189E-02 -0.98503E-02
 -0.19334E-02 -0.13219E-02 -0.98503E-02
 -0.99205E-03  0.10034E-02 -0.98503E-02
 -0.14419E-02 -0.17320E-02 -0.98503E-02
 -0.31354E-03  0.20251E-02 -0.98503E-02
 -0.11030E-02  0.18601E-02 -0.98503E-02
 -0.18840E-02  0.17175E-02 -0.98503E-02
 -0.18699E-02  0.91204E-03 -0.98503E-02
 -0.16174E-03 -0.19803E-02 -0.98503E-02
 -0.94747E-03 -0.23492E-02 -0.98503E-02
  0.78129E-03 -0.17073E-02 -0.98503E-02
  0.17206E-02 -0.14921E-02 -0.98503E-02
  0.32086E-02  0.77142E-03 -0.98503E-02
  0.28044E-02  0.12524E-02 -0.98503E-02
  0.23047E-02  0.18669E-02 -0.98503E-02
 -0.40462E-03  0.28920E-02 -0.98503E-02
 -0.12093E-02  0.27155E-02 -0.98503E-02
 -0.19444E-02  0.24618E-02 -0.98503E-02
 -0.25025E-02  0.22358E-02 -0.98503E-02
 -0.26361E-02  0.16503E-02 -0.98503E-02
 -0.27637E-02  0.87781E-03 -0.98503E-02
 -0.21139E-02 -0.21374E-02 -0.98503E-02
 -0.16092E-02 -0.26934E-02 -0.98503E-02
 -0.11951E-02 -0.31291E-02 -0.98503E-02
 -0.59025E-03 -0.30382E-02 -0.98503E-02
  0.20465E-03 -0.28749E-02 -0.98503E-02
  0.10552E-02 -0.26452E-02 -0.98503E-02
  0.18418E-02 -0.23729E-02 -0.98503E-02
  0.24558E-02 -0.21505E-02 -0.98503E-02
  0.26030E-02 -0.15093E-02 -0.98503E-02
  0.37964E-02  0.93572E-03 -0.98503E-02
  0.39100E-02  0.00000E+00 -0.98503E-02
  0.34621E-02  0.18171E-02 -0.98503E-02
  0.29267E-02  0.25928E-02 -0.98503E-02
  0.22211E-02  0.32179E-02 -0.98503E-02
  0.13865E-02  0.36559E-02 -0.98503E-02
  0.47130E-03  0.38815E-02 -0.98503E-02
 -0.47130E-03  0.38815E-02 -0.98503E-02
 -0.13865E-02  0.36559E-02 -0.98503E-02
 -0.22211E-02  0.32179E-02 -0.98503E-02
 -0.29267E-02  0.25928E-02 -0.98503E-02
 -0.34621E-02  0.18171E-02 -0.98503E-02
 -0.37964E-02  0.93572E-03 -0.98503E-02
 -0.39100E-02 -0.47884E-18 -0.98503E-02
 -0.37964E-02 -0.93572E-03 -0.98503E-02
 -0.34621E-02 -0.18171E-02 -0.98503E-02
 -0.29267E-02 -0.25928E-02 -0.98503E-02
 -0.22211E-02 -0.32179E-02 -0.98503E-02
 -0.13865E-02 -0.36559E-02 -0.98503E-02
 -0.47130E-03 -0.38815E-02 -0.98503E-02
  0.47130E-03 -0.38815E-02 -0.98503E-02
  0.13865E-02 -0.36559E-02 -0.98503E-02
  0.22211E-02 -0.32179E-02 -0.98503E-02
  0.29267E-02 -0.25928E-02 -0.98503E-02
  0.34621E-02 -0.18171E-02 -0.98503E-02
  0.37964E-02 -0.93572E-03 -0.98503E-02
  0.10364E-02  0.67958E-03 -0.88711E-02
  0.17430E-02  0.12387E-02 -0.88711E-02
  0.23162E-02  0.59779E-03 -0.88711E-02
  0.16672E-02 -0.32870E-03 -0.88711E-02
  0.30374E-02  0.15318E-03 -0.88711E-02
  0.27832E-02 -0.67051E-03 -0.88711E-02
  0.12838E-02  0.18434E-02 -0.88711E-02
  0.64845E-03  0.14696E-02 -0.88711E-02
  0.12442E-03  0.31311E-03 -0.88711E-02
 -0.13044E-03  0.11882E-02 -0.88711E-02
  0.94102E-03  0.22763E-02 -0.88711E-02
  0.11286E-02  0.28233E-02 -0.88711E-02
  0.17443E-02  0.24255E-02 -0.88711E-02
  0.40523E-03  0.21689E-02 -0.88711E-02
  0.39759E-03  0.29335E-02 -0.88711E-02
 -0.76727E-03 -0.10050E-02 -0.88711E-02
 -0.86735E-03  0.88681E-04 -0.88711E-02
  0.45582E-03 -0.69447E-03 -0.88711E-02
 -0.18335E-02 -0.71028E-03 -0.88711E-02
 -0.18429E-02  0.84232E-04 -0.88711E-02
 -0.27235E-02 -0.77661E-03 -0.88711E-02
 -0.27995E-02  0.43993E-04 -0.88711E-02
 -0.25383E-02 -0.15189E-02 -0.88711E-02
 -0.19339E-02 -0.13218E-02 -0.88711E-02
 -0.99190E-03  0.10048E-02 -0.88711E-02
 -0.14422E-02 -0.17320E-02 -0.88711E-02
 -0.31334E-03  0.20254E-02 -0.88711E-02
 -0.11026E-02  0.18599E-02 -0.88711E-02
 -0.18839E-02  0.17175E-02 -0.88711E-02
 -0.18697E-02  0.91228E-03 -0.88711E-02
 -0.16201E-03 -0.19803E-02 -0.88711E-02
 -0.94807E-03 -0.23492E-02 -0.88711E-02
  0.78063E-03 -0.17073E-02 -0.88711E-02
  0.17206E-02 -0.14923E-02 -0.88711E-02
  0.32089E-02  0.77243E-03 -0.88711E-02
  0.28043E-02  0.12528E-02 -0.88711E-02
  0.23046E-02  0.18670E-02 -0.88711E-02
 -0.40448E-03  0.28910E-02 -0.88711E-02
 -0.12093E-02  0.27151E-02 -0.88711E-02
 -0.19443E-02  0.24615E-02 -0.88711E-02
 -0.25025E-02  0.22358E-02 -0.88711E-02
 -0.26360E-02  0.16503E-02 -0.88711E-02
 -0.27633E-02  0.87807E-03 -0.88711E-02
 -0.21140E-02 -0.21374E-02 -0.88711E-02
 -0.16092E-02 -0.26934E-02 -0.88711E-02
 -0.11953E-02 -0.31291E-02 -0.88711E-02
 -0.59060E-03 -0.30382E-02 -0.88711E-02
  0.20424E-03 -0.28749E-02 -0.88711E-02
  0.10549E-02 -0.26455E-02 -0.88711E-02
  0.18418E-02 -0.23732E-02 -0.88711E-02
  0.24559E-02 -0.21511E-02 -0.88711E-02
  0.26030E-02 -0.15092E-02 -0.88711E-02
  0.37964E-02  0.93572E-03 -0.88711E-02
  0.39100E-02  0.00000E+00 -0.88711E-02
  0.34621E-02  0.18171E-02 -0.88711E-02
  0.29267E-02  0.25928E-02 -0.88711E-02
  0.22211E-02  0.32179E-02 -0.88711E-02
  0.13865E-02  0.36559E-02 -0.88711E-02
  0.47130E-03  0.38815E-02 -0.88711E-02
 -0.47130E-03  0.38815E-02 -0.88711E-02
 -0.13865E-02  0.36559E-02 -0.88711E-02
 -0.22211E-02  0.32179E-02 -0.88711E-02
 -0.29267E-02  0.25928E-02 -0.88711E-02
 -0.34621E-02  0.18171E-02 -0.88711E-02
 -0.37964E-02  0.93572E-03 -0.88711E-02
 -0.39100E-02  0.22152E-17 -0.88711E-02
 -0.37964E-02 -0.93572E-03 -0.88711E-02
 -0.34621E-02 -0.18171E-02 -0.88711E-02
 -0.29267E-02 -0.25928E-02 -0.88711E-02
 -0.22211E-02 -0.32179E-02 -0.88711E-02
 -0.13865E-02 -0.36559E-02 -0.88711E-02
 -0.47130E-03 -0.38815E-02 -0.88711E-02
  0.47130E-03 -0.38815E-02 -0.88711E-02
  0.13865E-02 -0.36559E-02 -0.88711E-02
  0.22211E-02 -0.32179E-02 -0.88711E-02
  0.29267E-02 -0.25928E-02 -0.88711E-02
  0.34621E-02 -0.18171E-02 -0.88711E-02
  0.37964E-02 -0.93572E-03 -0.88711E-02
  0.10363E-02  0.68013E-03 -0.78920E-02
  0.17429E-02  0.12394E-02 -0.78920E-02
  0.23161E-02  0.59831E-03 -0.78920E-02
  0.16670E-02 -0.32794E-03 -0.78920E-02
  0.30374E-02  0.15354E-03 -0.78920E-02
  0.27836E-02 -0.67002E-03 -0.78920E-02
  0.12837E-02  0.18436E-02 -0.78920E-02
  0.64820E-03  0.14706E-02 -0.78920E-02
  0.12416E-03  0.31426E-03 -0.78920E-02
 -0.13063E-03  0.11900E-02 -0.78920E-02
  0.94069E-03  0.22765E-02 -0.78920E-02
  0.11282E-02  0.28229E-02 -0.78920E-02
  0.17439E-02  0.24257E-02 -0.78920E-02
  0.40518E-03  0.21689E-02 -0.78920E-02
  0.39757E-03  0.29332E-02 -0.78920E-02
 -0.76763E-03 -0.10051E-02 -0.78920E-02
 -0.86746E-03  0.89490E-04 -0.78920E-02
  0.45537E-03 -0.69374E-03 -0.78920E-02
 -0.18338E-02 -0.71013E-03 -0.78920E-02
 -0.18428E-02  0.84355E-04 -0.78920E-02
 -0.27234E-02 -0.77644E-03 -0.78920E-02
 -0.27992E-02  0.44266E-04 -0.78920E-02
 -0.25385E-02 -0.15188E-02 -0.78920E-02
 -0.19343E-02 -0.13216E-02 -0.78920E-02
 -0.99176E-03  0.10061E-02 -0.78920E-02
 -0.14425E-02 -0.17320E-02 -0.78920E-02
 -0.31314E-03  0.20257E-02 -0.78920E-02
 -0.11023E-02  0.18598E-02 -0.78920E-02
 -0.18839E-02  0.17175E-02 -0.78920E-02
 -0.18696E-02  0.91252E-03 -0.78920E-02
 -0.16229E-03 -0.19803E-02 -0.78920E-02
 -0.94867E-03 -0.23492E-02 -0.78920E-02
  0.77997E-03 -0.17073E-02 -0.78920E-02
  0.17205E-02 -0.14926E-02 -0.78920E-02
  0.32092E-02  0.77343E-03 -0.78920E-02
  0.28043E-02  0.12533E-02 -0.78920E-02
  0.23044E-02  0.18670E-02 -0.78920E-02
 -0.40434E-03  0.28899E-02 -0.78920E-02
 -0.12093E-02  0.27146E-02 -0.78920E-02
 -0.19443E-02  0.24613E-02 -0.78920E-02
 -0.25025E-02  0.22358E-02 -0.78920E-02
 -0.26359E-02  0.16503E-02 -0.78920E-02
 -0.27630E-02  0.87833E-03 -0.78920E-02
 -0.21141E-02 -0.21374E-02 -0.78920E-02
 -0.16093E-02 -0.26934E-02 -0.78920E-02
 -0.11954E-02 -0.31291E-02 -0.78920E-02
 -0.59095E-03 -0.30382E-02 -0.78920E-02
  0.20384E-03 -0.28750E-02 -0.78920E-02
  0.10546E-02 -0.26458E-02 -0.78920E-02
  0.18419E-02 -0.23734E-02 -0.78920E-02
  0.24560E-02 -0.21516E-02 -0.78920E-02
  0.26031E-02 -0.15091E-02 -0.78920E-02
  0.37964E-02  0.93572E-03 -0.78920E-02
  0.39100E-02  0.00000E+00 -0.78920E-02
  0.34621E-02  0.18171E-02 -0.78920E-02
  0.29267E-02  0.25928E-02 -0.78920E-02
  0.22211E-02  0.32179E-02 -0.78920E-02
  0.13865E-02  0.36559E-02 -0.78920E-02
  0.47130E-03  0.38815E-02 -0.78920E-02
 -0.47130E-03  0.38815E-02 -0.78920E-02
 -0.13865E-02  0.36559E-02 -0.78920E-02
 -0.22211E-02  0.32179E-02 -0.78920E-02
 -0.29267E-02  0.25928E-02 -0.78920E-02
 -0.34621E-02  0.18171E-02 -0.78920E-02
 -0.37964E-02  0.93572E-03 -0.78920E-02
 -0.39100E-02 -0.47884E-18 -0.78920E-02
 -0.37964E-02 -0.93572E-03 -0.78920E-02
 -0.34621E-02 -0.18171E-02 -0.78920E-02
 -0.29267E-02 -0.25928E-02 -0.78920E-02
 -0.22211E-02 -0.32179E-02 -0.78920E-02
 -0.13865E-02 -0.36559E-02 -0.78920E-02
 -0.47130E-03 -0.38815E-02 -0.78920E-02
  0.47130E-03 -0.38815E-02 -0.78920E-02
  0.13865E-02 -0.36559E-02 -0.78920E-02
  0.22211E-02 -0.32179E-02 -0.78920E-02
  0.29267E-02 -0.25928E-02 -0.78920E-02
  0.34621E-02 -0.18171E-02 -0.78920E-02
  0.37964E-02 -0.93572E-03 -0.78920E-02
  0.10362E-02  0.68068E-03 -0.69128E-02
  0.17427E-02  0.12401E-02 -0.69128E-02
  0.23160E-02  0.59884E-03 -0.69128E-02
  0.16668E-02 -0.32719E-03 -0.69128E-02
  0.30373E-02  0.15391E-03 -0.69128E-02
  0.27839E-02 -0.66953E-03 -0.69128E-02
  0.12836E-02  0.18438E-02 -0.69128E-02
  0.64796E-03  0.14716E-02 -0.69128E-02
  0.12390E-03  0.31541E-03 -0.69128E-02
 -0.13082E-03  0.11917E-02 -0.69128E-02
  0.94036E-03  0.22766E-02 -0.69128E-02
  0.11279E-02  0.28225E-02 -0.69128E-02
  0.17435E-02  0.24258E-02 -0.69128E-02
  0.40512E-03  0.21690E-02 -0.69128E-02
  0.39755E-03  0.29330E-02 -0.69128E-02
 -0.76798E-03 -0.10053E-02 -0.69128E-02
 -0.86756E-03  0.90299E-04 -0.69128E-02
  0.45492E-03 -0.69302E-03 -0.69128E-02
 -0.18341E-02 -0.70999E-03 -0.69128E-02
 -0.18427E-02  0.84479E-04 -0.69128E-02
 -0.27234E-02 -0.77627E-03 -0.69128E-02
 -0.27990E-02  0.44540E-04 -0.69128E-02
 -0.25386E-02 -0.15188E-02 -0.69128E-02
 -0.19347E-02 -0.13215E-02 -0.69128E-02
 -0.99161E-03  0.10075E-02 -0.69128E-02
 -0.14429E-02 -0.17319E-02 -0.69128E-02
 -0.31294E-03  0.20260E-02 -0.69128E-02
 -0.11019E-02  0.18597E-02 -0.69128E-02
 -0.18838E-02  0.17175E-02 -0.69128E-02
 -0.18695E-02  0.91276E-03 -0.69128E-02
 -0.16256E-03 -0.19804E-02 -0.69128E-02
 -0.94927E-03 -0.23493E-02 -0.69128E-02
  0.77931E-03 -0.17073E-02 -0.69128E-02
  0.17205E-02 -0.14928E-02 -0.69128E-02
  0.32096E-02  0.77444E-03 -0.69128E-02
  0.28043E-02  0.12537E-02 -0.69128E-02
  0.23043E-02  0.18670E-02 -0.69128E-02
 -0.40420E-03  0.28888E-02 -0.69128E-02
 -0.12093E-02  0.27141E-02 -0.69128E-02
 -0.19443E-02  0.24611E-02 -0.69128E-02
 -0.25024E-02  0.22358E-02 -0.69128E-02
 -0.26358E-02  0.16503E-02 -0.69128E-02
 -0.27627E-02  0.87859E-03 -0.69128E-02
 -0.21143E-02 -0.21374E-02 -0.69128E-02
 -0.16093E-02 -0.26934E-02 -0.69128E-02
 -0.11955E-02 -0.31291E-02 -0.69128E-02
 -0.59130E-03 -0.30382E-02 -0.69128E-02
  0.20343E-03 -0.28750E-02 -0.69128E-02
  0.10543E-02 -0.26460E-02 -0.69128E-02
  0.18419E-02 -0.23736E-02 -0.69128E-02
  0.24561E-02 -0.21521E-02 -0.69128E-02
  0.26032E-02 -0.15090E-02 -0.69128E-02
  0.37964E-02  0.93572E-03 -0.69128E-02
  0.39100E-02  0.00000E+00 -0.69128E-02
  0.34621E-02  0.18171E-02 -0.69128E-02
  0.29267E-02  0.25928E-02 -0.69128E-02
  0.22211E-02  0.32179E-02 -0.69128E-02
  0.13865E-02  0.36559E-02 -0.69128E-02
  0.47130E-03  0.38815E-02 -0.69128E-02
 -0.47130E-03  0.38815E-02 -0.69128E-02
 -0.13865E-02  0.36559E-02 -0.69128E-02
 -0.22211E-02  0.32179E-02 -0.69128E-02
 -0.29267E-02  0.25928E-02 -0.69128E-02
 -0.34621E-02  0.18171E-02 -0.69128E-02
 -0.37964E-02  0.93572E-03 -0.69128E-02
 -0.39100E-02  0.22152E-17 -0.69128E-02
 -0.37964E-02 -0.93572E-03 -0.69128E-02
 -0.34621E-02 -0.18171E-02 -0.69128E-02
 -0.29267E-02 -0.25928E-02 -0.69128E-02
 -0.22211E-02 -0.32179E-02 -0.69128E-02
 -0.13865E-02 -0.36559E-02 -0.69128E-02
 -0.47130E-03 -0.38815E-02 -0.69128E-02
  0.47130E-03 -0.38815E-02 -0.69128E-02
  0.13865E-02 -0.36559E-02 -0.69128E-02
  0.22211E-02 -0.32179E-02 -0.69128E-02
  0.29267E-02 -0.25928E-02 -0.69128E-02
  0.34621E-02 -0.18171E-02 -0.69128E-02
  0.37964E-02 -0.93572E-03 -0.69128E-02
  0.10360E-02  0.68124E-03 -0.59336E-02
  0.17425E-02  0.12407E-02 -0.59336E-02
  0.23158E-02  0.59936E-03 -0.59336E-02
  0.16666E-02 -0.32643E-03 -0.59336E-02
  0.30373E-02  0.15427E-03 -0.59336E-02
  0.27842E-02 -0.66903E-03 -0.59336E-02
  0.12835E-02  0.18440E-02 -0.59336E-02
  0.64771E-03  0.14727E-02 -0.59336E-02
  0.12363E-03  0.31656E-03 -0.59336E-02
 -0.13100E-03  0.11935E-02 -0.59336E-02
  0.94003E-03  0.22767E-02 -0.59336E-02
  0.11276E-02  0.28220E-02 -0.59336E-02
  0.17432E-02  0.24260E-02 -0.59336E-02
  0.40507E-03  0.21690E-02 -0.59336E-02
  0.39754E-03  0.29327E-02 -0.59336E-02
 -0.76834E-03 -0.10054E-02 -0.59336E-02
 -0.86767E-03  0.91108E-04 -0.59336E-02
  0.45447E-03 -0.69229E-03 -0.59336E-02
 -0.18344E-02 -0.70985E-03 -0.59336E-02
 -0.18426E-02  0.84602E-04 -0.59336E-02
 -0.27234E-02 -0.77610E-03 -0.59336E-02
 -0.27987E-02  0.44813E-04 -0.59336E-02
 -0.25388E-02 -0.15187E-02 -0.59336E-02
 -0.19352E-02 -0.13215E-02 -0.59336E-02
 -0.99147E-03  0.10088E-02 -0.59336E-02
 -0.14433E-02 -0.17319E-02 -0.59336E-02
 -0.31274E-03  0.20262E-02 -0.59336E-02
 -0.11016E-02  0.18595E-02 -0.59336E-02
 -0.18838E-02  0.17175E-02 -0.59336E-02
 -0.18694E-02  0.91300E-03 -0.59336E-02
 -0.16284E-03 -0.19804E-02 -0.59336E-02
 -0.94986E-03 -0.23493E-02 -0.59336E-02
  0.77865E-03 -0.17073E-02 -0.59336E-02
  0.17205E-02 -0.14931E-02 -0.59336E-02
  0.32099E-02  0.77544E-03 -0.59336E-02
  0.28042E-02  0.12541E-02 -0.59336E-02
  0.23042E-02  0.18671E-02 -0.59336E-02
 -0.40407E-03  0.28877E-02 -0.59336E-02
 -0.12093E-02  0.27137E-02 -0.59336E-02
 -0.19442E-02  0.24609E-02 -0.59336E-02
 -0.25024E-02  0.22358E-02 -0.59336E-02
 -0.26358E-02  0.16503E-02 -0.59336E-02
 -0.27624E-02  0.87885E-03 -0.59336E-02
 -0.21144E-02 -0.21374E-02 -0.59336E-02
 -0.16094E-02 -0.26934E-02 -0.59336E-02
 -0.11956E-02 -0.31291E-02 -0.59336E-02
 -0.59165E-03 -0.30382E-02 -0.59336E-02
  0.20302E-03 -0.28750E-02 -0.59336E-02
  0.10540E-02 -0.26463E-02 -0.59336E-02
  0.18419E-02 -0.23738E-02 -0.59336E-02
  0.24563E-02 -0.21527E-02 -0.59336E-02
  0.26033E-02 -0.15088E-02 -0.59336E-02
  0.37964E-02  0.93572E-03 -0.59336E-02
  0.39100E-02  0.00000E+00 -0.59336E-02
  0.34621E-02  0.18171E-02 -0.59336E-02
  0.29267E-02  0.25928E-02 -0.59336E-02
  0.22211E-02  0.32179E-02 -0.59336E-02
  0.13865E-02  0.36559E-02 -0.59336E-02
  0.47130E-03  0.38815E-02 -0.59336E-02
 -0.47130E-03  0.38815E-02 -0.59336E-02
 -0.13865E-02  0.36559E-02 -0.59336E-02
 -0.22211E-02  0.32179E-02 -0.59336E-02
 -0.29267E-02  0.25928E-02 -0.59336E-02
 -0.34621E-02  0.18171E-02 -0.59336E-02
 -0.37964E-02  0.93572E-03 -0.59336E-02
 -0.39100E-02 -0.47884E-18 -0.59336E-02
 -0.37964E-02 -0.93572E-03 -0.59336E-02
 -0.34621E-02 -0.18171E-02 -0.59336E-02
 -0.29267E-02 -0.25928E-02 -0.59336E-02
 -0.22211E-02 -0.32179E-02 -0.59336E-02
 -0.13865E-02 -0.36559E-02 -0.59336E-02
 -0.47130E-03 -0.38815E-02 -0.59336E-02
  0.47130E-03 -0.38815E-02 -0.59336E-02
  0.13865E-02 -0.36559E-02 -0.59336E-02
  0.22211E-02 -0.32179E-02 -0.59336E-02
  0.29267E-02 -0.25928E-02 -0.59336E-02
  0.34621E-02 -0.18171E-02 -0.59336E-02
  0.37964E-02 -0.93572E-03 -0.59336E-02
  0.10359E-02  0.68179E-03 -0.49545E-02
  0.17423E-02  0.12414E-02 -0.49545E-02
  0.23157E-02  0.59988E-03 -0.49545E-02
  0.16664E-02 -0.32568E-03 -0.49545E-02
  0.30373E-02  0.15463E-03 -0.49545E-02
  0.27846E-02 -0.66854E-03 -0.49545E-02
  0.12834E-02  0.18442E-02 -0.49545E-02
  0.64747E-03  0.14736E-02 -0.49545E-02
  0.12337E-03  0.31770E-03 -0.49545E-02
 -0.13118E-03  0.11952E-02 -0.49545E-02
  0.93970E-03  0.22768E-02 -0.49545E-02
  0.11272E-02  0.28216E-02 -0.49545E-02
  0.17428E-02  0.24261E-02 -0.49545E-02
  0.40501E-03  0.21690E-02 -0.49545E-02
  0.39752E-03  0.29324E-02 -0.49545E-02
 -0.76869E-03 -0.10056E-02 -0.49545E-02
 -0.86778E-03  0.91918E-04 -0.49545E-02
  0.45402E-03 -0.69156E-03 -0.49545E-02
 -0.18347E-02 -0.70971E-03 -0.49545E-02
 -0.18425E-02  0.84726E-04 -0.49545E-02
 -0.27234E-02 -0.77593E-03 -0.49545E-02
 -0.27984E-02  0.45086E-04 -0.49545E-02
 -0.25389E-02 -0.15187E-02 -0.49545E-02
 -0.19356E-02 -0.13213E-02 -0.49545E-02
 -0.99133E-03  0.10102E-02 -0.49545E-02
 -0.14436E-02 -0.17318E-02 -0.49545E-02
 -0.31254E-03  0.20265E-02 -0.49545E-02
 -0.11013E-02  0.18594E-02 -0.49545E-02
 -0.18837E-02  0.17175E-02 -0.49545E-02
 -0.18692E-02  0.91324E-03 -0.49545E-02
 -0.16311E-03 -0.19804E-02 -0.49545E-02
 -0.95046E-03 -0.23493E-02 -0.49545E-02
  0.77799E-03 -0.17073E-02 -0.49545E-02
  0.17204E-02 -0.14933E-02 -0.49545E-02
  0.32102E-02  0.77645E-03 -0.49545E-02
  0.28042E-02  0.12545E-02 -0.49545E-02
  0.23041E-02  0.18671E-02 -0.49545E-02
 -0.40393E-03  0.28867E-02 -0.49545E-02
 -0.12093E-02  0.27132E-02 -0.49545E-02
 -0.19442E-02  0.24606E-02 -0.49545E-02
 -0.25024E-02  0.22358E-02 -0.49545E-02
 -0.26357E-02  0.16503E-02 -0.49545E-02
 -0.27621E-02  0.87912E-03 -0.49545E-02
 -0.21146E-02 -0.21374E-02 -0.49545E-02
 -0.16094E-02 -0.26935E-02 -0.49545E-02
 -0.11957E-02 -0.31291E-02 -0.49545E-02
 -0.59200E-03 -0.30381E-02 -0.49545E-02
  0.20262E-03 -0.28750E-02 -0.49545E-02
  0.10536E-02 -0.26466E-02 -0.49545E-02
  0.18420E-02 -0.23740E-02 -0.49545E-02
  0.24564E-02 -0.21533E-02 -0.49545E-02
  0.26033E-02 -0.15087E-02 -0.49545E-02
  0.37964E-02  0.93572E-03 -0.49545E-02
  0.39100E-02  0.00000E+00 -0.49545E-02
  0.34621E-02  0.18171E-02 -0.49545E-02
  0.29267E-02  0.25928E-02 -0.49545E-02
  0.22211E-02  0.32179E-02 -0.49545E-02
  0.13865E-02  0.36559E-02 -0.49545E-02
  0.47130E-03  0.38815E-02 -0.49545E-02
 -0.47130E-03  0.38815E-02 -0.49545E-02
 -0.13865E-02  0.36559E-02 -0.49545E-02
 -0.22211E-02  0.32179E-02 -0.49545E-02
 -0.29267E-02  0.25928E-02 -0.49545E-02
 -0.34621E-02  0.18171E-02 -0.49545E-02
 -0.37964E-02  0.93572E-03 -0.49545E-02
 -0.39100E-02 -0.47884E-18 -0.49545E-02
 -0.37964E-02 -0.93572E-03 -0.49545E-02
 -0.34621E-02 -0.18171E-02 -0.49545E-02
 -0.29267E-02 -0.25928E-02 -0.49545E-02
 -0.22211E-02 -0.32179E-02 -0.49545E-02
 -0.13865E-02 -0.36559E-02 -0.49545E-02
 -0.47130E-03 -0.38815E-02 -0.49545E-02
  0.47130E-03 -0.38815E-02 -0.49545E-02
  0.13865E-02 -0.36559E-02 -0.49545E-02
  0.22211E-02 -0.32179E-02 -0.49545E-02
  0.29267E-02 -0.25928E-02 -0.49545E-02
  0.34621E-02 -0.18171E-02 -0.49545E-02
  0.37964E-02 -0.93572E-03 -0.49545E-02
  0.10358E-02  0.68235E-03 -0.39753E-02
  0.17422E-02  0.12421E-02 -0.39753E-02
  0.23156E-02  0.60041E-03 -0.39753E-02
  0.16662E-02 -0.32493E-03 -0.39753E-02
  0.30373E-02  0.15500E-03 -0.39753E-02
  0.27849E-02 -0.66805E-03 -0.39753E-02
  0.12833E-02  0.18444E-02 -0.39753E-02
  0.64722E-03  0.14747E-02 -0.39753E-02
  0.12311E-03  0.31885E-03 -0.39753E-02
 -0.13137E-03  0.11970E-02 -0.39753E-02
  0.93937E-03  0.22770E-02 -0.39753E-02
  0.11269E-02  0.28211E-02 -0.39753E-02
  0.17424E-02  0.24262E-02 -0.39753E-02
  0.40496E-03  0.21691E-02 -0.39753E-02
  0.39750E-03  0.29322E-02 -0.39753E-02
 -0.76904E-03 -0.10057E-02 -0.39753E-02
 -0.86789E-03  0.92727E-04 -0.39753E-02
  0.45358E-03 -0.69084E-03 -0.39753E-02
 -0.18350E-02 -0.70957E-03 -0.39753E-02
 -0.18424E-02  0.84849E-04 -0.39753E-02
 -0.27233E-02 -0.77576E-03 -0.39753E-02
 -0.27981E-02  0.45359E-04 -0.39753E-02
 -0.25391E-02 -0.15186E-02 -0.39753E-02
 -0.19360E-02 -0.13212E-02 -0.39753E-02
 -0.99118E-03  0.10115E-02 -0.39753E-02
 -0.14440E-02 -0.17318E-02 -0.39753E-02
 -0.31234E-03  0.20268E-02 -0.39753E-02
 -0.11009E-02  0.18593E-02 -0.39753E-02
 -0.18836E-02  0.17175E-02 -0.39753E-02
 -0.18691E-02  0.91347E-03 -0.39753E-02
 -0.16339E-03 -0.19804E-02 -0.39753E-02
 -0.95106E-03 -0.23493E-02 -0.39753E-02
  0.77733E-03 -0.17073E-02 -0.39753E-02
  0.17204E-02 -0.14936E-02 -0.39753E-02
  0.32105E-02  0.77745E-03 -0.39753E-02
  0.28042E-02  0.12550E-02 -0.39753E-02
  0.23040E-02  0.18671E-02 -0.39753E-02
 -0.40379E-03  0.28856E-02 -0.39753E-02
 -0.12093E-02  0.27127E-02 -0.39753E-02
 -0.19441E-02  0.24604E-02 -0.39753E-02
 -0.25023E-02  0.22358E-02 -0.39753E-02
 -0.26356E-02  0.16503E-02 -0.39753E-02
 -0.27618E-02  0.87938E-03 -0.39753E-02
 -0.21147E-02 -0.21374E-02 -0.39753E-02
 -0.16094E-02 -0.26935E-02 -0.39753E-02
 -0.11958E-02 -0.31291E-02 -0.39753E-02
 -0.59235E-03 -0.30381E-02 -0.39753E-02
  0.20221E-03 -0.28750E-02 -0.39753E-02
  0.10533E-02 -0.26468E-02 -0.39753E-02
  0.18420E-02 -0.23742E-02 -0.39753E-02
  0.24565E-02 -0.21538E-02 -0.39753E-02
  0.26034E-02 -0.15086E-02 -0.39753E-02
  0.37964E-02  0.93572E-03 -0.39753E-02
  0.39100E-02  0.00000E+00 -0.39753E-02
  0.34621E-02  0.18171E-02 -0.39753E-02
  0.29267E-02  0.25928E-02 -0.39753E-02
  0.22211E-02  0.32179E-02 -0.39753E-02
  0.13865E-02  0.36559E-02 -0.39753E-02
  0.47130E-03  0.38815E-02 -0.39753E-02
 -0.47130E-03  0.38815E-02 -0.39753E-02
 -0.13865E-02  0.36559E-02 -0.39753E-02
 -0.22211E-02  0.32179E-02 -0.39753E-02
 -0.29267E-02  0.25928E-02 -0.39753E-02
 -0.34621E-02  0.18171E-02 -0.39753E-02
 -0.37964E-02  0.93572E-03 -0.39753E-02
 -0.39100E-02 -0.47884E-18 -0.39753E-02
 -0.37964E-02 -0.93572E-03 -0.39753E-02
 -0.34621E-02 -0.18171E-02 -0.39753E-02
 -0.29267E-02 -0.25928E-02 -0.39753E-02
 -0.22211E-02 -0.32179E-02 -0.39753E-02
 -0.13865E-02 -0.36559E-02 -0.39753E-02
 -0.47130E-03 -0.38815E-02 -0.39753E-02
  0.47130E-03 -0.38815E-02 -0.39753E-02
  0.13865E-02 -0.36559E-02 -0.39753E-02
  0.22211E-02 -0.32179E-02 -0.39753E-02
  0.29267E-02 -0.25928E-02 -0.39753E-02
  0.34621E-02 -0.18171E-02 -0.39753E-02
  0.37964E-02 -0.93572E-03 -0.39753E-02
  0.10357E-02  0.68290E-03 -0.29961E-02
  0.17420E-02  0.12427E-02 -0.29961E-02
  0.23155E-02  0.60093E-03 -0.29961E-02
  0.16660E-02 -0.32417E-03 -0.29961E-02
  0.30372E-02  0.15536E-03 -0.29961E-02
  0.27853E-02 -0.66755E-03 -0.29961E-02
  0.12832E-02  0.18445E-02 -0.29961E-02
  0.64698E-03  0.14757E-02 -0.29961E-02
  0.12285E-03  0.32000E-03 -0.29961E-02
 -0.13155E-03  0.11987E-02 -0.29961E-02
  0.93903E-03  0.22771E-02 -0.29961E-02
  0.11266E-02  0.28207E-02 -0.29961E-02
  0.17420E-02  0.24264E-02 -0.29961E-02
  0.40490E-03  0.21691E-02 -0.29961E-02
  0.39749E-03  0.29319E-02 -0.29961E-02
 -0.76940E-03 -0.10058E-02 -0.29961E-02
 -0.86800E-03  0.93536E-04 -0.29961E-02
  0.45313E-03 -0.69011E-03 -0.29961E-02
 -0.18353E-02 -0.70943E-03 -0.29961E-02
 -0.18423E-02  0.84973E-04 -0.29961E-02
 -0.27233E-02 -0.77559E-03 -0.29961E-02
 -0.27979E-02  0.45633E-04 -0.29961E-02
 -0.25393E-02 -0.15186E-02 -0.29961E-02
 -0.19365E-02 -0.13212E-02 -0.29961E-02
 -0.99104E-03  0.10129E-02 -0.29961E-02
 -0.14443E-02 -0.17318E-02 -0.29961E-02
 -0.31214E-03  0.20271E-02 -0.29961E-02
 -0.11006E-02  0.18592E-02 -0.29961E-02
 -0.18836E-02  0.17175E-02 -0.29961E-02
 -0.18690E-02  0.91371E-03 -0.29961E-02
 -0.16366E-03 -0.19805E-02 -0.29961E-02
 -0.95166E-03 -0.23493E-02 -0.29961E-02
  0.77667E-03 -0.17073E-02 -0.29961E-02
  0.17203E-02 -0.14938E-02 -0.29961E-02
  0.32109E-02  0.77846E-03 -0.29961E-02
  0.28042E-02  0.12554E-02 -0.29961E-02
  0.23039E-02  0.18672E-02 -0.29961E-02
 -0.40365E-03  0.28845E-02 -0.29961E-02
 -0.12093E-02  0.27122E-02 -0.29961E-02
 -0.19441E-02  0.24602E-02 -0.29961E-02
 -0.25023E-02  0.22358E-02 -0.29961E-02
 -0.26355E-02  0.16502E-02 -0.29961E-02
 -0.27615E-02  0.87964E-03 -0.29961E-02
 -0.21148E-02 -0.21374E-02 -0.29961E-02
 -0.16095E-02 -0.26935E-02 -0.29961E-02
 -0.11960E-02 -0.31291E-02 -0.29961E-02
 -0.59270E-03 -0.30381E-02 -0.29961E-02
  0.20180E-03 -0.28750E-02 -0.29961E-02
  0.10530E-02 -0.26471E-02 -0.29961E-02
  0.18421E-02 -0.23744E-02 -0.29961E-02
  0.24566E-02 -0.21543E-02 -0.29961E-02
  0.26035E-02 -0.15085E-02 -0.29961E-02
  0.37964E-02  0.93572E-03 -0.29961E-02
  0.39100E-02  0.00000E+00 -0.29961E-02
  0.34621E-02  0.18171E-02 -0.29961E-02
  0.29267E-02  0.25928E-02 -0.29961E-02
  0.22211E-02  0.32179E-02 -0.29961E-02
  0.13865E-02  0.36559E-02 -0.29961E-02
  0.47130E-03  0.38815E-02 -0.29961E-02
 -0.47130E-03  0.38815E-02 -0.29961E-02
 -0.13865E-02  0.36559E-02 -0.29961E-02
 -0.22211E-02  0.32179E-02 -0.29961E-02
 -0.29267E-02  0.25928E-02 -0.29961E-02
 -0.34621E-02  0.18171E-02 -0.29961E-02
 -0.37964E-02  0.93572E-03 -0.29961E-02
 -0.39100E-02 -0.47884E-18 -0.29961E-02
 -0.37964E-02 -0.93572E-03 -0.29961E-02
 -0.34621E-02 -0.18171E-02 -0.29961E-02
 -0.29267E-02 -0.25928E-02 -0.29961E-02
 -0.22211E-02 -0.32179E-02 -0.29961E-02
 -0.13865E-02 -0.36559E-02 -0.29961E-02
 -0.47130E-03 -0.38815E-02 -0.29961E-02
  0.47130E-03 -0.38815E-02 -0.29961E-02
  0.13865E-02 -0.36559E-02 -0.29961E-02
  0.22211E-02 -0.32179E-02 -0.29961E-02
  0.29267E-02 -0.25928E-02 -0.29961E-02
  0.34621E-02 -0.18171E-02 -0.29961E-02
  0.37964E-02 -0.93572E-03 -0.29961E-02
  0.10356E-02  0.68346E-03 -0.20170E-02
  0.17418E-02  0.12434E-02 -0.20170E-02
  0.23153E-02  0.60145E-03 -0.20170E-02
  0.16657E-02 -0.32342E-03 -0.20170E-02
  0.30372E-02  0.15572E-03 -0.20170E-02
  0.27856E-02 -0.66706E-03 -0.20170E-02
  0.12830E-02  0.18447E-02 -0.20170E-02
  0.64673E-03  0.14767E-02 -0.20170E-02
  0.12259E-03  0.32115E-03 -0.20170E-02
 -0.13174E-03  0.12005E-02 -0.20170E-02
  0.93870E-03  0.22772E-02 -0.20170E-02
  0.11262E-02  0.28203E-02 -0.20170E-02
  0.17416E-02  0.24265E-02 -0.20170E-02
  0.40485E-03  0.21691E-02 -0.20170E-02
  0.39747E-03  0.29316E-02 -0.20170E-02
 -0.76975E-03 -0.10060E-02 -0.20170E-02
 -0.86811E-03  0.94345E-04 -0.20170E-02
  0.45268E-03 -0.68939E-03 -0.20170E-02
 -0.18356E-02 -0.70929E-03 -0.20170E-02
 -0.18422E-02  0.85096E-04 -0.20170E-02
 -0.27233E-02 -0.77542E-03 -0.20170E-02
 -0.27976E-02  0.45906E-04 -0.20170E-02
 -0.25394E-02 -0.15185E-02 -0.20170E-02
 -0.19369E-02 -0.13211E-02 -0.20170E-02
 -0.99090E-03  0.10142E-02 -0.20170E-02
 -0.14446E-02 -0.17317E-02 -0.20170E-02
 -0.31194E-03  0.20274E-02 -0.20170E-02
 -0.11002E-02  0.18590E-02 -0.20170E-02
 -0.18835E-02  0.17175E-02 -0.20170E-02
 -0.18689E-02  0.91395E-03 -0.20170E-02
 -0.16394E-03 -0.19805E-02 -0.20170E-02
 -0.95226E-03 -0.23494E-02 -0.20170E-02
  0.77601E-03 -0.17073E-02 -0.20170E-02
  0.17203E-02 -0.14941E-02 -0.20170E-02
  0.32112E-02  0.77946E-03 -0.20170E-02
  0.28042E-02  0.12558E-02 -0.20170E-02
  0.23038E-02  0.18672E-02 -0.20170E-02
 -0.40352E-03  0.28835E-02 -0.20170E-02
 -0.12093E-02  0.27118E-02 -0.20170E-02
 -0.19441E-02  0.24600E-02 -0.20170E-02
 -0.25023E-02  0.22358E-02 -0.20170E-02
 -0.26354E-02  0.16502E-02 -0.20170E-02
 -0.27612E-02  0.87990E-03 -0.20170E-02
 -0.21150E-02 -0.21374E-02 -0.20170E-02
 -0.16095E-02 -0.26935E-02 -0.20170E-02
 -0.11961E-02 -0.31291E-02 -0.20170E-02
 -0.59305E-03 -0.30381E-02 -0.20170E-02
  0.20140E-03 -0.28750E-02 -0.20170E-02
  0.10527E-02 -0.26474E-02 -0.20170E-02
  0.18421E-02 -0.23746E-02 -0.20170E-02
  0.24568E-02 -0.21549E-02 -0.20170E-02
  0.26036E-02 -0.15084E-02 -0.20170E-02
  0.37964E-02  0.93572E-03 -0.20170E-02
  0.39100E-02  0.00000E+00 -0.20170E-02
  0.34621E-02  0.18171E-02 -0.20170E-02
  0.29267E-02  0.25928E-02 -0.20170E-02
  0.22211E-02  0.32179E-02 -0.20170E-02
  0.13865E-02  0.36559E-02 -0.20170E-02
  0.47130E-03  0.38815E-02 -0.20170E-02
 -0.47130E-03  0.38815E-02 -0.20170E-02
 -0.13865E-02  0.36559E-02 -0.20170E-02
 -0.22211E-02  0.32179E-02 -0.20170E-02
 -0.29267E-02  0.25928E-02 -0.20170E-02
 -0.34621E-02  0.18171E-02 -0.20170E-02
 -0.37964E-02  0.93572E-03 -0.20170E-02
 -0.39100E-02  0.22152E-17 -0.20170E-02
 -0.37964E-02 -0.93572E-03 -0.20170E-02
 -0.34621E-02 -0.18171E-02 -0.20170E-02
 -0.29267E-02 -0.25928E-02 -0.20170E-02
 -0.22211E-02 -0.32179E-02 -0.20170E-02
 -0.13865E-02 -0.36559E-02 -0.20170E-02
 -0.47130E-03 -0.38815E-02 -0.20170E-02
  0.47130E-03 -0.38815E-02 -0.20170E-02
  0.13865E-02 -0.36559E-02 -0.20170E-02
  0.22211E-02 -0.32179E-02 -0.20170E-02
  0.29267E-02 -0.25928E-02 -0.20170E-02
  0.34621E-02 -0.18171E-02 -0.20170E-02
  0.37964E-02 -0.93572E-03 -0.20170E-02
  0.10355E-02  0.68401E-03 -0.10378E-02
  0.17416E-02  0.12440E-02 -0.10378E-02
  0.23152E-02  0.60198E-03 -0.10378E-02
  0.16655E-02 -0.32266E-03 -0.10378E-02
  0.30372E-02  0.15609E-03 -0.10378E-02
  0.27860E-02 -0.66657E-03 -0.10378E-02
  0.12829E-02  0.18449E-02 -0.10378E-02
  0.64649E-03  0.14777E-02 -0.10378E-02
  0.12232E-03  0.32230E-03 -0.10378E-02
 -0.13193E-03  0.12022E-02 -0.10378E-02
  0.93837E-03  0.22774E-02 -0.10378E-02
  0.11259E-02  0.28198E-02 -0.10378E-02
  0.17412E-02  0.24267E-02 -0.10378E-02
  0.40480E-03  0.21692E-02 -0.10378E-02
  0.39745E-03  0.29314E-02 -0.10378E-02
 -0.77011E-03 -0.10061E-02 -0.10378E-02
 -0.86822E-03  0.95155E-04 -0.10378E-02
  0.45223E-03 -0.68866E-03 -0.10378E-02
 -0.18359E-02 -0.70915E-03 -0.10378E-02
 -0.18421E-02  0.85220E-04 -0.10378E-02
 -0.27232E-02 -0.77525E-03 -0.10378E-02
 -0.27973E-02  0.46180E-04 -0.10378E-02
 -0.25396E-02 -0.15185E-02 -0.10378E-02
 -0.19373E-02 -0.13210E-02 -0.10378E-02
 -0.99075E-03  0.10156E-02 -0.10378E-02
 -0.14450E-02 -0.17317E-02 -0.10378E-02
 -0.31173E-03  0.20277E-02 -0.10378E-02
 -0.10999E-02  0.18589E-02 -0.10378E-02
 -0.18835E-02  0.17175E-02 -0.10378E-02
 -0.18687E-02  0.91419E-03 -0.10378E-02
 -0.16421E-03 -0.19805E-02 -0.10378E-02
 -0.95285E-03 -0.23494E-02 -0.10378E-02
  0.77535E-03 -0.17073E-02 -0.10378E-02
  0.17202E-02 -0.14943E-02 -0.10378E-02
  0.32115E-02  0.78047E-03 -0.10378E-02
  0.28041E-02  0.12563E-02 -0.10378E-02
  0.23037E-02  0.18672E-02 -0.10378E-02
 -0.40338E-03  0.28824E-02 -0.10378E-02
 -0.12093E-02  0.27113E-02 -0.10378E-02
 -0.19440E-02  0.24597E-02 -0.10378E-02
 -0.25023E-02  0.22358E-02 -0.10378E-02
 -0.26353E-02  0.16502E-02 -0.10378E-02
 -0.27609E-02  0.88016E-03 -0.10378E-02
 -0.21151E-02 -0.21374E-02 -0.10378E-02
 -0.16096E-02 -0.26935E-02 -0.10378E-02
 -0.11962E-02 -0.31291E-02 -0.10378E-02
 -0.59340E-03 -0.30381E-02 -0.10378E-02
  0.20099E-03 -0.28751E-02 -0.10378E-02
  0.10524E-02 -0.26476E-02 -0.10378E-02
  0.18422E-02 -0.23748E-02 -0.10378E-02
  0.24569E-02 -0.21554E-02 -0.10378E-02
  0.26036E-02 -0.15083E-02 -0.10378E-02
  0.37964E-02  0.93572E-03 -0.10378E-02
  0.39100E-02  0.00000E+00 -0.10378E-02
  0.34621E-02  0.18171E-02 -0.10378E-02
  0.29267E-02  0.25928E-02 -0.10378E-02
  0.22211E-02  0.32179E-02 -0.10378E-02
  0.13865E-02  0.36559E-02 -0.10378E-02
  0.47130E-03  0.38815E-02 -0.10378E-02
 -0.47130E-03  0.38815E-02 -0.10378E-02
 -0.13865E-02  0.36559E-02 -0.10378E-02
 -0.22211E-02  0.32179E-02 -0.10378E-02
 -0.29267E-02  0.25928E-02 -0.10378E-02
 -0.34621E-02  0.18171E-02 -0.10378E-02
 -0.37964E-02  0.93572E-03 -0.10378E-02
 -0.39100E-02 -0.47884E-18 -0.10378E-02
 -0.37964E-02 -0.93572E-03 -0.10378E-02
 -0.34621E-02 -0.18171E-02 -0.10378E-02
 -0.29267E-02 -0.25928E-02 -0.10378E-02
 -0.22211E-02 -0.32179E-02 -0.10378E-02
 -0.13865E-02 -0.36559E-02 -0.10378E-02
 -0.47130E-03 -0.38815E-02 -0.10378E-02
  0.47130E-03 -0.38815E-02 -0.10378E-02
  0.13865E-02 -0.36559E-02 -0.10378E-02
  0.22211E-02 -0.32179E-02 -0.10378E-02
  0.29267E-02 -0.25928E-02 -0.10378E-02
  0.34621E-02 -0.18171E-02 -0.10378E-02
  0.37964E-02 -0.93572E-03 -0.10378E-02
  0.10354E-02  0.68457E-03 -0.58637E-04
  0.17414E-02  0.12447E-02 -0.58637E-04
  0.23151E-02  0.60250E-03 -0.58637E-04
  0.16653E-02 -0.32191E-03 -0.58637E-04
  0.30372E-02  0.15645E-03 -0.58637E-04
  0.27863E-02 -0.66607E-03 -0.58637E-04
  0.12829E-02  0.18451E-02 -0.58637E-04
  0.64624E-03  0.14787E-02 -0.58637E-04
  0.12206E-03  0.32345E-03 -0.58637E-04
 -0.13211E-03  0.12040E-02 -0.58637E-04
  0.93804E-03  0.22775E-02 -0.58637E-04
  0.11255E-02  0.28194E-02 -0.58637E-04
  0.17408E-02  0.24268E-02 -0.58637E-04
  0.40474E-03  0.21692E-02 -0.58637E-04
  0.39744E-03  0.29311E-02 -0.58637E-04
 -0.77046E-03 -0.10062E-02 -0.58637E-04
 -0.86832E-03  0.95964E-04 -0.58637E-04
  0.45179E-03 -0.68793E-03 -0.58637E-04
 -0.18362E-02 -0.70901E-03 -0.58637E-04
 -0.18420E-02  0.85343E-04 -0.58637E-04
 -0.27232E-02 -0.77507E-03 -0.58637E-04
 -0.27970E-02  0.46453E-04 -0.58637E-04
 -0.25397E-02 -0.15184E-02 -0.58637E-04
 -0.19377E-02 -0.13209E-02 -0.58637E-04
 -0.99061E-03  0.10169E-02 -0.58637E-04
 -0.14453E-02 -0.17316E-02 -0.58637E-04
 -0.31153E-03  0.20280E-02 -0.58637E-04
 -0.10995E-02  0.18588E-02 -0.58637E-04
 -0.18834E-02  0.17175E-02 -0.58637E-04
 -0.18686E-02  0.91443E-03 -0.58637E-04
 -0.16449E-03 -0.19806E-02 -0.58637E-04
 -0.95345E-03 -0.23494E-02 -0.58637E-04
  0.77469E-03 -0.17073E-02 -0.58637E-04
  0.17202E-02 -0.14945E-02 -0.58637E-04
  0.32119E-02  0.78148E-03 -0.58637E-04
  0.28041E-02  0.12567E-02 -0.58637E-04
  0.23036E-02  0.18673E-02 -0.58637E-04
 -0.40324E-03  0.28813E-02 -0.58637E-04
 -0.12093E-02  0.27108E-02 -0.58637E-04
 -0.19440E-02  0.24595E-02 -0.58637E-04
 -0.25022E-02  0.22358E-02 -0.58637E-04
 -0.26352E-02  0.16502E-02 -0.58637E-04
 -0.27606E-02  0.88043E-03 -0.58637E-04
 -0.21152E-02 -0.21374E-02 -0.58637E-04
 -0.16096E-02 -0.26936E-02 -0.58637E-04
 -0.11963E-02 -0.31291E-02 -0.58637E-04
 -0.59375E-03 -0.30381E-02 -0.58637E-04
  0.20059E-03 -0.28751E-02 -0.58637E-04
  0.10521E-02 -0.26479E-02 -0.58637E-04
  0.18422E-02 -0.23750E-02 -0.58637E-04
  0.24570E-02 -0.21560E-02 -0.58637E-04
  0.26037E-02 -0.15082E-02 -0.58637E-04
  0.37964E-02  0.93572E-03 -0.58637E-04
  0.39100E-02  0.00000E+00 -0.58637E-04
  0.34621E-02  0.18171E-02 -0.58637E-04
  0.29267E-02  0.25928E-02 -0.58637E-04
  0.22211E-02  0.32179E-02 -0.58637E-04
  0.13865E-02  0.36559E-02 -0.58637E-04
  0.47130E-03  0.38815E-02 -0.58637E-04
 -0.47130E-03  0.38815E-02 -0.58637E-04
 -0.13865E-02  0.36559E-02 -0.58637E-04
 -0.22211E-02  0.32179E-02 -0.58637E-04
 -0.29267E-02  0.25928E-02 -0.58637E-04
 -0.34621E-02  0.18171E-02 -0.58637E-04
 -0.37964E-02  0.93572E-03 -0.58637E-04
 -0.39100E-02 -0.47884E-18 -0.58637E-04
 -0.37964E-02 -0.93572E-03 -0.58637E-04
 -0.34621E-02 -0.18171E-02 -0.58637E-04
 -0.29267E-02 -0.25928E-02 -0.58637E-04
 -0.22211E-02 -0.32179E-02 -0.58637E-04
 -0.13865E-02 -0.36559E-02 -0.58637E-04
 -0.47130E-03 -0.38815E-02 -0.58637E-04
  0.47130E-03 -0.38815E-02 -0.58637E-04
  0.13865E-02 -0.36559E-02 -0.58637E-04
  0.22211E-02 -0.32179E-02 -0.58637E-04
  0.29267E-02 -0.25928E-02 -0.58637E-04
  0.34621E-02 -0.18171E-02 -0.58637E-04
  0.37964E-02 -0.93572E-03 -0.58637E-04
  0.10352E-02  0.68512E-03  0.92049E-03
  0.17413E-02  0.12454E-02  0.92049E-03
  0.23150E-02  0.60302E-03  0.92049E-03
  0.16651E-02 -0.32115E-03  0.92049E-03
  0.30371E-02  0.15681E-03  0.92049E-03
  0.27866E-02 -0.66558E-03  0.92049E-03
  0.12827E-02  0.18453E-02  0.92049E-03
  0.64600E-03  0.14797E-02  0.92049E-03
  0.12180E-03  0.32459E-03  0.92049E-03
 -0.13230E-03  0.12058E-02  0.92049E-03
  0.93771E-03  0.22776E-02  0.92049E-03
  0.11252E-02  0.28189E-02  0.92049E-03
  0.17404E-02  0.24270E-02  0.92049E-03
  0.40469E-03  0.21693E-02  0.92049E-03
  0.39742E-03  0.29308E-02  0.92049E-03
 -0.77081E-03 -0.10064E-02  0.92049E-03
 -0.86843E-03  0.96773E-04  0.92049E-03
  0.45134E-03 -0.68721E-03  0.92049E-03
 -0.18365E-02 -0.70887E-03  0.92049E-03
 -0.18419E-02  0.85467E-04  0.92049E-03
 -0.27232E-02 -0.77490E-03  0.92049E-03
 -0.27968E-02  0.46726E-04  0.92049E-03
 -0.25399E-02 -0.15184E-02  0.92049E-03
 -0.19382E-02 -0.13208E-02  0.92049E-03
 -0.99046E-03  0.10183E-02  0.92049E-03
 -0.14457E-02 -0.17316E-02  0.92049E-03
 -0.31133E-03  0.20283E-02  0.92049E-03
 -0.10992E-02  0.18586E-02  0.92049E-03
 -0.18834E-02  0.17175E-02  0.92049E-03
 -0.18685E-02  0.91467E-03  0.92049E-03
 -0.16476E-03 -0.19806E-02  0.92049E-03
 -0.95405E-03 -0.23494E-02  0.92049E-03
  0.77402E-03 -0.17073E-02  0.92049E-03
  0.17202E-02 -0.14948E-02  0.92049E-03
  0.32122E-02  0.78248E-03  0.92049E-03
  0.28041E-02  0.12571E-02  0.92049E-03
  0.23034E-02  0.18673E-02  0.92049E-03
 -0.40310E-03  0.28802E-02  0.92049E-03
 -0.12093E-02  0.27103E-02  0.92049E-03
 -0.19440E-02  0.24593E-02  0.92049E-03
 -0.25022E-02  0.22358E-02  0.92049E-03
 -0.26351E-02  0.16502E-02  0.92049E-03
 -0.27602E-02  0.88069E-03  0.92049E-03
 -0.21154E-02 -0.21374E-02  0.92049E-03
 -0.16097E-02 -0.26936E-02  0.92049E-03
 -0.11964E-02 -0.31291E-02  0.92049E-03
 -0.59409E-03 -0.30381E-02  0.92049E-03
  0.20018E-03 -0.28751E-02  0.92049E-03
  0.10518E-02 -0.26482E-02  0.92049E-03
  0.18422E-02 -0.23752E-02  0.92049E-03
  0.24571E-02 -0.21565E-02  0.92049E-03
  0.26038E-02 -0.15081E-02  0.92049E-03
  0.37964E-02  0.93572E-03  0.92049E-03
  0.39100E-02  0.00000E+00  0.92049E-03
  0.34621E-02  0.18171E-02  0.92049E-03
  0.29267E-02  0.25928E-02  0.92049E-03
  0.22211E-02  0.32179E-02  0.92049E-03
  0.13865E-02  0.36559E-02  0.92049E-03
  0.47130E-03  0.38815E-02  0.92049E-03
 -0.47130E-03  0.38815E-02  0.92049E-03
 -0.13865E-02  0.36559E-02  0.92049E-03
 -0.22211E-02  0.32179E-02  0.92049E-03
 -0.29267E-02  0.25928E-02  0.92049E-03
 -0.34621E-02  0.18171E-02  0.92049E-03
 -0.37964E-02  0.93572E-03  0.92049E-03
 -0.39100E-02 -0.47884E-18  0.92049E-03
 -0.37964E-02 -0.93572E-03  0.92049E-03
 -0.34621E-02 -0.18171E-02  0.92049E-03
 -0.29267E-02 -0.25928E-02  0.92049E-03
 -0.22211E-02 -0.32179E-02  0.92049E-03
 -0.13865E-02 -0.36559E-02  0.92049E-03
 -0.47130E-03 -0.38815E-02  0.92049E-03
  0.47130E-03 -0.38815E-02  0.92049E-03
  0.13865E-02 -0.36559E-02  0.92049E-03
  0.22211E-02 -0.32179E-02  0.92049E-03
  0.29267E-02 -0.25928E-02  0.92049E-03
  0.34621E-02 -0.18171E-02  0.92049E-03
  0.37964E-02 -0.93572E-03  0.92049E-03
  0.10351E-02  0.68567E-03  0.18997E-02
  0.17411E-02  0.12460E-02  0.18997E-02
  0.23149E-02  0.60355E-03  0.18997E-02
  0.16649E-02 -0.32040E-03  0.18997E-02
  0.30371E-02  0.15718E-03  0.18997E-02
  0.27870E-02 -0.66509E-03  0.18997E-02
  0.12826E-02  0.18455E-02  0.18997E-02
  0.64575E-03  0.14807E-02  0.18997E-02
  0.12154E-03  0.32574E-03  0.18997E-02
 -0.13248E-03  0.12075E-02  0.18997E-02
  0.93738E-03  0.22777E-02  0.18997E-02
  0.11249E-02  0.28185E-02  0.18997E-02
  0.17400E-02  0.24271E-02  0.18997E-02
  0.40463E-03  0.21693E-02  0.18997E-02
  0.39740E-03  0.29306E-02  0.18997E-02
 -0.77117E-03 -0.10065E-02  0.18997E-02
 -0.86854E-03  0.97583E-04  0.18997E-02
  0.45089E-03 -0.68648E-03  0.18997E-02
 -0.18368E-02 -0.70873E-03  0.18997E-02
 -0.18418E-02  0.85591E-04  0.18997E-02
 -0.27232E-02 -0.77474E-03  0.18997E-02
 -0.27965E-02  0.47000E-04  0.18997E-02
 -0.25400E-02 -0.15183E-02  0.18997E-02
 -0.19386E-02 -0.13207E-02  0.18997E-02
 -0.99032E-03  0.10197E-02  0.18997E-02
 -0.14460E-02 -0.17316E-02  0.18997E-02
 -0.31113E-03  0.20285E-02  0.18997E-02
 -0.10988E-02  0.18585E-02  0.18997E-02
 -0.18833E-02  0.17175E-02  0.18997E-02
 -0.18683E-02  0.91491E-03  0.18997E-02
 -0.16504E-03 -0.19806E-02  0.18997E-02
 -0.95465E-03 -0.23495E-02  0.18997E-02
  0.77336E-03 -0.17073E-02  0.18997E-02
  0.17201E-02 -0.14950E-02  0.18997E-02
  0.32125E-02  0.78348E-03  0.18997E-02
  0.28041E-02  0.12576E-02  0.18997E-02
  0.23033E-02  0.18674E-02  0.18997E-02
 -0.40296E-03  0.28792E-02  0.18997E-02
 -0.12093E-02  0.27099E-02  0.18997E-02
 -0.19439E-02  0.24591E-02  0.18997E-02
 -0.25022E-02  0.22358E-02  0.18997E-02
 -0.26350E-02  0.16502E-02  0.18997E-02
 -0.27599E-02  0.88095E-03  0.18997E-02
 -0.21155E-02 -0.21374E-02  0.18997E-02
 -0.16097E-02 -0.26936E-02  0.18997E-02
 -0.11965E-02 -0.31290E-02  0.18997E-02
 -0.59444E-03 -0.30381E-02  0.18997E-02
  0.19977E-03 -0.28751E-02  0.18997E-02
  0.10515E-02 -0.26484E-02  0.18997E-02
  0.18423E-02 -0.23754E-02  0.18997E-02
  0.24573E-02 -0.21571E-02  0.18997E-02
  0.26039E-02 -0.15080E-02  0.18997E-02
  0.37964E-02  0.93572E-03  0.18997E-02
  0.39100E-02  0.00000E+00  0.18997E-02
  0.34621E-02  0.18171E-02  0.18997E-02
  0.29267E-02  0.25928E-02  0.18997E-02
  0.22211E-02  0.32179E-02  0.18997E-02
  0.13865E-02  0.36559E-02  0.18997E-02
  0.47130E-03  0.38815E-02  0.18997E-02
 -0.47130E-03  0.38815E-02  0.18997E-02
 -0.13865E-02  0.36559E-02  0.18997E-02
 -0.22211E-02  0.32179E-02  0.18997E-02
 -0.29267E-02  0.25928E-02  0.18997E-02
 -0.34621E-02  0.18171E-02  0.18997E-02
 -0.37964E-02  0.93572E-03  0.18997E-02
 -0.39100E-02  0.47884E-18  0.18997E-02
 -0.37964E-02 -0.93572E-03  0.18997E-02
 -0.34621E-02 -0.18171E-02  0.18997E-02
 -0.29267E-02 -0.25928E-02  0.18997E-02
 -0.22211E-02 -0.32179E-02  0.18997E-02
 -0.13865E-02 -0.36559E-02  0.18997E-02
 -0.47130E-03 -0.38815E-02  0.18997E-02
  0.47130E-03 -0.38815E-02  0.18997E-02
  0.13865E-02 -0.36559E-02  0.18997E-02
  0.22211E-02 -0.32179E-02  0.18997E-02
  0.29267E-02 -0.25928E-02  0.18997E-02
  0.34621E-02 -0.18171E-02  0.18997E-02
  0.37964E-02 -0.93572E-03  0.18997E-02
  
CELLS       3486               17724
       1       0
       1       1
       1       2
       1       3
       1       4
       1       5
       1       6
       1       7
       1       8
       1       9
       1      10
       1      11
       1      12
       1      13
       1      14
       1      15
       1      16
       1      17
       1      18
       1      19
       1      20
       1      21
       1      22
       1      23
       1      24
       1      25
       1      26
       1      27
       1      28
       1      29
       1      30
       1      31
       1      32
       1      33
       1      34
       1      35
       1      36
       1      37
       1      38
       1      39
       1      40
       1      41
       1      42
       1      43
       1      44
       1      45
       1      46
       1      47
       1      48
       1      49
       1      50
       1      51
       1      52
       1      53
       1      54
       1      55
       1      56
       1      57
       1      58
       1      59
       1      60
       1      61
       1      62
       1      63
       1      64
       1      65
       1      66
       1      67
       1      68
       1      69
       1      70
       1      71
       1      72
       1      73
       1      74
       1      75
       1      76
       1      77
       1      78
       1      79
       1      80
       1      81
       1      82
       1      83
       1      84
       1      85
       1      86
       1      87
       1      88
       1      89
       1      90
       1      91
       1      92
       1      93
       1      94
       1      95
       1      96
       1      97
       1      98
       1      99
       1     100
       1     101
       1     102
       1     103
       1     104
       1     105
       1     106
       1     107
       1     108
       1     109
       1     110
       1     111
       1     112
       1     113
       1     114
       1     115
       1     116
       1     117
       1     118
       1     119
       1     120
       1     121
       1     122
       1     123
       1     124
       1     125
       1     126
       1     127
       1     128
       1     129
       1     130
       1     131
       1     132
       1     133
       1     134
       1     135
       1     136
       1     137
       1     138
       1     139
       1     140
       1     141
       1     142
       1     143
       1     144
       1     145
       1     146
       1     147
       1     148
       1     149
       1     150
       1     151
       1     152
       1     153
       1     154
       1     155
       1     156
       1     157
       1     158
       1     159
       1     160
       1     161
       1     162
       1     163
       1     164
       1     165
       1     166
       1     167
       1     168
       1     169
       1     170
       1     171
       1     172
       1     173
       1     174
       1     175
       1     176
       1     177
       1     178
       1     179
       1     180
       1     181
       1     182
       1     183
       1     184
       1     185
       1     186
       1     187
       1     188
       1     189
       1     190
       1     191
       1     192
       1     193
       1     194
       1     195
       1     196
       1     197
       1     198
       1     199
       1     200
       1     201
       1     202
       1     203
       1     204
       1     205
       1     206
       1     207
       1     208
       1     209
       1     210
       1     211
       1     212
       1     213
       1     214
       1     215
       1     216
       1     217
       1     218
       1     219
       1     220
       1     221
       1     222
       1     223
       1     224
       1     225
       1     226
       1     227
       1     228
       1     229
       1     230
       1     231
       1     232
       1     233
       1     234
       1     235
       1     236
       1     237
       1     238
       1     239
       1     240
       1     241
       1     242
       1     243
       1     244
       1     245
       1     246
       1     247
       1     248
       1     249
       1     250
       1     251
       1     252
       1     253
       1     254
       1     255
       1     256
       1     257
       1     258
       1     259
       1     260
       1     261
       1     262
       1     263
       1     264
       1     265
       1     266
       1     267
       1     268
       1     269
       1     270
       1     271
       1     272
       1     273
       1     274
       1     275
       1     276
       1     277
       1     278
       1     279
       1     280
       1     281
       1     282
       1     283
       1     284
       1     285
       1     286
       1     287
       1     288
       1     289
       1     290
       1     291
       1     292
       1     293
       1     294
       1     295
       1     296
       1     297
       1     298
       1     299
       1     300
       1     301
       1     302
       1     303
       1     304
       1     305
       1     306
       1     307
       1     308
       1     309
       1     310
       1     311
       1     312
       1     313
       1     314
       1     315
       1     316
       1     317
       1     318
       1     319
       1     320
       1     321
       1     322
       1     323
       1     324
       1     325
       1     326
       1     327
       1     328
       1     329
       1     330
       1     331
       1     332
       1     333
       1     334
       1     335
       1     336
       1     337
       1     338
       1     339
       1     340
       1     341
       1     342
       1     343
       1     344
       1     345
       1     346
       1     347
       1     348
       1     349
       1     350
       1     351
       1     352
       1     353
       1     354
       1     355
       1     356
       1     357
       1     358
       1     359
       1     360
       1     361
       1     362
       1     363
       1     364
       1     365
       1     366
       1     367
       1     368
       1     369
       1     370
       1     371
       1     372
       1     373
       1     374
       1     375
       1     376
       1     377
       1     378
       1     379
       1     380
       1     381
       1     382
       1     383
       1     384
       1     385
       1     386
       1     387
       1     388
       1     389
       1     390
       1     391
       1     392
       1     393
       1     394
       1     395
       1     396
       1     397
       1     398
       1     399
       1     400
       1     401
       1     402
       1     403
       1     404
       1     405
       1     406
       1     407
       1     408
       1     409
       1     410
       1     411
       1     412
       1     413
       1     414
       1     415
       1     416
       1     417
       1     418
       1     419
       1     420
       1     421
       1     422
       1     423
       1     424
       1     425
       1     426
       1     427
       1     428
       1     429
       1     430
       1     431
       1     432
       1     433
       1     434
       1     435
       1     436
       1     437
       1     438
       1     439
       1     440
       1     441
       1     442
       1     443
       1     444
       1     445
       1     446
       1     447
       1     448
       1     449
       1     450
       1     451
       1     452
       1     453
       1     454
       1     455
       1     456
       1     457
       1     458
       1     459
       1     460
       1     461
       1     462
       1     463
       1     464
       1     465
       1     466
       1     467
       1     468
       1     469
       1     470
       1     471
       1     472
       1     473
       1     474
       1     475
       1     476
       1     477
       1     478
       1     479
       1     480
       1     481
       1     482
       1     483
       1     484
       1     485
       1     486
       1     487
       1     488
       1     489
       1     490
       1     491
       1     492
       1     493
       1     494
       1     495
       1     496
       1     497
       1     498
       1     499
       1     500
       1     501
       1     502
       1     503
       1     504
       1     505
       1     506
       1     507
       1     508
       1     509
       1     510
       1     511
       1     512
       1     513
       1     514
       1     515
       1     516
       1     517
       1     518
       1     519
       1     520
       1     521
       1     522
       1     523
       1     524
       1     525
       1     526
       1     527
       1     528
       1     529
       1     530
       1     531
       1     532
       1     533
       1     534
       1     535
       1     536
       1     537
       1     538
       1     539
       1     540
       1     541
       1     542
       1     543
       1     544
       1     545
       1     546
       1     547
       1     548
       1     549
       1     550
       1     551
       1     552
       1     553
       1     554
       1     555
       1     556
       1     557
       1     558
       1     559
       1     560
       1     561
       1     562
       1     563
       1     564
       1     565
       1     566
       1     567
       1     568
       1     569
       1     570
       1     571
       1     572
       1     573
       1     574
       1     575
       1     576
       1     577
       1     578
       1     579
       1     580
       1     581
       1     582
       1     583
       1     584
       1     585
       1     586
       1     587
       1     588
       1     589
       1     590
       1     591
       1     592
       1     593
       1     594
       1     595
       1     596
       1     597
       1     598
       1     599
       1     600
       1     601
       1     602
       1     603
       1     604
       1     605
       1     606
       1     607
       1     608
       1     609
       1     610
       1     611
       1     612
       1     613
       1     614
       1     615
       1     616
       1     617
       1     618
       1     619
       1     620
       1     621
       1     622
       1     623
       1     624
       1     625
       1     626
       1     627
       1     628
       1     629
       1     630
       1     631
       1     632
       1     633
       1     634
       1     635
       1     636
       1     637
       1     638
       1     639
       1     640
       1     641
       1     642
       1     643
       1     644
       1     645
       1     646
       1     647
       1     648
       1     649
       1     650
       1     651
       1     652
       1     653
       1     654
       1     655
       1     656
       1     657
       1     658
       1     659
       1     660
       1     661
       1     662
       1     663
       1     664
       1     665
       1     666
       1     667
       1     668
       1     669
       1     670
       1     671
       1     672
       1     673
       1     674
       1     675
       1     676
       1     677
       1     678
       1     679
       1     680
       1     681
       1     682
       1     683
       1     684
       1     685
       1     686
       1     687
       1     688
       1     689
       1     690
       1     691
       1     692
       1     693
       1     694
       1     695
       1     696
       1     697
       1     698
       1     699
       1     700
       1     701
       1     702
       1     703
       1     704
       1     705
       1     706
       1     707
       1     708
       1     709
       1     710
       1     711
       1     712
       1     713
       1     714
       1     715
       1     716
       1     717
       1     718
       1     719
       1     720
       1     721
       1     722
       1     723
       1     724
       1     725
       1     726
       1     727
       1     728
       1     729
       1     730
       1     731
       1     732
       1     733
       1     734
       1     735
       1     736
       1     737
       1     738
       1     739
       1     740
       1     741
       1     742
       1     743
       1     744
       1     745
       1     746
       1     747
       1     748
       1     749
       1     750
       1     751
       1     752
       1     753
       1     754
       1     755
       1     756
       1     757
       1     758
       1     759
       1     760
       1     761
       1     762
       1     763
       1     764
       1     765
       1     766
       1     767
       1     768
       1     769
       1     770
       1     771
       1     772
       1     773
       1     774
       1     775
       1     776
       1     777
       1     778
       1     779
       1     780
       1     781
       1     782
       1     783
       1     784
       1     785
       1     786
       1     787
       1     788
       1     789
       1     790
       1     791
       1     792
       1     793
       1     794
       1     795
       1     796
       1     797
       1     798
       1     799
       1     800
       1     801
       1     802
       1     803
       1     804
       1     805
       1     806
       1     807
       1     808
       1     809
       1     810
       1     811
       1     812
       1     813
       1     814
       1     815
       1     816
       1     817
       1     818
       1     819
       1     820
       1     821
       1     822
       1     823
       1     824
       1     825
       1     826
       1     827
       1     828
       1     829
       1     830
       1     831
       1     832
       1     833
       1     834
       1     835
       1     836
       1     837
       1     838
       1     839
       1     840
       1     841
       1     842
       1     843
       1     844
       1     845
       1     846
       1     847
       1     848
       1     849
       1     850
       1     851
       1     852
       1     853
       1     854
       1     855
       1     856
       1     857
       1     858
       1     859
       1     860
       1     861
       1     862
       1     863
       1     864
       1     865
       1     866
       1     867
       1     868
       1     869
       1     870
       1     871
       1     872
       1     873
       1     874
       1     875
       1     876
       1     877
       1     878
       1     879
       1     880
       1     881
       1     882
       1     883
       1     884
       1     885
       1     886
       1     887
       1     888
       1     889
       1     890
       1     891
       1     892
       1     893
       1     894
       1     895
       1     896
       1     897
       1     898
       1     899
       1     900
       1     901
       1     902
       1     903
       1     904
       1     905
       1     906
       1     907
       1     908
       1     909
       1     910
       1     911
       1     912
       1     913
       1     914
       1     915
       1     916
       1     917
       1     918
       1     919
       1     920
       1     921
       1     922
       1     923
       1     924
       1     925
       1     926
       1     927
       1     928
       1     929
       1     930
       1     931
       1     932
       1     933
       1     934
       1     935
       1     936
       1     937
       1     938
       1     939
       1     940
       1     941
       1     942
       1     943
       1     944
       1     945
       1     946
       1     947
       1     948
       1     949
       1     950
       1     951
       1     952
       1     953
       1     954
       1     955
       1     956
       1     957
       1     958
       1     959
       1     960
       1     961
       1     962
       1     963
       1     964
       1     965
       1     966
       1     967
       1     968
       1     969
       1     970
       1     971
       1     972
       1     973
       1     974
       1     975
       1     976
       1     977
       1     978
       1     979
       1     980
       1     981
       1     982
       1     983
       1     984
       1     985
       1     986
       1     987
       1     988
       1     989
       1     990
       1     991
       1     992
       1     993
       1     994
       1     995
       1     996
       1     997
       1     998
       1     999
       1    1000
       1    1001
       1    1002
       1    1003
       1    1004
       1    1005
       1    1006
       1    1007
       1    1008
       1    1009
       1    1010
       1    1011
       1    1012
       1    1013
       1    1014
       1    1015
       1    1016
       1    1017
       1    1018
       1    1019
       1    1020
       1    1021
       1    1022
       1    1023
       1    1024
       1    1025
       1    1026
       1    1027
       1    1028
       1    1029
       1    1030
       1    1031
       1    1032
       1    1033
       1    1034
       1    1035
       1    1036
       1    1037
       1    1038
       1    1039
       1    1040
       1    1041
       1    1042
       1    1043
       1    1044
       1    1045
       1    1046
       1    1047
       1    1048
       1    1049
       1    1050
       1    1051
       1    1052
       1    1053
       1    1054
       1    1055
       1    1056
       1    1057
       1    1058
       1    1059
       1    1060
       1    1061
       1    1062
       1    1063
       1    1064
       1    1065
       1    1066
       1    1067
       1    1068
       1    1069
       1    1070
       1    1071
       1    1072
       1    1073
       1    1074
       1    1075
       1    1076
       1    1077
       1    1078
       1    1079
       1    1080
       1    1081
       1    1082
       1    1083
       1    1084
       1    1085
       1    1086
       1    1087
       1    1088
       1    1089
       1    1090
       1    1091
       1    1092
       1    1093
       1    1094
       1    1095
       1    1096
       1    1097
       1    1098
       1    1099
       1    1100
       1    1101
       1    1102
       1    1103
       1    1104
       1    1105
       1    1106
       1    1107
       1    1108
       1    1109
       1    1110
       1    1111
       1    1112
       1    1113
       1    1114
       1    1115
       1    1116
       1    1117
       1    1118
       1    1119
       1    1120
       1    1121
       1    1122
       1    1123
       1    1124
       1    1125
       1    1126
       1    1127
       1    1128
       1    1129
       1    1130
       1    1131
       1    1132
       1    1133
       1    1134
       1    1135
       1    1136
       1    1137
       1    1138
       1    1139
       1    1140
       1    1141
       1    1142
       1    1143
       1    1144
       1    1145
       1    1146
       1    1147
       1    1148
       1    1149
       1    1150
       1    1151
       1    1152
       1    1153
       1    1154
       1    1155
       1    1156
       1    1157
       1    1158
       1    1159
       1    1160
       1    1161
       1    1162
       1    1163
       1    1164
       1    1165
       1    1166
       1    1167
       1    1168
       1    1169
       1    1170
       1    1171
       1    1172
       1    1173
       1    1174
       1    1175
       1    1176
       1    1177
       1    1178
       1    1179
       1    1180
       1    1181
       1    1182
       1    1183
       1    1184
       1    1185
       1    1186
       1    1187
       1    1188
       1    1189
       1    1190
       1    1191
       1    1192
       1    1193
       1    1194
       1    1195
       1    1196
       1    1197
       1    1198
       1    1199
       1    1200
       1    1201
       1    1202
       1    1203
       1    1204
       1    1205
       1    1206
       1    1207
       1    1208
       1    1209
       1    1210
       1    1211
       1    1212
       1    1213
       1    1214
       1    1215
       1    1216
       1    1217
       1    1218
       1    1219
       1    1220
       1    1221
       1    1222
       1    1223
       1    1224
       1    1225
       1    1226
       1    1227
       1    1228
       1    1229
       1    1230
       1    1231
       1    1232
       1    1233
       1    1234
       1    1235
       1    1236
       1    1237
       1    1238
       1    1239
       1    1240
       1    1241
       1    1242
       1    1243
       1    1244
       1    1245
       1    1246
       1    1247
       1    1248
       1    1249
       1    1250
       1    1251
       1    1252
       1    1253
       1    1254
       1    1255
       1    1256
       1    1257
       1    1258
       1    1259
       1    1260
       1    1261
       1    1262
       1    1263
       1    1264
       1    1265
       1    1266
       1    1267
       1    1268
       1    1269
       1    1270
       1    1271
       1    1272
       1    1273
       1    1274
       1    1275
       1    1276
       1    1277
       1    1278
       1    1279
       1    1280
       1    1281
       1    1282
       1    1283
       1    1284
       1    1285
       1    1286
       1    1287
       1    1288
       1    1289
       1    1290
       1    1291
       1    1292
       1    1293
       1    1294
       1    1295
       1    1296
       1    1297
       1    1298
       1    1299
       1    1300
       1    1301
       1    1302
       1    1303
       1    1304
       1    1305
       1    1306
       1    1307
       1    1308
       1    1309
       1    1310
       1    1311
       1    1312
       1    1313
       1    1314
       1    1315
       1    1316
       1    1317
       1    1318
       1    1319
       1    1320
       1    1321
       1    1322
       1    1323
       1    1324
       1    1325
       1    1326
       1    1327
       1    1328
       1    1329
       1    1330
       1    1331
       1    1332
       1    1333
       1    1334
       1    1335
       1    1336
       1    1337
       1    1338
       1    1339
       1    1340
       1    1341
       1    1342
       1    1343
       1    1344
       1    1345
       1    1346
       1    1347
       1    1348
       1    1349
       1    1350
       1    1351
       1    1352
       1    1353
       1    1354
       1    1355
       1    1356
       1    1357
       1    1358
       1    1359
       1    1360
       1    1361
       1    1362
       1    1363
       1    1364
       1    1365
       1    1366
       1    1367
       1    1368
       1    1369
       1    1370
       1    1371
       1    1372
       1    1373
       1    1374
       1    1375
       1    1376
       1    1377
       1    1378
       1    1379
       1    1380
       1    1381
       1    1382
       1    1383
       1    1384
       1    1385
       1    1386
       1    1387
       1    1388
       1    1389
       1    1390
       1    1391
       1    1392
       1    1393
       1    1394
       1    1395
       1    1396
       1    1397
       1    1398
       1    1399
       1    1400
       1    1401
       1    1402
       1    1403
       1    1404
       1    1405
       1    1406
       1    1407
       1    1408
       1    1409
       1    1410
       1    1411
       1    1412
       1    1413
       1    1414
       1    1415
       1    1416
       1    1417
       1    1418
       1    1419
       1    1420
       1    1421
       1    1422
       1    1423
       1    1424
       1    1425
       1    1426
       1    1427
       1    1428
       1    1429
       1    1430
       1    1431
       1    1432
       1    1433
       1    1434
       1    1435
       1    1436
       1    1437
       1    1438
       1    1439
       1    1440
       1    1441
       1    1442
       1    1443
       1    1444
       1    1445
       1    1446
       1    1447
       1    1448
       1    1449
       1    1450
       1    1451
       1    1452
       1    1453
       1    1454
       1    1455
       1    1456
       1    1457
       1    1458
       1    1459
       1    1460
       1    1461
       1    1462
       1    1463
       1    1464
       1    1465
       1    1466
       1    1467
       1    1468
       1    1469
       1    1470
       1    1471
       1    1472
       1    1473
       1    1474
       1    1475
       1    1476
       1    1477
       1    1478
       1    1479
       1    1480
       1    1481
       1    1482
       1    1483
       1    1484
       1    1485
       1    1486
       1    1487
       1    1488
       1    1489
       1    1490
       1    1491
       1    1492
       1    1493
       1    1494
       1    1495
       1    1496
       1    1497
       1    1498
       1    1499
       1    1500
       1    1501
       1    1502
       1    1503
       1    1504
       1    1505
       1    1506
       1    1507
       1    1508
       1    1509
       1    1510
       1    1511
       1    1512
       1    1513
       1    1514
       1    1515
       1    1516
       1    1517
       1    1518
       1    1519
       1    1520
       1    1521
       1    1522
       1    1523
       1    1524
       1    1525
       1    1526
       1    1527
       1    1528
       1    1529
       1    1530
       1    1531
       1    1532
       1    1533
       1    1534
       1    1535
       1    1536
       1    1537
       1    1538
       1    1539
       1    1540
       1    1541
       1    1542
       1    1543
       1    1544
       1    1545
       1    1546
       1    1547
       1    1548
       1    1549
       1    1550
       1    1551
       1    1552
       1    1553
       1    1554
       1    1555
       1    1556
       1    1557
       1    1558
       1    1559
       1    1560
       1    1561
       1    1562
       1    1563
       1    1564
       1    1565
       1    1566
       1    1567
       1    1568
       1    1569
       1    1570
       1    1571
       1    1572
       1    1573
       1    1574
       1    1575
       1    1576
       1    1577
       1    1578
       1    1579
       1    1580
       1    1581
       1    1582
       1    1583
       1    1584
       1    1585
       1    1586
       1    1587
       1    1588
       1    1589
       1    1590
       1    1591
       1    1592
       1    1593
       1    1594
       1    1595
       1    1596
       1    1597
       1    1598
       1    1599
       1    1600
       1    1601
       1    1602
       1    1603
       1    1604
       1    1605
       1    1606
       1    1607
       1    1608
       1    1609
       1    1610
       1    1611
       1    1612
       1    1613
       1    1614
       1    1615
       1    1616
       1    1617
       1    1618
       1    1619
       1    1620
       1    1621
       1    1622
       1    1623
       1    1624
       1    1625
       1    1626
       1    1627
       1    1628
       1    1629
       1    1630
       1    1631
       1    1632
       1    1633
       1    1634
       1    1635
       1    1636
       1    1637
       1    1638
       1    1639
       1    1640
       1    1641
       1    1642
       1    1643
       1    1644
       1    1645
       1    1646
       1    1647
       1    1648
       1    1649
       1    1650
       1    1651
       1    1652
       1    1653
       1    1654
       1    1655
       1    1656
       1    1657
       1    1658
       1    1659
       1    1660
       1    1661
       1    1662
       1    1663
       1    1664
       1    1665
       1    1666
       1    1667
       1    1668
       1    1669
       1    1670
       1    1671
       1    1672
       1    1673
       1    1674
       1    1675
       1    1676
       1    1677
       1    1678
       1    1679
       1    1680
       1    1681
       1    1682
       1    1683
       1    1684
       1    1685
       1    1686
       1    1687
       1    1688
       1    1689
       1    1690
       1    1691
       1    1692
       1    1693
       1    1694
       1    1695
       1    1696
       1    1697
       1    1698
       1    1699
       1    1700
       1    1701
       1    1702
       1    1703
       1    1704
       1    1705
       1    1706
       1    1707
       1    1708
       1    1709
       1    1710
       1    1711
       1    1712
       1    1713
       1    1714
       1    1715
       1    1716
       1    1717
       1    1718
       1    1719
       1    1720
       1    1721
       1    1722
       1    1723
       1    1724
       1    1725
       1    1726
       1    1727
       1    1728
       1    1729
       1    1730
       1    1731
       1    1732
       1    1733
       1    1734
       1    1735
       1    1736
       1    1737
       1    1738
       1    1739
       1    1740
       1    1741
       1    1742
       1    1743
       1    1744
       1    1745
       1    1746
       1    1747
       1    1748
       1    1749
       1    1750
       1    1751
       1    1752
       1    1753
       1    1754
       1    1755
       1    1756
       1    1757
       1    1758
       1    1759
       1    1760
       1    1761
       1    1762
       1    1763
       1    1764
       1    1765
       1    1766
       1    1767
       1    1768
       1    1769
       1    1770
       1    1771
       1    1772
       1    1773
       1    1774
       1    1775
       1    1776
       1    1777
       1    1778
       1    1779
       1    1780
       1    1781
       1    1782
       1    1783
       1    1784
       1    1785
       1    1786
       1    1787
       1    1788
       1    1789
       1    1790
       1    1791
       1    1792
       1    1793
       1    1794
       1    1795
       1    1796
       1    1797
       1    1798
       1    1799
       1    1800
       1    1801
       1    1802
       1    1803
       1    1804
       1    1805
       1    1806
       1    1807
       1    1808
       1    1809
       1    1810
       1    1811
       1    1812
       1    1813
       1    1814
       1    1815
       1    1816
       1    1817
       1    1818
       1    1819
       1    1820
       1    1821
       1    1822
       1    1823
       1    1824
       1    1825
       1    1826
       1    1827
       1    1828
       1    1829
       1    1830
       1    1831
       1    1832
       1    1833
       1    1834
       1    1835
       1    1836
       1    1837
       1    1838
       1    1839
       1    1840
       1    1841
       1    1842
       1    1843
       1    1844
       1    1845
       1    1846
       1    1847
       1    1848
       1    1849
       1    1850
       1    1851
       1    1852
       1    1853
       1    1854
       1    1855
       1    1856
       1    1857
       1    1858
       1    1859
       1    1860
       1    1861
       1    1862
       1    1863
       1    1864
       1    1865
       1    1866
       1    1867
       1    1868
       1    1869
       1    1870
       1    1871
       1    1872
       1    1873
       1    1874
       1    1875
       1    1876
       1    1877
       1    1878
       1    1879
       1    1880
       1    1881
       1    1882
       1    1883
       1    1884
       1    1885
       1    1886
       1    1887
       1    1888
       1    1889
       1    1890
       1    1891
       1    1892
       1    1893
       1    1894
       1    1895
       1    1896
       1    1897
       1    1898
       1    1899
       1    1900
       1    1901
       1    1902
       1    1903
       1    1904
       1    1905
       1    1906
       1    1907
       1    1908
       1    1909
       1    1910
       1    1911
       1    1912
       1    1913
       1    1914
       1    1915
       1    1916
       1    1917
       1    1918
       1    1919
       1    1920
       1    1921
       1    1922
       1    1923
       1    1924
       1    1925
       1    1926
       1    1927
       1    1928
       1    1929
       1    1930
       1    1931
       1    1932
       1    1933
       1    1934
       1    1935
       1    1936
       1    1937
       1    1938
       1    1939
       1    1940
       1    1941
       1    1942
       1    1943
       1    1944
       1    1945
       1    1946
       1    1947
       1    1948
       1    1949
       8       0       1       2       3       4       5       6       7
       8       2       8       9       3       6      10      11       7
       8      12       1       0      13      14       5       4      15
       8       0      16      17      13       4      18      19      15
       8      20      21      22      12      23      24      25      14
       8      26      27      21      20      28      29      24      23
       8      13      26      20      12      15      28      23      14
       8      30      31      16      32      33      34      18      35
       8      36      37      31      30      38      39      34      33
       8      40      41      37      36      42      43      39      38
       8      44      40      36      45      46      42      38      47
       8      48      17      16      31      49      19      18      34
       8      30      50      45      36      33      51      47      38
       8       0       3      32      16       4       7      35      18
       8      52      26      13      17      53      28      15      19
       8      54      52      17      48      55      53      19      49
       8      56      54      48      57      58      55      49      59
       8      37      57      48      31      39      59      49      34
       8      60      61      50      30      62      63      51      33
       8      64      60      30      32      65      62      33      35
       8      66      64      32       3      67      65      35       7
       8      68       8       2      69      70      10       6      71
       8      72      69       2       1      73      71       6       5
       8      22      72       1      12      25      73       5      14
       8      74      27      26      52      75      29      28      53
       8      76      74      52      54      77      75      53      55
       8      78      76      54      56      79      77      55      58
       8      80      78      56      81      82      79      58      83
       8      84      81      56      57      85      83      58      59
       8      41      84      57      37      43      85      59      39
       8      86      44      45      50      87      46      47      51
       8      88      86      50      61      89      87      51      63
       8      90      88      61      91      92      89      63      93
       8      94      91      61      60      95      93      63      62
       8      96      94      60      64      97      95      62      65
       8      98      96      64      66      99      97      65      67
       8     100      98      66     101     102      99      67     103
       8       9     101      66       3      11     103      67       7
       8     104     105       8      68     106     107      10      70
       8     108     104      68      69     109     106      70      71
       8     110     108      69      72     111     109      71      73
       8     112     110      72      22     113     111      73      25
       8     114     112      22      21     115     113      25      24
       8     116     114      21      27     117     115      24      29
       8     118     116      27      74     119     117      29      75
       8     120     118      74      76     121     119      75      77
       8     122     120      76      78     123     121      77      79
       8     124     122      78      80     125     123      79      82
       8     126     124      80      81     127     125      82      83
       8     128     126      81      84     129     127      83      85
       8     130     128      84      41     131     129      85      43
       8     132     130      41      40     133     131      43      42
       8     134     132      40      44     135     133      42      46
       8     136     134      44      86     137     135      46      87
       8     138     136      86      88     139     137      87      89
       8     140     138      88      90     141     139      89      92
       8     142     140      90      91     143     141      92      93
       8     144     142      91      94     145     143      93      95
       8     146     144      94      96     147     145      95      97
       8     148     146      96      98     149     147      97      99
       8     150     148      98     100     151     149      99     102
       8     152     150     100     101     153     151     102     103
       8     154     152     101       9     155     153     103      11
       8     105     154       9       8     107     155      11      10
       8     156     157     158     159       0       1       2       3
       8     158     160     161     159       2       8       9       3
       8     162     157     156     163      12       1       0      13
       8     156     164     165     163       0      16      17      13
       8     166     167     168     162      20      21      22      12
       8     169     170     167     166      26      27      21      20
       8     163     169     166     162      13      26      20      12
       8     171     172     164     173      30      31      16      32
       8     174     175     172     171      36      37      31      30
       8     176     177     175     174      40      41      37      36
       8     178     176     174     179      44      40      36      45
       8     180     165     164     172      48      17      16      31
       8     171     181     179     174      30      50      45      36
       8     156     159     173     164       0       3      32      16
       8     182     169     163     165      52      26      13      17
       8     183     182     165     180      54      52      17      48
       8     184     183     180     185      56      54      48      57
       8     175     185     180     172      37      57      48      31
       8     186     187     181     171      60      61      50      30
       8     188     186     171     173      64      60      30      32
       8     189     188     173     159      66      64      32       3
       8     190     160     158     191      68       8       2      69
       8     192     191     158     157      72      69       2       1
       8     168     192     157     162      22      72       1      12
       8     193     170     169     182      74      27      26      52
       8     194     193     182     183      76      74      52      54
       8     195     194     183     184      78      76      54      56
       8     196     195     184     197      80      78      56      81
       8     198     197     184     185      84      81      56      57
       8     177     198     185     175      41      84      57      37
       8     199     178     179     181      86      44      45      50
       8     200     199     181     187      88      86      50      61
       8     201     200     187     202      90      88      61      91
       8     203     202     187     186      94      91      61      60
       8     204     203     186     188      96      94      60      64
       8     205     204     188     189      98      96      64      66
       8     206     205     189     207     100      98      66     101
       8     161     207     189     159       9     101      66       3
       8     208     209     160     190     104     105       8      68
       8     210     208     190     191     108     104      68      69
       8     211     210     191     192     110     108      69      72
       8     212     211     192     168     112     110      72      22
       8     213     212     168     167     114     112      22      21
       8     214     213     167     170     116     114      21      27
       8     215     214     170     193     118     116      27      74
       8     216     215     193     194     120     118      74      76
       8     217     216     194     195     122     120      76      78
       8     218     217     195     196     124     122      78      80
       8     219     218     196     197     126     124      80      81
       8     220     219     197     198     128     126      81      84
       8     221     220     198     177     130     128      84      41
       8     222     221     177     176     132     130      41      40
       8     223     222     176     178     134     132      40      44
       8     224     223     178     199     136     134      44      86
       8     225     224     199     200     138     136      86      88
       8     226     225     200     201     140     138      88      90
       8     227     226     201     202     142     140      90      91
       8     228     227     202     203     144     142      91      94
       8     229     228     203     204     146     144      94      96
       8     230     229     204     205     148     146      96      98
       8     231     230     205     206     150     148      98     100
       8     232     231     206     207     152     150     100     101
       8     233     232     207     161     154     152     101       9
       8     209     233     161     160     105     154       9       8
       8     234     235     236     237     156     157     158     159
       8     236     238     239     237     158     160     161     159
       8     240     235     234     241     162     157     156     163
       8     234     242     243     241     156     164     165     163
       8     244     245     246     240     166     167     168     162
       8     247     248     245     244     169     170     167     166
       8     241     247     244     240     163     169     166     162
       8     249     250     242     251     171     172     164     173
       8     252     253     250     249     174     175     172     171
       8     254     255     253     252     176     177     175     174
       8     256     254     252     257     178     176     174     179
       8     258     243     242     250     180     165     164     172
       8     249     259     257     252     171     181     179     174
       8     234     237     251     242     156     159     173     164
       8     260     247     241     243     182     169     163     165
       8     261     260     243     258     183     182     165     180
       8     262     261     258     263     184     183     180     185
       8     253     263     258     250     175     185     180     172
       8     264     265     259     249     186     187     181     171
       8     266     264     249     251     188     186     171     173
       8     267     266     251     237     189     188     173     159
       8     268     238     236     269     190     160     158     191
       8     270     269     236     235     192     191     158     157
       8     246     270     235     240     168     192     157     162
       8     271     248     247     260     193     170     169     182
       8     272     271     260     261     194     193     182     183
       8     273     272     261     262     195     194     183     184
       8     274     273     262     275     196     195     184     197
       8     276     275     262     263     198     197     184     185
       8     255     276     263     253     177     198     185     175
       8     277     256     257     259     199     178     179     181
       8     278     277     259     265     200     199     181     187
       8     279     278     265     280     201     200     187     202
       8     281     280     265     264     203     202     187     186
       8     282     281     264     266     204     203     186     188
       8     283     282     266     267     205     204     188     189
       8     284     283     267     285     206     205     189     207
       8     239     285     267     237     161     207     189     159
       8     286     287     238     268     208     209     160     190
       8     288     286     268     269     210     208     190     191
       8     289     288     269     270     211     210     191     192
       8     290     289     270     246     212     211     192     168
       8     291     290     246     245     213     212     168     167
       8     292     291     245     248     214     213     167     170
       8     293     292     248     271     215     214     170     193
       8     294     293     271     272     216     215     193     194
       8     295     294     272     273     217     216     194     195
       8     296     295     273     274     218     217     195     196
       8     297     296     274     275     219     218     196     197
       8     298     297     275     276     220     219     197     198
       8     299     298     276     255     221     220     198     177
       8     300     299     255     254     222     221     177     176
       8     301     300     254     256     223     222     176     178
       8     302     301     256     277     224     223     178     199
       8     303     302     277     278     225     224     199     200
       8     304     303     278     279     226     225     200     201
       8     305     304     279     280     227     226     201     202
       8     306     305     280     281     228     227     202     203
       8     307     306     281     282     229     228     203     204
       8     308     307     282     283     230     229     204     205
       8     309     308     283     284     231     230     205     206
       8     310     309     284     285     232     231     206     207
       8     311     310     285     239     233     232     207     161
       8     287     311     239     238     209     233     161     160
       8     312     313     314     315     234     235     236     237
       8     314     316     317     315     236     238     239     237
       8     318     313     312     319     240     235     234     241
       8     312     320     321     319     234     242     243     241
       8     322     323     324     318     244     245     246     240
       8     325     326     323     322     247     248     245     244
       8     319     325     322     318     241     247     244     240
       8     327     328     320     329     249     250     242     251
       8     330     331     328     327     252     253     250     249
       8     332     333     331     330     254     255     253     252
       8     334     332     330     335     256     254     252     257
       8     336     321     320     328     258     243     242     250
       8     327     337     335     330     249     259     257     252
       8     312     315     329     320     234     237     251     242
       8     338     325     319     321     260     247     241     243
       8     339     338     321     336     261     260     243     258
       8     340     339     336     341     262     261     258     263
       8     331     341     336     328     253     263     258     250
       8     342     343     337     327     264     265     259     249
       8     344     342     327     329     266     264     249     251
       8     345     344     329     315     267     266     251     237
       8     346     316     314     347     268     238     236     269
       8     348     347     314     313     270     269     236     235
       8     324     348     313     318     246     270     235     240
       8     349     326     325     338     271     248     247     260
       8     350     349     338     339     272     271     260     261
       8     351     350     339     340     273     272     261     262
       8     352     351     340     353     274     273     262     275
       8     354     353     340     341     276     275     262     263
       8     333     354     341     331     255     276     263     253
       8     355     334     335     337     277     256     257     259
       8     356     355     337     343     278     277     259     265
       8     357     356     343     358     279     278     265     280
       8     359     358     343     342     281     280     265     264
       8     360     359     342     344     282     281     264     266
       8     361     360     344     345     283     282     266     267
       8     362     361     345     363     284     283     267     285
       8     317     363     345     315     239     285     267     237
       8     364     365     316     346     286     287     238     268
       8     366     364     346     347     288     286     268     269
       8     367     366     347     348     289     288     269     270
       8     368     367     348     324     290     289     270     246
       8     369     368     324     323     291     290     246     245
       8     370     369     323     326     292     291     245     248
       8     371     370     326     349     293     292     248     271
       8     372     371     349     350     294     293     271     272
       8     373     372     350     351     295     294     272     273
       8     374     373     351     352     296     295     273     274
       8     375     374     352     353     297     296     274     275
       8     376     375     353     354     298     297     275     276
       8     377     376     354     333     299     298     276     255
       8     378     377     333     332     300     299     255     254
       8     379     378     332     334     301     300     254     256
       8     380     379     334     355     302     301     256     277
       8     381     380     355     356     303     302     277     278
       8     382     381     356     357     304     303     278     279
       8     383     382     357     358     305     304     279     280
       8     384     383     358     359     306     305     280     281
       8     385     384     359     360     307     306     281     282
       8     386     385     360     361     308     307     282     283
       8     387     386     361     362     309     308     283     284
       8     388     387     362     363     310     309     284     285
       8     389     388     363     317     311     310     285     239
       8     365     389     317     316     287     311     239     238
       8     390     391     392     393     312     313     314     315
       8     392     394     395     393     314     316     317     315
       8     396     391     390     397     318     313     312     319
       8     390     398     399     397     312     320     321     319
       8     400     401     402     396     322     323     324     318
       8     403     404     401     400     325     326     323     322
       8     397     403     400     396     319     325     322     318
       8     405     406     398     407     327     328     320     329
       8     408     409     406     405     330     331     328     327
       8     410     411     409     408     332     333     331     330
       8     412     410     408     413     334     332     330     335
       8     414     399     398     406     336     321     320     328
       8     405     415     413     408     327     337     335     330
       8     390     393     407     398     312     315     329     320
       8     416     403     397     399     338     325     319     321
       8     417     416     399     414     339     338     321     336
       8     418     417     414     419     340     339     336     341
       8     409     419     414     406     331     341     336     328
       8     420     421     415     405     342     343     337     327
       8     422     420     405     407     344     342     327     329
       8     423     422     407     393     345     344     329     315
       8     424     394     392     425     346     316     314     347
       8     426     425     392     391     348     347     314     313
       8     402     426     391     396     324     348     313     318
       8     427     404     403     416     349     326     325     338
       8     428     427     416     417     350     349     338     339
       8     429     428     417     418     351     350     339     340
       8     430     429     418     431     352     351     340     353
       8     432     431     418     419     354     353     340     341
       8     411     432     419     409     333     354     341     331
       8     433     412     413     415     355     334     335     337
       8     434     433     415     421     356     355     337     343
       8     435     434     421     436     357     356     343     358
       8     437     436     421     420     359     358     343     342
       8     438     437     420     422     360     359     342     344
       8     439     438     422     423     361     360     344     345
       8     440     439     423     441     362     361     345     363
       8     395     441     423     393     317     363     345     315
       8     442     443     394     424     364     365     316     346
       8     444     442     424     425     366     364     346     347
       8     445     444     425     426     367     366     347     348
       8     446     445     426     402     368     367     348     324
       8     447     446     402     401     369     368     324     323
       8     448     447     401     404     370     369     323     326
       8     449     448     404     427     371     370     326     349
       8     450     449     427     428     372     371     349     350
       8     451     450     428     429     373     372     350     351
       8     452     451     429     430     374     373     351     352
       8     453     452     430     431     375     374     352     353
       8     454     453     431     432     376     375     353     354
       8     455     454     432     411     377     376     354     333
       8     456     455     411     410     378     377     333     332
       8     457     456     410     412     379     378     332     334
       8     458     457     412     433     380     379     334     355
       8     459     458     433     434     381     380     355     356
       8     460     459     434     435     382     381     356     357
       8     461     460     435     436     383     382     357     358
       8     462     461     436     437     384     383     358     359
       8     463     462     437     438     385     384     359     360
       8     464     463     438     439     386     385     360     361
       8     465     464     439     440     387     386     361     362
       8     466     465     440     441     388     387     362     363
       8     467     466     441     395     389     388     363     317
       8     443     467     395     394     365     389     317     316
       8     468     469     470     471     390     391     392     393
       8     470     472     473     471     392     394     395     393
       8     474     469     468     475     396     391     390     397
       8     468     476     477     475     390     398     399     397
       8     478     479     480     474     400     401     402     396
       8     481     482     479     478     403     404     401     400
       8     475     481     478     474     397     403     400     396
       8     483     484     476     485     405     406     398     407
       8     486     487     484     483     408     409     406     405
       8     488     489     487     486     410     411     409     408
       8     490     488     486     491     412     410     408     413
       8     492     477     476     484     414     399     398     406
       8     483     493     491     486     405     415     413     408
       8     468     471     485     476     390     393     407     398
       8     494     481     475     477     416     403     397     399
       8     495     494     477     492     417     416     399     414
       8     496     495     492     497     418     417     414     419
       8     487     497     492     484     409     419     414     406
       8     498     499     493     483     420     421     415     405
       8     500     498     483     485     422     420     405     407
       8     501     500     485     471     423     422     407     393
       8     502     472     470     503     424     394     392     425
       8     504     503     470     469     426     425     392     391
       8     480     504     469     474     402     426     391     396
       8     505     482     481     494     427     404     403     416
       8     506     505     494     495     428     427     416     417
       8     507     506     495     496     429     428     417     418
       8     508     507     496     509     430     429     418     431
       8     510     509     496     497     432     431     418     419
       8     489     510     497     487     411     432     419     409
       8     511     490     491     493     433     412     413     415
       8     512     511     493     499     434     433     415     421
       8     513     512     499     514     435     434     421     436
       8     515     514     499     498     437     436     421     420
       8     516     515     498     500     438     437     420     422
       8     517     516     500     501     439     438     422     423
       8     518     517     501     519     440     439     423     441
       8     473     519     501     471     395     441     423     393
       8     520     521     472     502     442     443     394     424
       8     522     520     502     503     444     442     424     425
       8     523     522     503     504     445     444     425     426
       8     524     523     504     480     446     445     426     402
       8     525     524     480     479     447     446     402     401
       8     526     525     479     482     448     447     401     404
       8     527     526     482     505     449     448     404     427
       8     528     527     505     506     450     449     427     428
       8     529     528     506     507     451     450     428     429
       8     530     529     507     508     452     451     429     430
       8     531     530     508     509     453     452     430     431
       8     532     531     509     510     454     453     431     432
       8     533     532     510     489     455     454     432     411
       8     534     533     489     488     456     455     411     410
       8     535     534     488     490     457     456     410     412
       8     536     535     490     511     458     457     412     433
       8     537     536     511     512     459     458     433     434
       8     538     537     512     513     460     459     434     435
       8     539     538     513     514     461     460     435     436
       8     540     539     514     515     462     461     436     437
       8     541     540     515     516     463     462     437     438
       8     542     541     516     517     464     463     438     439
       8     543     542     517     518     465     464     439     440
       8     544     543     518     519     466     465     440     441
       8     545     544     519     473     467     466     441     395
       8     521     545     473     472     443     467     395     394
       8     546     547     548     549     468     469     470     471
       8     548     550     551     549     470     472     473     471
       8     552     547     546     553     474     469     468     475
       8     546     554     555     553     468     476     477     475
       8     556     557     558     552     478     479     480     474
       8     559     560     557     556     481     482     479     478
       8     553     559     556     552     475     481     478     474
       8     561     562     554     563     483     484     476     485
       8     564     565     562     561     486     487     484     483
       8     566     567     565     564     488     489     487     486
       8     568     566     564     569     490     488     486     491
       8     570     555     554     562     492     477     476     484
       8     561     571     569     564     483     493     491     486
       8     546     549     563     554     468     471     485     476
       8     572     559     553     555     494     481     475     477
       8     573     572     555     570     495     494     477     492
       8     574     573     570     575     496     495     492     497
       8     565     575     570     562     487     497     492     484
       8     576     577     571     561     498     499     493     483
       8     578     576     561     563     500     498     483     485
       8     579     578     563     549     501     500     485     471
       8     580     550     548     581     502     472     470     503
       8     582     581     548     547     504     503     470     469
       8     558     582     547     552     480     504     469     474
       8     583     560     559     572     505     482     481     494
       8     584     583     572     573     506     505     494     495
       8     585     584     573     574     507     506     495     496
       8     586     585     574     587     508     507     496     509
       8     588     587     574     575     510     509     496     497
       8     567     588     575     565     489     510     497     487
       8     589     568     569     571     511     490     491     493
       8     590     589     571     577     512     511     493     499
       8     591     590     577     592     513     512     499     514
       8     593     592     577     576     515     514     499     498
       8     594     593     576     578     516     515     498     500
       8     595     594     578     579     517     516     500     501
       8     596     595     579     597     518     517     501     519
       8     551     597     579     549     473     519     501     471
       8     598     599     550     580     520     521     472     502
       8     600     598     580     581     522     520     502     503
       8     601     600     581     582     523     522     503     504
       8     602     601     582     558     524     523     504     480
       8     603     602     558     557     525     524     480     479
       8     604     603     557     560     526     525     479     482
       8     605     604     560     583     527     526     482     505
       8     606     605     583     584     528     527     505     506
       8     607     606     584     585     529     528     506     507
       8     608     607     585     586     530     529     507     508
       8     609     608     586     587     531     530     508     509
       8     610     609     587     588     532     531     509     510
       8     611     610     588     567     533     532     510     489
       8     612     611     567     566     534     533     489     488
       8     613     612     566     568     535     534     488     490
       8     614     613     568     589     536     535     490     511
       8     615     614     589     590     537     536     511     512
       8     616     615     590     591     538     537     512     513
       8     617     616     591     592     539     538     513     514
       8     618     617     592     593     540     539     514     515
       8     619     618     593     594     541     540     515     516
       8     620     619     594     595     542     541     516     517
       8     621     620     595     596     543     542     517     518
       8     622     621     596     597     544     543     518     519
       8     623     622     597     551     545     544     519     473
       8     599     623     551     550     521     545     473     472
       8     624     625     626     627     546     547     548     549
       8     626     628     629     627     548     550     551     549
       8     630     625     624     631     552     547     546     553
       8     624     632     633     631     546     554     555     553
       8     634     635     636     630     556     557     558     552
       8     637     638     635     634     559     560     557     556
       8     631     637     634     630     553     559     556     552
       8     639     640     632     641     561     562     554     563
       8     642     643     640     639     564     565     562     561
       8     644     645     643     642     566     567     565     564
       8     646     644     642     647     568     566     564     569
       8     648     633     632     640     570     555     554     562
       8     639     649     647     642     561     571     569     564
       8     624     627     641     632     546     549     563     554
       8     650     637     631     633     572     559     553     555
       8     651     650     633     648     573     572     555     570
       8     652     651     648     653     574     573     570     575
       8     643     653     648     640     565     575     570     562
       8     654     655     649     639     576     577     571     561
       8     656     654     639     641     578     576     561     563
       8     657     656     641     627     579     578     563     549
       8     658     628     626     659     580     550     548     581
       8     660     659     626     625     582     581     548     547
       8     636     660     625     630     558     582     547     552
       8     661     638     637     650     583     560     559     572
       8     662     661     650     651     584     583     572     573
       8     663     662     651     652     585     584     573     574
       8     664     663     652     665     586     585     574     587
       8     666     665     652     653     588     587     574     575
       8     645     666     653     643     567     588     575     565
       8     667     646     647     649     589     568     569     571
       8     668     667     649     655     590     589     571     577
       8     669     668     655     670     591     590     577     592
       8     671     670     655     654     593     592     577     576
       8     672     671     654     656     594     593     576     578
       8     673     672     656     657     595     594     578     579
       8     674     673     657     675     596     595     579     597
       8     629     675     657     627     551     597     579     549
       8     676     677     628     658     598     599     550     580
       8     678     676     658     659     600     598     580     581
       8     679     678     659     660     601     600     581     582
       8     680     679     660     636     602     601     582     558
       8     681     680     636     635     603     602     558     557
       8     682     681     635     638     604     603     557     560
       8     683     682     638     661     605     604     560     583
       8     684     683     661     662     606     605     583     584
       8     685     684     662     663     607     606     584     585
       8     686     685     663     664     608     607     585     586
       8     687     686     664     665     609     608     586     587
       8     688     687     665     666     610     609     587     588
       8     689     688     666     645     611     610     588     567
       8     690     689     645     644     612     611     567     566
       8     691     690     644     646     613     612     566     568
       8     692     691     646     667     614     613     568     589
       8     693     692     667     668     615     614     589     590
       8     694     693     668     669     616     615     590     591
       8     695     694     669     670     617     616     591     592
       8     696     695     670     671     618     617     592     593
       8     697     696     671     672     619     618     593     594
       8     698     697     672     673     620     619     594     595
       8     699     698     673     674     621     620     595     596
       8     700     699     674     675     622     621     596     597
       8     701     700     675     629     623     622     597     551
       8     677     701     629     628     599     623     551     550
       8     702     703     704     705     624     625     626     627
       8     704     706     707     705     626     628     629     627
       8     708     703     702     709     630     625     624     631
       8     702     710     711     709     624     632     633     631
       8     712     713     714     708     634     635     636     630
       8     715     716     713     712     637     638     635     634
       8     709     715     712     708     631     637     634     630
       8     717     718     710     719     639     640     632     641
       8     720     721     718     717     642     643     640     639
       8     722     723     721     720     644     645     643     642
       8     724     722     720     725     646     644     642     647
       8     726     711     710     718     648     633     632     640
       8     717     727     725     720     639     649     647     642
       8     702     705     719     710     624     627     641     632
       8     728     715     709     711     650     637     631     633
       8     729     728     711     726     651     650     633     648
       8     730     729     726     731     652     651     648     653
       8     721     731     726     718     643     653     648     640
       8     732     733     727     717     654     655     649     639
       8     734     732     717     719     656     654     639     641
       8     735     734     719     705     657     656     641     627
       8     736     706     704     737     658     628     626     659
       8     738     737     704     703     660     659     626     625
       8     714     738     703     708     636     660     625     630
       8     739     716     715     728     661     638     637     650
       8     740     739     728     729     662     661     650     651
       8     741     740     729     730     663     662     651     652
       8     742     741     730     743     664     663     652     665
       8     744     743     730     731     666     665     652     653
       8     723     744     731     721     645     666     653     643
       8     745     724     725     727     667     646     647     649
       8     746     745     727     733     668     667     649     655
       8     747     746     733     748     669     668     655     670
       8     749     748     733     732     671     670     655     654
       8     750     749     732     734     672     671     654     656
       8     751     750     734     735     673     672     656     657
       8     752     751     735     753     674     673     657     675
       8     707     753     735     705     629     675     657     627
       8     754     755     706     736     676     677     628     658
       8     756     754     736     737     678     676     658     659
       8     757     756     737     738     679     678     659     660
       8     758     757     738     714     680     679     660     636
       8     759     758     714     713     681     680     636     635
       8     760     759     713     716     682     681     635     638
       8     761     760     716     739     683     682     638     661
       8     762     761     739     740     684     683     661     662
       8     763     762     740     741     685     684     662     663
       8     764     763     741     742     686     685     663     664
       8     765     764     742     743     687     686     664     665
       8     766     765     743     744     688     687     665     666
       8     767     766     744     723     689     688     666     645
       8     768     767     723     722     690     689     645     644
       8     769     768     722     724     691     690     644     646
       8     770     769     724     745     692     691     646     667
       8     771     770     745     746     693     692     667     668
       8     772     771     746     747     694     693     668     669
       8     773     772     747     748     695     694     669     670
       8     774     773     748     749     696     695     670     671
       8     775     774     749     750     697     696     671     672
       8     776     775     750     751     698     697     672     673
       8     777     776     751     752     699     698     673     674
       8     778     777     752     753     700     699     674     675
       8     779     778     753     707     701     700     675     629
       8     755     779     707     706     677     701     629     628
       8     780     781     782     783     702     703     704     705
       8     782     784     785     783     704     706     707     705
       8     786     781     780     787     708     703     702     709
       8     780     788     789     787     702     710     711     709
       8     790     791     792     786     712     713     714     708
       8     793     794     791     790     715     716     713     712
       8     787     793     790     786     709     715     712     708
       8     795     796     788     797     717     718     710     719
       8     798     799     796     795     720     721     718     717
       8     800     801     799     798     722     723     721     720
       8     802     800     798     803     724     722     720     725
       8     804     789     788     796     726     711     710     718
       8     795     805     803     798     717     727     725     720
       8     780     783     797     788     702     705     719     710
       8     806     793     787     789     728     715     709     711
       8     807     806     789     804     729     728     711     726
       8     808     807     804     809     730     729     726     731
       8     799     809     804     796     721     731     726     718
       8     810     811     805     795     732     733     727     717
       8     812     810     795     797     734     732     717     719
       8     813     812     797     783     735     734     719     705
       8     814     784     782     815     736     706     704     737
       8     816     815     782     781     738     737     704     703
       8     792     816     781     786     714     738     703     708
       8     817     794     793     806     739     716     715     728
       8     818     817     806     807     740     739     728     729
       8     819     818     807     808     741     740     729     730
       8     820     819     808     821     742     741     730     743
       8     822     821     808     809     744     743     730     731
       8     801     822     809     799     723     744     731     721
       8     823     802     803     805     745     724     725     727
       8     824     823     805     811     746     745     727     733
       8     825     824     811     826     747     746     733     748
       8     827     826     811     810     749     748     733     732
       8     828     827     810     812     750     749     732     734
       8     829     828     812     813     751     750     734     735
       8     830     829     813     831     752     751     735     753
       8     785     831     813     783     707     753     735     705
       8     832     833     784     814     754     755     706     736
       8     834     832     814     815     756     754     736     737
       8     835     834     815     816     757     756     737     738
       8     836     835     816     792     758     757     738     714
       8     837     836     792     791     759     758     714     713
       8     838     837     791     794     760     759     713     716
       8     839     838     794     817     761     760     716     739
       8     840     839     817     818     762     761     739     740
       8     841     840     818     819     763     762     740     741
       8     842     841     819     820     764     763     741     742
       8     843     842     820     821     765     764     742     743
       8     844     843     821     822     766     765     743     744
       8     845     844     822     801     767     766     744     723
       8     846     845     801     800     768     767     723     722
       8     847     846     800     802     769     768     722     724
       8     848     847     802     823     770     769     724     745
       8     849     848     823     824     771     770     745     746
       8     850     849     824     825     772     771     746     747
       8     851     850     825     826     773     772     747     748
       8     852     851     826     827     774     773     748     749
       8     853     852     827     828     775     774     749     750
       8     854     853     828     829     776     775     750     751
       8     855     854     829     830     777     776     751     752
       8     856     855     830     831     778     777     752     753
       8     857     856     831     785     779     778     753     707
       8     833     857     785     784     755     779     707     706
       8     858     859     860     861     780     781     782     783
       8     860     862     863     861     782     784     785     783
       8     864     859     858     865     786     781     780     787
       8     858     866     867     865     780     788     789     787
       8     868     869     870     864     790     791     792     786
       8     871     872     869     868     793     794     791     790
       8     865     871     868     864     787     793     790     786
       8     873     874     866     875     795     796     788     797
       8     876     877     874     873     798     799     796     795
       8     878     879     877     876     800     801     799     798
       8     880     878     876     881     802     800     798     803
       8     882     867     866     874     804     789     788     796
       8     873     883     881     876     795     805     803     798
       8     858     861     875     866     780     783     797     788
       8     884     871     865     867     806     793     787     789
       8     885     884     867     882     807     806     789     804
       8     886     885     882     887     808     807     804     809
       8     877     887     882     874     799     809     804     796
       8     888     889     883     873     810     811     805     795
       8     890     888     873     875     812     810     795     797
       8     891     890     875     861     813     812     797     783
       8     892     862     860     893     814     784     782     815
       8     894     893     860     859     816     815     782     781
       8     870     894     859     864     792     816     781     786
       8     895     872     871     884     817     794     793     806
       8     896     895     884     885     818     817     806     807
       8     897     896     885     886     819     818     807     808
       8     898     897     886     899     820     819     808     821
       8     900     899     886     887     822     821     808     809
       8     879     900     887     877     801     822     809     799
       8     901     880     881     883     823     802     803     805
       8     902     901     883     889     824     823     805     811
       8     903     902     889     904     825     824     811     826
       8     905     904     889     888     827     826     811     810
       8     906     905     888     890     828     827     810     812
       8     907     906     890     891     829     828     812     813
       8     908     907     891     909     830     829     813     831
       8     863     909     891     861     785     831     813     783
       8     910     911     862     892     832     833     784     814
       8     912     910     892     893     834     832     814     815
       8     913     912     893     894     835     834     815     816
       8     914     913     894     870     836     835     816     792
       8     915     914     870     869     837     836     792     791
       8     916     915     869     872     838     837     791     794
       8     917     916     872     895     839     838     794     817
       8     918     917     895     896     840     839     817     818
       8     919     918     896     897     841     840     818     819
       8     920     919     897     898     842     841     819     820
       8     921     920     898     899     843     842     820     821
       8     922     921     899     900     844     843     821     822
       8     923     922     900     879     845     844     822     801
       8     924     923     879     878     846     845     801     800
       8     925     924     878     880     847     846     800     802
       8     926     925     880     901     848     847     802     823
       8     927     926     901     902     849     848     823     824
       8     928     927     902     903     850     849     824     825
       8     929     928     903     904     851     850     825     826
       8     930     929     904     905     852     851     826     827
       8     931     930     905     906     853     852     827     828
       8     932     931     906     907     854     853     828     829
       8     933     932     907     908     855     854     829     830
       8     934     933     908     909     856     855     830     831
       8     935     934     909     863     857     856     831     785
       8     911     935     863     862     833     857     785     784
       8     936     937     938     939     858     859     860     861
       8     938     940     941     939     860     862     863     861
       8     942     937     936     943     864     859     858     865
       8     936     944     945     943     858     866     867     865
       8     946     947     948     942     868     869     870     864
       8     949     950     947     946     871     872     869     868
       8     943     949     946     942     865     871     868     864
       8     951     952     944     953     873     874     866     875
       8     954     955     952     951     876     877     874     873
       8     956     957     955     954     878     879     877     876
       8     958     956     954     959     880     878     876     881
       8     960     945     944     952     882     867     866     874
       8     951     961     959     954     873     883     881     876
       8     936     939     953     944     858     861     875     866
       8     962     949     943     945     884     871     865     867
       8     963     962     945     960     885     884     867     882
       8     964     963     960     965     886     885     882     887
       8     955     965     960     952     877     887     882     874
       8     966     967     961     951     888     889     883     873
       8     968     966     951     953     890     888     873     875
       8     969     968     953     939     891     890     875     861
       8     970     940     938     971     892     862     860     893
       8     972     971     938     937     894     893     860     859
       8     948     972     937     942     870     894     859     864
       8     973     950     949     962     895     872     871     884
       8     974     973     962     963     896     895     884     885
       8     975     974     963     964     897     896     885     886
       8     976     975     964     977     898     897     886     899
       8     978     977     964     965     900     899     886     887
       8     957     978     965     955     879     900     887     877
       8     979     958     959     961     901     880     881     883
       8     980     979     961     967     902     901     883     889
       8     981     980     967     982     903     902     889     904
       8     983     982     967     966     905     904     889     888
       8     984     983     966     968     906     905     888     890
       8     985     984     968     969     907     906     890     891
       8     986     985     969     987     908     907     891     909
       8     941     987     969     939     863     909     891     861
       8     988     989     940     970     910     911     862     892
       8     990     988     970     971     912     910     892     893
       8     991     990     971     972     913     912     893     894
       8     992     991     972     948     914     913     894     870
       8     993     992     948     947     915     914     870     869
       8     994     993     947     950     916     915     869     872
       8     995     994     950     973     917     916     872     895
       8     996     995     973     974     918     917     895     896
       8     997     996     974     975     919     918     896     897
       8     998     997     975     976     920     919     897     898
       8     999     998     976     977     921     920     898     899
       8    1000     999     977     978     922     921     899     900
       8    1001    1000     978     957     923     922     900     879
       8    1002    1001     957     956     924     923     879     878
       8    1003    1002     956     958     925     924     878     880
       8    1004    1003     958     979     926     925     880     901
       8    1005    1004     979     980     927     926     901     902
       8    1006    1005     980     981     928     927     902     903
       8    1007    1006     981     982     929     928     903     904
       8    1008    1007     982     983     930     929     904     905
       8    1009    1008     983     984     931     930     905     906
       8    1010    1009     984     985     932     931     906     907
       8    1011    1010     985     986     933     932     907     908
       8    1012    1011     986     987     934     933     908     909
       8    1013    1012     987     941     935     934     909     863
       8     989    1013     941     940     911     935     863     862
       8    1014    1015    1016    1017     936     937     938     939
       8    1016    1018    1019    1017     938     940     941     939
       8    1020    1015    1014    1021     942     937     936     943
       8    1014    1022    1023    1021     936     944     945     943
       8    1024    1025    1026    1020     946     947     948     942
       8    1027    1028    1025    1024     949     950     947     946
       8    1021    1027    1024    1020     943     949     946     942
       8    1029    1030    1022    1031     951     952     944     953
       8    1032    1033    1030    1029     954     955     952     951
       8    1034    1035    1033    1032     956     957     955     954
       8    1036    1034    1032    1037     958     956     954     959
       8    1038    1023    1022    1030     960     945     944     952
       8    1029    1039    1037    1032     951     961     959     954
       8    1014    1017    1031    1022     936     939     953     944
       8    1040    1027    1021    1023     962     949     943     945
       8    1041    1040    1023    1038     963     962     945     960
       8    1042    1041    1038    1043     964     963     960     965
       8    1033    1043    1038    1030     955     965     960     952
       8    1044    1045    1039    1029     966     967     961     951
       8    1046    1044    1029    1031     968     966     951     953
       8    1047    1046    1031    1017     969     968     953     939
       8    1048    1018    1016    1049     970     940     938     971
       8    1050    1049    1016    1015     972     971     938     937
       8    1026    1050    1015    1020     948     972     937     942
       8    1051    1028    1027    1040     973     950     949     962
       8    1052    1051    1040    1041     974     973     962     963
       8    1053    1052    1041    1042     975     974     963     964
       8    1054    1053    1042    1055     976     975     964     977
       8    1056    1055    1042    1043     978     977     964     965
       8    1035    1056    1043    1033     957     978     965     955
       8    1057    1036    1037    1039     979     958     959     961
       8    1058    1057    1039    1045     980     979     961     967
       8    1059    1058    1045    1060     981     980     967     982
       8    1061    1060    1045    1044     983     982     967     966
       8    1062    1061    1044    1046     984     983     966     968
       8    1063    1062    1046    1047     985     984     968     969
       8    1064    1063    1047    1065     986     985     969     987
       8    1019    1065    1047    1017     941     987     969     939
       8    1066    1067    1018    1048     988     989     940     970
       8    1068    1066    1048    1049     990     988     970     971
       8    1069    1068    1049    1050     991     990     971     972
       8    1070    1069    1050    1026     992     991     972     948
       8    1071    1070    1026    1025     993     992     948     947
       8    1072    1071    1025    1028     994     993     947     950
       8    1073    1072    1028    1051     995     994     950     973
       8    1074    1073    1051    1052     996     995     973     974
       8    1075    1074    1052    1053     997     996     974     975
       8    1076    1075    1053    1054     998     997     975     976
       8    1077    1076    1054    1055     999     998     976     977
       8    1078    1077    1055    1056    1000     999     977     978
       8    1079    1078    1056    1035    1001    1000     978     957
       8    1080    1079    1035    1034    1002    1001     957     956
       8    1081    1080    1034    1036    1003    1002     956     958
       8    1082    1081    1036    1057    1004    1003     958     979
       8    1083    1082    1057    1058    1005    1004     979     980
       8    1084    1083    1058    1059    1006    1005     980     981
       8    1085    1084    1059    1060    1007    1006     981     982
       8    1086    1085    1060    1061    1008    1007     982     983
       8    1087    1086    1061    1062    1009    1008     983     984
       8    1088    1087    1062    1063    1010    1009     984     985
       8    1089    1088    1063    1064    1011    1010     985     986
       8    1090    1089    1064    1065    1012    1011     986     987
       8    1091    1090    1065    1019    1013    1012     987     941
       8    1067    1091    1019    1018     989    1013     941     940
       8    1092    1093    1094    1095    1014    1015    1016    1017
       8    1094    1096    1097    1095    1016    1018    1019    1017
       8    1098    1093    1092    1099    1020    1015    1014    1021
       8    1092    1100    1101    1099    1014    1022    1023    1021
       8    1102    1103    1104    1098    1024    1025    1026    1020
       8    1105    1106    1103    1102    1027    1028    1025    1024
       8    1099    1105    1102    1098    1021    1027    1024    1020
       8    1107    1108    1100    1109    1029    1030    1022    1031
       8    1110    1111    1108    1107    1032    1033    1030    1029
       8    1112    1113    1111    1110    1034    1035    1033    1032
       8    1114    1112    1110    1115    1036    1034    1032    1037
       8    1116    1101    1100    1108    1038    1023    1022    1030
       8    1107    1117    1115    1110    1029    1039    1037    1032
       8    1092    1095    1109    1100    1014    1017    1031    1022
       8    1118    1105    1099    1101    1040    1027    1021    1023
       8    1119    1118    1101    1116    1041    1040    1023    1038
       8    1120    1119    1116    1121    1042    1041    1038    1043
       8    1111    1121    1116    1108    1033    1043    1038    1030
       8    1122    1123    1117    1107    1044    1045    1039    1029
       8    1124    1122    1107    1109    1046    1044    1029    1031
       8    1125    1124    1109    1095    1047    1046    1031    1017
       8    1126    1096    1094    1127    1048    1018    1016    1049
       8    1128    1127    1094    1093    1050    1049    1016    1015
       8    1104    1128    1093    1098    1026    1050    1015    1020
       8    1129    1106    1105    1118    1051    1028    1027    1040
       8    1130    1129    1118    1119    1052    1051    1040    1041
       8    1131    1130    1119    1120    1053    1052    1041    1042
       8    1132    1131    1120    1133    1054    1053    1042    1055
       8    1134    1133    1120    1121    1056    1055    1042    1043
       8    1113    1134    1121    1111    1035    1056    1043    1033
       8    1135    1114    1115    1117    1057    1036    1037    1039
       8    1136    1135    1117    1123    1058    1057    1039    1045
       8    1137    1136    1123    1138    1059    1058    1045    1060
       8    1139    1138    1123    1122    1061    1060    1045    1044
       8    1140    1139    1122    1124    1062    1061    1044    1046
       8    1141    1140    1124    1125    1063    1062    1046    1047
       8    1142    1141    1125    1143    1064    1063    1047    1065
       8    1097    1143    1125    1095    1019    1065    1047    1017
       8    1144    1145    1096    1126    1066    1067    1018    1048
       8    1146    1144    1126    1127    1068    1066    1048    1049
       8    1147    1146    1127    1128    1069    1068    1049    1050
       8    1148    1147    1128    1104    1070    1069    1050    1026
       8    1149    1148    1104    1103    1071    1070    1026    1025
       8    1150    1149    1103    1106    1072    1071    1025    1028
       8    1151    1150    1106    1129    1073    1072    1028    1051
       8    1152    1151    1129    1130    1074    1073    1051    1052
       8    1153    1152    1130    1131    1075    1074    1052    1053
       8    1154    1153    1131    1132    1076    1075    1053    1054
       8    1155    1154    1132    1133    1077    1076    1054    1055
       8    1156    1155    1133    1134    1078    1077    1055    1056
       8    1157    1156    1134    1113    1079    1078    1056    1035
       8    1158    1157    1113    1112    1080    1079    1035    1034
       8    1159    1158    1112    1114    1081    1080    1034    1036
       8    1160    1159    1114    1135    1082    1081    1036    1057
       8    1161    1160    1135    1136    1083    1082    1057    1058
       8    1162    1161    1136    1137    1084    1083    1058    1059
       8    1163    1162    1137    1138    1085    1084    1059    1060
       8    1164    1163    1138    1139    1086    1085    1060    1061
       8    1165    1164    1139    1140    1087    1086    1061    1062
       8    1166    1165    1140    1141    1088    1087    1062    1063
       8    1167    1166    1141    1142    1089    1088    1063    1064
       8    1168    1167    1142    1143    1090    1089    1064    1065
       8    1169    1168    1143    1097    1091    1090    1065    1019
       8    1145    1169    1097    1096    1067    1091    1019    1018
       8    1170    1171    1172    1173    1092    1093    1094    1095
       8    1172    1174    1175    1173    1094    1096    1097    1095
       8    1176    1171    1170    1177    1098    1093    1092    1099
       8    1170    1178    1179    1177    1092    1100    1101    1099
       8    1180    1181    1182    1176    1102    1103    1104    1098
       8    1183    1184    1181    1180    1105    1106    1103    1102
       8    1177    1183    1180    1176    1099    1105    1102    1098
       8    1185    1186    1178    1187    1107    1108    1100    1109
       8    1188    1189    1186    1185    1110    1111    1108    1107
       8    1190    1191    1189    1188    1112    1113    1111    1110
       8    1192    1190    1188    1193    1114    1112    1110    1115
       8    1194    1179    1178    1186    1116    1101    1100    1108
       8    1185    1195    1193    1188    1107    1117    1115    1110
       8    1170    1173    1187    1178    1092    1095    1109    1100
       8    1196    1183    1177    1179    1118    1105    1099    1101
       8    1197    1196    1179    1194    1119    1118    1101    1116
       8    1198    1197    1194    1199    1120    1119    1116    1121
       8    1189    1199    1194    1186    1111    1121    1116    1108
       8    1200    1201    1195    1185    1122    1123    1117    1107
       8    1202    1200    1185    1187    1124    1122    1107    1109
       8    1203    1202    1187    1173    1125    1124    1109    1095
       8    1204    1174    1172    1205    1126    1096    1094    1127
       8    1206    1205    1172    1171    1128    1127    1094    1093
       8    1182    1206    1171    1176    1104    1128    1093    1098
       8    1207    1184    1183    1196    1129    1106    1105    1118
       8    1208    1207    1196    1197    1130    1129    1118    1119
       8    1209    1208    1197    1198    1131    1130    1119    1120
       8    1210    1209    1198    1211    1132    1131    1120    1133
       8    1212    1211    1198    1199    1134    1133    1120    1121
       8    1191    1212    1199    1189    1113    1134    1121    1111
       8    1213    1192    1193    1195    1135    1114    1115    1117
       8    1214    1213    1195    1201    1136    1135    1117    1123
       8    1215    1214    1201    1216    1137    1136    1123    1138
       8    1217    1216    1201    1200    1139    1138    1123    1122
       8    1218    1217    1200    1202    1140    1139    1122    1124
       8    1219    1218    1202    1203    1141    1140    1124    1125
       8    1220    1219    1203    1221    1142    1141    1125    1143
       8    1175    1221    1203    1173    1097    1143    1125    1095
       8    1222    1223    1174    1204    1144    1145    1096    1126
       8    1224    1222    1204    1205    1146    1144    1126    1127
       8    1225    1224    1205    1206    1147    1146    1127    1128
       8    1226    1225    1206    1182    1148    1147    1128    1104
       8    1227    1226    1182    1181    1149    1148    1104    1103
       8    1228    1227    1181    1184    1150    1149    1103    1106
       8    1229    1228    1184    1207    1151    1150    1106    1129
       8    1230    1229    1207    1208    1152    1151    1129    1130
       8    1231    1230    1208    1209    1153    1152    1130    1131
       8    1232    1231    1209    1210    1154    1153    1131    1132
       8    1233    1232    1210    1211    1155    1154    1132    1133
       8    1234    1233    1211    1212    1156    1155    1133    1134
       8    1235    1234    1212    1191    1157    1156    1134    1113
       8    1236    1235    1191    1190    1158    1157    1113    1112
       8    1237    1236    1190    1192    1159    1158    1112    1114
       8    1238    1237    1192    1213    1160    1159    1114    1135
       8    1239    1238    1213    1214    1161    1160    1135    1136
       8    1240    1239    1214    1215    1162    1161    1136    1137
       8    1241    1240    1215    1216    1163    1162    1137    1138
       8    1242    1241    1216    1217    1164    1163    1138    1139
       8    1243    1242    1217    1218    1165    1164    1139    1140
       8    1244    1243    1218    1219    1166    1165    1140    1141
       8    1245    1244    1219    1220    1167    1166    1141    1142
       8    1246    1245    1220    1221    1168    1167    1142    1143
       8    1247    1246    1221    1175    1169    1168    1143    1097
       8    1223    1247    1175    1174    1145    1169    1097    1096
       8    1248    1249    1250    1251    1170    1171    1172    1173
       8    1250    1252    1253    1251    1172    1174    1175    1173
       8    1254    1249    1248    1255    1176    1171    1170    1177
       8    1248    1256    1257    1255    1170    1178    1179    1177
       8    1258    1259    1260    1254    1180    1181    1182    1176
       8    1261    1262    1259    1258    1183    1184    1181    1180
       8    1255    1261    1258    1254    1177    1183    1180    1176
       8    1263    1264    1256    1265    1185    1186    1178    1187
       8    1266    1267    1264    1263    1188    1189    1186    1185
       8    1268    1269    1267    1266    1190    1191    1189    1188
       8    1270    1268    1266    1271    1192    1190    1188    1193
       8    1272    1257    1256    1264    1194    1179    1178    1186
       8    1263    1273    1271    1266    1185    1195    1193    1188
       8    1248    1251    1265    1256    1170    1173    1187    1178
       8    1274    1261    1255    1257    1196    1183    1177    1179
       8    1275    1274    1257    1272    1197    1196    1179    1194
       8    1276    1275    1272    1277    1198    1197    1194    1199
       8    1267    1277    1272    1264    1189    1199    1194    1186
       8    1278    1279    1273    1263    1200    1201    1195    1185
       8    1280    1278    1263    1265    1202    1200    1185    1187
       8    1281    1280    1265    1251    1203    1202    1187    1173
       8    1282    1252    1250    1283    1204    1174    1172    1205
       8    1284    1283    1250    1249    1206    1205    1172    1171
       8    1260    1284    1249    1254    1182    1206    1171    1176
       8    1285    1262    1261    1274    1207    1184    1183    1196
       8    1286    1285    1274    1275    1208    1207    1196    1197
       8    1287    1286    1275    1276    1209    1208    1197    1198
       8    1288    1287    1276    1289    1210    1209    1198    1211
       8    1290    1289    1276    1277    1212    1211    1198    1199
       8    1269    1290    1277    1267    1191    1212    1199    1189
       8    1291    1270    1271    1273    1213    1192    1193    1195
       8    1292    1291    1273    1279    1214    1213    1195    1201
       8    1293    1292    1279    1294    1215    1214    1201    1216
       8    1295    1294    1279    1278    1217    1216    1201    1200
       8    1296    1295    1278    1280    1218    1217    1200    1202
       8    1297    1296    1280    1281    1219    1218    1202    1203
       8    1298    1297    1281    1299    1220    1219    1203    1221
       8    1253    1299    1281    1251    1175    1221    1203    1173
       8    1300    1301    1252    1282    1222    1223    1174    1204
       8    1302    1300    1282    1283    1224    1222    1204    1205
       8    1303    1302    1283    1284    1225    1224    1205    1206
       8    1304    1303    1284    1260    1226    1225    1206    1182
       8    1305    1304    1260    1259    1227    1226    1182    1181
       8    1306    1305    1259    1262    1228    1227    1181    1184
       8    1307    1306    1262    1285    1229    1228    1184    1207
       8    1308    1307    1285    1286    1230    1229    1207    1208
       8    1309    1308    1286    1287    1231    1230    1208    1209
       8    1310    1309    1287    1288    1232    1231    1209    1210
       8    1311    1310    1288    1289    1233    1232    1210    1211
       8    1312    1311    1289    1290    1234    1233    1211    1212
       8    1313    1312    1290    1269    1235    1234    1212    1191
       8    1314    1313    1269    1268    1236    1235    1191    1190
       8    1315    1314    1268    1270    1237    1236    1190    1192
       8    1316    1315    1270    1291    1238    1237    1192    1213
       8    1317    1316    1291    1292    1239    1238    1213    1214
       8    1318    1317    1292    1293    1240    1239    1214    1215
       8    1319    1318    1293    1294    1241    1240    1215    1216
       8    1320    1319    1294    1295    1242    1241    1216    1217
       8    1321    1320    1295    1296    1243    1242    1217    1218
       8    1322    1321    1296    1297    1244    1243    1218    1219
       8    1323    1322    1297    1298    1245    1244    1219    1220
       8    1324    1323    1298    1299    1246    1245    1220    1221
       8    1325    1324    1299    1253    1247    1246    1221    1175
       8    1301    1325    1253    1252    1223    1247    1175    1174
       8    1326    1327    1328    1329    1248    1249    1250    1251
       8    1328    1330    1331    1329    1250    1252    1253    1251
       8    1332    1327    1326    1333    1254    1249    1248    1255
       8    1326    1334    1335    1333    1248    1256    1257    1255
       8    1336    1337    1338    1332    1258    1259    1260    1254
       8    1339    1340    1337    1336    1261    1262    1259    1258
       8    1333    1339    1336    1332    1255    1261    1258    1254
       8    1341    1342    1334    1343    1263    1264    1256    1265
       8    1344    1345    1342    1341    1266    1267    1264    1263
       8    1346    1347    1345    1344    1268    1269    1267    1266
       8    1348    1346    1344    1349    1270    1268    1266    1271
       8    1350    1335    1334    1342    1272    1257    1256    1264
       8    1341    1351    1349    1344    1263    1273    1271    1266
       8    1326    1329    1343    1334    1248    1251    1265    1256
       8    1352    1339    1333    1335    1274    1261    1255    1257
       8    1353    1352    1335    1350    1275    1274    1257    1272
       8    1354    1353    1350    1355    1276    1275    1272    1277
       8    1345    1355    1350    1342    1267    1277    1272    1264
       8    1356    1357    1351    1341    1278    1279    1273    1263
       8    1358    1356    1341    1343    1280    1278    1263    1265
       8    1359    1358    1343    1329    1281    1280    1265    1251
       8    1360    1330    1328    1361    1282    1252    1250    1283
       8    1362    1361    1328    1327    1284    1283    1250    1249
       8    1338    1362    1327    1332    1260    1284    1249    1254
       8    1363    1340    1339    1352    1285    1262    1261    1274
       8    1364    1363    1352    1353    1286    1285    1274    1275
       8    1365    1364    1353    1354    1287    1286    1275    1276
       8    1366    1365    1354    1367    1288    1287    1276    1289
       8    1368    1367    1354    1355    1290    1289    1276    1277
       8    1347    1368    1355    1345    1269    1290    1277    1267
       8    1369    1348    1349    1351    1291    1270    1271    1273
       8    1370    1369    1351    1357    1292    1291    1273    1279
       8    1371    1370    1357    1372    1293    1292    1279    1294
       8    1373    1372    1357    1356    1295    1294    1279    1278
       8    1374    1373    1356    1358    1296    1295    1278    1280
       8    1375    1374    1358    1359    1297    1296    1280    1281
       8    1376    1375    1359    1377    1298    1297    1281    1299
       8    1331    1377    1359    1329    1253    1299    1281    1251
       8    1378    1379    1330    1360    1300    1301    1252    1282
       8    1380    1378    1360    1361    1302    1300    1282    1283
       8    1381    1380    1361    1362    1303    1302    1283    1284
       8    1382    1381    1362    1338    1304    1303    1284    1260
       8    1383    1382    1338    1337    1305    1304    1260    1259
       8    1384    1383    1337    1340    1306    1305    1259    1262
       8    1385    1384    1340    1363    1307    1306    1262    1285
       8    1386    1385    1363    1364    1308    1307    1285    1286
       8    1387    1386    1364    1365    1309    1308    1286    1287
       8    1388    1387    1365    1366    1310    1309    1287    1288
       8    1389    1388    1366    1367    1311    1310    1288    1289
       8    1390    1389    1367    1368    1312    1311    1289    1290
       8    1391    1390    1368    1347    1313    1312    1290    1269
       8    1392    1391    1347    1346    1314    1313    1269    1268
       8    1393    1392    1346    1348    1315    1314    1268    1270
       8    1394    1393    1348    1369    1316    1315    1270    1291
       8    1395    1394    1369    1370    1317    1316    1291    1292
       8    1396    1395    1370    1371    1318    1317    1292    1293
       8    1397    1396    1371    1372    1319    1318    1293    1294
       8    1398    1397    1372    1373    1320    1319    1294    1295
       8    1399    1398    1373    1374    1321    1320    1295    1296
       8    1400    1399    1374    1375    1322    1321    1296    1297
       8    1401    1400    1375    1376    1323    1322    1297    1298
       8    1402    1401    1376    1377    1324    1323    1298    1299
       8    1403    1402    1377    1331    1325    1324    1299    1253
       8    1379    1403    1331    1330    1301    1325    1253    1252
       8    1404    1405    1406    1407    1326    1327    1328    1329
       8    1406    1408    1409    1407    1328    1330    1331    1329
       8    1410    1405    1404    1411    1332    1327    1326    1333
       8    1404    1412    1413    1411    1326    1334    1335    1333
       8    1414    1415    1416    1410    1336    1337    1338    1332
       8    1417    1418    1415    1414    1339    1340    1337    1336
       8    1411    1417    1414    1410    1333    1339    1336    1332
       8    1419    1420    1412    1421    1341    1342    1334    1343
       8    1422    1423    1420    1419    1344    1345    1342    1341
       8    1424    1425    1423    1422    1346    1347    1345    1344
       8    1426    1424    1422    1427    1348    1346    1344    1349
       8    1428    1413    1412    1420    1350    1335    1334    1342
       8    1419    1429    1427    1422    1341    1351    1349    1344
       8    1404    1407    1421    1412    1326    1329    1343    1334
       8    1430    1417    1411    1413    1352    1339    1333    1335
       8    1431    1430    1413    1428    1353    1352    1335    1350
       8    1432    1431    1428    1433    1354    1353    1350    1355
       8    1423    1433    1428    1420    1345    1355    1350    1342
       8    1434    1435    1429    1419    1356    1357    1351    1341
       8    1436    1434    1419    1421    1358    1356    1341    1343
       8    1437    1436    1421    1407    1359    1358    1343    1329
       8    1438    1408    1406    1439    1360    1330    1328    1361
       8    1440    1439    1406    1405    1362    1361    1328    1327
       8    1416    1440    1405    1410    1338    1362    1327    1332
       8    1441    1418    1417    1430    1363    1340    1339    1352
       8    1442    1441    1430    1431    1364    1363    1352    1353
       8    1443    1442    1431    1432    1365    1364    1353    1354
       8    1444    1443    1432    1445    1366    1365    1354    1367
       8    1446    1445    1432    1433    1368    1367    1354    1355
       8    1425    1446    1433    1423    1347    1368    1355    1345
       8    1447    1426    1427    1429    1369    1348    1349    1351
       8    1448    1447    1429    1435    1370    1369    1351    1357
       8    1449    1448    1435    1450    1371    1370    1357    1372
       8    1451    1450    1435    1434    1373    1372    1357    1356
       8    1452    1451    1434    1436    1374    1373    1356    1358
       8    1453    1452    1436    1437    1375    1374    1358    1359
       8    1454    1453    1437    1455    1376    1375    1359    1377
       8    1409    1455    1437    1407    1331    1377    1359    1329
       8    1456    1457    1408    1438    1378    1379    1330    1360
       8    1458    1456    1438    1439    1380    1378    1360    1361
       8    1459    1458    1439    1440    1381    1380    1361    1362
       8    1460    1459    1440    1416    1382    1381    1362    1338
       8    1461    1460    1416    1415    1383    1382    1338    1337
       8    1462    1461    1415    1418    1384    1383    1337    1340
       8    1463    1462    1418    1441    1385    1384    1340    1363
       8    1464    1463    1441    1442    1386    1385    1363    1364
       8    1465    1464    1442    1443    1387    1386    1364    1365
       8    1466    1465    1443    1444    1388    1387    1365    1366
       8    1467    1466    1444    1445    1389    1388    1366    1367
       8    1468    1467    1445    1446    1390    1389    1367    1368
       8    1469    1468    1446    1425    1391    1390    1368    1347
       8    1470    1469    1425    1424    1392    1391    1347    1346
       8    1471    1470    1424    1426    1393    1392    1346    1348
       8    1472    1471    1426    1447    1394    1393    1348    1369
       8    1473    1472    1447    1448    1395    1394    1369    1370
       8    1474    1473    1448    1449    1396    1395    1370    1371
       8    1475    1474    1449    1450    1397    1396    1371    1372
       8    1476    1475    1450    1451    1398    1397    1372    1373
       8    1477    1476    1451    1452    1399    1398    1373    1374
       8    1478    1477    1452    1453    1400    1399    1374    1375
       8    1479    1478    1453    1454    1401    1400    1375    1376
       8    1480    1479    1454    1455    1402    1401    1376    1377
       8    1481    1480    1455    1409    1403    1402    1377    1331
       8    1457    1481    1409    1408    1379    1403    1331    1330
       8    1482    1483    1484    1485    1404    1405    1406    1407
       8    1484    1486    1487    1485    1406    1408    1409    1407
       8    1488    1483    1482    1489    1410    1405    1404    1411
       8    1482    1490    1491    1489    1404    1412    1413    1411
       8    1492    1493    1494    1488    1414    1415    1416    1410
       8    1495    1496    1493    1492    1417    1418    1415    1414
       8    1489    1495    1492    1488    1411    1417    1414    1410
       8    1497    1498    1490    1499    1419    1420    1412    1421
       8    1500    1501    1498    1497    1422    1423    1420    1419
       8    1502    1503    1501    1500    1424    1425    1423    1422
       8    1504    1502    1500    1505    1426    1424    1422    1427
       8    1506    1491    1490    1498    1428    1413    1412    1420
       8    1497    1507    1505    1500    1419    1429    1427    1422
       8    1482    1485    1499    1490    1404    1407    1421    1412
       8    1508    1495    1489    1491    1430    1417    1411    1413
       8    1509    1508    1491    1506    1431    1430    1413    1428
       8    1510    1509    1506    1511    1432    1431    1428    1433
       8    1501    1511    1506    1498    1423    1433    1428    1420
       8    1512    1513    1507    1497    1434    1435    1429    1419
       8    1514    1512    1497    1499    1436    1434    1419    1421
       8    1515    1514    1499    1485    1437    1436    1421    1407
       8    1516    1486    1484    1517    1438    1408    1406    1439
       8    1518    1517    1484    1483    1440    1439    1406    1405
       8    1494    1518    1483    1488    1416    1440    1405    1410
       8    1519    1496    1495    1508    1441    1418    1417    1430
       8    1520    1519    1508    1509    1442    1441    1430    1431
       8    1521    1520    1509    1510    1443    1442    1431    1432
       8    1522    1521    1510    1523    1444    1443    1432    1445
       8    1524    1523    1510    1511    1446    1445    1432    1433
       8    1503    1524    1511    1501    1425    1446    1433    1423
       8    1525    1504    1505    1507    1447    1426    1427    1429
       8    1526    1525    1507    1513    1448    1447    1429    1435
       8    1527    1526    1513    1528    1449    1448    1435    1450
       8    1529    1528    1513    1512    1451    1450    1435    1434
       8    1530    1529    1512    1514    1452    1451    1434    1436
       8    1531    1530    1514    1515    1453    1452    1436    1437
       8    1532    1531    1515    1533    1454    1453    1437    1455
       8    1487    1533    1515    1485    1409    1455    1437    1407
       8    1534    1535    1486    1516    1456    1457    1408    1438
       8    1536    1534    1516    1517    1458    1456    1438    1439
       8    1537    1536    1517    1518    1459    1458    1439    1440
       8    1538    1537    1518    1494    1460    1459    1440    1416
       8    1539    1538    1494    1493    1461    1460    1416    1415
       8    1540    1539    1493    1496    1462    1461    1415    1418
       8    1541    1540    1496    1519    1463    1462    1418    1441
       8    1542    1541    1519    1520    1464    1463    1441    1442
       8    1543    1542    1520    1521    1465    1464    1442    1443
       8    1544    1543    1521    1522    1466    1465    1443    1444
       8    1545    1544    1522    1523    1467    1466    1444    1445
       8    1546    1545    1523    1524    1468    1467    1445    1446
       8    1547    1546    1524    1503    1469    1468    1446    1425
       8    1548    1547    1503    1502    1470    1469    1425    1424
       8    1549    1548    1502    1504    1471    1470    1424    1426
       8    1550    1549    1504    1525    1472    1471    1426    1447
       8    1551    1550    1525    1526    1473    1472    1447    1448
       8    1552    1551    1526    1527    1474    1473    1448    1449
       8    1553    1552    1527    1528    1475    1474    1449    1450
       8    1554    1553    1528    1529    1476    1475    1450    1451
       8    1555    1554    1529    1530    1477    1476    1451    1452
       8    1556    1555    1530    1531    1478    1477    1452    1453
       8    1557    1556    1531    1532    1479    1478    1453    1454
       8    1558    1557    1532    1533    1480    1479    1454    1455
       8    1559    1558    1533    1487    1481    1480    1455    1409
       8    1535    1559    1487    1486    1457    1481    1409    1408
       8    1560    1561    1562    1563    1482    1483    1484    1485
       8    1562    1564    1565    1563    1484    1486    1487    1485
       8    1566    1561    1560    1567    1488    1483    1482    1489
       8    1560    1568    1569    1567    1482    1490    1491    1489
       8    1570    1571    1572    1566    1492    1493    1494    1488
       8    1573    1574    1571    1570    1495    1496    1493    1492
       8    1567    1573    1570    1566    1489    1495    1492    1488
       8    1575    1576    1568    1577    1497    1498    1490    1499
       8    1578    1579    1576    1575    1500    1501    1498    1497
       8    1580    1581    1579    1578    1502    1503    1501    1500
       8    1582    1580    1578    1583    1504    1502    1500    1505
       8    1584    1569    1568    1576    1506    1491    1490    1498
       8    1575    1585    1583    1578    1497    1507    1505    1500
       8    1560    1563    1577    1568    1482    1485    1499    1490
       8    1586    1573    1567    1569    1508    1495    1489    1491
       8    1587    1586    1569    1584    1509    1508    1491    1506
       8    1588    1587    1584    1589    1510    1509    1506    1511
       8    1579    1589    1584    1576    1501    1511    1506    1498
       8    1590    1591    1585    1575    1512    1513    1507    1497
       8    1592    1590    1575    1577    1514    1512    1497    1499
       8    1593    1592    1577    1563    1515    1514    1499    1485
       8    1594    1564    1562    1595    1516    1486    1484    1517
       8    1596    1595    1562    1561    1518    1517    1484    1483
       8    1572    1596    1561    1566    1494    1518    1483    1488
       8    1597    1574    1573    1586    1519    1496    1495    1508
       8    1598    1597    1586    1587    1520    1519    1508    1509
       8    1599    1598    1587    1588    1521    1520    1509    1510
       8    1600    1599    1588    1601    1522    1521    1510    1523
       8    1602    1601    1588    1589    1524    1523    1510    1511
       8    1581    1602    1589    1579    1503    1524    1511    1501
       8    1603    1582    1583    1585    1525    1504    1505    1507
       8    1604    1603    1585    1591    1526    1525    1507    1513
       8    1605    1604    1591    1606    1527    1526    1513    1528
       8    1607    1606    1591    1590    1529    1528    1513    1512
       8    1608    1607    1590    1592    1530    1529    1512    1514
       8    1609    1608    1592    1593    1531    1530    1514    1515
       8    1610    1609    1593    1611    1532    1531    1515    1533
       8    1565    1611    1593    1563    1487    1533    1515    1485
       8    1612    1613    1564    1594    1534    1535    1486    1516
       8    1614    1612    1594    1595    1536    1534    1516    1517
       8    1615    1614    1595    1596    1537    1536    1517    1518
       8    1616    1615    1596    1572    1538    1537    1518    1494
       8    1617    1616    1572    1571    1539    1538    1494    1493
       8    1618    1617    1571    1574    1540    1539    1493    1496
       8    1619    1618    1574    1597    1541    1540    1496    1519
       8    1620    1619    1597    1598    1542    1541    1519    1520
       8    1621    1620    1598    1599    1543    1542    1520    1521
       8    1622    1621    1599    1600    1544    1543    1521    1522
       8    1623    1622    1600    1601    1545    1544    1522    1523
       8    1624    1623    1601    1602    1546    1545    1523    1524
       8    1625    1624    1602    1581    1547    1546    1524    1503
       8    1626    1625    1581    1580    1548    1547    1503    1502
       8    1627    1626    1580    1582    1549    1548    1502    1504
       8    1628    1627    1582    1603    1550    1549    1504    1525
       8    1629    1628    1603    1604    1551    1550    1525    1526
       8    1630    1629    1604    1605    1552    1551    1526    1527
       8    1631    1630    1605    1606    1553    1552    1527    1528
       8    1632    1631    1606    1607    1554    1553    1528    1529
       8    1633    1632    1607    1608    1555    1554    1529    1530
       8    1634    1633    1608    1609    1556    1555    1530    1531
       8    1635    1634    1609    1610    1557    1556    1531    1532
       8    1636    1635    1610    1611    1558    1557    1532    1533
       8    1637    1636    1611    1565    1559    1558    1533    1487
       8    1613    1637    1565    1564    1535    1559    1487    1486
       8    1638    1639    1640    1641    1560    1561    1562    1563
       8    1640    1642    1643    1641    1562    1564    1565    1563
       8    1644    1639    1638    1645    1566    1561    1560    1567
       8    1638    1646    1647    1645    1560    1568    1569    1567
       8    1648    1649    1650    1644    1570    1571    1572    1566
       8    1651    1652    1649    1648    1573    1574    1571    1570
       8    1645    1651    1648    1644    1567    1573    1570    1566
       8    1653    1654    1646    1655    1575    1576    1568    1577
       8    1656    1657    1654    1653    1578    1579    1576    1575
       8    1658    1659    1657    1656    1580    1581    1579    1578
       8    1660    1658    1656    1661    1582    1580    1578    1583
       8    1662    1647    1646    1654    1584    1569    1568    1576
       8    1653    1663    1661    1656    1575    1585    1583    1578
       8    1638    1641    1655    1646    1560    1563    1577    1568
       8    1664    1651    1645    1647    1586    1573    1567    1569
       8    1665    1664    1647    1662    1587    1586    1569    1584
       8    1666    1665    1662    1667    1588    1587    1584    1589
       8    1657    1667    1662    1654    1579    1589    1584    1576
       8    1668    1669    1663    1653    1590    1591    1585    1575
       8    1670    1668    1653    1655    1592    1590    1575    1577
       8    1671    1670    1655    1641    1593    1592    1577    1563
       8    1672    1642    1640    1673    1594    1564    1562    1595
       8    1674    1673    1640    1639    1596    1595    1562    1561
       8    1650    1674    1639    1644    1572    1596    1561    1566
       8    1675    1652    1651    1664    1597    1574    1573    1586
       8    1676    1675    1664    1665    1598    1597    1586    1587
       8    1677    1676    1665    1666    1599    1598    1587    1588
       8    1678    1677    1666    1679    1600    1599    1588    1601
       8    1680    1679    1666    1667    1602    1601    1588    1589
       8    1659    1680    1667    1657    1581    1602    1589    1579
       8    1681    1660    1661    1663    1603    1582    1583    1585
       8    1682    1681    1663    1669    1604    1603    1585    1591
       8    1683    1682    1669    1684    1605    1604    1591    1606
       8    1685    1684    1669    1668    1607    1606    1591    1590
       8    1686    1685    1668    1670    1608    1607    1590    1592
       8    1687    1686    1670    1671    1609    1608    1592    1593
       8    1688    1687    1671    1689    1610    1609    1593    1611
       8    1643    1689    1671    1641    1565    1611    1593    1563
       8    1690    1691    1642    1672    1612    1613    1564    1594
       8    1692    1690    1672    1673    1614    1612    1594    1595
       8    1693    1692    1673    1674    1615    1614    1595    1596
       8    1694    1693    1674    1650    1616    1615    1596    1572
       8    1695    1694    1650    1649    1617    1616    1572    1571
       8    1696    1695    1649    1652    1618    1617    1571    1574
       8    1697    1696    1652    1675    1619    1618    1574    1597
       8    1698    1697    1675    1676    1620    1619    1597    1598
       8    1699    1698    1676    1677    1621    1620    1598    1599
       8    1700    1699    1677    1678    1622    1621    1599    1600
       8    1701    1700    1678    1679    1623    1622    1600    1601
       8    1702    1701    1679    1680    1624    1623    1601    1602
       8    1703    1702    1680    1659    1625    1624    1602    1581
       8    1704    1703    1659    1658    1626    1625    1581    1580
       8    1705    1704    1658    1660    1627    1626    1580    1582
       8    1706    1705    1660    1681    1628    1627    1582    1603
       8    1707    1706    1681    1682    1629    1628    1603    1604
       8    1708    1707    1682    1683    1630    1629    1604    1605
       8    1709    1708    1683    1684    1631    1630    1605    1606
       8    1710    1709    1684    1685    1632    1631    1606    1607
       8    1711    1710    1685    1686    1633    1632    1607    1608
       8    1712    1711    1686    1687    1634    1633    1608    1609
       8    1713    1712    1687    1688    1635    1634    1609    1610
       8    1714    1713    1688    1689    1636    1635    1610    1611
       8    1715    1714    1689    1643    1637    1636    1611    1565
       8    1691    1715    1643    1642    1613    1637    1565    1564
       8    1716    1717    1718    1719    1638    1639    1640    1641
       8    1718    1720    1721    1719    1640    1642    1643    1641
       8    1722    1717    1716    1723    1644    1639    1638    1645
       8    1716    1724    1725    1723    1638    1646    1647    1645
       8    1726    1727    1728    1722    1648    1649    1650    1644
       8    1729    1730    1727    1726    1651    1652    1649    1648
       8    1723    1729    1726    1722    1645    1651    1648    1644
       8    1731    1732    1724    1733    1653    1654    1646    1655
       8    1734    1735    1732    1731    1656    1657    1654    1653
       8    1736    1737    1735    1734    1658    1659    1657    1656
       8    1738    1736    1734    1739    1660    1658    1656    1661
       8    1740    1725    1724    1732    1662    1647    1646    1654
       8    1731    1741    1739    1734    1653    1663    1661    1656
       8    1716    1719    1733    1724    1638    1641    1655    1646
       8    1742    1729    1723    1725    1664    1651    1645    1647
       8    1743    1742    1725    1740    1665    1664    1647    1662
       8    1744    1743    1740    1745    1666    1665    1662    1667
       8    1735    1745    1740    1732    1657    1667    1662    1654
       8    1746    1747    1741    1731    1668    1669    1663    1653
       8    1748    1746    1731    1733    1670    1668    1653    1655
       8    1749    1748    1733    1719    1671    1670    1655    1641
       8    1750    1720    1718    1751    1672    1642    1640    1673
       8    1752    1751    1718    1717    1674    1673    1640    1639
       8    1728    1752    1717    1722    1650    1674    1639    1644
       8    1753    1730    1729    1742    1675    1652    1651    1664
       8    1754    1753    1742    1743    1676    1675    1664    1665
       8    1755    1754    1743    1744    1677    1676    1665    1666
       8    1756    1755    1744    1757    1678    1677    1666    1679
       8    1758    1757    1744    1745    1680    1679    1666    1667
       8    1737    1758    1745    1735    1659    1680    1667    1657
       8    1759    1738    1739    1741    1681    1660    1661    1663
       8    1760    1759    1741    1747    1682    1681    1663    1669
       8    1761    1760    1747    1762    1683    1682    1669    1684
       8    1763    1762    1747    1746    1685    1684    1669    1668
       8    1764    1763    1746    1748    1686    1685    1668    1670
       8    1765    1764    1748    1749    1687    1686    1670    1671
       8    1766    1765    1749    1767    1688    1687    1671    1689
       8    1721    1767    1749    1719    1643    1689    1671    1641
       8    1768    1769    1720    1750    1690    1691    1642    1672
       8    1770    1768    1750    1751    1692    1690    1672    1673
       8    1771    1770    1751    1752    1693    1692    1673    1674
       8    1772    1771    1752    1728    1694    1693    1674    1650
       8    1773    1772    1728    1727    1695    1694    1650    1649
       8    1774    1773    1727    1730    1696    1695    1649    1652
       8    1775    1774    1730    1753    1697    1696    1652    1675
       8    1776    1775    1753    1754    1698    1697    1675    1676
       8    1777    1776    1754    1755    1699    1698    1676    1677
       8    1778    1777    1755    1756    1700    1699    1677    1678
       8    1779    1778    1756    1757    1701    1700    1678    1679
       8    1780    1779    1757    1758    1702    1701    1679    1680
       8    1781    1780    1758    1737    1703    1702    1680    1659
       8    1782    1781    1737    1736    1704    1703    1659    1658
       8    1783    1782    1736    1738    1705    1704    1658    1660
       8    1784    1783    1738    1759    1706    1705    1660    1681
       8    1785    1784    1759    1760    1707    1706    1681    1682
       8    1786    1785    1760    1761    1708    1707    1682    1683
       8    1787    1786    1761    1762    1709    1708    1683    1684
       8    1788    1787    1762    1763    1710    1709    1684    1685
       8    1789    1788    1763    1764    1711    1710    1685    1686
       8    1790    1789    1764    1765    1712    1711    1686    1687
       8    1791    1790    1765    1766    1713    1712    1687    1688
       8    1792    1791    1766    1767    1714    1713    1688    1689
       8    1793    1792    1767    1721    1715    1714    1689    1643
       8    1769    1793    1721    1720    1691    1715    1643    1642
       8    1794    1795    1796    1797    1716    1717    1718    1719
       8    1796    1798    1799    1797    1718    1720    1721    1719
       8    1800    1795    1794    1801    1722    1717    1716    1723
       8    1794    1802    1803    1801    1716    1724    1725    1723
       8    1804    1805    1806    1800    1726    1727    1728    1722
       8    1807    1808    1805    1804    1729    1730    1727    1726
       8    1801    1807    1804    1800    1723    1729    1726    1722
       8    1809    1810    1802    1811    1731    1732    1724    1733
       8    1812    1813    1810    1809    1734    1735    1732    1731
       8    1814    1815    1813    1812    1736    1737    1735    1734
       8    1816    1814    1812    1817    1738    1736    1734    1739
       8    1818    1803    1802    1810    1740    1725    1724    1732
       8    1809    1819    1817    1812    1731    1741    1739    1734
       8    1794    1797    1811    1802    1716    1719    1733    1724
       8    1820    1807    1801    1803    1742    1729    1723    1725
       8    1821    1820    1803    1818    1743    1742    1725    1740
       8    1822    1821    1818    1823    1744    1743    1740    1745
       8    1813    1823    1818    1810    1735    1745    1740    1732
       8    1824    1825    1819    1809    1746    1747    1741    1731
       8    1826    1824    1809    1811    1748    1746    1731    1733
       8    1827    1826    1811    1797    1749    1748    1733    1719
       8    1828    1798    1796    1829    1750    1720    1718    1751
       8    1830    1829    1796    1795    1752    1751    1718    1717
       8    1806    1830    1795    1800    1728    1752    1717    1722
       8    1831    1808    1807    1820    1753    1730    1729    1742
       8    1832    1831    1820    1821    1754    1753    1742    1743
       8    1833    1832    1821    1822    1755    1754    1743    1744
       8    1834    1833    1822    1835    1756    1755    1744    1757
       8    1836    1835    1822    1823    1758    1757    1744    1745
       8    1815    1836    1823    1813    1737    1758    1745    1735
       8    1837    1816    1817    1819    1759    1738    1739    1741
       8    1838    1837    1819    1825    1760    1759    1741    1747
       8    1839    1838    1825    1840    1761    1760    1747    1762
       8    1841    1840    1825    1824    1763    1762    1747    1746
       8    1842    1841    1824    1826    1764    1763    1746    1748
       8    1843    1842    1826    1827    1765    1764    1748    1749
       8    1844    1843    1827    1845    1766    1765    1749    1767
       8    1799    1845    1827    1797    1721    1767    1749    1719
       8    1846    1847    1798    1828    1768    1769    1720    1750
       8    1848    1846    1828    1829    1770    1768    1750    1751
       8    1849    1848    1829    1830    1771    1770    1751    1752
       8    1850    1849    1830    1806    1772    1771    1752    1728
       8    1851    1850    1806    1805    1773    1772    1728    1727
       8    1852    1851    1805    1808    1774    1773    1727    1730
       8    1853    1852    1808    1831    1775    1774    1730    1753
       8    1854    1853    1831    1832    1776    1775    1753    1754
       8    1855    1854    1832    1833    1777    1776    1754    1755
       8    1856    1855    1833    1834    1778    1777    1755    1756
       8    1857    1856    1834    1835    1779    1778    1756    1757
       8    1858    1857    1835    1836    1780    1779    1757    1758
       8    1859    1858    1836    1815    1781    1780    1758    1737
       8    1860    1859    1815    1814    1782    1781    1737    1736
       8    1861    1860    1814    1816    1783    1782    1736    1738
       8    1862    1861    1816    1837    1784    1783    1738    1759
       8    1863    1862    1837    1838    1785    1784    1759    1760
       8    1864    1863    1838    1839    1786    1785    1760    1761
       8    1865    1864    1839    1840    1787    1786    1761    1762
       8    1866    1865    1840    1841    1788    1787    1762    1763
       8    1867    1866    1841    1842    1789    1788    1763    1764
       8    1868    1867    1842    1843    1790    1789    1764    1765
       8    1869    1868    1843    1844    1791    1790    1765    1766
       8    1870    1869    1844    1845    1792    1791    1766    1767
       8    1871    1870    1845    1799    1793    1792    1767    1721
       8    1847    1871    1799    1798    1769    1793    1721    1720
       8    1872    1873    1874    1875    1794    1795    1796    1797
       8    1874    1876    1877    1875    1796    1798    1799    1797
       8    1878    1873    1872    1879    1800    1795    1794    1801
       8    1872    1880    1881    1879    1794    1802    1803    1801
       8    1882    1883    1884    1878    1804    1805    1806    1800
       8    1885    1886    1883    1882    1807    1808    1805    1804
       8    1879    1885    1882    1878    1801    1807    1804    1800
       8    1887    1888    1880    1889    1809    1810    1802    1811
       8    1890    1891    1888    1887    1812    1813    1810    1809
       8    1892    1893    1891    1890    1814    1815    1813    1812
       8    1894    1892    1890    1895    1816    1814    1812    1817
       8    1896    1881    1880    1888    1818    1803    1802    1810
       8    1887    1897    1895    1890    1809    1819    1817    1812
       8    1872    1875    1889    1880    1794    1797    1811    1802
       8    1898    1885    1879    1881    1820    1807    1801    1803
       8    1899    1898    1881    1896    1821    1820    1803    1818
       8    1900    1899    1896    1901    1822    1821    1818    1823
       8    1891    1901    1896    1888    1813    1823    1818    1810
       8    1902    1903    1897    1887    1824    1825    1819    1809
       8    1904    1902    1887    1889    1826    1824    1809    1811
       8    1905    1904    1889    1875    1827    1826    1811    1797
       8    1906    1876    1874    1907    1828    1798    1796    1829
       8    1908    1907    1874    1873    1830    1829    1796    1795
       8    1884    1908    1873    1878    1806    1830    1795    1800
       8    1909    1886    1885    1898    1831    1808    1807    1820
       8    1910    1909    1898    1899    1832    1831    1820    1821
       8    1911    1910    1899    1900    1833    1832    1821    1822
       8    1912    1911    1900    1913    1834    1833    1822    1835
       8    1914    1913    1900    1901    1836    1835    1822    1823
       8    1893    1914    1901    1891    1815    1836    1823    1813
       8    1915    1894    1895    1897    1837    1816    1817    1819
       8    1916    1915    1897    1903    1838    1837    1819    1825
       8    1917    1916    1903    1918    1839    1838    1825    1840
       8    1919    1918    1903    1902    1841    1840    1825    1824
       8    1920    1919    1902    1904    1842    1841    1824    1826
       8    1921    1920    1904    1905    1843    1842    1826    1827
       8    1922    1921    1905    1923    1844    1843    1827    1845
       8    1877    1923    1905    1875    1799    1845    1827    1797
       8    1924    1925    1876    1906    1846    1847    1798    1828
       8    1926    1924    1906    1907    1848    1846    1828    1829
       8    1927    1926    1907    1908    1849    1848    1829    1830
       8    1928    1927    1908    1884    1850    1849    1830    1806
       8    1929    1928    1884    1883    1851    1850    1806    1805
       8    1930    1929    1883    1886    1852    1851    1805    1808
       8    1931    1930    1886    1909    1853    1852    1808    1831
       8    1932    1931    1909    1910    1854    1853    1831    1832
       8    1933    1932    1910    1911    1855    1854    1832    1833
       8    1934    1933    1911    1912    1856    1855    1833    1834
       8    1935    1934    1912    1913    1857    1856    1834    1835
       8    1936    1935    1913    1914    1858    1857    1835    1836
       8    1937    1936    1914    1893    1859    1858    1836    1815
       8    1938    1937    1893    1892    1860    1859    1815    1814
       8    1939    1938    1892    1894    1861    1860    1814    1816
       8    1940    1939    1894    1915    1862    1861    1816    1837
       8    1941    1940    1915    1916    1863    1862    1837    1838
       8    1942    1941    1916    1917    1864    1863    1838    1839
       8    1943    1942    1917    1918    1865    1864    1839    1840
       8    1944    1943    1918    1919    1866    1865    1840    1841
       8    1945    1944    1919    1920    1867    1866    1841    1842
       8    1946    1945    1920    1921    1868    1867    1842    1843
       8    1947    1946    1921    1922    1869    1868    1843    1844
       8    1948    1947    1922    1923    1870    1869    1844    1845
       8    1949    1948    1923    1877    1871    1870    1845    1799
       8    1925    1949    1877    1876    1847    1871    1799    1798
  
CELL_TYPES    3486
       1
       1
       1
       1
       1
       1
       1
       1
       1
       1
       1
       1
       1
       1
       1
       1
       1
       1
       1
       1
       1
       1
       1
       1
       1
       1
       1
       1
       1
       1
       1
       1
       1
       1
       1
       1
       1
       1
       1
       1
       1
       1
       1
       1
       1
       1
       1
       1
       1
       1
       1
       1
       1
       1
       1
       1
       1
       1
       1
       1
       1
       1
       1
       1
       1
       1
       1
       1
       1
       1
       1
       1
       1
       1
       1
       1
       1
       1
       1
       1
       1
       1
       1
       1
       1
       1
       1
       1
       1
       1
       1
       1
       1
       1
       1
       1
       1
       1
       1
       1
       1
       1
       1
       1
       1
       1
       1
       1
       1
       1
       1
       1
       1
       1
       1
       1
       1
       1
       1
       1
       1
       1
       1
       1
       1
       1
       1
       1
       1
       1
       1
       1
       1
       1
       1
       1
       1
       1
       1
       1
       1
       1
       1
       1
       1
       1
       1
       1
       1
       1
       1
       1
       1
       1
       1
       1
       1
       1
       1
       1
       1
       1
       1
       1
       1
       1
       1
       1
       1
       1
       1
       1
       1
       1
       1
       1
       1
       1
       1
       1
       1
       1
       1
       1
       1
       1
       1
       1
       1
       1
       1
       1
       1
       1
       1
       1
       1
       1
       1
       1
       1
       1
       1
       1
       1
       1
       1
       1
       1
       1
       1
       1
       1
       1
       1
       1
       1
       1
       1
       1
       1
       1
       1
       1
       1
       1
       1
       1
       1
       1
       1
       1
       1
       1
       1
       1
       1
       1
       1
       1
       1
       1
       1
       1
       1
       1
       1
       1
       1
       1
       1
       1
       1
       1
       1
       1
       1
       1
       1
       1
       1
       1
       1
       1
       1
       1
       1
       1
       1
       1
       1
       1
       1
       1
       1
       1
       1
       1
       1
       1
       1
       1
       1
       1
       1
       1
       1
       1
       1
       1
       1
       1
       1
       1
       1
       1
       1
       1
       1
       1
       1
       1
       1
       1
       1
       1
       1
       1
       1
       1
       1
       1
       1
       1
       1
       1
       1
       1
       1
       1
       1
       1
       1
       1
       1
       1
       1
       1
       1
       1
       1
       1
       1
       1
       1
       1
       1
       1
       1
       1
       1
       1
       1
       1
       1
       1
       1
       1
       1
       1
       1
       1
       1
       1
       1
       1
       1
       1
       1
       1
       1
       1
       1
       1
       1
       1
       1
       1
       1
       1
       1
       1
       1
       1
       1
       1
       1
       1
       1
       1
       1
       1
       1
       1
       1
       1
       1
       1
       1
       1
       1
       1
       1
       1
       1
       1
       1
       1
       1
       1
       1
       1
       1
       1
       1
       1
       1
       1
       1
       1
       1
       1
       1
       1
       1
       1
       1
       1
       1
       1
       1
       1
       1
       1
       1
       1
       1
       1
       1
       1
       1
       1
       1
       1
       1
       1
       1
       1
       1
       1
       1
       1
       1
       1
       1
       1
       1
       1
       1
       1
       1
       1
       1
       1
       1
       1
       1
       1
       1
       1
       1
       1
       1
       1
       1
       1
       1
       1
       1
       1
       1
       1
       1
       1
       1
       1
       1
       1
       1
       1
       1
       1
       1
       1
       1
       1
       1
       1
       1
       1
       1
       1
       1
       1
       1
       1
       1
       1
       1
       1
       1
       1
       1
       1
       1
       1
       1
       1
       1
       1
       1
       1
       1
       1
       1
       1
       1
       1
       1
       1
       1
       1
       1
       1
       1
       1
       1
       1
       1
       1
       1
       1
       1
       1
       1
       1
       1
       1
       1
       1
       1
       1
       1
       1
       1
       1
       1
       1
       1
       1
       1
       1
       1
       1
       1
       1
       1
       1
       1
       1
       1
       1
       1
       1
       1
       1
       1
       1
       1
       1
       1
       1
       1
       1
       1
       1
       1
       1
       1
       1
       1
       1
       1
       1
       1
       1
       1
       1
       1
       1
       1
       1
       1
       1
       1
       1
       1
       1
       1
       1
       1
       1
       1
       1
       1
       1
       1
       1
       1
       1
       1
       1
       1
       1
       1
       1
       1
       1
       1
       1
       1
       1
       1
       1
       1
       1
       1
       1
       1
       1
       1
       1
       1
       1
       1
       1
       1
       1
       1
       1
       1
       1
       1
       1
       1
       1
       1
       1
       1
       1
       1
       1
       1
       1
       1
       1
       1
       1
       1
       1
       1
       1
       1
       1
       1
       1
       1
       1
       1
       1
       1
       1
       1
       1
       1
       1
       1
       1
       1
       1
       1
       1
       1
       1
       1
       1
       1
       1
       1
       1
       1
       1
       1
       1
       1
       1
       1
       1
       1
       1
       1
       1
       1
       1
       1
       1
       1
       1
       1
       1
       1
       1
       1
       1
       1
       1
       1
       1
       1
       1
       1
       1
       1
       1
       1
       1
       1
       1
       1
       1
       1
       1
       1
       1
       1
       1
       1
       1
       1
       1
       1
       1
       1
       1
       1
       1
       1
       1
       1
       1
       1
       1
       1
       1
       1
       1
       1
       1
       1
       1
       1
       1
       1
       1
       1
       1
       1
       1
       1
       1
       1
       1
       1
       1
       1
       1
       1
       1
       1
       1
       1
       1
       1
       1
       1
       1
       1
       1
       1
       1
       1
       1
       1
       1
       1
       1
       1
       1
       1
       1
       1
       1
       1
       1
       1
       1
       1
       1
       1
       1
       1
       1
       1
       1
       1
       1
       1
       1
       1
       1
       1
       1
       1
       1
       1
       1
       1
       1
       1
       1
       1
       1
       1
       1
       1
       1
       1
       1
       1
       1
       1
       1
       1
       1
       1
       1
       1
       1
       1
       1
       1
       1
       1
       1
       1
       1
       1
       1
       1
       1
       1
       1
       1
       1
       1
       1
       1
       1
       1
       1
       1
       1
       1
       1
       1
       1
       1
       1
       1
       1
       1
       1
       1
       1
       1
       1
       1
       1
       1
       1
       1
       1
       1
       1
       1
       1
       1
       1
       1
       1
       1
       1
       1
       1
       1
       1
       1
       1
       1
       1
       1
       1
       1
       1
       1
       1
       1
       1
       1
       1
       1
       1
       1
       1
       1
       1
       1
       1
       1
       1
       1
       1
       1
       1
       1
       1
       1
       1
       1
       1
       1
       1
       1
       1
       1
       1
       1
       1
       1
       1
       1
       1
       1
       1
       1
       1
       1
       1
       1
       1
       1
       1
       1
       1
       1
       1
       1
       1
       1
       1
       1
       1
       1
       1
       1
       1
       1
       1
       1
       1
       1
       1
       1
       1
       1
       1
       1
       1
       1
       1
       1
       1
       1
       1
       1
       1
       1
       1
       1
       1
       1
       1
       1
       1
       1
       1
       1
       1
       1
       1
       1
       1
       1
       1
       1
       1
       1
       1
       1
       1
       1
       1
       1
       1
       1
       1
       1
       1
       1
       1
       1
       1
       1
       1
       1
       1
       1
       1
       1
       1
       1
       1
       1
       1
       1
       1
       1
       1
       1
       1
       1
       1
       1
       1
       1
       1
       1
       1
       1
       1
       1
       1
       1
       1
       1
       1
       1
       1
       1
       1
       1
       1
       1
       1
       1
       1
       1
       1
       1
       1
       1
       1
       1
       1
       1
       1
       1
       1
       1
       1
       1
       1
       1
       1
       1
       1
       1
       1
       1
       1
       1
       1
       1
       1
       1
       1
       1
       1
       1
       1
       1
       1
       1
       1
       1
       1
       1
       1
       1
       1
       1
       1
       1
       1
       1
       1
       1
       1
       1
       1
       1
       1
       1
       1
       1
       1
       1
       1
       1
       1
       1
       1
       1
       1
       1
       1
       1
       1
       1
       1
       1
       1
       1
       1
       1
       1
       1
       1
       1
       1
       1
       1
       1
       1
       1
       1
       1
       1
       1
       1
       1
       1
       1
       1
       1
       1
       1
       1
       1
       1
       1
       1
       1
       1
       1
       1
       1
       1
       1
       1
       1
       1
       1
       1
       1
       1
       1
       1
       1
       1
       1
       1
       1
       1
       1
       1
       1
       1
       1
       1
       1
       1
       1
       1
       1
       1
       1
       1
       1
       1
       1
       1
       1
       1
       1
       1
       1
       1
       1
       1
       1
       1
       1
       1
       1
       1
       1
       1
       1
       1
       1
       1
       1
       1
       1
       1
       1
       1
       1
       1
       1
       1
       1
       1
       1
       1
       1
       1
       1
       1
       1
       1
       1
       1
       1
       1
       1
       1
       1
       1
       1
       1
       1
       1
       1
       1
       1
       1
       1
       1
       1
       1
       1
       1
       1
       1
       1
       1
       1
       1
       1
       1
       1
       1
       1
       1
       1
       1
       1
       1
       1
       1
       1
       1
       1
       1
       1
       1
       1
       1
       1
       1
       1
       1
       1
       1
       1
       1
       1
       1
       1
       1
       1
       1
       1
       1
       1
       1
       1
       1
       1
       1
       1
       1
       1
       1
       1
       1
       1
       1
       1
       1
       1
       1
       1
       1
       1
       1
       1
       1
       1
       1
       1
       1
       1
       1
       1
       1
       1
       1
       1
       1
       1
       1
       1
       1
       1
       1
       1
       1
       1
       1
       1
       1
       1
       1
       1
       1
       1
       1
       1
       1
       1
       1
       1
       1
       1
       1
       1
       1
       1
       1
       1
       1
       1
       1
       1
       1
       1
       1
       1
       1
       1
       1
       1
       1
       1
       1
       1
       1
       1
       1
       1
       1
       1
       1
       1
       1
       1
       1
       1
       1
       1
       1
       1
       1
       1
       1
       1
       1
       1
       1
       1
       1
       1
       1
       1
       1
       1
       1
       1
       1
       1
       1
       1
       1
       1
       1
       1
       1
       1
       1
       1
       1
       1
       1
       1
       1
       1
       1
       1
       1
       1
       1
       1
       1
       1
       1
       1
       1
       1
       1
       1
       1
       1
       1
       1
       1
       1
       1
       1
       1
       1
       1
       1
       1
       1
       1
       1
       1
       1
       1
       1
       1
       1
       1
       1
       1
       1
       1
       1
       1
       1
       1
       1
       1
       1
       1
       1
       1
       1
       1
       1
       1
       1
       1
       1
       1
       1
       1
       1
       1
       1
       1
       1
       1
       1
       1
       1
       1
       1
       1
       1
       1
       1
       1
       1
       1
       1
       1
       1
       1
       1
       1
       1
       1
       1
       1
       1
       1
       1
       1
       1
       1
       1
       1
       1
       1
       1
       1
       1
       1
       1
       1
       1
       1
       1
       1
       1
       1
       1
       1
       1
       1
       1
       1
       1
       1
       1
       1
       1
       1
       1
       1
       1
       1
       1
       1
       1
       1
       1
       1
       1
       1
       1
       1
       1
       1
       1
       1
       1
       1
       1
       1
       1
       1
       1
       1
       1
       1
       1
       1
       1
       1
       1
       1
       1
       1
       1
       1
       1
       1
       1
       1
       1
       1
       1
       1
       1
       1
       1
       1
       1
       1
       1
       1
       1
       1
       1
       1
       1
       1
       1
       1
       1
       1
       1
       1
       1
       1
       1
       1
       1
       1
       1
       1
       1
       1
       1
       1
       1
       1
       1
       1
       1
       1
       1
       1
       1
       1
       1
       1
       1
       1
       1
       1
       1
       1
       1
       1
       1
       1
       1
       1
       1
       1
       1
       1
       1
       1
       1
       1
       1
       1
       1
       1
       1
       1
       1
       1
       1
       1
       1
       1
       1
       1
       1
       1
       1
       1
       1
       1
       1
       1
       1
       1
       1
       1
       1
       1
       1
       1
       1
       1
       1
       1
       1
       1
       1
       1
       1
       1
       1
       1
       1
       1
       1
       1
       1
       1
       1
       1
       1
       1
       1
       1
       1
       1
       1
       1
       1
       1
       1
       1
       1
       1
       1
       1
       1
       1
       1
       1
       1
       1
       1
       1
       1
       1
       1
       1
       1
       1
       1
       1
       1
       1
       1
       1
       1
       1
       1
       1
       1
       1
       1
       1
       1
       1
       1
       1
       1
       1
       1
       1
       1
       1
       1
       1
       1
       1
       1
       1
       1
       1
       1
       1
       1
       1
       1
       1
       1
       1
       1
       1
       1
       1
       1
       1
       1
       1
       1
       1
       1
       1
       1
       1
       1
       1
       1
       1
       1
       1
       1
       1
       1
       1
       1
       1
       1
       1
       1
       1
       1
       1
       1
       1
       1
       1
       1
       1
       1
       1
       1
       1
       1
       1
       1
       1
       1
       1
       1
       1
       1
       1
       1
       1
       1
       1
       1
       1
       1
       1
       1
       1
       1
       1
       1
       1
       1
       1
       1
       1
       1
       1
       1
       1
       1
       1
       1
       1
       1
       1
       1
       1
       1
       1
       1
       1
       1
       1
       1
       1
       1
       1
       1
       1
       1
       1
       1
       1
       1
       1
       1
       1
       1
       1
       1
       1
       1
       1
       1
       1
       1
       1
       1
       1
       1
       1
       1
       1
       1
       1
       1
       1
       1
       1
       1
       1
       1
       1
       1
       1
       1
       1
       1
       1
       1
       1
       1
       1
      12
      12
      12
      12
      12
      12
      12
      12
      12
      12
      12
      12
      12
      12
      12
      12
      12
      12
      12
      12
      12
      12
      12
      12
      12
      12
      12
      12
      12
      12
      12
      12
      12
      12
      12
      12
      12
      12
      12
      12
      12
      12
      12
      12
      12
      12
      12
      12
      12
      12
      12
      12
      12
      12
      12
      12
      12
      12
      12
      12
      12
      12
      12
      12
      12
      12
      12
      12
      12
      12
      12
      12
      12
      12
      12
      12
      12
      12
      12
      12
      12
      12
      12
      12
      12
      12
      12
      12
      12
      12
      12
      12
      12
      12
      12
      12
      12
      12
      12
      12
      12
      12
      12
      12
      12
      12
      12
      12
      12
      12
      12
      12
      12
      12
      12
      12
      12
      12
      12
      12
      12
      12
      12
      12
      12
      12
      12
      12
      12
      12
      12
      12
      12
      12
      12
      12
      12
      12
      12
      12
      12
      12
      12
      12
      12
      12
      12
      12
      12
      12
      12
      12
      12
      12
      12
      12
      12
      12
      12
      12
      12
      12
      12
      12
      12
      12
      12
      12
      12
      12
      12
      12
      12
      12
      12
      12
      12
      12
      12
      12
      12
      12
      12
      12
      12
      12
      12
      12
      12
      12
      12
      12
      12
      12
      12
      12
      12
      12
      12
      12
      12
      12
      12
      12
      12
      12
      12
      12
      12
      12
      12
      12
      12
      12
      12
      12
      12
      12
      12
      12
      12
      12
      12
      12
      12
      12
      12
      12
      12
      12
      12
      12
      12
      12
      12
      12
      12
      12
      12
      12
      12
      12
      12
      12
      12
      12
      12
      12
      12
      12
      12
      12
      12
      12
      12
      12
      12
      12
      12
      12
      12
      12
      12
      12
      12
      12
      12
      12
      12
      12
      12
      12
      12
      12
      12
      12
      12
      12
      12
      12
      12
      12
      12
      12
      12
      12
      12
      12
      12
      12
      12
      12
      12
      12
      12
      12
      12
      12
      12
      12
      12
      12
      12
      12
      12
      12
      12
      12
      12
      12
      12
      12
      12
      12
      12
      12
      12
      12
      12
      12
      12
      12
      12
      12
      12
      12
      12
      12
      12
      12
      12
      12
      12
      12
      12
      12
      12
      12
      12
      12
      12
      12
      12
      12
      12
      12
      12
      12
      12
      12
      12
      12
      12
      12
      12
      12
      12
      12
      12
      12
      12
      12
      12
      12
      12
      12
      12
      12
      12
      12
      12
      12
      12
      12
      12
      12
      12
      12
      12
      12
      12
      12
      12
      12
      12
      12
      12
      12
      12
      12
      12
      12
      12
      12
      12
      12
      12
      12
      12
      12
      12
      12
      12
      12
      12
      12
      12
      12
      12
      12
      12
      12
      12
      12
      12
      12
      12
      12
      12
      12
      12
      12
      12
      12
      12
      12
      12
      12
      12
      12
      12
      12
      12
      12
      12
      12
      12
      12
      12
      12
      12
      12
      12
      12
      12
      12
      12
      12
      12
      12
      12
      12
      12
      12
      12
      12
      12
      12
      12
      12
      12
      12
      12
      12
      12
      12
      12
      12
      12
      12
      12
      12
      12
      12
      12
      12
      12
      12
      12
      12
      12
      12
      12
      12
      12
      12
      12
      12
      12
      12
      12
      12
      12
      12
      12
      12
      12
      12
      12
      12
      12
      12
      12
      12
      12
      12
      12
      12
      12
      12
      12
      12
      12
      12
      12
      12
      12
      12
      12
      12
      12
      12
      12
      12
      12
      12
      12
      12
      12
      12
      12
      12
      12
      12
      12
      12
      12
      12
      12
      12
      12
      12
      12
      12
      12
      12
      12
      12
      12
      12
      12
      12
      12
      12
      12
      12
      12
      12
      12
      12
      12
      12
      12
      12
      12
      12
      12
      12
      12
      12
      12
      12
      12
      12
      12
      12
      12
      12
      12
      12
      12
      12
      12
      12
      12
      12
      12
      12
      12
      12
      12
      12
      12
      12
      12
      12
      12
      12
      12
      12
      12
      12
      12
      12
      12
      12
      12
      12
      12
      12
      12
      12
      12
      12
      12
      12
      12
      12
      12
      12
      12
      12
      12
      12
      12
      12
      12
      12
      12
      12
      12
      12
      12
      12
      12
      12
      12
      12
      12
      12
      12
      12
      12
      12
      12
      12
      12
      12
      12
      12
      12
      12
      12
      12
      12
      12
      12
      12
      12
      12
      12
      12
      12
      12
      12
      12
      12
      12
      12
      12
      12
      12
      12
      12
      12
      12
      12
      12
      12
      12
      12
      12
      12
      12
      12
      12
      12
      12
      12
      12
      12
      12
      12
      12
      12
      12
      12
      12
      12
      12
      12
      12
      12
      12
      12
      12
      12
      12
      12
      12
      12
      12
      12
      12
      12
      12
      12
      12
      12
      12
      12
      12
      12
      12
      12
      12
      12
      12
      12
      12
      12
      12
      12
      12
      12
      12
      12
      12
      12
      12
      12
      12
      12
      12
      12
      12
      12
      12
      12
      12
      12
      12
      12
      12
      12
      12
      12
      12
      12
      12
      12
      12
      12
      12
      12
      12
      12
      12
      12
      12
      12
      12
      12
      12
      12
      12
      12
      12
      12
      12
      12
      12
      12
      12
      12
      12
      12
      12
      12
      12
      12
      12
      12
      12
      12
      12
      12
      12
      12
      12
      12
      12
      12
      12
      12
      12
      12
      12
      12
      12
      12
      12
      12
      12
      12
      12
      12
      12
      12
      12
      12
      12
      12
      12
      12
      12
      12
      12
      12
      12
      12
      12
      12
      12
      12
      12
      12
      12
      12
      12
      12
      12
      12
      12
      12
      12
      12
      12
      12
      12
      12
      12
      12
      12
      12
      12
      12
      12
      12
      12
      12
      12
      12
      12
      12
      12
      12
      12
      12
      12
      12
      12
      12
      12
      12
      12
      12
      12
      12
      12
      12
      12
      12
      12
      12
      12
      12
      12
      12
      12
      12
      12
      12
      12
      12
      12
      12
      12
      12
      12
      12
      12
      12
      12
      12
      12
      12
      12
      12
      12
      12
      12
      12
      12
      12
      12
      12
      12
      12
      12
      12
      12
      12
      12
      12
      12
      12
      12
      12
      12
      12
      12
      12
      12
      12
      12
      12
      12
      12
      12
      12
      12
      12
      12
      12
      12
      12
      12
      12
      12
      12
      12
      12
      12
      12
      12
      12
      12
      12
      12
      12
      12
      12
      12
      12
      12
      12
      12
      12
      12
      12
      12
      12
      12
      12
      12
      12
      12
      12
      12
      12
      12
      12
      12
      12
      12
      12
      12
      12
      12
      12
      12
      12
      12
      12
      12
      12
      12
      12
      12
      12
      12
      12
      12
      12
      12
      12
      12
      12
      12
      12
      12
      12
      12
      12
      12
      12
      12
      12
      12
      12
      12
      12
      12
      12
      12
      12
      12
      12
      12
      12
      12
      12
      12
      12
      12
      12
      12
      12
      12
      12
      12
      12
      12
      12
      12
      12
      12
      12
      12
      12
      12
      12
      12
      12
      12
      12
      12
      12
      12
      12
      12
      12
      12
      12
      12
      12
      12
      12
      12
      12
      12
      12
      12
      12
      12
      12
      12
      12
      12
      12
      12
      12
      12
      12
      12
      12
      12
      12
      12
      12
      12
      12
      12
      12
      12
      12
      12
      12
      12
      12
      12
      12
      12
      12
      12
      12
      12
      12
      12
      12
      12
      12
      12
      12
      12
      12
      12
      12
      12
      12
      12
      12
      12
      12
      12
      12
      12
      12
      12
      12
      12
      12
      12
      12
      12
      12
      12
      12
      12
      12
      12
      12
      12
      12
      12
      12
      12
      12
      12
      12
      12
      12
      12
      12
      12
      12
      12
      12
      12
      12
      12
      12
      12
      12
      12
      12
      12
      12
      12
      12
      12
      12
      12
      12
      12
      12
      12
      12
      12
      12
      12
      12
      12
      12
      12
      12
      12
      12
      12
      12
      12
      12
      12
      12
      12
      12
      12
      12
      12
      12
      12
      12
      12
      12
      12
      12
      12
      12
      12
      12
      12
      12
      12
      12
      12
      12
      12
      12
      12
      12
      12
      12
      12
      12
      12
      12
      12
      12
      12
      12
      12
      12
      12
      12
      12
      12
      12
      12
      12
      12
      12
      12
      12
      12
      12
      12
      12
      12
      12
      12
      12
      12
      12
      12
      12
      12
      12
      12
      12
      12
      12
      12
      12
      12
      12
      12
      12
      12
      12
      12
      12
      12
      12
      12
      12
      12
      12
      12
      12
      12
      12
      12
      12
      12
      12
      12
      12
      12
      12
      12
      12
      12
      12
      12
      12
      12
      12
      12
      12
      12
      12
      12
      12
      12
      12
      12
      12
      12
      12
      12
      12
      12
      12
      12
      12
      12
      12
      12
      12
      12
      12
      12
      12
      12
      12
      12
      12
      12
      12
      12
      12
      12
      12
      12
      12
      12
      12
      12
      12
      12
      12
      12
      12
      12
      12
      12
      12
      12
      12
      12
      12
      12
      12
      12
      12
      12
      12
      12
      12
      12
      12
      12
      12
      12
      12
      12
      12
      12
      12
      12
      12
      12
      12
      12
      12
      12
      12
      12
      12
      12
      12
      12
      12
      12
      12
      12
      12
      12
      12
      12
      12
      12
      12
      12
      12
      12
      12
      12
      12
      12
      12
      12
      12
      12
      12
      12
      12
      12
      12
      12
      12
      12
      12
      12
      12
      12
      12
      12
      12
      12
      12
      12
      12
      12
      12
      12
      12
      12
      12
      12
      12
      12
      12
      12
      12
      12
      12
      12
      12
      12
      12
      12
      12
      12
      12
      12
      12
      12
      12
      12
      12
      12
      12
      12
      12
      12
      12
      12
      12
      12
      12
      12
      12
      12
      12
      12
      12
      12
      12
      12
      12
      12
      12
      12
      12
      12
      12
      12
      12
      12
      12
      12
      12
      12
      12
      12
      12
      12
      12
      12
      12
      12
      12
      12
      12
      12
      12
      12
      12
      12
      12
      12
      12
      12
      12
      12
      12
      12
      12
      12
      12
      12
      12
      12
      12
      12
      12
      12
      12
      12
      12
      12
      12
      12
      12
      12
      12
      12
      12
      12
      12
      12
      12
      12
      12
  
  
POINT_DATA       1950
  
SCALARS                  material_type  double 1
LOOKUP_TABLE default
                   2
                   2
                   2
                   2
                   2
                   2
                   2
                   2
                   2
                   2
                   2
                   2
                   2
                   2
                   2
                   2
                   2
                   2
                   2
                   2
                   2
                   2
                   2
                   2
                   2
                   2
                   2
                   2
                   2
                   2
                   2
                   2
                   2
                   2
                   2
                   2
                   2
                   2
                   2
                   2
                   2
                   2
                   2
                   2
                   2
                   2
                   2
                   2
                   2
                   2
                   2
                   2
                   2
                   2
                   2
                   2
                   2
                   2
                   2
                   2
                   2
                   2
                   2
                   2
                   2
                   2
                   2
                   2
                   2
                   2
                   2
                   2
                   2
                   2
                   2
                   2
                   2
                   2
                   2
                   2
                   2
                   2
                   2
                   2
                   2
                   2
                   2
                   2
                   2
                   2
                   2
                   2
                   2
                   2
                   2
                   2
                   2
                   2
                   2
                   2
                   2
                   2
                   2
                   2
                   2
                   2
                   2
                   2
                   2
                   2
                   2
                   2
                   2
                   2
                   2
                   2
                   2
                   2
                   2
                   2
                   2
                   2
                   2
                   2
                   2
                   2
                   2
                   2
                   2
                   2
                   2
                   2
                   2
                   2
                   2
                   2
                   2
                   2
                   2
                   2
                   2
                   2
                   2
                   2
                   2
                   2
                   2
                   2
                   2
                   2
                   2
                   2
                   2
                   2
                   2
                   2
                   2
                   2
                   2
                   2
                   2
                   2
                   2
                   2
                   2
                   2
                   2
                   2
                   2
                   2
                   2
                   2
                   2
                   2
                   2
                   2
                   2
                   2
                   2
                   2
                   2
                   2
                   2
                   2
                   2
                   2
                   2
                   2
                   2
                   2
                   2
                   2
                   2
                   2
                   2
                   2
                   2
                   2
                   2
                   2
                   2
                   2
                   2
                   2
                   2
                   2
                   2
                   2
                   2
                   2
                   2
                   2
                   2
                   2
                   2
                   2
                   2
                   2
                   2
                   2
                   2
                   2
                   2
                   2
                   2
                   2
                   2
                   2
                   2
                   2
                   2
                   2
                   2
                   2
                   2
                   2
                   2
                   2
                   2
                   2
                   2
                   2
                   2
                   2
                   2
                   2
                   2
                   2
                   2
                   2
                   2
                   2
                   2
                   2
                   2
                   2
                   2
                   2
                   2
                   2
                   2
                   2
                   2
                   2
                   2
                   2
                   2
                   2
                   2
                   2
                   2
                   2
                   2
                   2
                   2
                   2
                   2
                   2
                   2
                   2
                   2
                   2
                   2
                   2
                   2
                   2
                   2
                   2
                   2
                   2
                   2
                   2
                   2
                   2
                   2
                   2
                   2
                   2
                   2
                   2
                   2
                   2
                   2
                   2
                   2
                   2
                   2
                   2
                   2
                   2
                   2
                   2
                   2
                   2
                   2
                   2
                   2
                   2
                   2
                   2
                   2
                   2
                   2
                   2
                   2
                   2
                   2
                   2
                   2
                   2
                   2
                   2
                   2
                   2
                   2
                   2
                   2
                   2
                   2
                   2
                   2
                   2
                   2
                   2
                   2
                   2
                   2
                   2
                   2
                   2
                   2
                   2
                   2
                   2
                   2
                   2
                   2
                   2
                   2
                   2
                   2
                   2
                   2
                   2
                   2
                   2
                   2
                   2
                   2
                   2
                   2
                   2
                   2
                   2
                   2
                   2
                   2
                   2
                   2
                   2
                   2
                   2
                   2
                   2
                   2
                   2
                   2
                   2
                   2
                   2
                   2
                   2
                   2
                   2
                   2
                   2
                   2
                   2
                   2
                   2
                   2
                   2
                   2
                   2
                   2
                   2
                   2
                   2
                   2
                   2
                   2
                   2
                   2
                   2
                   2
                   2
                   2
                   2
                   2
                   2
                   2
                   2
                   2
                   2
                   2
                   2
                   2
                   2
                   2
                   2
                   2
                   2
                   2
                   2
                   2
                   2
                   2
                   2
                   2
                   2
                   2
                   2
                   2
                   2
                   2
                   2
                   2
                   2
                   2
                   2
                   2
                   2
                   2
                   2
                   2
                   2
                   2
                   2
                   2
                   2
                   2
                   2
                   2
                   2
                   2
                   2
                   2
                   2
                   2
                   2
                   2
                   2
                   2
                   2
                   2
                   2
                   2
                   2
                   2
                   2
                   2
                   2
                   2
                   2
                   2
                   2
                   2
                   2
                   2
                   2
                   2
                   2
                   2
                   2
                   2
                   2
                   2
                   2
                   2
                   2
                   2
                   2
                   2
                   2
                   2
                   2
                   2
                   2
                   2
                   2
                   2
                   2
                   2
                   2
                   2
                   2
                   2
                   2
                   2
                   2
                   2
                   2
                   2
                   2
                   2
                   2
                   2
                   2
                   2
                   2
                   2
                   2
                   2
                   2
                   2
                   2
                   2
                   2
                   2
                   2
                   2
                   2
                   2
                   2
                   2
                   2
                   2
                   2
                   2
                   2
                   2
                   2
                   2
                   2
                   2
                   2
                   2
                   2
                   2
                   2
                   2
                   2
                   2
                   2
                   2
                   2
                   2
                   2
                   2
                   2
                   2
                   2
                   2
                   2
                   2
                   2
                   2
                   2
                   2
                   2
                   2
                   2
                   2
                   2
                   2
                   2
                   2
                   2
                   2
                   2
                   2
                   2
                   2
                   2
                   2
                   2
                   2
                   2
                   2
                   2
                   2
                   2
                   2
                   2
                   2
                   2
                   2
                   2
                   2
                   2
                   2
                   2
                   2
                   2
                   2
                   2
                   2
                   2
                   2
                   2
                   2
                   2
                   2
                   2
                   2
                   2
                   2
                   2
                   2
                   2
                   2
                   2
                   2
                   2
                   2
                   2
                   2
                   2
                   2
                   2
                   2
                   2
                   2
                   2
                   2
                   2
                   2
                   2
                   2
                   2
                   2
                   2
                   2
                   2
                   2
                   2
                   2
                   2
                   2
                   2
                   2
                   2
                   2
                   2
                   2
                   2
                   2
                   2
                   2
                   2
                   2
                   2
                   2
                   2
                   2
                   2
                   2
                   2
                   2
                   2
                   2
                   2
                   2
                   2
                   2
                   2
                   2
                   2
                   2
                   2
                   2
                   2
                   2
                   2
                   2
                   2
                   2
                   2
                   2
                   2
                   2
                   2
                   2
                   2
                   2
                   2
                   2
                   2
                   2
                   2
                   2
                   2
                   2
                   2
                   2
                   2
                   2
                   2
                   2
                   2
                   2
                   2
                   2
                   2
                   2
                   2
                   2
                   2
                   2
                   2
                   2
                   2
                   2
                   2
                   2
                   2
                   2
                   2
                   2
                   2
                   2
                   2
                   2
                   2
                   2
                   2
                   2
                   2
                   2
                   2
                   2
                   2
                   2
                   2
                   2
                   2
                   2
                   2
                   2
                   2
                   2
                   2
                   2
                   2
                   2
                   2
                   2
                   2
                   2
                   2
                   2
                   2
                   2
                   2
                   2
                   2
                   2
                   2
                   2
                   2
                   2
                   2
                   2
                   2
                   2
                   2
                   2
                   2
                   2
                   2
                   2
                   2
                   2
                   2
                   2
                   2
                   2
                   2
                   2
                   2
                   2
                   2
                   2
                   2
                   2
                   2
                   2
                   2
                   2
                   2
                   2
                   2
                   2
                   2
                   2
                   2
                   2
                   2
                   2
                   2
                   2
                   2
                   2
                   2
                   2
                   2
                   2
                   2
                   2
                   2
                   2
                   2
                   2
                   2
                   2
                   2
                   2
                   2
                   2
                   2
                   2
                   2
                   2
                   2
                   2
                   2
                   2
                   2
                   2
                   2
                   2
                   2
                   2
                   2
                   2
                   2
                   2
                   2
                   2
                   2
                   2
                   2
                   2
                   2
                   2
                   2
                   2
                   2
                   2
                   2
                   2
                   2
                   2
                   2
                   2
                   2
                   2
                   2
                   2
                   2
                   2
                   2
                   2
                   2
                   2
                   2
                   2
                   2
                   2
                   2
                   2
                   2
                   2
                   2
                   2
                   2
                   2
                   2
                   2
                   2
                   2
                   2
                   2
                   2
                   2
                   2
                   2
                   2
                   2
                   2
                   2
                   2
                   2
                   2
                   2
                   2
                   2
                   2
                   2
                   2
                   2
                   2
                   2
                   2
                   2
                   2
                   2
                   2
                   2
                   2
                   2
                   2
                   2
                   2
                   2
                   2
                   2
                   2
                   2
                   2
                   2
                   2
                   2
                   2
                   2
                   2
                   2
                   2
                   2
                   2
                   2
                   2
                   2
                   2
                   2
                   2
                   2
                   2
                   2
                   2
                   2
                   2
                   2
                   2
                   2
                   2
                   2
                   2
                   2
                   2
                   2
                   2
                   2
                   2
                   2
                   2
                   2
                   2
                   2
                   2
                   2
                   2
                   2
                   2
                   2
                   2
                   2
                   2
                   2
                   2
                   2
                   2
                   2
                   2
                   2
                   2
                   2
                   2
                   2
                   2
                   2
                   2
                   2
                   2
                   2
                   2
                   2
                   2
                   2
                   2
                   2
                   2
                   2
                   2
                   2
                   2
                   2
                   2
                   2
                   2
                   2
                   2
                   2
                   2
                   2
                   2
                   2
                   2
                   2
                   2
                   2
                   2
                   2
                   2
                   2
                   2
                   2
                   2
                   2
                   2
                   2
                   2
                   2
                   2
                   2
                   2
                   2
                   2
                   2
                   2
                   2
                   2
                   2
                   2
                   2
                   2
                   2
                   2
                   2
                   2
                   2
                   2
                   2
                   2
                   2
                   2
                   2
                   2
                   2
                   2
                   2
                   2
                   2
                   2
                   2
                   2
                   2
                   2
                   2
                   2
                   2
                   2
                   2
                   2
                   2
                   2
                   2
                   2
                   2
                   2
                   2
                   2
                   2
                   2
                   2
                   2
                   2
                   2
                   2
                   2
                   2
                   2
                   2
                   2
                   2
                   2
                   2
                   2
                   2
                   2
                   2
                   2
                   2
                   2
                   2
                   2
                   2
                   2
                   2
                   2
                   2
                   2
                   2
                   2
                   2
                   2
                   2
                   2
                   2
                   2
                   2
                   2
                   2
                   2
                   2
                   2
                   2
                   2
                   2
                   2
                   2
                   2
                   2
                   2
                   2
                   2
                   2
                   2
                   2
                   2
                   2
                   2
                   2
                   2
                   2
                   2
                   2
                   2
                   2
                   2
                   2
                   2
                   2
                   2
                   2
                   2
                   2
                   2
                   2
                   2
                   2
                   2
                   2
                   2
                   2
                   2
                   2
                   2
                   2
                   2
                   2
                   2
                   2
                   2
                   2
                   2
                   2
                   2
                   2
                   2
                   2
                   2
                   2
                   2
                   2
                   2
                   2
                   2
                   2
                   2
                   2
                   2
                   2
                   2
                   2
                   2
                   2
                   2
                   2
                   2
                   2
                   2
                   2
                   2
                   2
                   2
                   2
                   2
                   2
                   2
                   2
                   2
                   2
                   2
                   2
                   2
                   2
                   2
                   2
                   2
                   2
                   2
                   2
                   2
                   2
                   2
                   2
                   2
                   2
                   2
                   2
                   2
                   2
                   2
                   2
                   2
                   2
                   2
                   2
                   2
                   2
                   2
                   2
                   2
                   2
                   2
                   2
                   2
                   2
                   2
                   2
                   2
                   2
                   2
                   2
                   2
                   2
                   2
                   2
                   2
                   2
                   2
                   2
                   2
                   2
                   2
                   2
                   2
                   2
                   2
                   2
                   2
                   2
                   2
                   2
                   2
                   2
                   2
                   2
                   2
                   2
                   2
                   2
                   2
                   2
                   2
                   2
                   2
                   2
                   2
                   2
                   2
                   2
                   2
                   2
                   2
                   2
                   2
                   2
                   2
                   2
                   2
                   2
                   2
                   2
                   2
                   2
                   2
                   2
                   2
                   2
                   2
                   2
                   2
                   2
                   2
                   2
                   2
                   2
                   2
                   2
                   2
                   2
                   2
                   2
                   2
                   2
                   2
                   2
                   2
                   2
                   2
                   2
                   2
                   2
                   2
                   2
                   2
                   2
                   2
                   2
                   2
                   2
                   2
                   2
                   2
                   2
                   2
                   2
                   2
                   2
                   2
                   2
                   2
                   2
                   2
                   2
                   2
                   2
                   2
                   2
                   2
                   2
                   2
                   2
                   2
                   2
                   2
                   2
                   2
                   2
                   2
                   2
                   2
                   2
                   2
                   2
                   2
                   2
                   2
                   2
                   2
                   2
                   2
                   2
                   2
                   2
                   2
                   2
                   2
                   2
                   2
                   2
                   2
                   2
                   2
                   2
                   2
                   2
                   2
                   2
                   2
                   2
                   2
                   2
                   2
                   2
                   2
                   2
                   2
                   2
                   2
                   2
                   2
                   2
                   2
                   2
                   2
                   2
                   2
                   2
                   2
                   2
                   2
                   2
                   2
                   2
                   2
                   2
                   2
                   2
                   2
                   2
                   2
                   2
                   2
                   2
                   2
                   2
                   2
                   2
                   2
                   2
                   2
                   2
                   2
                   2
                   2
                   2
                   2
                   2
                   2
                   2
                   2
                   2
                   2
                   2
                   2
                   2
                   2
                   2
                   2
                   2
                   2
                   2
                   2
                   2
                   2
                   2
                   2
                   2
                   2
                   2
                   2
                   2
                   2
                   2
                   2
                   2
                   2
                   2
                   2
                   2
                   2
                   2
                   2
                   2
                   2
                   2
                   2
                   2
                   2
                   2
                   2
                   2
                   2
                   2
                   2
                   2
                   2
                   2
                   2
                   2
                   2
                   2
                   2
                   2
                   2
                   2
                   2
                   2
                   2
                   2
                   2
                   2
                   2
                   2
                   2
                   2
                   2
                   2
                   2
                   2
                   2
                   2
                   2
                   2
                   2
                   2
                   2
                   2
                   2
                   2
                   2
                   2
                   2
                   2
                   2
                   2
                   2
                   2
                   2
                   2
                   2
                   2
                   2
                   2
                   2
                   2
                   2
                   2
                   2
                   2
                   2
                   2
                   2
                   2
                   2
                   2
                   2
                   2
                   2
                   2
                   2
                   2
                   2
                   2
                   2
                   2
                   2
                   2
                   2
                   2
                   2
                   2
                   2
                   2
                   2
                   2
                   2
                   2
                   2
                   2
                   2
                   2
                   2
                   2
                   2
                   2
                   2
                   2
                   2
                   2
                   2
                   2
                   2
                   2
                   2
                   2
                   2
                   2
                   2
                   2
                   2
                   2
                   2
                   2
                   2
                   2
                   2
                   2
                   2
                   2
                   2
                   2
                   2
                   2
                   2
                   2
                   2
                   2
                   2
                   2
                   2
                   2
                   2
                   2
                   2
                   2
                   2
                   2
                   2
                   2
                   2
                   2
                   2
                   2
                   2
                   2
                   2
                   2
                   2
                   2
                   2
                   2
                   2
                   2
                   2
                   2
                   2
                   2
                   2
                   2
                   2
                   2
                   2
                   2
                   2
                   2
                   2
                   2
                   2
                   2
                   2
                   2
                   2
                   2
                   2
                   2
                   2
                   2
                   2
                   2
                   2
                   2
                   2
                   2
                   2
                   2
                   2
                   2
                   2
                   2
                   2
                   2
                   2
                   2
                   2
                   2
                   2
                   2
                   2
                   2
                   2
                   2
                   2
                   2
                   2
                   2
                   2
                   2
                   2
                   2
                   2
                   2
                   2
                   2
                   2
                   2
                   2
                   2
                   2
                   2
                   2
                   2
                   2
                   2
                   2
                   2
                   2
                   2
                   2
                   2
                   2
                   2
                   2
                   2
                   2
                   2
                   2
                   2
                   2
                   2
                   2
                   2
                   2
                   2
                   2
                   2
                   2
                   2
                   2
                   2
                   2
                   2
                   2
                   2
                   2
                   2
                   2
                   2
                   2
                   2
                   2
                   2
                   2
                   2
                   2
                   2
                   2
                   2
                   2
                   2
                   2
                   2
                   2
                   2
                   2
                   2
                   2
                   2
                   2
                   2
                   2
                   2
                   2
                   2
                   2
                   2
                   2
                   2
                   2
                   2
                   2
                   2
                   2
                   2
                   2
                   2
                   2
                   2
                   2
                   2
                   2
                   2
                   2
                   2
                   2
                   2
                   2
                   2
                   2
                   2
                   2
                   2
                   2
                   2
                   2
                   2
                   2
                   2
                   2
                   2
                   2
                   2
                   2
                   2
                   2
                   2
                   2
                   2
                   2
                   2
                   2
                   2
                   2
                   2
                   2
                   2
                   2
                   2
                   2
                   2
                   2
                   2
                   2
                   2
                   2
                   2
                   2
                   2
                   2
                   2
                   2
                   2
                   2
                   2
                   2
                   2
                   2
                   2
                   2
                   2
                   2
                   2
                   2
                   2
                   2
                   2
                   2
                   2
                   2
                   2
                   2
                   2
                   2
                   2
                   2
                   2
                   2
                   2
                   2
                   2
                   2
                   2
                   2
                   2
                   2
                   2
                   2
                   2
                   2
                   2
                   2
                   2
                   2
                   2
                   2
                   2
                   2
                   2
                   2
                   2
                   2
                   2
                   2
                   2
                   2
                   2
                   2
                   2
                   2
                   2
                   2
                   2
                   2
                   2
                   2
                   2
                   2
                   2
                   2
                   2
                   2
                   2
                   2
                   2
                   2
                   2
                   2
                   2
                   2
                   2
                   2
                   2
                   2
                   2
                   2
                   2
                   2
                   2
                   2
                   2
                   2
                   2
                   2
                   2
                   2
                   2
                   2
  
SCALARS                        node_id  double 1
LOOKUP_TABLE default
                   1
                   2
                   3
                   4
                   5
                   6
                   7
                   8
                   9
                  10
                  11
                  12
                  13
                  14
                  15
                  16
                  17
                  18
                  19
                  20
                  21
                  22
                  23
                  24
                  25
                  26
                  27
                  28
                  29
                  30
                  31
                  32
                  33
                  34
                  35
                  36
                  37
                  38
                  39
                  40
                  41
                  42
                  43
                  44
                  45
                  46
                  47
                  48
                  49
                  50
                  51
                  52
                  53
                  54
                  55
                  56
                  57
                  58
                  59
                  60
                  61
                  62
                  63
                  64
                  65
                  66
                  67
                  68
                  69
                  70
                  71
                  72
                  73
                  74
                  75
                  76
                  77
                  78
                  79
                  80
                  81
                  82
                  83
                  84
                  85
                  86
                  87
                  88
                  89
                  90
                  91
                  92
                  93
                  94
                  95
                  96
                  97
                  98
                  99
                 100
                 101
                 102
                 103
                 104
                 105
                 106
                 107
                 108
                 109
                 110
                 111
                 112
                 113
                 114
                 115
                 116
                 117
                 118
                 119
                 120
                 121
                 122
                 123
                 124
                 125
                 126
                 127
                 128
                 129
                 130
                 131
                 132
                 133
                 134
                 135
                 136
                 137
                 138
                 139
                 140
                 141
                 142
                 143
                 144
                 145
                 146
                 147
                 148
                 149
                 150
                 151
                 152
                 153
                 154
                 155
                 156
                 157
                 158
                 159
                 160
                 161
                 162
                 163
                 164
                 165
                 166
                 167
                 168
                 169
                 170
                 171
                 172
                 173
                 174
                 175
                 176
                 177
                 178
                 179
                 180
                 181
                 182
                 183
                 184
                 185
                 186
                 187
                 188
                 189
                 190
                 191
                 192
                 193
                 194
                 195
                 196
                 197
                 198
                 199
                 200
                 201
                 202
                 203
                 204
                 205
                 206
                 207
                 208
                 209
                 210
                 211
                 212
                 213
                 214
                 215
                 216
                 217
                 218
                 219
                 220
                 221
                 222
                 223
                 224
                 225
                 226
                 227
                 228
                 229
                 230
                 231
                 232
                 233
                 234
                 235
                 236
                 237
                 238
                 239
                 240
                 241
                 242
                 243
                 244
                 245
                 246
                 247
                 248
                 249
                 250
                 251
                 252
                 253
                 254
                 255
                 256
                 257
                 258
                 259
                 260
                 261
                 262
                 263
                 264
                 265
                 266
                 267
                 268
                 269
                 270
                 271
                 272
                 273
                 274
                 275
                 276
                 277
                 278
                 279
                 280
                 281
                 282
                 283
                 284
                 285
                 286
                 287
                 288
                 289
                 290
                 291
                 292
                 293
                 294
                 295
                 296
                 297
                 298
                 299
                 300
                 301
                 302
                 303
                 304
                 305
                 306
                 307
                 308
                 309
                 310
                 311
                 312
                 313
                 314
                 315
                 316
                 317
                 318
                 319
                 320
                 321
                 322
                 323
                 324
                 325
                 326
                 327
                 328
                 329
                 330
                 331
                 332
                 333
                 334
                 335
                 336
                 337
                 338
                 339
                 340
                 341
                 342
                 343
                 344
                 345
                 346
                 347
                 348
                 349
                 350
                 351
                 352
                 353
                 354
                 355
                 356
                 357
                 358
                 359
                 360
                 361
                 362
                 363
                 364
                 365
                 366
                 367
                 368
                 369
                 370
                 371
                 372
                 373
                 374
                 375
                 376
                 377
                 378
                 379
                 380
                 381
                 382
                 383
                 384
                 385
                 386
                 387
                 388
                 389
                 390
                 391
                 392
                 393
                 394
                 395
                 396
                 397
                 398
                 399
                 400
                 401
                 402
                 403
                 404
                 405
                 406
                 407
                 408
                 409
                 410
                 411
                 412
                 413
                 414
                 415
                 416
                 417
                 418
                 419
                 420
                 421
                 422
                 423
                 424
                 425
                 426
                 427
                 428
                 429
                 430
                 431
                 432
                 433
                 434
                 435
                 436
                 437
                 438
                 439
                 440
                 441
                 442
                 443
                 444
                 445
                 446
                 447
                 448
                 449
                 450
                 451
                 452
                 453
                 454
                 455
                 456
                 457
                 458
                 459
                 460
                 461
                 462
                 463
                 464
                 465
                 466
                 467
                 468
                 469
                 470
                 471
                 472
                 473
                 474
                 475
                 476
                 477
                 478
                 479
                 480
                 481
                 482
                 483
                 484
                 485
                 486
                 487
                 488
                 489
                 490
                 491
                 492
                 493
                 494
                 495
                 496
                 497
                 498
                 499
                 500
                 501
                 502
                 503
                 504
                 505
                 506
                 507
                 508
                 509
                 510
                 511
                 512
                 513
                 514
                 515
                 516
                 517
                 518
                 519
                 520
                 521
                 522
                 523
                 524
                 525
                 526
                 527
                 528
                 529
                 530
                 531
                 532
                 533
                 534
                 535
                 536
                 537
                 538
                 539
                 540
                 541
                 542
                 543
                 544
                 545
                 546
                 547
                 548
                 549
                 550
                 551
                 552
                 553
                 554
                 555
                 556
                 557
                 558
                 559
                 560
                 561
                 562
                 563
                 564
                 565
                 566
                 567
                 568
                 569
                 570
                 571
                 572
                 573
                 574
                 575
                 576
                 577
                 578
                 579
                 580
                 581
                 582
                 583
                 584
                 585
                 586
                 587
                 588
                 589
                 590
                 591
                 592
                 593
                 594
                 595
                 596
                 597
                 598
                 599
                 600
                 601
                 602
                 603
                 604
                 605
                 606
                 607
                 608
                 609
                 610
                 611
                 612
                 613
                 614
                 615
                 616
                 617
                 618
                 619
                 620
                 621
                 622
                 623
                 624
                 625
                 626
                 627
                 628
                 629
                 630
                 631
                 632
                 633
                 634
                 635
                 636
                 637
                 638
                 639
                 640
                 641
                 642
                 643
                 644
                 645
                 646
                 647
                 648
                 649
                 650
                 651
                 652
                 653
                 654
                 655
                 656
                 657
                 658
                 659
                 660
                 661
                 662
                 663
                 664
                 665
                 666
                 667
                 668
                 669
                 670
                 671
                 672
                 673
                 674
                 675
                 676
                 677
                 678
                 679
                 680
                 681
                 682
                 683
                 684
                 685
                 686
                 687
                 688
                 689
                 690
                 691
                 692
                 693
                 694
                 695
                 696
                 697
                 698
                 699
                 700
                 701
                 702
                 703
                 704
                 705
                 706
                 707
                 708
                 709
                 710
                 711
                 712
                 713
                 714
                 715
                 716
                 717
                 718
                 719
                 720
                 721
                 722
                 723
                 724
                 725
                 726
                 727
                 728
                 729
                 730
                 731
                 732
                 733
                 734
                 735
                 736
                 737
                 738
                 739
                 740
                 741
                 742
                 743
                 744
                 745
                 746
                 747
                 748
                 749
                 750
                 751
                 752
                 753
                 754
                 755
                 756
                 757
                 758
                 759
                 760
                 761
                 762
                 763
                 764
                 765
                 766
                 767
                 768
                 769
                 770
                 771
                 772
                 773
                 774
                 775
                 776
                 777
                 778
                 779
                 780
                 781
                 782
                 783
                 784
                 785
                 786
                 787
                 788
                 789
                 790
                 791
                 792
                 793
                 794
                 795
                 796
                 797
                 798
                 799
                 800
                 801
                 802
                 803
                 804
                 805
                 806
                 807
                 808
                 809
                 810
                 811
                 812
                 813
                 814
                 815
                 816
                 817
                 818
                 819
                 820
                 821
                 822
                 823
                 824
                 825
                 826
                 827
                 828
                 829
                 830
                 831
                 832
                 833
                 834
                 835
                 836
                 837
                 838
                 839
                 840
                 841
                 842
                 843
                 844
                 845
                 846
                 847
                 848
                 849
                 850
                 851
                 852
                 853
                 854
                 855
                 856
                 857
                 858
                 859
                 860
                 861
                 862
                 863
                 864
                 865
                 866
                 867
                 868
                 869
                 870
                 871
                 872
                 873
                 874
                 875
                 876
                 877
                 878
                 879
                 880
                 881
                 882
                 883
                 884
                 885
                 886
                 887
                 888
                 889
                 890
                 891
                 892
                 893
                 894
                 895
                 896
                 897
                 898
                 899
                 900
                 901
                 902
                 903
                 904
                 905
                 906
                 907
                 908
                 909
                 910
                 911
                 912
                 913
                 914
                 915
                 916
                 917
                 918
                 919
                 920
                 921
                 922
                 923
                 924
                 925
                 926
                 927
                 928
                 929
                 930
                 931
                 932
                 933
                 934
                 935
                 936
                 937
                 938
                 939
                 940
                 941
                 942
                 943
                 944
                 945
                 946
                 947
                 948
                 949
                 950
                 951
                 952
                 953
                 954
                 955
                 956
                 957
                 958
                 959
                 960
                 961
                 962
                 963
                 964
                 965
                 966
                 967
                 968
                 969
                 970
                 971
                 972
                 973
                 974
                 975
                 976
                 977
                 978
                 979
                 980
                 981
                 982
                 983
                 984
                 985
                 986
                 987
                 988
                 989
                 990
                 991
                 992
                 993
                 994
                 995
                 996
                 997
                 998
                 999
                1000
                1001
                1002
                1003
                1004
                1005
                1006
                1007
                1008
                1009
                1010
                1011
                1012
                1013
                1014
                1015
                1016
                1017
                1018
                1019
                1020
                1021
                1022
                1023
                1024
                1025
                1026
                1027
                1028
                1029
                1030
                1031
                1032
                1033
                1034
                1035
                1036
                1037
                1038
                1039
                1040
                1041
                1042
                1043
                1044
                1045
                1046
                1047
                1048
                1049
                1050
                1051
                1052
                1053
                1054
                1055
                1056
                1057
                1058
                1059
                1060
                1061
                1062
                1063
                1064
                1065
                1066
                1067
                1068
                1069
                1070
                1071
                1072
                1073
                1074
                1075
                1076
                1077
                1078
                1079
                1080
                1081
                1082
                1083
                1084
                1085
                1086
                1087
                1088
                1089
                1090
                1091
                1092
                1093
                1094
                1095
                1096
                1097
                1098
                1099
                1100
                1101
                1102
                1103
                1104
                1105
                1106
                1107
                1108
                1109
                1110
                1111
                1112
                1113
                1114
                1115
                1116
                1117
                1118
                1119
                1120
                1121
                1122
                1123
                1124
                1125
                1126
                1127
                1128
                1129
                1130
                1131
                1132
                1133
                1134
                1135
                1136
                1137
                1138
                1139
                1140
                1141
                1142
                1143
                1144
                1145
                1146
                1147
                1148
                1149
                1150
                1151
                1152
                1153
                1154
                1155
                1156
                1157
                1158
                1159
                1160
                1161
                1162
                1163
                1164
                1165
                1166
                1167
                1168
                1169
                1170
                1171
                1172
                1173
                1174
                1175
                1176
                1177
                1178
                1179
                1180
                1181
                1182
                1183
                1184
                1185
                1186
                1187
                1188
                1189
                1190
                1191
                1192
                1193
                1194
                1195
                1196
                1197
                1198
                1199
                1200
                1201
                1202
                1203
                1204
                1205
                1206
                1207
                1208
                1209
                1210
                1211
                1212
                1213
                1214
                1215
                1216
                1217
                1218
                1219
                1220
                1221
                1222
                1223
                1224
                1225
                1226
                1227
                1228
                1229
                1230
                1231
                1232
                1233
                1234
                1235
                1236
                1237
                1238
                1239
                1240
                1241
                1242
                1243
                1244
                1245
                1246
                1247
                1248
                1249
                1250
                1251
                1252
                1253
                1254
                1255
                1256
                1257
                1258
                1259
                1260
                1261
                1262
                1263
                1264
                1265
                1266
                1267
                1268
                1269
                1270
                1271
                1272
                1273
                1274
                1275
                1276
                1277
                1278
                1279
                1280
                1281
                1282
                1283
                1284
                1285
                1286
                1287
                1288
                1289
                1290
                1291
                1292
                1293
                1294
                1295
                1296
                1297
                1298
                1299
                1300
                1301
                1302
                1303
                1304
                1305
                1306
                1307
                1308
                1309
                1310
                1311
                1312
                1313
                1314
                1315
                1316
                1317
                1318
                1319
                1320
                1321
                1322
                1323
                1324
                1325
                1326
                1327
                1328
                1329
                1330
                1331
                1332
                1333
                1334
                1335
                1336
                1337
                1338
                1339
                1340
                1341
                1342
                1343
                1344
                1345
                1346
                1347
                1348
                1349
                1350
                1351
                1352
                1353
                1354
                1355
                1356
                1357
                1358
                1359
                1360
                1361
                1362
                1363
                1364
                1365
                1366
                1367
                1368
                1369
                1370
                1371
                1372
                1373
                1374
                1375
                1376
                1377
                1378
                1379
                1380
                1381
                1382
                1383
                1384
                1385
                1386
                1387
                1388
                1389
                1390
                1391
                1392
                1393
                1394
                1395
                1396
                1397
                1398
                1399
                1400
                1401
                1402
                1403
                1404
                1405
                1406
                1407
                1408
                1409
                1410
                1411
                1412
                1413
                1414
                1415
                1416
                1417
                1418
                1419
                1420
                1421
                1422
                1423
                1424
                1425
                1426
                1427
                1428
                1429
                1430
                1431
                1432
                1433
                1434
                1435
                1436
                1437
                1438
                1439
                1440
                1441
                1442
                1443
                1444
                1445
                1446
                1447
                1448
                1449
                1450
                1451
                1452
                1453
                1454
                1455
                1456
                1457
                1458
                1459
                1460
                1461
                1462
                1463
                1464
                1465
                1466
                1467
                1468
                1469
                1470
                1471
                1472
                1473
                1474
                1475
                1476
                1477
                1478
                1479
                1480
                1481
                1482
                1483
                1484
                1485
                1486
                1487
                1488
                1489
                1490
                1491
                1492
                1493
                1494
                1495
                1496
                1497
                1498
                1499
                1500
                1501
                1502
                1503
                1504
                1505
                1506
                1507
                1508
                1509
                1510
                1511
                1512
                1513
                1514
                1515
                1516
                1517
                1518
                1519
                1520
                1521
                1522
                1523
                1524
                1525
                1526
                1527
                1528
                1529
                1530
                1531
                1532
                1533
                1534
                1535
                1536
                1537
                1538
                1539
                1540
                1541
                1542
                1543
                1544
                1545
                1546
                1547
                1548
                1549
                1550
                1551
                1552
                1553
                1554
                1555
                1556
                1557
                1558
                1559
                1560
                1561
                1562
                1563
                1564
                1565
                1566
                1567
                1568
                1569
                1570
                1571
                1572
                1573
                1574
                1575
                1576
                1577
                1578
                1579
                1580
                1581
                1582
                1583
                1584
                1585
                1586
                1587
                1588
                1589
                1590
                1591
                1592
                1593
                1594
                1595
                1596
                1597
                1598
                1599
                1600
                1601
                1602
                1603
                1604
                1605
                1606
                1607
                1608
                1609
                1610
                1611
                1612
                1613
                1614
                1615
                1616
                1617
                1618
                1619
                1620
                1621
                1622
                1623
                1624
                1625
                1626
                1627
                1628
                1629
                1630
                1631
                1632
                1633
                1634
                1635
                1636
                1637
                1638
                1639
                1640
                1641
                1642
                1643
                1644
                1645
                1646
                1647
                1648
                1649
                1650
                1651
                1652
                1653
                1654
                1655
                1656
                1657
                1658
                1659
                1660
                1661
                1662
                1663
                1664
                1665
                1666
                1667
                1668
                1669
                1670
                1671
                1672
                1673
                1674
                1675
                1676
                1677
                1678
                1679
                1680
                1681
                1682
                1683
                1684
                1685
                1686
                1687
                1688
                1689
                1690
                1691
                1692
                1693
                1694
                1695
                1696
                1697
                1698
                1699
                1700
                1701
                1702
                1703
                1704
                1705
                1706
                1707
                1708
                1709
                1710
                1711
                1712
                1713
                1714
                1715
                1716
                1717
                1718
                1719
                1720
                1721
                1722
                1723
                1724
                1725
                1726
                1727
                1728
                1729
                1730
                1731
                1732
                1733
                1734
                1735
                1736
                1737
                1738
                1739
                1740
                1741
                1742
                1743
                1744
                1745
                1746
                1747
                1748
                1749
                1750
                1751
                1752
                1753
                1754
                1755
                1756
                1757
                1758
                1759
                1760
                1761
                1762
                1763
                1764
                1765
                1766
                1767
                1768
                1769
                1770
                1771
                1772
                1773
                1774
                1775
                1776
                1777
                1778
                1779
                1780
                1781
                1782
                1783
                1784
                1785
                1786
                1787
                1788
                1789
                1790
                1791
                1792
                1793
                1794
                1795
                1796
                1797
                1798
                1799
                1800
                1801
                1802
                1803
                1804
                1805
                1806
                1807
                1808
                1809
                1810
                1811
                1812
                1813
                1814
                1815
                1816
                1817
                1818
                1819
                1820
                1821
                1822
                1823
                1824
                1825
                1826
                1827
                1828
                1829
                1830
                1831
                1832
                1833
                1834
                1835
                1836
                1837
                1838
                1839
                1840
                1841
                1842
                1843
                1844
                1845
                1846
                1847
                1848
                1849
                1850
                1851
                1852
                1853
                1854
                1855
                1856
                1857
                1858
                1859
                1860
                1861
                1862
                1863
                1864
                1865
                1866
                1867
                1868
                1869
                1870
                1871
                1872
                1873
                1874
                1875
                1876
                1877
                1878
                1879
                1880
                1881
                1882
                1883
                1884
                1885
                1886
                1887
                1888
                1889
                1890
                1891
                1892
                1893
                1894
                1895
                1896
                1897
                1898
                1899
                1900
                1901
                1902
                1903
                1904
                1905
                1906
                1907
                1908
                1909
                1910
                1911
                1912
                1913
                1914
                1915
                1916
                1917
                1918
                1919
                1920
                1921
                1922
                1923
                1924
                1925
                1926
                1927
                1928
                1929
                1930
                1931
                1932
                1933
                1934
                1935
                1936
                1937
                1938
                1939
                1940
                1941
                1942
                1943
                1944
                1945
                1946
                1947
                1948
                1949
                1950
  
SCALARS                         bodyid  double 1
LOOKUP_TABLE default
                   1
                   1
                   1
                   1
                   1
                   1
                   1
                   1
                   1
                   1
                   1
                   1
                   1
                   1
                   1
                   1
                   1
                   1
                   1
                   1
                   1
                   1
                   1
                   1
                   1
                   1
                   1
                   1
                   1
                   1
                   1
                   1
                   1
                   1
                   1
                   1
                   1
                   1
                   1
                   1
                   1
                   1
                   1
                   1
                   1
                   1
                   1
                   1
                   1
                   1
                   1
                   1
                   1
                   1
                   1
                   1
                   1
                   1
                   1
                   1
                   1
                   1
                   1
                   1
                   1
                   1
                   1
                   1
                   1
                   1
                   1
                   1
                   1
                   1
                   1
                   1
                   1
                   1
                   1
                   1
                   1
                   1
                   1
                   1
                   1
                   1
                   1
                   1
                   1
                   1
                   1
                   1
                   1
                   1
                   1
                   1
                   1
                   1
                   1
                   1
                   1
                   1
                   1
                   1
                   1
                   1
                   1
                   1
                   1
                   1
                   1
                   1
                   1
                   1
                   1
                   1
                   1
                   1
                   1
                   1
                   1
                   1
                   1
                   1
                   1
                   1
                   1
                   1
                   1
                   1
                   1
                   1
                   1
                   1
                   1
                   1
                   1
                   1
                   1
                   1
                   1
                   1
                   1
                   1
                   1
                   1
                   1
                   1
                   1
                   1
                   1
                   1
                   1
                   1
                   1
                   1
                   1
                   1
                   1
                   1
                   1
                   1
                   1
                   1
                   1
                   1
                   1
                   1
                   1
                   1
                   1
                   1
                   1
                   1
                   1
                   1
                   1
                   1
                   1
                   1
                   1
                   1
                   1
                   1
                   1
                   1
                   1
                   1
                   1
                   1
                   1
                   1
                   1
                   1
                   1
                   1
                   1
                   1
                   1
                   1
                   1
                   1
                   1
                   1
                   1
                   1
                   1
                   1
                   1
                   1
                   1
                   1
                   1
                   1
                   1
                   1
                   1
                   1
                   1
                   1
                   1
                   1
                   1
                   1
                   1
                   1
                   1
                   1
                   1
                   1
                   1
                   1
                   1
                   1
                   1
                   1
                   1
                   1
                   1
                   1
                   1
                   1
                   1
                   1
                   1
                   1
                   1
                   1
                   1
                   1
                   1
                   1
                   1
                   1
                   1
                   1
                   1
                   1
                   1
                   1
                   1
                   1
                   1
                   1
                   1
                   1
                   1
                   1
                   1
                   1
                   1
                   1
                   1
                   1
                   1
                   1
                   1
                   1
                   1
                   1
                   1
                   1
                   1
                   1
                   1
                   1
                   1
                   1
                   1
                   1
                   1
                   1
                   1
                   1
                   1
                   1
                   1
                   1
                   1
                   1
                   1
                   1
                   1
                   1
                   1
                   1
                   1
                   1
                   1
                   1
                   1
                   1
                   1
                   1
                   1
                   1
                   1
                   1
                   1
                   1
                   1
                   1
                   1
                   1
                   1
                   1
                   1
                   1
                   1
                   1
                   1
                   1
                   1
                   1
                   1
                   1
                   1
                   1
                   1
                   1
                   1
                   1
                   1
                   1
                   1
                   1
                   1
                   1
                   1
                   1
                   1
                   1
                   1
                   1
                   1
                   1
                   1
                   1
                   1
                   1
                   1
                   1
                   1
                   1
                   1
                   1
                   1
                   1
                   1
                   1
                   1
                   1
                   1
                   1
                   1
                   1
                   1
                   1
                   1
                   1
                   1
                   1
                   1
                   1
                   1
                   1
                   1
                   1
                   1
                   1
                   1
                   1
                   1
                   1
                   1
                   1
                   1
                   1
                   1
                   1
                   1
                   1
                   1
                   1
                   1
                   1
                   1
                   1
                   1
                   1
                   1
                   1
                   1
                   1
                   1
                   1
                   1
                   1
                   1
                   1
                   1
                   1
                   1
                   1
                   1
                   1
                   1
                   1
                   1
                   1
                   1
                   1
                   1
                   1
                   1
                   1
                   1
                   1
                   1
                   1
                   1
                   1
                   1
                   1
                   1
                   1
                   1
                   1
                   1
                   1
                   1
                   1
                   1
                   1
                   1
                   1
                   1
                   1
                   1
                   1
                   1
                   1
                   1
                   1
                   1
                   1
                   1
                   1
                   1
                   1
                   1
                   1
                   1
                   1
                   1
                   1
                   1
                   1
                   1
                   1
                   1
                   1
                   1
                   1
                   1
                   1
                   1
                   1
                   1
                   1
                   1
                   1
                   1
                   1
                   1
                   1
                   1
                   1
                   1
                   1
                   1
                   1
                   1
                   1
                   1
                   1
                   1
                   1
                   1
                   1
                   1
                   1
                   1
                   1
                   1
                   1
                   1
                   1
                   1
                   1
                   1
                   1
                   1
                   1
                   1
                   1
                   1
                   1
                   1
                   1
                   1
                   1
                   1
                   1
                   1
                   1
                   1
                   1
                   1
                   1
                   1
                   1
                   1
                   1
                   1
                   1
                   1
                   1
                   1
                   1
                   1
                   1
                   1
                   1
                   1
                   1
                   1
                   1
                   1
                   1
                   1
                   1
                   1
                   1
                   1
                   1
                   1
                   1
                   1
                   1
                   1
                   1
                   1
                   1
                   1
                   1
                   1
                   1
                   1
                   1
                   1
                   1
                   1
                   1
                   1
                   1
                   1
                   1
                   1
                   1
                   1
                   1
                   1
                   1
                   1
                   1
                   1
                   1
                   1
                   1
                   1
                   1
                   1
                   1
                   1
                   1
                   1
                   1
                   1
                   1
                   1
                   1
                   1
                   1
                   1
                   1
                   1
                   1
                   1
                   1
                   1
                   1
                   1
                   1
                   1
                   1
                   1
                   1
                   1
                   1
                   1
                   1
                   1
                   1
                   1
                   1
                   1
                   1
                   1
                   1
                   1
                   1
                   1
                   1
                   1
                   1
                   1
                   1
                   1
                   1
                   1
                   1
                   1
                   1
                   1
                   1
                   1
                   1
                   1
                   1
                   1
                   1
                   1
                   1
                   1
                   1
                   1
                   1
                   1
                   1
                   1
                   1
                   1
                   1
                   1
                   1
                   1
                   1
                   1
                   1
                   1
                   1
                   1
                   1
                   1
                   1
                   1
                   1
                   1
                   1
                   1
                   1
                   1
                   1
                   1
                   1
                   1
                   1
                   1
                   1
                   1
                   1
                   1
                   1
                   1
                   1
                   1
                   1
                   1
                   1
                   1
                   1
                   1
                   1
                   1
                   1
                   1
                   1
                   1
                   1
                   1
                   1
                   1
                   1
                   1
                   1
                   1
                   1
                   1
                   1
                   1
                   1
                   1
                   1
                   1
                   1
                   1
                   1
                   1
                   1
                   1
                   1
                   1
                   1
                   1
                   1
                   1
                   1
                   1
                   1
                   1
                   1
                   1
                   1
                   1
                   1
                   1
                   1
                   1
                   1
                   1
                   1
                   1
                   1
                   1
                   1
                   1
                   1
                   1
                   1
                   1
                   1
                   1
                   1
                   1
                   1
                   1
                   1
                   1
                   1
                   1
                   1
                   1
                   1
                   1
                   1
                   1
                   1
                   1
                   1
                   1
                   1
                   1
                   1
                   1
                   1
                   1
                   1
                   1
                   1
                   1
                   1
                   1
                   1
                   1
                   1
                   1
                   1
                   1
                   1
                   1
                   1
                   1
                   1
                   1
                   1
                   1
                   1
                   1
                   1
                   1
                   1
                   1
                   1
                   1
                   1
                   1
                   1
                   1
                   1
                   1
                   1
                   1
                   1
                   1
                   1
                   1
                   1
                   1
                   1
                   1
                   1
                   1
                   1
                   1
                   1
                   1
                   1
                   1
                   1
                   1
                   1
                   1
                   1
                   1
                   1
                   1
                   1
                   1
                   1
                   1
                   1
                   1
                   1
                   1
                   1
                   1
                   1
                   1
                   1
                   1
                   1
                   1
                   1
                   1
                   1
                   1
                   1
                   1
                   1
                   1
                   1
                   1
                   1
                   1
                   1
                   1
                   1
                   1
                   1
                   1
                   1
                   1
                   1
                   1
                   1
                   1
                   1
                   1
                   1
                   1
                   1
                   1
                   1
                   1
                   1
                   1
                   1
                   1
                   1
                   1
                   1
                   1
                   1
                   1
                   1
                   1
                   1
                   1
                   1
                   1
                   1
                   1
                   1
                   1
                   1
                   1
                   1
                   1
                   1
                   1
                   1
                   1
                   1
                   1
                   1
                   1
                   1
                   1
                   1
                   1
                   1
                   1
                   1
                   1
                   1
                   1
                   1
                   1
                   1
                   1
                   1
                   1
                   1
                   1
                   1
                   1
                   1
                   1
                   1
                   1
                   1
                   1
                   1
                   1
                   1
                   1
                   1
                   1
                   1
                   1
                   1
                   1
                   1
                   1
                   1
                   1
                   1
                   1
                   1
                   1
                   1
                   1
                   1
                   1
                   1
                   1
                   1
                   1
                   1
                   1
                   1
                   1
                   1
                   1
                   1
                   1
                   1
                   1
                   1
                   1
                   1
                   1
                   1
                   1
                   1
                   1
                   1
                   1
                   1
                   1
                   1
                   1
                   1
                   1
                   1
                   1
                   1
                   1
                   1
                   1
                   1
                   1
                   1
                   1
                   1
                   1
                   1
                   1
                   1
                   1
                   1
                   1
                   1
                   1
                   1
                   1
                   1
                   1
                   1
                   1
                   1
                   1
                   1
                   1
                   1
                   1
                   1
                   1
                   1
                   1
                   1
                   1
                   1
                   1
                   1
                   1
                   1
                   1
                   1
                   1
                   1
                   1
                   1
                   1
                   1
                   1
                   1
                   1
                   1
                   1
                   1
                   1
                   1
                   1
                   1
                   1
                   1
                   1
                   1
                   1
                   1
                   1
                   1
                   1
                   1
                   1
                   1
                   1
                   1
                   1
                   1
                   1
                   1
                   1
                   1
                   1
                   1
                   1
                   1
                   1
                   1
                   1
                   1
                   1
                   1
                   1
                   1
                   1
                   1
                   1
                   1
                   1
                   1
                   1
                   1
                   1
                   1
                   1
                   1
                   1
                   1
                   1
                   1
                   1
                   1
                   1
                   1
                   1
                   1
                   1
                   1
                   1
                   1
                   1
                   1
                   1
                   1
                   1
                   1
                   1
                   1
                   1
                   1
                   1
                   1
                   1
                   1
                   1
                   1
                   1
                   1
                   1
                   1
                   1
                   1
                   1
                   1
                   1
                   1
                   1
                   1
                   1
                   1
                   1
                   1
                   1
                   1
                   1
                   1
                   1
                   1
                   1
                   1
                   1
                   1
                   1
                   1
                   1
                   1
                   1
                   1
                   1
                   1
                   1
                   1
                   1
                   1
                   1
                   1
                   1
                   1
                   1
                   1
                   1
                   1
                   1
                   1
                   1
                   1
                   1
                   1
                   1
                   1
                   1
                   1
                   1
                   1
                   1
                   1
                   1
                   1
                   1
                   1
                   1
                   1
                   1
                   1
                   1
                   1
                   1
                   1
                   1
                   1
                   1
                   1
                   1
                   1
                   1
                   1
                   1
                   1
                   1
                   1
                   1
                   1
                   1
                   1
                   1
                   1
                   1
                   1
                   1
                   1
                   1
                   1
                   1
                   1
                   1
                   1
                   1
                   1
                   1
                   1
                   1
                   1
                   1
                   1
                   1
                   1
                   1
                   1
                   1
                   1
                   1
                   1
                   1
                   1
                   1
                   1
                   1
                   1
                   1
                   1
                   1
                   1
                   1
                   1
                   1
                   1
                   1
                   1
                   1
                   1
                   1
                   1
                   1
                   1
                   1
                   1
                   1
                   1
                   1
                   1
                   1
                   1
                   1
                   1
                   1
                   1
                   1
                   1
                   1
                   1
                   1
                   1
                   1
                   1
                   1
                   1
                   1
                   1
                   1
                   1
                   1
                   1
                   1
                   1
                   1
                   1
                   1
                   1
                   1
                   1
                   1
                   1
                   1
                   1
                   1
                   1
                   1
                   1
                   1
                   1
                   1
                   1
                   1
                   1
                   1
                   1
                   1
                   1
                   1
                   1
                   1
                   1
                   1
                   1
                   1
                   1
                   1
                   1
                   1
                   1
                   1
                   1
                   1
                   1
                   1
                   1
                   1
                   1
                   1
                   1
                   1
                   1
                   1
                   1
                   1
                   1
                   1
                   1
                   1
                   1
                   1
                   1
                   1
                   1
                   1
                   1
                   1
                   1
                   1
                   1
                   1
                   1
                   1
                   1
                   1
                   1
                   1
                   1
                   1
                   1
                   1
                   1
                   1
                   1
                   1
                   1
                   1
                   1
                   1
                   1
                   1
                   1
                   1
                   1
                   1
                   1
                   1
                   1
                   1
                   1
                   1
                   1
                   1
                   1
                   1
                   1
                   1
                   1
                   1
                   1
                   1
                   1
                   1
                   1
                   1
                   1
                   1
                   1
                   1
                   1
                   1
                   1
                   1
                   1
                   1
                   1
                   1
                   1
                   1
                   1
                   1
                   1
                   1
                   1
                   1
                   1
                   1
                   1
                   1
                   1
                   1
                   1
                   1
                   1
                   1
                   1
                   1
                   1
                   1
                   1
                   1
                   1
                   1
                   1
                   1
                   1
                   1
                   1
                   1
                   1
                   1
                   1
                   1
                   1
                   1
                   1
                   1
                   1
                   1
                   1
                   1
                   1
                   1
                   1
                   1
                   1
                   1
                   1
                   1
                   1
                   1
                   1
                   1
                   1
                   1
                   1
                   1
                   1
                   1
                   1
                   1
                   1
                   1
                   1
                   1
                   1
                   1
                   1
                   1
                   1
                   1
                   1
                   1
                   1
                   1
                   1
                   1
                   1
                   1
                   1
                   1
                   1
                   1
                   1
                   1
                   1
                   1
                   1
                   1
                   1
                   1
                   1
                   1
                   1
                   1
                   1
                   1
                   1
                   1
                   1
                   1
                   1
                   1
                   1
                   1
                   1
                   1
                   1
                   1
                   1
                   1
                   1
                   1
                   1
                   1
                   1
                   1
                   1
                   1
                   1
                   1
                   1
                   1
                   1
                   1
                   1
                   1
                   1
                   1
                   1
                   1
                   1
                   1
                   1
                   1
                   1
                   1
                   1
                   1
                   1
                   1
                   1
                   1
                   1
                   1
                   1
                   1
                   1
                   1
                   1
                   1
                   1
                   1
                   1
                   1
                   1
                   1
                   1
                   1
                   1
                   1
                   1
                   1
                   1
                   1
                   1
                   1
                   1
                   1
                   1
                   1
                   1
                   1
                   1
                   1
                   1
                   1
                   1
                   1
                   1
                   1
                   1
                   1
                   1
                   1
                   1
                   1
                   1
                   1
                   1
                   1
                   1
                   1
                   1
                   1
                   1
                   1
                   1
                   1
                   1
                   1
                   1
                   1
                   1
                   1
                   1
                   1
                   1
                   1
                   1
                   1
                   1
                   1
                   1
                   1
                   1
                   1
                   1
                   1
                   1
                   1
                   1
                   1
                   1
                   1
                   1
                   1
                   1
                   1
                   1
                   1
                   1
                   1
                   1
                   1
                   1
                   1
                   1
                   1
                   1
                   1
                   1
                   1
                   1
                   1
                   1
                   1
                   1
                   1
                   1
                   1
                   1
                   1
                   1
                   1
                   1
                   1
                   1
                   1
                   1
                   1
                   1
                   1
                   1
                   1
                   1
                   1
                   1
                   1
                   1
                   1
                   1
                   1
                   1
                   1
                   1
                   1
                   1
                   1
                   1
                   1
                   1
                   1
                   1
                   1
                   1
                   1
                   1
                   1
                   1
                   1
                   1
                   1
                   1
                   1
                   1
                   1
                   1
                   1
                   1
                   1
                   1
                   1
                   1
                   1
                   1
                   1
                   1
                   1
                   1
                   1
                   1
                   1
                   1
                   1
                   1
                   1
                   1
                   1
                   1
                   1
                   1
                   1
                   1
                   1
                   1
                   1
                   1
                   1
                   1
                   1
                   1
                   1
                   1
                   1
                   1
                   1
                   1
                   1
                   1
                   1
                   1
                   1
                   1
                   1
                   1
                   1
                   1
                   1
                   1
                   1
                   1
                   1
                   1
                   1
                   1
                   1
                   1
                   1
                   1
                   1
                   1
                   1
                   1
                   1
                   1
                   1
                   1
                   1
                   1
                   1
                   1
                   1
                   1
                   1
                   1
                   1
                   1
                   1
                   1
                   1
                   1
                   1
                   1
                   1
                   1
                   1
                   1
                   1
                   1
                   1
                   1
                   1
                   1
                   1
                   1
                   1
                   1
                   1
                   1
                   1
                   1
                   1
                   1
                   1
                   1
                   1
                   1
                   1
                   1
                   1
                   1
                   1
                   1
                   1
                   1
                   1
                   1
                   1
                   1
                   1
                   1
                   1
                   1
                   1
                   1
                   1
                   1
                   1
                   1
                   1
                   1
                   1
                   1
                   1
                   1
                   1
                   1
                   1
                   1
                   1
                   1
                   1
                   1
                   1
                   1
                   1
                   1
                   1
                   1
                   1
                   1
                   1
                   1
                   1
                   1
                   1
                   1
                   1
                   1
                   1
                   1
                   1
                   1
                   1
                   1
                   1
                   1
                   1
                   1
                   1
                   1
                   1
                   1
                   1
                   1
                   1
                   1
                   1
                   1
                   1
                   1
                   1
                   1
                   1
                   1
                   1
                   1
                   1
                   1
                   1
                   1
                   1
                   1
                   1
                   1
                   1
                   1
                   1
                   1
                   1
                   1
                   1
                   1
                   1
                   1
  
SCALARS                  material_type  double 1
LOOKUP_TABLE default
                   2
                   2
                   2
                   2
                   2
                   2
                   2
                   2
                   2
                   2
                   2
                   2
                   2
                   2
                   2
                   2
                   2
                   2
                   2
                   2
                   2
                   2
                   2
                   2
                   2
                   2
                   2
                   2
                   2
                   2
                   2
                   2
                   2
                   2
                   2
                   2
                   2
                   2
                   2
                   2
                   2
                   2
                   2
                   2
                   2
                   2
                   2
                   2
                   2
                   2
                   2
                   2
                   2
                   2
                   2
                   2
                   2
                   2
                   2
                   2
                   2
                   2
                   2
                   2
                   2
                   2
                   2
                   2
                   2
                   2
                   2
                   2
                   2
                   2
                   2
                   2
                   2
                   2
                   2
                   2
                   2
                   2
                   2
                   2
                   2
                   2
                   2
                   2
                   2
                   2
                   2
                   2
                   2
                   2
                   2
                   2
                   2
                   2
                   2
                   2
                   2
                   2
                   2
                   2
                   2
                   2
                   2
                   2
                   2
                   2
                   2
                   2
                   2
                   2
                   2
                   2
                   2
                   2
                   2
                   2
                   2
                   2
                   2
                   2
                   2
                   2
                   2
                   2
                   2
                   2
                   2
                   2
                   2
                   2
                   2
                   2
                   2
                   2
                   2
                   2
                   2
                   2
                   2
                   2
                   2
                   2
                   2
                   2
                   2
                   2
                   2
                   2
                   2
                   2
                   2
                   2
                   2
                   2
                   2
                   2
                   2
                   2
                   2
                   2
                   2
                   2
                   2
                   2
                   2
                   2
                   2
                   2
                   2
                   2
                   2
                   2
                   2
                   2
                   2
                   2
                   2
                   2
                   2
                   2
                   2
                   2
                   2
                   2
                   2
                   2
                   2
                   2
                   2
                   2
                   2
                   2
                   2
                   2
                   2
                   2
                   2
                   2
                   2
                   2
                   2
                   2
                   2
                   2
                   2
                   2
                   2
                   2
                   2
                   2
                   2
                   2
                   2
                   2
                   2
                   2
                   2
                   2
                   2
                   2
                   2
                   2
                   2
                   2
                   2
                   2
                   2
                   2
                   2
                   2
                   2
                   2
                   2
                   2
                   2
                   2
                   2
                   2
                   2
                   2
                   2
                   2
                   2
                   2
                   2
                   2
                   2
                   2
                   2
                   2
                   2
                   2
                   2
                   2
                   2
                   2
                   2
                   2
                   2
                   2
                   2
                   2
                   2
                   2
                   2
                   2
                   2
                   2
                   2
                   2
                   2
                   2
                   2
                   2
                   2
                   2
                   2
                   2
                   2
                   2
                   2
                   2
                   2
                   2
                   2
                   2
                   2
                   2
                   2
                   2
                   2
                   2
                   2
                   2
                   2
                   2
                   2
                   2
                   2
                   2
                   2
                   2
                   2
                   2
                   2
                   2
                   2
                   2
                   2
                   2
                   2
                   2
                   2
                   2
                   2
                   2
                   2
                   2
                   2
                   2
                   2
                   2
                   2
                   2
                   2
                   2
                   2
                   2
                   2
                   2
                   2
                   2
                   2
                   2
                   2
                   2
                   2
                   2
                   2
                   2
                   2
                   2
                   2
                   2
                   2
                   2
                   2
                   2
                   2
                   2
                   2
                   2
                   2
                   2
                   2
                   2
                   2
                   2
                   2
                   2
                   2
                   2
                   2
                   2
                   2
                   2
                   2
                   2
                   2
                   2
                   2
                   2
                   2
                   2
                   2
                   2
                   2
                   2
                   2
                   2
                   2
                   2
                   2
                   2
                   2
                   2
                   2
                   2
                   2
                   2
                   2
                   2
                   2
                   2
                   2
                   2
                   2
                   2
                   2
                   2
                   2
                   2
                   2
                   2
                   2
                   2
                   2
                   2
                   2
                   2
                   2
                   2
                   2
                   2
                   2
                   2
                   2
                   2
                   2
                   2
                   2
                   2
                   2
                   2
                   2
                   2
                   2
                   2
                   2
                   2
                   2
                   2
                   2
                   2
                   2
                   2
                   2
                   2
                   2
                   2
                   2
                   2
                   2
                   2
                   2
                   2
                   2
                   2
                   2
                   2
                   2
                   2
                   2
                   2
                   2
                   2
                   2
                   2
                   2
                   2
                   2
                   2
                   2
                   2
                   2
                   2
                   2
                   2
                   2
                   2
                   2
                   2
                   2
                   2
                   2
                   2
                   2
                   2
                   2
                   2
                   2
                   2
                   2
                   2
                   2
                   2
                   2
                   2
                   2
                   2
                   2
                   2
                   2
                   2
                   2
                   2
                   2
                   2
                   2
                   2
                   2
                   2
                   2
                   2
                   2
                   2
                   2
                   2
                   2
                   2
                   2
                   2
                   2
                   2
                   2
                   2
                   2
                   2
                   2
                   2
                   2
                   2
                   2
                   2
                   2
                   2
                   2
                   2
                   2
                   2
                   2
                   2
                   2
                   2
                   2
                   2
                   2
                   2
                   2
                   2
                   2
                   2
                   2
                   2
                   2
                   2
                   2
                   2
                   2
                   2
                   2
                   2
                   2
                   2
                   2
                   2
                   2
                   2
                   2
                   2
                   2
                   2
                   2
                   2
                   2
                   2
                   2
                   2
                   2
                   2
                   2
                   2
                   2
                   2
                   2
                   2
                   2
                   2
                   2
                   2
                   2
                   2
                   2
                   2
                   2
                   2
                   2
                   2
                   2
                   2
                   2
                   2
                   2
                   2
                   2
                   2
                   2
                   2
                   2
                   2
                   2
                   2
                   2
                   2
                   2
                   2
                   2
                   2
                   2
                   2
                   2
                   2
                   2
                   2
                   2
                   2
                   2
                   2
                   2
                   2
                   2
                   2
                   2
                   2
                   2
                   2
                   2
                   2
                   2
                   2
                   2
                   2
                   2
                   2
                   2
                   2
                   2
                   2
                   2
                   2
                   2
                   2
                   2
                   2
                   2
                   2
                   2
                   2
                   2
                   2
                   2
                   2
                   2
                   2
                   2
                   2
                   2
                   2
                   2
                   2
                   2
                   2
                   2
                   2
                   2
                   2
                   2
                   2
                   2
                   2
                   2
                   2
                   2
                   2
                   2
                   2
                   2
                   2
                   2
                   2
                   2
                   2
                   2
                   2
                   2
                   2
                   2
                   2
                   2
                   2
                   2
                   2
                   2
                   2
                   2
                   2
                   2
                   2
                   2
                   2
                   2
                   2
                   2
                   2
                   2
                   2
                   2
                   2
                   2
                   2
                   2
                   2
                   2
                   2
                   2
                   2
                   2
                   2
                   2
                   2
                   2
                   2
                   2
                   2
                   2
                   2
                   2
                   2
                   2
                   2
                   2
                   2
                   2
                   2
                   2
                   2
                   2
                   2
                   2
                   2
                   2
                   2
                   2
                   2
                   2
                   2
                   2
                   2
                   2
                   2
                   2
                   2
                   2
                   2
                   2
                   2
                   2
                   2
                   2
                   2
                   2
                   2
                   2
                   2
                   2
                   2
                   2
                   2
                   2
                   2
                   2
                   2
                   2
                   2
                   2
                   2
                   2
                   2
                   2
                   2
                   2
                   2
                   2
                   2
                   2
                   2
                   2
                   2
                   2
                   2
                   2
                   2
                   2
                   2
                   2
                   2
                   2
                   2
                   2
                   2
                   2
                   2
                   2
                   2
                   2
                   2
                   2
                   2
                   2
                   2
                   2
                   2
                   2
                   2
                   2
                   2
                   2
                   2
                   2
                   2
                   2
                   2
                   2
                   2
                   2
                   2
                   2
                   2
                   2
                   2
                   2
                   2
                   2
                   2
                   2
                   2
                   2
                   2
                   2
                   2
                   2
                   2
                   2
                   2
                   2
                   2
                   2
                   2
                   2
                   2
                   2
                   2
                   2
                   2
                   2
                   2
                   2
                   2
                   2
                   2
                   2
                   2
                   2
                   2
                   2
                   2
                   2
                   2
                   2
                   2
                   2
                   2
                   2
                   2
                   2
                   2
                   2
                   2
                   2
                   2
                   2
                   2
                   2
                   2
                   2
                   2
                   2
                   2
                   2
                   2
                   2
                   2
                   2
                   2
                   2
                   2
                   2
                   2
                   2
                   2
                   2
                   2
                   2
                   2
                   2
                   2
                   2
                   2
                   2
                   2
                   2
                   2
                   2
                   2
                   2
                   2
                   2
                   2
                   2
                   2
                   2
                   2
                   2
                   2
                   2
                   2
                   2
                   2
                   2
                   2
                   2
                   2
                   2
                   2
                   2
                   2
                   2
                   2
                   2
                   2
                   2
                   2
                   2
                   2
                   2
                   2
                   2
                   2
                   2
                   2
                   2
                   2
                   2
                   2
                   2
                   2
                   2
                   2
                   2
                   2
                   2
                   2
                   2
                   2
                   2
                   2
                   2
                   2
                   2
                   2
                   2
                   2
                   2
                   2
                   2
                   2
                   2
                   2
                   2
                   2
                   2
                   2
                   2
                   2
                   2
                   2
                   2
                   2
                   2
                   2
                   2
                   2
                   2
                   2
                   2
                   2
                   2
                   2
                   2
                   2
                   2
                   2
                   2
                   2
                   2
                   2
                   2
                   2
                   2
                   2
                   2
                   2
                   2
                   2
                   2
                   2
                   2
                   2
                   2
                   2
                   2
                   2
                   2
                   2
                   2
                   2
                   2
                   2
                   2
                   2
                   2
                   2
                   2
                   2
                   2
                   2
                   2
                   2
                   2
                   2
                   2
                   2
                   2
                   2
                   2
                   2
                   2
                   2
                   2
                   2
                   2
                   2
                   2
                   2
                   2
                   2
                   2
                   2
                   2
                   2
                   2
                   2
                   2
                   2
                   2
                   2
                   2
                   2
                   2
                   2
                   2
                   2
                   2
                   2
                   2
                   2
                   2
                   2
                   2
                   2
                   2
                   2
                   2
                   2
                   2
                   2
                   2
                   2
                   2
                   2
                   2
                   2
                   2
                   2
                   2
                   2
                   2
                   2
                   2
                   2
                   2
                   2
                   2
                   2
                   2
                   2
                   2
                   2
                   2
                   2
                   2
                   2
                   2
                   2
                   2
                   2
                   2
                   2
                   2
                   2
                   2
                   2
                   2
                   2
                   2
                   2
                   2
                   2
                   2
                   2
                   2
                   2
                   2
                   2
                   2
                   2
                   2
                   2
                   2
                   2
                   2
                   2
                   2
                   2
                   2
                   2
                   2
                   2
                   2
                   2
                   2
                   2
                   2
                   2
                   2
                   2
                   2
                   2
                   2
                   2
                   2
                   2
                   2
                   2
                   2
                   2
                   2
                   2
                   2
                   2
                   2
                   2
                   2
                   2
                   2
                   2
                   2
                   2
                   2
                   2
                   2
                   2
                   2
                   2
                   2
                   2
                   2
                   2
                   2
                   2
                   2
                   2
                   2
                   2
                   2
                   2
                   2
                   2
                   2
                   2
                   2
                   2
                   2
                   2
                   2
                   2
                   2
                   2
                   2
                   2
                   2
                   2
                   2
                   2
                   2
                   2
                   2
                   2
                   2
                   2
                   2
                   2
                   2
                   2
                   2
                   2
                   2
                   2
                   2
                   2
                   2
                   2
                   2
                   2
                   2
                   2
                   2
                   2
                   2
                   2
                   2
                   2
                   2
                   2
                   2
                   2
                   2
                   2
                   2
                   2
                   2
                   2
                   2
                   2
                   2
                   2
                   2
                   2
                   2
                   2
                   2
                   2
                   2
                   2
                   2
                   2
                   2
                   2
                   2
                   2
                   2
                   2
                   2
                   2
                   2
                   2
                   2
                   2
                   2
                   2
                   2
                   2
                   2
                   2
                   2
                   2
                   2
                   2
                   2
                   2
                   2
                   2
                   2
                   2
                   2
                   2
                   2
                   2
                   2
                   2
                   2
                   2
                   2
                   2
                   2
                   2
                   2
                   2
                   2
                   2
                   2
                   2
                   2
                   2
                   2
                   2
                   2
                   2
                   2
                   2
                   2
                   2
                   2
                   2
                   2
                   2
                   2
                   2
                   2
                   2
                   2
                   2
                   2
                   2
                   2
                   2
                   2
                   2
                   2
                   2
                   2
                   2
                   2
                   2
                   2
                   2
                   2
                   2
                   2
                   2
                   2
                   2
                   2
                   2
                   2
                   2
                   2
                   2
                   2
                   2
                   2
                   2
                   2
                   2
                   2
                   2
                   2
                   2
                   2
                   2
                   2
                   2
                   2
                   2
                   2
                   2
                   2
                   2
                   2
                   2
                   2
                   2
                   2
                   2
                   2
                   2
                   2
                   2
                   2
                   2
                   2
                   2
                   2
                   2
                   2
                   2
                   2
                   2
                   2
                   2
                   2
                   2
                   2
                   2
                   2
                   2
                   2
                   2
                   2
                   2
                   2
                   2
                   2
                   2
                   2
                   2
                   2
                   2
                   2
                   2
                   2
                   2
                   2
                   2
                   2
                   2
                   2
                   2
                   2
                   2
                   2
                   2
                   2
                   2
                   2
                   2
                   2
                   2
                   2
                   2
                   2
                   2
                   2
                   2
                   2
                   2
                   2
                   2
                   2
                   2
                   2
                   2
                   2
                   2
                   2
                   2
                   2
                   2
                   2
                   2
                   2
                   2
                   2
                   2
                   2
                   2
                   2
                   2
                   2
                   2
                   2
                   2
                   2
                   2
                   2
                   2
                   2
                   2
                   2
                   2
                   2
                   2
                   2
                   2
                   2
                   2
                   2
                   2
                   2
                   2
                   2
                   2
                   2
                   2
                   2
                   2
                   2
                   2
                   2
                   2
                   2
                   2
                   2
                   2
                   2
                   2
                   2
                   2
                   2
                   2
                   2
                   2
                   2
                   2
                   2
                   2
                   2
                   2
                   2
                   2
                   2
                   2
                   2
                   2
                   2
                   2
                   2
                   2
                   2
                   2
                   2
                   2
                   2
                   2
                   2
                   2
                   2
                   2
                   2
                   2
                   2
                   2
                   2
                   2
                   2
                   2
                   2
                   2
                   2
                   2
                   2
                   2
                   2
                   2
                   2
                   2
                   2
                   2
                   2
                   2
                   2
                   2
                   2
                   2
                   2
                   2
                   2
                   2
                   2
                   2
                   2
                   2
                   2
                   2
                   2
                   2
                   2
                   2
                   2
                   2
                   2
                   2
                   2
                   2
                   2
                   2
                   2
                   2
                   2
                   2
                   2
                   2
                   2
                   2
                   2
                   2
                   2
                   2
                   2
                   2
                   2
                   2
                   2
                   2
                   2
                   2
                   2
                   2
                   2
                   2
                   2
                   2
                   2
                   2
                   2
                   2
                   2
                   2
                   2
                   2
                   2
                   2
                   2
                   2
                   2
                   2
                   2
                   2
                   2
                   2
                   2
                   2
                   2
                   2
                   2
                   2
                   2
                   2
                   2
                   2
                   2
                   2
                   2
                   2
                   2
                   2
                   2
                   2
                   2
                   2
                   2
                   2
                   2
                   2
                   2
                   2
                   2
                   2
                   2
                   2
                   2
                   2
                   2
                   2
                   2
                   2
                   2
                   2
                   2
                   2
                   2
                   2
                   2
                   2
                   2
                   2
                   2
                   2
                   2
                   2
                   2
                   2
                   2
                   2
                   2
                   2
                   2
                   2
                   2
                   2
                   2
                   2
                   2
                   2
                   2
                   2
                   2
                   2
                   2
                   2
                   2
                   2
                   2
                   2
                   2
                   2
                   2
                   2
                   2
                   2
                   2
                   2
                   2
                   2
                   2
                   2
                   2
                   2
                   2
                   2
                   2
                   2
                   2
                   2
                   2
                   2
                   2
                   2
                   2
                   2
                   2
                   2
                   2
                   2
                   2
                   2
                   2
                   2
                   2
                   2
                   2
                   2
                   2
                   2
                   2
                   2
                   2
                   2
                   2
                   2
                   2
                   2
                   2
                   2
                   2
                   2
                   2
                   2
                   2
                   2
                   2
                   2
                   2
                   2
                   2
                   2
                   2
                   2
                   2
                   2
                   2
                   2
                   2
                   2
                   2
                   2
                   2
                   2
                   2
                   2
                   2
                   2
                   2
                   2
                   2
                   2
                   2
                   2
                   2
                   2
                   2
                   2
                   2
                   2
                   2
                   2
                   2
                   2
                   2
                   2
                   2
                   2
                   2
                   2
                   2
                   2
                   2
                   2
                   2
                   2
                   2
                   2
                   2
                   2
                   2
                   2
                   2
                   2
                   2
                   2
                   2
                   2
                   2
                   2
                   2
                   2
                   2
                   2
                   2
                   2
                   2
                   2
                   2
                   2
                   2
                   2
                   2
                   2
                   2
                   2
                   2
                   2
                   2
                   2
                   2
                   2
                   2
                   2
                   2
                   2
                   2
                   2
                   2
                   2
                   2
                   2
                   2
                   2
                   2
                   2
                   2
                   2
                   2
                   2
                   2
                   2
                   2
                   2
                   2
                   2
                   2
                   2
                   2
                   2
                   2
                   2
                   2
                   2
                   2
                   2
                   2
                   2
                   2
                   2
                   2
                   2
                   2
                   2
                   2
                   2
                   2
                   2
                   2
                   2
                   2
                   2
                   2
                   2
                   2
                   2
                   2
                   2
                   2
                   2
                   2
                   2
                   2
                   2
                   2
                   2
                   2
                   2
                   2
                   2
                   2
                   2
                   2
                   2
                   2
                   2
                   2
                   2
                   2
                   2
                   2
                   2
                   2
                   2
                   2
                   2
                   2
                   2
                   2
                   2
                   2
                   2
                   2
                   2
                   2
                   2
                   2
                   2
                   2
                   2
                   2
                   2
  
SCALARS                       fixity_x  double 1
LOOKUP_TABLE default
                   0
                   0
                   0
                   0
                   0
                   0
                   0
                   0
                   0
                   0
                   0
                   0
                   0
                   0
                   0
                   0
                   0
                   0
                   0
                   0
                   0
                   0
                   0
                   0
                   0
                   0
                   0
                   0
                   0
                   0
                   0
                   0
                   0
                   0
                   0
                   0
                   0
                   0
                   0
                   0
                   0
                   0
                   0
                   0
                   0
                   0
                   0
                   0
                   0
                   0
                   0
                   0
                   0
                   0
                   0
                   0
                   0
                   0
                   0
                   0
                   0
                   0
                   0
                   0
                   0
                   0
                   0
                   0
                   0
                   0
                   0
                   0
                   0
                   0
                   0
                   0
                   0
                   0
                   0
                   0
                   0
                   0
                   0
                   0
                   0
                   0
                   0
                   0
                   0
                   0
                   0
                   0
                   0
                   0
                   0
                   0
                   0
                   0
                   0
                   0
                   0
                   0
                   0
                   0
                   0
                   0
                   0
                   0
                   0
                   0
                   0
                   0
                   0
                   0
                   0
                   0
                   0
                   0
                   0
                   0
                   0
                   0
                   0
                   0
                   0
                   0
                   0
                   0
                   0
                   0
                   0
                   0
                   0
                   0
                   0
                   0
                   0
                   0
                   0
                   0
                   0
                   0
                   0
                   0
                   0
                   0
                   0
                   0
                   0
                   0
                   0
                   0
                   0
                   0
                   0
                   0
                   0
                   0
                   0
                   0
                   0
                   0
                   0
                   0
                   0
                   0
                   0
                   0
                   0
                   0
                   0
                   0
                   0
                   0
                   0
                   0
                   0
                   0
                   0
                   0
                   0
                   0
                   0
                   0
                   0
                   0
                   0
                   0
                   0
                   0
                   0
                   0
                   0
                   0
                   0
                   0
                   0
                   0
                   0
                   0
                   0
                   0
                   0
                   0
                   0
                   0
                   0
                   0
                   0
                   0
                   0
                   0
                   0
                   0
                   0
                   0
                   0
                   0
                   0
                   0
                   0
                   0
                   0
                   0
                   0
                   0
                   0
                   0
                   0
                   0
                   0
                   0
                   0
                   0
                   0
                   0
                   0
                   0
                   0
                   0
                   0
                   0
                   0
                   0
                   0
                   0
                   0
                   0
                   0
                   0
                   0
                   0
                   0
                   0
                   0
                   0
                   0
                   0
                   0
                   0
                   0
                   0
                   0
                   0
                   0
                   0
                   0
                   0
                   0
                   0
                   0
                   0
                   0
                   0
                   0
                   0
                   0
                   0
                   0
                   0
                   0
                   0
                   0
                   0
                   0
                   0
                   0
                   0
                   0
                   0
                   0
                   0
                   0
                   0
                   0
                   0
                   0
                   0
                   0
                   0
                   0
                   0
                   0
                   0
                   0
                   0
                   0
                   0
                   0
                   0
                   0
                   0
                   0
                   0
                   0
                   0
                   0
                   0
                   0
                   0
                   0
                   0
                   0
                   0
                   0
                   0
                   0
                   0
                   0
                   0
                   0
                   0
                   0
                   0
                   0
                   0
                   0
                   0
                   0
                   0
                   0
                   0
                   0
                   0
                   0
                   0
                   0
                   0
                   0
                   0
                   0
                   0
                   0
                   0
                   0
                   0
                   0
                   0
                   0
                   0
                   0
                   0
                   0
                   0
                   0
                   0
                   0
                   0
                   0
                   0
                   0
                   0
                   0
                   0
                   0
                   0
                   0
                   0
                   0
                   0
                   0
                   0
                   0
                   0
                   0
                   0
                   0
                   0
                   0
                   0
                   0
                   0
                   0
                   0
                   0
                   0
                   0
                   0
                   0
                   0
                   0
                   0
                   0
                   0
                   0
                   0
                   0
                   0
                   0
                   0
                   0
                   0
                   0
                   0
                   0
                   0
                   0
                   0
                   0
                   0
                   0
                   0
                   0
                   0
                   0
                   0
                   0
                   0
                   0
                   0
                   0
                   0
                   0
                   0
                   0
                   0
                   0
                   0
                   0
                   0
                   0
                   0
                   0
                   0
                   0
                   0
                   0
                   0
                   0
                   0
                   0
                   0
                   0
                   0
                   0
                   0
                   0
                   0
                   0
                   0
                   0
                   0
                   0
                   0
                   0
                   0
                   0
                   0
                   0
                   0
                   0
                   0
                   0
                   0
                   0
                   0
                   0
                   0
                   0
                   0
                   0
                   0
                   0
                   0
                   0
                   0
                   0
                   0
                   0
                   0
                   0
                   0
                   0
                   0
                   0
                   0
                   0
                   0
                   0
                   0
                   0
                   0
                   0
                   0
                   0
                   0
                   0
                   0
                   0
                   0
                   0
                   0
                   0
                   0
                   0
                   0
                   0
                   0
                   0
                   0
                   0
                   0
                   0
                   0
                   0
                   0
                   0
                   0
                   0
                   0
                   0
                   0
                   0
                   0
                   0
                   0
                   0
                   0
                   0
                   0
                   0
                   0
                   0
                   0
                   0
                   0
                   0
                   0
                   0
                   0
                   0
                   0
                   0
                   0
                   0
                   0
                   0
                   0
                   0
                   0
                   0
                   0
                   0
                   0
                   0
                   0
                   0
                   0
                   0
                   0
                   0
                   0
                   0
                   0
                   0
                   0
                   0
                   0
                   0
                   0
                   0
                   0
                   0
                   0
                   0
                   0
                   0
                   0
                   0
                   0
                   0
                   0
                   0
                   0
                   0
                   0
                   0
                   0
                   0
                   0
                   0
                   0
                   0
                   0
                   0
                   0
                   0
                   0
                   0
                   0
                   0
                   0
                   0
                   0
                   0
                   0
                   0
                   0
                   0
                   0
                   0
                   0
                   0
                   0
                   0
                   0
                   0
                   0
                   0
                   0
                   0
                   0
                   0
                   0
                   0
                   0
                   0
                   0
                   0
                   0
                   0
                   0
                   0
                   0
                   0
                   0
                   0
                   0
                   0
                   0
                   0
                   0
                   0
                   0
                   0
                   0
                   0
                   0
                   0
                   0
                   0
                   0
                   0
                   0
                   0
                   0
                   0
                   0
                   0
                   0
                   0
                   0
                   0
                   0
                   0
                   0
                   0
                   0
                   0
                   0
                   0
                   0
                   0
                   0
                   0
                   0
                   0
                   0
                   0
                   0
                   0
                   0
                   0
                   0
                   0
                   0
                   0
                   0
                   0
                   0
                   0
                   0
                   0
                   0
                   0
                   0
                   0
                   0
                   0
                   0
                   0
                   0
                   0
                   0
                   0
                   0
                   0
                   0
                   0
                   0
                   0
                   0
                   0
                   0
                   0
                   0
                   0
                   0
                   0
                   0
                   0
                   0
                   0
                   0
                   0
                   0
                   0
                   0
                   0
                   0
                   0
                   0
                   0
                   0
                   0
                   0
                   0
                   0
                   0
                   0
                   0
                   0
                   0
                   0
                   0
                   0
                   0
                   0
                   0
                   0
                   0
                   0
                   0
                   0
                   0
                   0
                   0
                   0
                   0
                   0
                   0
                   0
                   0
                   0
                   0
                   0
                   0
                   0
                   0
                   0
                   0
                   0
                   0
                   0
                   0
                   0
                   0
                   0
                   0
                   0
                   0
                   0
                   0
                   0
                   0
                   0
                   0
                   0
                   0
                   0
                   0
                   0
                   0
                   0
                   0
                   0
                   0
                   0
                   0
                   0
                   0
                   0
                   0
                   0
                   0
                   0
                   0
                   0
                   0
                   0
                   0
                   0
                   0
                   0
                   0
                   0
                   0
                   0
                   0
                   0
                   0
                   0
                   0
                   0
                   0
                   0
                   0
                   0
                   0
                   0
                   0
                   0
                   0
                   0
                   0
                   0
                   0
                   0
                   0
                   0
                   0
                   0
                   0
                   0
                   0
                   0
                   0
                   0
                   0
                   0
                   0
                   0
                   0
                   0
                   0
                   0
                   0
                   0
                   0
                   0
                   0
                   0
                   0
                   0
                   0
                   0
                   0
                   0
                   0
                   0
                   0
                   0
                   0
                   0
                   0
                   0
                   0
                   0
                   0
                   0
                   0
                   0
                   0
                   0
                   0
                   0
                   0
                   0
                   0
                   0
                   0
                   0
                   0
                   0
                   0
                   0
                   0
                   0
                   0
                   0
                   0
                   0
                   0
                   0
                   0
                   0
                   0
                   0
                   0
                   0
                   0
                   0
                   0
                   0
                   0
                   0
                   0
                   0
                   0
                   0
                   0
                   0
                   0
                   0
                   0
                   0
                   0
                   0
                   0
                   0
                   0
                   0
                   0
                   0
                   0
                   0
                   0
                   0
                   0
                   0
                   0
                   0
                   0
                   0
                   0
                   0
                   0
                   0
                   0
                   0
                   0
                   0
                   0
                   0
                   0
                   0
                   0
                   0
                   0
                   0
                   0
                   0
                   0
                   0
                   0
                   0
                   0
                   0
                   0
                   0
                   0
                   0
                   0
                   0
                   0
                   0
                   0
                   0
                   0
                   0
                   0
                   0
                   0
                   0
                   0
                   0
                   0
                   0
                   0
                   0
                   0
                   0
                   0
                   0
                   0
                   0
                   0
                   0
                   0
                   0
                   0
                   0
                   0
                   0
                   0
                   0
                   0
                   0
                   0
                   0
                   0
                   0
                   0
                   0
                   0
                   0
                   0
                   0
                   0
                   0
                   0
                   0
                   0
                   0
                   0
                   0
                   0
                   0
                   0
                   0
                   0
                   0
                   0
                   0
                   0
                   0
                   0
                   0
                   0
                   0
                   0
                   0
                   0
                   0
                   0
                   0
                   0
                   0
                   0
                   0
                   0
                   0
                   0
                   0
                   0
                   0
                   0
                   0
                   0
                   0
                   0
                   0
                   0
                   0
                   0
                   0
                   0
                   0
                   0
                   0
                   0
                   0
                   0
                   0
                   0
                   0
                   0
                   0
                   0
                   0
                   0
                   0
                   0
                   0
                   0
                   0
                   0
                   0
                   0
                   0
                   0
                   0
                   0
                   0
                   0
                   0
                   0
                   0
                   0
                   0
                   0
                   0
                   0
                   0
                   0
                   0
                   0
                   0
                   0
                   0
                   0
                   0
                   0
                   0
                   0
                   0
                   0
                   0
                   0
                   0
                   0
                   0
                   0
                   0
                   0
                   0
                   0
                   0
                   0
                   0
                   0
                   0
                   0
                   0
                   0
                   0
                   0
                   0
                   0
                   0
                   0
                   0
                   0
                   0
                   0
                   0
                   0
                   0
                   0
                   0
                   0
                   0
                   0
                   0
                   0
                   0
                   0
                   0
                   0
                   0
                   0
                   0
                   0
                   0
                   0
                   0
                   0
                   0
                   0
                   0
                   0
                   0
                   0
                   0
                   0
                   0
                   0
                   0
                   0
                   0
                   0
                   0
                   0
                   0
                   0
                   0
                   0
                   0
                   0
                   0
                   0
                   0
                   0
                   0
                   0
                   0
                   0
                   0
                   0
                   0
                   0
                   0
                   0
                   0
                   0
                   0
                   0
                   0
                   0
                   0
                   0
                   0
                   0
                   0
                   0
                   0
                   0
                   0
                   0
                   0
                   0
                   0
                   0
                   0
                   0
                   0
                   0
                   0
                   0
                   0
                   0
                   0
                   0
                   0
                   0
                   0
                   0
                   0
                   0
                   0
                   0
                   0
                   0
                   0
                   0
                   0
                   0
                   0
                   0
                   0
                   0
                   0
                   0
                   0
                   0
                   0
                   0
                   0
                   0
                   0
                   0
                   0
                   0
                   0
                   0
                   0
                   0
                   0
                   0
                   0
                   0
                   0
                   0
                   0
                   0
                   0
                   0
                   0
                   0
                   0
                   0
                   0
                   0
                   0
                   0
                   0
                   0
                   0
                   0
                   0
                   0
                   0
                   0
                   0
                   0
                   0
                   0
                   0
                   0
                   0
                   0
                   0
                   0
                   0
                   0
                   0
                   0
                   0
                   0
                   0
                   0
                   0
                   0
                   0
                   0
                   0
                   0
                   0
                   0
                   0
                   0
                   0
                   0
                   0
                   0
                   0
                   0
                   0
                   0
                   0
                   0
                   0
                   0
                   0
                   0
                   0
                   0
                   0
                   0
                   0
                   0
                   0
                   0
                   0
                   0
                   0
                   0
                   0
                   0
                   0
                   0
                   0
                   0
                   0
                   0
                   0
                   0
                   0
                   0
                   0
                   0
                   0
                   0
                   0
                   0
                   0
                   0
                   0
                   0
                   0
                   0
                   0
                   0
                   0
                   0
                   0
                   0
                   0
                   0
                   0
                   0
                   0
                   0
                   0
                   0
                   0
                   0
                   0
                   0
                   0
                   0
                   0
                   0
                   0
                   0
                   0
                   0
                   0
                   0
                   0
                   0
                   0
                   0
                   0
                   0
                   0
                   0
                   0
                   0
                   0
                   0
                   0
                   0
                   0
                   0
                   0
                   0
                   0
                   0
                   0
                   0
                   0
                   0
                   0
                   0
                   0
                   0
                   0
                   0
                   0
                   0
                   0
                   0
                   0
                   0
                   0
                   0
                   0
                   0
                   0
                   0
                   0
                   0
                   0
                   0
                   0
                   0
                   0
                   0
                   0
                   0
                   0
                   0
                   0
                   0
                   0
                   0
                   0
                   0
                   0
                   0
                   0
                   0
                   0
                   0
                   0
                   0
                   0
                   0
                   0
                   0
                   0
                   0
                   0
                   0
                   0
                   0
                   0
                   0
                   0
                   0
                   0
                   0
                   0
                   0
                   0
                   0
                   0
                   0
                   0
                   0
                   0
                   0
                   0
                   0
                   0
                   0
                   0
                   0
                   0
                   0
                   0
                   0
                   0
                   0
                   0
                   0
                   0
                   0
                   0
                   0
                   0
                   0
                   0
                   0
                   0
                   0
                   0
                   0
                   0
                   0
                   0
                   0
                   0
                   0
                   0
                   0
                   0
                   0
                   0
                   0
                   0
                   0
                   0
                   0
                   0
                   0
                   0
                   0
                   0
                   0
                   0
                   0
                   0
                   0
                   0
                   0
                   0
                   0
                   0
                   0
                   0
                   0
                   0
                   0
                   0
                   0
                   0
                   0
                   0
                   0
                   0
                   0
                   0
                   0
                   0
                   0
                   0
                   0
                   0
                   0
                   0
                   0
                   0
                   0
                   0
                   0
                   0
                   0
                   0
                   0
                   0
                   0
                   0
                   0
                   0
                   0
                   0
                   0
                   0
                   0
                   0
                   0
                   0
                   0
                   0
                   0
                   0
                   0
                   0
                   0
                   0
                   0
                   0
                   0
                   0
                   0
                   0
                   0
                   0
                   0
                   0
                   0
                   0
                   0
                   0
                   0
                   0
                   0
                   0
                   0
                   0
                   0
                   0
                   0
                   0
                   0
                   0
                   0
                   0
                   0
                   0
                   0
                   0
                   0
                   0
                   0
                   0
                   0
                   0
                   0
                   0
                   0
                   0
                   0
                   0
                   0
                   0
                   0
                   0
                   0
                   0
                   0
                   0
                   0
                   0
                   0
                   0
                   0
                   0
                   0
                   0
                   0
                   0
                   0
                   0
                   0
                   0
                   0
                   0
                   0
                   0
                   0
                   0
                   0
                   0
                   0
                   0
                   0
                   0
                   0
                   0
                   0
                   0
                   0
                   0
                   0
                   0
                   0
                   0
                   0
                   0
                   0
                   0
                   0
                   0
                   0
                   0
                   0
                   0
                   0
                   0
                   0
                   0
                   0
                   0
                   0
                   0
                   0
                   0
                   0
                   0
                   0
                   0
                   0
                   0
                   0
                   0
                   0
                   0
                   0
                   0
                   0
                   0
                   0
                   0
                   0
                   0
                   0
                   0
                   0
                   0
                   0
                   0
                   0
                   0
                   0
                   0
                   0
                   0
                   0
                   0
                   0
                   0
                   0
                   0
                   0
                   0
                   0
                   0
                   0
                   0
                   0
                   0
                   0
                   0
                   0
                   0
                   0
                   0
                   0
                   0
                   0
                   0
                   0
                   0
                   0
                   0
                   0
                   0
                   0
                   0
                   0
                   0
                   0
                   0
                   0
                   0
                   0
                   0
                   0
                   0
                   0
                   0
                   0
                   0
                   0
                   0
                   0
                   0
                   0
                   0
                   0
                   0
                   0
                   0
                   0
                   0
                   0
                   0
                   0
                   0
                   0
                   0
                   0
                   0
                   0
                   0
                   0
                   0
                   0
                   0
                   0
                   0
                   0
                   0
                   0
                   0
                   0
                   0
                   0
                   0
                   0
                   0
                   0
                   0
                   0
                   0
                   0
                   0
                   0
                   0
                   0
                   0
                   0
                   0
                   0
                   0
                   0
                   0
                   0
                   0
                   0
                   0
                   0
                   0
                   0
                   0
                   0
                   0
                   0
                   0
                   0
                   0
                   0
                   0
                   0
                   0
                   0
                   0
                   0
                   0
                   0
                   0
                   0
                   0
                   0
                   0
                   0
                   0
                   0
                   0
                   0
                   0
                   0
                   0
                   0
                   0
                   0
                   0
                   0
                   0
                   0
                   0
                   0
                   0
                   0
                   0
                   0
                   0
                   0
                   0
                   0
                   0
                   0
                   0
                   0
                   0
                   0
                   0
                   0
                   0
                   0
                   0
                   0
                   0
                   0
                   0
                   0
                   0
                   0
                   0
                   0
                   0
                   0
                   0
                   0
                   0
                   0
                   0
                   0
                   0
                   0
                   0
                   0
                   0
                   0
                   0
                   0
                   0
                   0
                   0
                   0
                   0
                   0
                   0
                   0
                   0
                   0
                   0
  
SCALARS                       fixity_y  double 1
LOOKUP_TABLE default
                   0
                   0
                   0
                   0
                   0
                   0
                   0
                   0
                   0
                   0
                   0
                   0
                   0
                   0
                   0
                   0
                   0
                   0
                   0
                   0
                   0
                   0
                   0
                   0
                   0
                   0
                   0
                   0
                   0
                   0
                   0
                   0
                   0
                   0
                   0
                   0
                   0
                   0
                   0
                   0
                   0
                   0
                   0
                   0
                   0
                   0
                   0
                   0
                   0
                   0
                   0
                   0
                   0
                   0
                   0
                   0
                   0
                   0
                   0
                   0
                   0
                   0
                   0
                   0
                   0
                   0
                   0
                   0
                   0
                   0
                   0
                   0
                   0
                   0
                   0
                   0
                   0
                   0
                   0
                   0
                   0
                   0
                   0
                   0
                   0
                   0
                   0
                   0
                   0
                   0
                   0
                   0
                   0
                   0
                   0
                   0
                   0
                   0
                   0
                   0
                   0
                   0
                   0
                   0
                   0
                   0
                   0
                   0
                   0
                   0
                   0
                   0
                   0
                   0
                   0
                   0
                   0
                   0
                   0
                   0
                   0
                   0
                   0
                   0
                   0
                   0
                   0
                   0
                   0
                   0
                   0
                   0
                   0
                   0
                   0
                   0
                   0
                   0
                   0
                   0
                   0
                   0
                   0
                   0
                   0
                   0
                   0
                   0
                   0
                   0
                   0
                   0
                   0
                   0
                   0
                   0
                   0
                   0
                   0
                   0
                   0
                   0
                   0
                   0
                   0
                   0
                   0
                   0
                   0
                   0
                   0
                   0
                   0
                   0
                   0
                   0
                   0
                   0
                   0
                   0
                   0
                   0
                   0
                   0
                   0
                   0
                   0
                   0
                   0
                   0
                   0
                   0
                   0
                   0
                   0
                   0
                   0
                   0
                   0
                   0
                   0
                   0
                   0
                   0
                   0
                   0
                   0
                   0
                   0
                   0
                   0
                   0
                   0
                   0
                   0
                   0
                   0
                   0
                   0
                   0
                   0
                   0
                   0
                   0
                   0
                   0
                   0
                   0
                   0
                   0
                   0
                   0
                   0
                   0
                   0
                   0
                   0
                   0
                   0
                   0
                   0
                   0
                   0
                   0
                   0
                   0
                   0
                   0
                   0
                   0
                   0
                   0
                   0
                   0
                   0
                   0
                   0
                   0
                   0
                   0
                   0
                   0
                   0
                   0
                   0
                   0
                   0
                   0
                   0
                   0
                   0
                   0
                   0
                   0
                   0
                   0
                   0
                   0
                   0
                   0
                   0
                   0
                   0
                   0
                   0
                   0
                   0
                   0
                   0
                   0
                   0
                   0
                   0
                   0
                   0
                   0
                   0
                   0
                   0
                   0
                   0
                   0
                   0
                   0
                   0
                   0
                   0
                   0
                   0
                   0
                   0
                   0
                   0
                   0
                   0
                   0
                   0
                   0
                   0
                   0
                   0
                   0
                   0
                   0
                   0
                   0
                   0
                   0
                   0
                   0
                   0
                   0
                   0
                   0
                   0
                   0
                   0
                   0
                   0
                   0
                   0
                   0
                   0
                   0
                   0
                   0
                   0
                   0
                   0
                   0
                   0
                   0
                   0
                   0
                   0
                   0
                   0
                   0
                   0
                   0
                   0
                   0
                   0
                   0
                   0
                   0
                   0
                   0
                   0
                   0
                   0
                   0
                   0
                   0
                   0
                   0
                   0
                   0
                   0
                   0
                   0
                   0
                   0
                   0
                   0
                   0
                   0
                   0
                   0
                   0
                   0
                   0
                   0
                   0
                   0
                   0
                   0
                   0
                   0
                   0
                   0
                   0
                   0
                   0
                   0
                   0
                   0
                   0
                   0
                   0
                   0
                   0
                   0
                   0
                   0
                   0
                   0
                   0
                   0
                   0
                   0
                   0
                   0
                   0
                   0
                   0
                   0
                   0
                   0
                   0
                   0
                   0
                   0
                   0
                   0
                   0
                   0
                   0
                   0
                   0
                   0
                   0
                   0
                   0
                   0
                   0
                   0
                   0
                   0
                   0
                   0
                   0
                   0
                   0
                   0
                   0
                   0
                   0
                   0
                   0
                   0
                   0
                   0
                   0
                   0
                   0
                   0
                   0
                   0
                   0
                   0
                   0
                   0
                   0
                   0
                   0
                   0
                   0
                   0
                   0
                   0
                   0
                   0
                   0
                   0
                   0
                   0
                   0
                   0
                   0
                   0
                   0
                   0
                   0
                   0
                   0
                   0
                   0
                   0
                   0
                   0
                   0
                   0
                   0
                   0
                   0
                   0
                   0
                   0
                   0
                   0
                   0
                   0
                   0
                   0
                   0
                   0
                   0
                   0
                   0
                   0
                   0
                   0
                   0
                   0
                   0
                   0
                   0
                   0
                   0
                   0
                   0
                   0
                   0
                   0
                   0
                   0
                   0
                   0
                   0
                   0
                   0
                   0
                   0
                   0
                   0
                   0
                   0
                   0
                   0
                   0
                   0
                   0
                   0
                   0
                   0
                   0
                   0
                   0
                   0
                   0
                   0
                   0
                   0
                   0
                   0
                   0
                   0
                   0
                   0
                   0
                   0
                   0
                   0
                   0
                   0
                   0
                   0
                   0
                   0
                   0
                   0
                   0
                   0
                   0
                   0
                   0
                   0
                   0
                   0
                   0
                   0
                   0
                   0
                   0
                   0
                   0
                   0
                   0
                   0
                   0
                   0
                   0
                   0
                   0
                   0
                   0
                   0
                   0
                   0
                   0
                   0
                   0
                   0
                   0
                   0
                   0
                   0
                   0
                   0
                   0
                   0
                   0
                   0
                   0
                   0
                   0
                   0
                   0
                   0
                   0
                   0
                   0
                   0
                   0
                   0
                   0
                   0
                   0
                   0
                   0
                   0
                   0
                   0
                   0
                   0
                   0
                   0
                   0
                   0
                   0
                   0
                   0
                   0
                   0
                   0
                   0
                   0
                   0
                   0
                   0
                   0
                   0
                   0
                   0
                   0
                   0
                   0
                   0
                   0
                   0
                   0
                   0
                   0
                   0
                   0
                   0
                   0
                   0
                   0
                   0
                   0
                   0
                   0
                   0
                   0
                   0
                   0
                   0
                   0
                   0
                   0
                   0
                   0
                   0
                   0
                   0
                   0
                   0
                   0
                   0
                   0
                   0
                   0
                   0
                   0
                   0
                   0
                   0
                   0
                   0
                   0
                   0
                   0
                   0
                   0
                   0
                   0
                   0
                   0
                   0
                   0
                   0
                   0
                   0
                   0
                   0
                   0
                   0
                   0
                   0
                   0
                   0
                   0
                   0
                   0
                   0
                   0
                   0
                   0
                   0
                   0
                   0
                   0
                   0
                   0
                   0
                   0
                   0
                   0
                   0
                   0
                   0
                   0
                   0
                   0
                   0
                   0
                   0
                   0
                   0
                   0
                   0
                   0
                   0
                   0
                   0
                   0
                   0
                   0
                   0
                   0
                   0
                   0
                   0
                   0
                   0
                   0
                   0
                   0
                   0
                   0
                   0
                   0
                   0
                   0
                   0
                   0
                   0
                   0
                   0
                   0
                   0
                   0
                   0
                   0
                   0
                   0
                   0
                   0
                   0
                   0
                   0
                   0
                   0
                   0
                   0
                   0
                   0
                   0
                   0
                   0
                   0
                   0
                   0
                   0
                   0
                   0
                   0
                   0
                   0
                   0
                   0
                   0
                   0
                   0
                   0
                   0
                   0
                   0
                   0
                   0
                   0
                   0
                   0
                   0
                   0
                   0
                   0
                   0
                   0
                   0
                   0
                   0
                   0
                   0
                   0
                   0
                   0
                   0
                   0
                   0
                   0
                   0
                   0
                   0
                   0
                   0
                   0
                   0
                   0
                   0
                   0
                   0
                   0
                   0
                   0
                   0
                   0
                   0
                   0
                   0
                   0
                   0
                   0
                   0
                   0
                   0
                   0
                   0
                   0
                   0
                   0
                   0
                   0
                   0
                   0
                   0
                   0
                   0
                   0
                   0
                   0
                   0
                   0
                   0
                   0
                   0
                   0
                   0
                   0
                   0
                   0
                   0
                   0
                   0
                   0
                   0
                   0
                   0
                   0
                   0
                   0
                   0
                   0
                   0
                   0
                   0
                   0
                   0
                   0
                   0
                   0
                   0
                   0
                   0
                   0
                   0
                   0
                   0
                   0
                   0
                   0
                   0
                   0
                   0
                   0
                   0
                   0
                   0
                   0
                   0
                   0
                   0
                   0
                   0
                   0
                   0
                   0
                   0
                   0
                   0
                   0
                   0
                   0
                   0
                   0
                   0
                   0
                   0
                   0
                   0
                   0
                   0
                   0
                   0
                   0
                   0
                   0
                   0
                   0
                   0
                   0
                   0
                   0
                   0
                   0
                   0
                   0
                   0
                   0
                   0
                   0
                   0
                   0
                   0
                   0
                   0
                   0
                   0
                   0
                   0
                   0
                   0
                   0
                   0
                   0
                   0
                   0
                   0
                   0
                   0
                   0
                   0
                   0
                   0
                   0
                   0
                   0
                   0
                   0
                   0
                   0
                   0
                   0
                   0
                   0
                   0
                   0
                   0
                   0
                   0
                   0
                   0
                   0
                   0
                   0
                   0
                   0
                   0
                   0
                   0
                   0
                   0
                   0
                   0
                   0
                   0
                   0
                   0
                   0
                   0
                   0
                   0
                   0
                   0
                   0
                   0
                   0
                   0
                   0
                   0
                   0
                   0
                   0
                   0
                   0
                   0
                   0
                   0
                   0
                   0
                   0
                   0
                   0
                   0
                   0
                   0
                   0
                   0
                   0
                   0
                   0
                   0
                   0
                   0
                   0
                   0
                   0
                   0
                   0
                   0
                   0
                   0
                   0
                   0
                   0
                   0
                   0
                   0
                   0
                   0
                   0
                   0
                   0
                   0
                   0
                   0
                   0
                   0
                   0
                   0
                   0
                   0
                   0
                   0
                   0
                   0
                   0
                   0
                   0
                   0
                   0
                   0
                   0
                   0
                   0
                   0
                   0
                   0
                   0
                   0
                   0
                   0
                   0
                   0
                   0
                   0
                   0
                   0
                   0
                   0
                   0
                   0
                   0
                   0
                   0
                   0
                   0
                   0
                   0
                   0
                   0
                   0
                   0
                   0
                   0
                   0
                   0
                   0
                   0
                   0
                   0
                   0
                   0
                   0
                   0
                   0
                   0
                   0
                   0
                   0
                   0
                   0
                   0
                   0
                   0
                   0
                   0
                   0
                   0
                   0
                   0
                   0
                   0
                   0
                   0
                   0
                   0
                   0
                   0
                   0
                   0
                   0
                   0
                   0
                   0
                   0
                   0
                   0
                   0
                   0
                   0
                   0
                   0
                   0
                   0
                   0
                   0
                   0
                   0
                   0
                   0
                   0
                   0
                   0
                   0
                   0
                   0
                   0
                   0
                   0
                   0
                   0
                   0
                   0
                   0
                   0
                   0
                   0
                   0
                   0
                   0
                   0
                   0
                   0
                   0
                   0
                   0
                   0
                   0
                   0
                   0
                   0
                   0
                   0
                   0
                   0
                   0
                   0
                   0
                   0
                   0
                   0
                   0
                   0
                   0
                   0
                   0
                   0
                   0
                   0
                   0
                   0
                   0
                   0
                   0
                   0
                   0
                   0
                   0
                   0
                   0
                   0
                   0
                   0
                   0
                   0
                   0
                   0
                   0
                   0
                   0
                   0
                   0
                   0
                   0
                   0
                   0
                   0
                   0
                   0
                   0
                   0
                   0
                   0
                   0
                   0
                   0
                   0
                   0
                   0
                   0
                   0
                   0
                   0
                   0
                   0
                   0
                   0
                   0
                   0
                   0
                   0
                   0
                   0
                   0
                   0
                   0
                   0
                   0
                   0
                   0
                   0
                   0
                   0
                   0
                   0
                   0
                   0
                   0
                   0
                   0
                   0
                   0
                   0
                   0
                   0
                   0
                   0
                   0
                   0
                   0
                   0
                   0
                   0
                   0
                   0
                   0
                   0
                   0
                   0
                   0
                   0
                   0
                   0
                   0
                   0
                   0
                   0
                   0
                   0
                   0
                   0
                   0
                   0
                   0
                   0
                   0
                   0
                   0
                   0
                   0
                   0
                   0
                   0
                   0
                   0
                   0
                   0
                   0
                   0
                   0
                   0
                   0
                   0
                   0
                   0
                   0
                   0
                   0
                   0
                   0
                   0
                   0
                   0
                   0
                   0
                   0
                   0
                   0
                   0
                   0
                   0
                   0
                   0
                   0
                   0
                   0
                   0
                   0
                   0
                   0
                   0
                   0
                   0
                   0
                   0
                   0
                   0
                   0
                   0
                   0
                   0
                   0
                   0
                   0
                   0
                   0
                   0
                   0
                   0
                   0
                   0
                   0
                   0
                   0
                   0
                   0
                   0
                   0
                   0
                   0
                   0
                   0
                   0
                   0
                   0
                   0
                   0
                   0
                   0
                   0
                   0
                   0
                   0
                   0
                   0
                   0
                   0
                   0
                   0
                   0
                   0
                   0
                   0
                   0
                   0
                   0
                   0
                   0
                   0
                   0
                   0
                   0
                   0
                   0
                   0
                   0
                   0
                   0
                   0
                   0
                   0
                   0
                   0
                   0
                   0
                   0
                   0
                   0
                   0
                   0
                   0
                   0
                   0
                   0
                   0
                   0
                   0
                   0
                   0
                   0
                   0
                   0
                   0
                   0
                   0
                   0
                   0
                   0
                   0
                   0
                   0
                   0
                   0
                   0
                   0
                   0
                   0
                   0
                   0
                   0
                   0
                   0
                   0
                   0
                   0
                   0
                   0
                   0
                   0
                   0
                   0
                   0
                   0
                   0
                   0
                   0
                   0
                   0
                   0
                   0
                   0
                   0
                   0
                   0
                   0
                   0
                   0
                   0
                   0
                   0
                   0
                   0
                   0
                   0
                   0
                   0
                   0
                   0
                   0
                   0
                   0
                   0
                   0
                   0
                   0
                   0
                   0
                   0
                   0
                   0
                   0
                   0
                   0
                   0
                   0
                   0
                   0
                   0
                   0
                   0
                   0
                   0
                   0
                   0
                   0
                   0
                   0
                   0
                   0
                   0
                   0
                   0
                   0
                   0
                   0
                   0
                   0
                   0
                   0
                   0
                   0
                   0
                   0
                   0
                   0
                   0
                   0
                   0
                   0
                   0
                   0
                   0
                   0
                   0
                   0
                   0
                   0
                   0
                   0
                   0
                   0
                   0
                   0
                   0
                   0
                   0
                   0
                   0
                   0
                   0
                   0
                   0
                   0
                   0
                   0
                   0
                   0
                   0
                   0
                   0
                   0
                   0
                   0
                   0
                   0
                   0
                   0
                   0
                   0
                   0
                   0
                   0
                   0
                   0
                   0
                   0
                   0
                   0
                   0
                   0
                   0
                   0
                   0
                   0
                   0
                   0
                   0
                   0
                   0
                   0
                   0
                   0
                   0
                   0
                   0
                   0
                   0
                   0
                   0
                   0
                   0
                   0
                   0
                   0
                   0
                   0
                   0
                   0
                   0
                   0
                   0
                   0
                   0
                   0
                   0
                   0
                   0
                   0
                   0
                   0
                   0
                   0
                   0
                   0
                   0
                   0
                   0
                   0
                   0
                   0
                   0
                   0
                   0
                   0
                   0
                   0
                   0
                   0
                   0
                   0
                   0
                   0
                   0
                   0
                   0
                   0
                   0
                   0
                   0
                   0
                   0
                   0
                   0
                   0
                   0
                   0
                   0
                   0
                   0
                   0
                   0
                   0
                   0
                   0
                   0
                   0
                   0
                   0
                   0
                   0
                   0
                   0
                   0
                   0
                   0
                   0
                   0
                   0
                   0
                   0
                   0
                   0
                   0
                   0
                   0
                   0
                   0
                   0
                   0
                   0
                   0
                   0
                   0
                   0
                   0
                   0
                   0
                   0
                   0
                   0
                   0
                   0
                   0
                   0
                   0
                   0
                   0
                   0
                   0
                   0
                   0
                   0
                   0
                   0
                   0
                   0
                   0
                   0
                   0
                   0
                   0
                   0
                   0
                   0
                   0
                   0
                   0
                   0
                   0
                   0
                   0
                   0
                   0
                   0
                   0
                   0
                   0
                   0
                   0
                   0
                   0
                   0
                   0
                   0
                   0
                   0
                   0
                   0
                   0
                   0
                   0
                   0
                   0
                   0
                   0
                   0
                   0
                   0
                   0
                   0
                   0
                   0
                   0
                   0
                   0
                   0
                   0
                   0
                   0
                   0
                   0
                   0
                   0
                   0
                   0
                   0
                   0
                   0
                   0
                   0
                   0
                   0
                   0
                   0
                   0
                   0
                   0
                   0
                   0
                   0
                   0
                   0
                   0
                   0
                   0
                   0
                   0
                   0
                   0
                   0
                   0
                   0
                   0
                   0
                   0
                   0
                   0
                   0
                   0
                   0
                   0
                   0
                   0
                   0
                   0
                   0
                   0
                   0
                   0
                   0
                   0
                   0
                   0
                   0
                   0
                   0
                   0
                   0
                   0
                   0
                   0
                   0
                   0
                   0
                   0
                   0
                   0
                   0
                   0
                   0
                   0
                   0
                   0
                   0
                   0
                   0
                   0
                   0
                   0
                   0
                   0
                   0
                   0
                   0
                   0
                   0
                   0
                   0
                   0
                   0
                   0
                   0
                   0
                   0
                   0
                   0
                   0
                   0
                   0
                   0
                   0
                   0
                   0
                   0
                   0
                   0
                   0
  
SCALARS                       fixity_z  double 1
LOOKUP_TABLE default
                   0
                   0
                   0
                   0
                   1
                   1
                   1
                   1
                   0
                   0
                   1
                   1
                   0
                   0
                   1
                   1
                   0
                   0
                   1
                   1
                   0
                   0
                   0
                   1
                   1
                   1
                   0
                   0
                   1
                   1
                   0
                   0
                   0
                   1
                   1
                   1
                   0
                   0
                   1
                   1
                   0
                   0
                   1
                   1
                   0
                   0
                   1
                   1
                   0
                   1
                   0
                   1
                   0
                   1
                   0
                   1
                   0
                   0
                   1
                   1
                   0
                   0
                   1
                   1
                   0
                   1
                   0
                   1
                   0
                   0
                   1
                   1
                   0
                   1
                   0
                   1
                   0
                   1
                   0
                   1
                   0
                   0
                   1
                   1
                   0
                   1
                   0
                   1
                   0
                   1
                   0
                   0
                   1
                   1
                   0
                   1
                   0
                   1
                   0
                   1
                   0
                   0
                   1
                   1
                   0
                   0
                   1
                   1
                   0
                   1
                   0
                   1
                   0
                   1
                   0
                   1
                   0
                   1
                   0
                   1
                   0
                   1
                   0
                   1
                   0
                   1
                   0
                   1
                   0
                   1
                   0
                   1
                   0
                   1
                   0
                   1
                   0
                   1
                   0
                   1
                   0
                   1
                   0
                   1
                   0
                   1
                   0
                   1
                   0
                   1
                   0
                   1
                   0
                   1
                   0
                   1
                   0
                   0
                   0
                   0
                   0
                   0
                   0
                   0
                   0
                   0
                   0
                   0
                   0
                   0
                   0
                   0
                   0
                   0
                   0
                   0
                   0
                   0
                   0
                   0
                   0
                   0
                   0
                   0
                   0
                   0
                   0
                   0
                   0
                   0
                   0
                   0
                   0
                   0
                   0
                   0
                   0
                   0
                   0
                   0
                   0
                   0
                   0
                   0
                   0
                   0
                   0
                   0
                   0
                   0
                   0
                   0
                   0
                   0
                   0
                   0
                   0
                   0
                   0
                   0
                   0
                   0
                   0
                   0
                   0
                   0
                   0
                   0
                   0
                   0
                   0
                   0
                   0
                   0
                   0
                   0
                   0
                   0
                   0
                   0
                   0
                   0
                   0
                   0
                   0
                   0
                   0
                   0
                   0
                   0
                   0
                   0
                   0
                   0
                   0
                   0
                   0
                   0
                   0
                   0
                   0
                   0
                   0
                   0
                   0
                   0
                   0
                   0
                   0
                   0
                   0
                   0
                   0
                   0
                   0
                   0
                   0
                   0
                   0
                   0
                   0
                   0
                   0
                   0
                   0
                   0
                   0
                   0
                   0
                   0
                   0
                   0
                   0
                   0
                   0
                   0
                   0
                   0
                   0
                   0
                   0
                   0
                   0
                   0
                   0
                   0
                   0
                   0
                   0
                   0
                   0
                   0
                   0
                   0
                   0
                   0
                   0
                   0
                   0
                   0
                   0
                   0
                   0
                   0
                   0
                   0
                   0
                   0
                   0
                   0
                   0
                   0
                   0
                   0
                   0
                   0
                   0
                   0
                   0
                   0
                   0
                   0
                   0
                   0
                   0
                   0
                   0
                   0
                   0
                   0
                   0
                   0
                   0
                   0
                   0
                   0
                   0
                   0
                   0
                   0
                   0
                   0
                   0
                   0
                   0
                   0
                   0
                   0
                   0
                   0
                   0
                   0
                   0
                   0
                   0
                   0
                   0
                   0
                   0
                   0
                   0
                   0
                   0
                   0
                   0
                   0
                   0
                   0
                   0
                   0
                   0
                   0
                   0
                   0
                   0
                   0
                   0
                   0
                   0
                   0
                   0
                   0
                   0
                   0
                   0
                   0
                   0
                   0
                   0
                   0
                   0
                   0
                   0
                   0
                   0
                   0
                   0
                   0
                   0
                   0
                   0
                   0
                   0
                   0
                   0
                   0
                   0
                   0
                   0
                   0
                   0
                   0
                   0
                   0
                   0
                   0
                   0
                   0
                   0
                   0
                   0
                   0
                   0
                   0
                   0
                   0
                   0
                   0
                   0
                   0
                   0
                   0
                   0
                   0
                   0
                   0
                   0
                   0
                   0
                   0
                   0
                   0
                   0
                   0
                   0
                   0
                   0
                   0
                   0
                   0
                   0
                   0
                   0
                   0
                   0
                   0
                   0
                   0
                   0
                   0
                   0
                   0
                   0
                   0
                   0
                   0
                   0
                   0
                   0
                   0
                   0
                   0
                   0
                   0
                   0
                   0
                   0
                   0
                   0
                   0
                   0
                   0
                   0
                   0
                   0
                   0
                   0
                   0
                   0
                   0
                   0
                   0
                   0
                   0
                   0
                   0
                   0
                   0
                   0
                   0
                   0
                   0
                   0
                   0
                   0
                   0
                   0
                   0
                   0
                   0
                   0
                   0
                   0
                   0
                   0
                   0
                   0
                   0
                   0
                   0
                   0
                   0
                   0
                   0
                   0
                   0
                   0
                   0
                   0
                   0
                   0
                   0
                   0
                   0
                   0
                   0
                   0
                   0
                   0
                   0
                   0
                   0
                   0
                   0
                   0
                   0
                   0
                   0
                   0
                   0
                   0
                   0
                   0
                   0
                   0
                   0
                   0
                   0
                   0
                   0
                   0
                   0
                   0
                   0
                   0
                   0
                   0
                   0
                   0
                   0
                   0
                   0
                   0
                   0
                   0
                   0
                   0
                   0
                   0
                   0
                   0
                   0
                   0
                   0
                   0
                   0
                   0
                   0
                   0
                   0
                   0
                   0
                   0
                   0
                   0
                   0
                   0
                   0
                   0
                   0
                   0
                   0
                   0
                   0
                   0
                   0
                   0
                   0
                   0
                   0
                   0
                   0
                   0
                   0
                   0
                   0
                   0
                   0
                   0
                   0
                   0
                   0
                   0
                   0
                   0
                   0
                   0
                   0
                   0
                   0
                   0
                   0
                   0
                   0
                   0
                   0
                   0
                   0
                   0
                   0
                   0
                   0
                   0
                   0
                   0
                   0
                   0
                   0
                   0
                   0
                   0
                   0
                   0
                   0
                   0
                   0
                   0
                   0
                   0
                   0
                   0
                   0
                   0
                   0
                   0
                   0
                   0
                   0
                   0
                   0
                   0
                   0
                   0
                   0
                   0
                   0
                   0
                   0
                   0
                   0
                   0
                   0
                   0
                   0
                   0
                   0
                   0
                   0
                   0
                   0
                   0
                   0
                   0
                   0
                   0
                   0
                   0
                   0
                   0
                   0
                   0
                   0
                   0
                   0
                   0
                   0
                   0
                   0
                   0
                   0
                   0
                   0
                   0
                   0
                   0
                   0
                   0
                   0
                   0
                   0
                   0
                   0
                   0
                   0
                   0
                   0
                   0
                   0
                   0
                   0
                   0
                   0
                   0
                   0
                   0
                   0
                   0
                   0
                   0
                   0
                   0
                   0
                   0
                   0
                   0
                   0
                   0
                   0
                   0
                   0
                   0
                   0
                   0
                   0
                   0
                   0
                   0
                   0
                   0
                   0
                   0
                   0
                   0
                   0
                   0
                   0
                   0
                   0
                   0
                   0
                   0
                   0
                   0
                   0
                   0
                   0
                   0
                   0
                   0
                   0
                   0
                   0
                   0
                   0
                   0
                   0
                   0
                   0
                   0
                   0
                   0
                   0
                   0
                   0
                   0
                   0
                   0
                   0
                   0
                   0
                   0
                   0
                   0
                   0
                   0
                   0
                   0
                   0
                   0
                   0
                   0
                   0
                   0
                   0
                   0
                   0
                   0
                   0
                   0
                   0
                   0
                   0
                   0
                   0
                   0
                   0
                   0
                   0
                   0
                   0
                   0
                   0
                   0
                   0
                   0
                   0
                   0
                   0
                   0
                   0
                   0
                   0
                   0
                   0
                   0
                   0
                   0
                   0
                   0
                   0
                   0
                   0
                   0
                   0
                   0
                   0
                   0
                   0
                   0
                   0
                   0
                   0
                   0
                   0
                   0
                   0
                   0
                   0
                   0
                   0
                   0
                   0
                   0
                   0
                   0
                   0
                   0
                   0
                   0
                   0
                   0
                   0
                   0
                   0
                   0
                   0
                   0
                   0
                   0
                   0
                   0
                   0
                   0
                   0
                   0
                   0
                   0
                   0
                   0
                   0
                   0
                   0
                   0
                   0
                   0
                   0
                   0
                   0
                   0
                   0
                   0
                   0
                   0
                   0
                   0
                   0
                   0
                   0
                   0
                   0
                   0
                   0
                   0
                   0
                   0
                   0
                   0
                   0
                   0
                   0
                   0
                   0
                   0
                   0
                   0
                   0
                   0
                   0
                   0
                   0
                   0
                   0
                   0
                   0
                   0
                   0
                   0
                   0
                   0
                   0
                   0
                   0
                   0
                   0
                   0
                   0
                   0
                   0
                   0
                   0
                   0
                   0
                   0
                   0
                   0
                   0
                   0
                   0
                   0
                   0
                   0
                   0
                   0
                   0
                   0
                   0
                   0
                   0
                   0
                   0
                   0
                   0
                   0
                   0
                   0
                   0
                   0
                   0
                   0
                   0
                   0
                   0
                   0
                   0
                   0
                   0
                   0
                   0
                   0
                   0
                   0
                   0
                   0
                   0
                   0
                   0
                   0
                   0
                   0
                   0
                   0
                   0
                   0
                   0
                   0
                   0
                   0
                   0
                   0
                   0
                   0
                   0
                   0
                   0
                   0
                   0
                   0
                   0
                   0
                   0
                   0
                   0
                   0
                   0
                   0
                   0
                   0
                   0
                   0
                   0
                   0
                   0
                   0
                   0
                   0
                   0
                   0
                   0
                   0
                   0
                   0
                   0
                   0
                   0
                   0
                   0
                   0
                   0
                   0
                   0
                   0
                   0
                   0
                   0
                   0
                   0
                   0
                   0
                   0
                   0
                   0
                   0
                   0
                   0
                   0
                   0
                   0
                   0
                   0
                   0
                   0
                   0
                   0
                   0
                   0
                   0
                   0
                   0
                   0
                   0
                   0
                   0
                   0
                   0
                   0
                   0
                   0
                   0
                   0
                   0
                   0
                   0
                   0
                   0
                   0
                   0
                   0
                   0
                   0
                   0
                   0
                   0
                   0
                   0
                   0
                   0
                   0
                   0
                   0
                   0
                   0
                   0
                   0
                   0
                   0
                   0
                   0
                   0
                   0
                   0
                   0
                   0
                   0
                   0
                   0
                   0
                   0
                   0
                   0
                   0
                   0
                   0
                   0
                   0
                   0
                   0
                   0
                   0
                   0
                   0
                   0
                   0
                   0
                   0
                   0
                   0
                   0
                   0
                   0
                   0
                   0
                   0
                   0
                   0
                   0
                   0
                   0
                   0
                   0
                   0
                   0
                   0
                   0
                   0
                   0
                   0
                   0
                   0
                   0
                   0
                   0
                   0
                   0
                   0
                   0
                   0
                   0
                   0
                   0
                   0
                   0
                   0
                   0
                   0
                   0
                   0
                   0
                   0
                   0
                   0
                   0
                   0
                   0
                   0
                   0
                   0
                   0
                   0
                   0
                   0
                   0
                   0
                   0
                   0
                   0
                   0
                   0
                   0
                   0
                   0
                   0
                   0
                   0
                   0
                   0
                   0
                   0
                   0
                   0
                   0
                   0
                   0
                   0
                   0
                   0
                   0
                   0
                   0
                   0
                   0
                   0
                   0
                   0
                   0
                   0
                   0
                   0
                   0
                   0
                   0
                   0
                   0
                   0
                   0
                   0
                   0
                   0
                   0
                   0
                   0
                   0
                   0
                   0
                   0
                   0
                   0
                   0
                   0
                   0
                   0
                   0
                   0
                   0
                   0
                   0
                   0
                   0
                   0
                   0
                   0
                   0
                   0
                   0
                   0
                   0
                   0
                   0
                   0
                   0
                   0
                   0
                   0
                   0
                   0
                   0
                   0
                   0
                   0
                   0
                   0
                   0
                   0
                   0
                   0
                   0
                   0
                   0
                   0
                   0
                   0
                   0
                   0
                   0
                   0
                   0
                   0
                   0
                   0
                   0
                   0
                   0
                   0
                   0
                   0
                   0
                   0
                   0
                   0
                   0
                   0
                   0
                   0
                   0
                   0
                   0
                   0
                   0
                   0
                   0
                   0
                   0
                   0
                   0
                   0
                   0
                   0
                   0
                   0
                   0
                   0
                   0
                   0
                   0
                   0
                   0
                   0
                   0
                   0
                   0
                   0
                   0
                   0
                   0
                   0
                   0
                   0
                   0
                   0
                   0
                   0
                   0
                   0
                   0
                   0
                   0
                   0
                   0
                   0
                   0
                   0
                   0
                   0
                   0
                   0
                   0
                   0
                   0
                   0
                   0
                   0
                   0
                   0
                   0
                   0
                   0
                   0
                   0
                   0
                   0
                   0
                   0
                   0
                   0
                   0
                   0
                   0
                   0
                   0
                   0
                   0
                   0
                   0
                   0
                   0
                   0
                   0
                   0
                   0
                   0
                   0
                   0
                   0
                   0
                   0
                   0
                   0
                   0
                   0
                   0
                   0
                   0
                   0
                   0
                   0
                   0
                   0
                   0
                   0
                   0
                   0
                   0
                   0
                   0
                   0
                   0
                   0
                   0
                   0
                   0
                   0
                   0
                   0
                   0
                   0
                   0
                   0
                   0
                   0
                   0
                   0
                   0
                   0
                   0
                   0
                   0
                   0
                   0
                   0
                   0
                   0
                   0
                   0
                   0
                   0
                   0
                   0
                   0
                   0
                   0
                   0
                   0
                   0
                   0
                   0
                   0
                   0
                   0
                   0
                   0
                   0
                   0
                   0
                   0
                   0
                   0
                   0
                   0
                   0
                   0
                   0
                   0
                   0
                   0
                   0
                   0
                   0
                   0
                   0
                   0
                   0
                   0
                   0
                   0
                   0
                   0
                   0
                   0
                   0
                   0
                   0
                   0
                   0
                   0
                   0
                   0
                   0
                   0
                   0
                   0
                   0
                   0
                   0
                   0
                   0
                   0
                   0
                   0
                   0
                   0
                   0
                   0
                   0
                   0
                   0
                   0
                   0
                   0
                   0
                   0
                   0
                   0
                   0
                   0
                   0
                   0
                   0
                   0
                   0
                   0
                   0
                   0
                   0
                   0
                   0
                   0
                   0
                   0
                   0
                   0
                   0
                   0
                   0
                   0
                   0
                   0
                   0
                   0
                   0
                   0
                   0
                   0
                   0
                   0
                   0
                   0
                   0
                   0
                   0
                   0
                   0
                   0
                   0
                   0
                   0
                   0
                   0
                   0
                   0
                   0
                   0
                   0
                   0
                   0
                   0
                   0
                   0
                   0
                   0
                   0
                   0
                   0
                   0
                   0
                   0
                   0
                   0
                   0
                   0
                   0
                   0
                   0
                   0
                   0
                   0
                   0
                   0
                   0
                   0
                   0
                   0
                   0
                   0
                   0
                   0
                   0
                   0
                   0
                   0
                   0
                   0
                   0
                   0
                   0
                   0
                   0
                   0
                   0
                   0
                   0
                   0
                   0
                   0
                   0
                   0
                   0
                   0
                   0
                   0
                   0
                   0
                   0
                   0
                   0
                   0
                   0
                   0
                   0
                   0
                   0
                   0
                   0
                   0
                   0
                   0
                   0
                   0
                   0
                   0
                   0
                   0
                   0
                   0
                   0
                   0
                   0
                   0
                   0
                   0
                   0
                   0
                   0
                   0
                   0
                   0
                   0
                   0
                   0
                   0
                   0
                   0
                   0
                   0
                   0
                   0
                   0
                   0
                   0
                   0
                   0
                   0
                   0
                   0
                   0
                   0
                   0
                   0
                   0
                   0
                   0
                   0
                   0
                   0
                   0
                   0
                   0
                   0
                   0
                   0
                   0
                   0
                   0
                   0
                   0
                   0
                   0
                   0
                   0
                   0
                   0
                   0
                   0
                   0
                   0
                   0
                   0
                   0
                   0
                   0
                   0
                   0
                   0
                   0
                   0
                   0
                   0
                   0
                   0
                   0
                   0
                   0
                   0
                   0
                   0
                   0
                   0
                   0
                   0
                   0
                   0
                   0
                   0
                   0
                   0
                   0
                   0
                   0
                   0
                   0
                   0
                   0
                   0
                   0
                   0
                   0
                   0
                   0
                   0
                   0
                   0
                   0
                   0
                   0
                   0
                   0
                   0
                   0
                   0
                   0
                   0
                   0
                   0
                   0
                   0
                   0
                   0
                   0
                   0
                   0
                   0
                   0
                   0
                   0
                   0
                   0
                   0
                   0
                   0
                   0
                   0
                   0
                   0
                   0
                   0
                   0
                   0
                   0
                   0
                   0
                   0
                   0
                   0
                   0
                   0
                   0
                   0
                   0
                   0
                   0
                   0
                   0
                   0
                   0
                   0
                   0
                   0
                   0
                   0
                   0
                   0
                   0
                   0
                   0
                   0
                   0
                   0
                   0
                   0
                   0
                   0
                   0
                   0
                   0
                   0
                   0
                   0
                   0
                   0
                   0
                   0
                   0
                   0
                   0
                   0
                   0
                   0
                   0
                   0
                   0
                   0
                   0
                   0
                   0
                   0
                   0
                   0
                   0
                   0
                   0
                   0
                   0
                   0
                   0
                   0
                   0
                   0
                   0
                   0
                   0
                   0
                   0
                   0
                   0
                   0
                   0
                   0
                   0
                   0
                   0
                   0
                   0
                   0
                   0
                   0
                   0
                   0
                   0
                   0
                   0
                   0
                   0
                   0
                   0
                   0
                   0
                   0
                   0
                   0
                   0
                   0
                   0
  
SCALARS                         Ispace  double 1
LOOKUP_TABLE default
                  12
                  12
                  12
                  12
                  12
                  12
                  12
                  12
                  12
                  12
                  12
                  12
                  12
                  11
                  12
                  11
                  11
                  11
                  11
                  11
                  11
                  12
                  12
                  11
                  12
                  12
                  11
                  11
                  11
                  11
                  11
                  11
                  11
                  11
                  11
                  11
                  11
                  11
                  11
                  11
                  11
                  11
                  11
                  11
                  11
                  11
                  11
                  11
                  11
                  11
                  11
                  11
                  11
                  11
                  11
                  11
                  11
                  11
                  11
                  11
                  11
                  11
                  11
                  11
                  11
                  11
                  12
                  12
                  12
                  12
                  12
                  12
                  12
                  12
                  11
                  11
                  11
                  11
                  11
                  11
                  11
                  11
                  11
                  11
                  11
                  11
                  11
                  11
                  11
                  11
                  11
                  11
                  11
                  11
                  11
                  11
                  12
                  12
                  12
                  12
                  12
                  12
                  12
                  12
                  12
                  12
                  12
                  12
                  12
                  12
                  12
                  12
                  12
                  12
                  12
                  12
                  11
                  11
                  11
                  11
                  11
                  11
                  11
                  11
                  11
                  11
                  11
                  11
                  11
                  11
                  11
                  11
                  11
                  11
                  11
                  11
                  11
                  11
                  11
                  11
                  11
                  11
                  11
                  11
                  11
                  11
                  12
                  12
                  12
                  12
                  12
                  12
                  12
                  12
                  12
                  12
                  12
                  12
                  12
                  12
                  12
                  12
                  12
                  11
                  11
                  11
                  11
                  12
                  12
                  11
                  11
                  11
                  11
                  11
                  11
                  11
                  11
                  11
                  11
                  11
                  11
                  11
                  11
                  11
                  11
                  11
                  11
                  11
                  11
                  12
                  12
                  12
                  12
                  11
                  11
                  11
                  11
                  11
                  11
                  11
                  11
                  11
                  11
                  11
                  12
                  12
                  12
                  12
                  12
                  12
                  12
                  12
                  12
                  12
                  11
                  11
                  11
                  11
                  11
                  11
                  11
                  11
                  11
                  11
                  11
                  11
                  11
                  11
                  11
                  12
                  12
                  12
                  12
                  12
                  12
                  12
                  12
                  12
                  12
                  12
                  12
                  11
                  11
                  11
                  11
                  12
                  12
                  11
                  11
                  11
                  11
                  11
                  11
                  11
                  11
                  11
                  11
                  11
                  11
                  11
                  11
                  11
                  11
                  11
                  11
                  11
                  11
                  12
                  12
                  12
                  12
                  11
                  11
                  11
                  11
                  11
                  11
                  11
                  11
                  11
                  11
                  11
                  12
                  12
                  12
                  12
                  12
                  12
                  12
                  12
                  12
                  12
                  11
                  11
                  11
                  11
                  11
                  11
                  11
                  11
                  11
                  11
                  11
                  11
                  11
                  11
                  11
                  12
                  12
                  12
                  12
                  12
                  12
                  12
                  12
                  12
                  12
                  12
                  12
                  11
                  11
                  11
                  11
                  12
                  12
                  11
                  11
                  11
                  11
                  11
                  11
                  11
                  11
                  11
                  11
                  11
                  11
                  11
                  11
                  11
                  11
                  11
                  11
                  11
                  11
                  12
                  12
                  12
                  12
                  11
                  11
                  11
                  11
                  11
                  11
                  11
                  11
                  11
                  11
                  11
                  12
                  12
                  12
                  12
                  12
                  12
                  12
                  12
                  12
                  12
                  11
                  11
                  11
                  11
                  11
                  11
                  11
                  11
                  11
                  11
                  11
                  11
                  11
                  11
                  11
                  12
                  12
                  12
                  12
                  12
                  12
                  12
                  12
                  12
                  12
                  12
                  12
                  11
                  11
                  11
                  11
                  12
                  12
                  11
                  11
                  11
                  11
                  11
                  11
                  11
                  11
                  11
                  11
                  11
                  11
                  11
                  11
                  11
                  11
                  11
                  11
                  11
                  11
                  12
                  12
                  12
                  12
                  11
                  11
                  11
                  11
                  11
                  11
                  11
                  11
                  11
                  11
                  11
                  12
                  12
                  12
                  12
                  12
                  12
                  12
                  12
                  12
                  12
                  11
                  11
                  11
                  11
                  11
                  11
                  11
                  11
                  11
                  11
                  11
                  11
                  11
                  11
                  11
                  12
                  12
                  12
                  12
                  12
                  12
                  12
                  12
                  12
                  12
                  12
                  12
                  11
                  11
                  11
                  11
                  12
                  12
                  11
                  11
                  11
                  11
                  11
                  11
                  11
                  11
                  11
                  11
                  11
                  11
                  11
                  11
                  11
                  11
                  11
                  11
                  11
                  11
                  12
                  12
                  12
                  12
                  11
                  11
                  11
                  11
                  11
                  11
                  11
                  11
                  11
                  11
                  11
                  12
                  12
                  12
                  12
                  12
                  12
                  12
                  12
                  12
                  12
                  11
                  11
                  11
                  11
                  11
                  11
                  11
                  11
                  11
                  11
                  11
                  11
                  11
                  11
                  11
                  12
                  12
                  12
                  12
                  12
                  12
                  12
                  12
                  12
                  12
                  12
                  12
                  11
                  11
                  11
                  11
                  12
                  12
                  11
                  11
                  11
                  11
                  11
                  11
                  11
                  11
                  11
                  11
                  11
                  11
                  11
                  11
                  11
                  11
                  11
                  11
                  11
                  11
                  12
                  12
                  12
                  12
                  11
                  11
                  11
                  11
                  11
                  11
                  11
                  11
                  11
                  11
                  11
                  12
                  12
                  12
                  12
                  12
                  12
                  12
                  12
                  12
                  12
                  11
                  11
                  11
                  11
                  11
                  11
                  11
                  11
                  11
                  11
                  11
                  11
                  11
                  11
                  11
                  12
                  12
                  12
                  12
                  12
                  12
                  12
                  12
                  12
                  12
                  12
                  12
                  11
                  11
                  11
                  11
                  12
                  12
                  11
                  11
                  11
                  11
                  11
                  11
                  11
                  11
                  11
                  11
                  11
                  11
                  11
                  11
                  11
                  11
                  11
                  11
                  11
                  11
                  12
                  12
                  12
                  12
                  11
                  11
                  11
                  11
                  11
                  11
                  11
                  11
                  11
                  11
                  11
                  12
                  12
                  12
                  12
                  12
                  12
                  12
                  12
                  12
                  12
                  11
                  11
                  11
                  11
                  11
                  11
                  11
                  11
                  11
                  11
                  11
                  11
                  11
                  11
                  11
                  12
                  12
                  12
                  12
                  12
                  12
                  12
                  12
                  12
                  12
                  12
                  12
                  11
                  11
                  11
                  11
                  12
                  12
                  11
                  11
                  11
                  11
                  11
                  11
                  11
                  11
                  11
                  11
                  11
                  11
                  11
                  11
                  11
                  11
                  11
                  11
                  11
                  11
                  12
                  12
                  12
                  12
                  11
                  11
                  11
                  11
                  11
                  11
                  11
                  11
                  11
                  11
                  11
                  12
                  12
                  12
                  12
                  12
                  12
                  12
                  12
                  12
                  12
                  11
                  11
                  11
                  11
                  11
                  11
                  11
                  11
                  11
                  11
                  11
                  11
                  11
                  11
                  11
                  12
                  12
                  12
                  12
                  12
                  12
                  12
                  12
                  12
                  12
                  12
                  12
                  11
                  11
                  11
                  11
                  12
                  12
                  11
                  11
                  11
                  11
                  11
                  11
                  11
                  11
                  11
                  11
                  11
                  11
                  11
                  11
                  11
                  11
                  11
                  11
                  11
                  11
                  12
                  12
                  12
                  12
                  11
                  11
                  11
                  11
                  11
                  11
                  11
                  11
                  11
                  11
                  11
                  12
                  12
                  12
                  12
                  12
                  12
                  12
                  12
                  12
                  12
                  11
                  11
                  11
                  11
                  11
                  11
                  11
                  11
                  11
                  11
                  11
                  11
                  11
                  11
                  11
                  12
                  12
                  12
                  12
                  12
                  12
                  12
                  12
                  12
                  12
                  12
                  12
                  11
                  11
                  11
                  11
                  12
                  12
                  11
                  11
                  11
                  11
                  11
                  11
                  11
                  11
                  11
                  11
                  11
                  11
                  11
                  11
                  11
                  11
                  11
                  11
                  11
                  11
                  12
                  12
                  12
                  12
                  11
                  11
                  11
                  11
                  11
                  11
                  11
                  11
                  11
                  11
                  11
                  12
                  12
                  12
                  12
                  12
                  12
                  12
                  12
                  12
                  12
                  11
                  11
                  11
                  11
                  11
                  11
                  11
                  11
                  11
                  11
                  11
                  11
                  11
                  11
                  11
                  12
                  12
                  12
                  12
                  12
                  12
                  12
                  12
                  12
                  12
                  12
                  12
                  11
                  11
                  11
                  11
                  12
                  12
                  11
                  11
                  11
                  11
                  11
                  11
                  11
                  11
                  11
                  11
                  11
                  11
                  11
                  11
                  11
                  11
                  11
                  11
                  11
                  11
                  12
                  12
                  12
                  12
                  11
                  11
                  11
                  11
                  11
                  11
                  11
                  11
                  11
                  11
                  11
                  12
                  12
                  12
                  12
                  12
                  12
                  12
                  12
                  12
                  12
                  11
                  11
                  11
                  11
                  11
                  11
                  11
                  11
                  11
                  11
                  11
                  11
                  11
                  11
                  11
                  12
                  12
                  12
                  12
                  12
                  12
                  12
                  12
                  12
                  12
                  12
                  12
                  11
                  11
                  11
                  11
                  12
                  12
                  11
                  11
                  11
                  11
                  11
                  11
                  11
                  11
                  11
                  11
                  11
                  11
                  11
                  11
                  11
                  11
                  11
                  11
                  11
                  11
                  12
                  12
                  12
                  12
                  11
                  11
                  11
                  11
                  11
                  11
                  11
                  11
                  11
                  11
                  11
                  12
                  12
                  12
                  12
                  12
                  12
                  12
                  12
                  12
                  12
                  11
                  11
                  11
                  11
                  11
                  11
                  11
                  11
                  11
                  11
                  11
                  11
                  11
                  11
                  11
                  12
                  12
                  12
                  12
                  12
                  12
                  12
                  12
                  12
                  12
                  12
                  12
                  11
                  11
                  11
                  11
                  12
                  12
                  11
                  11
                  11
                  11
                  11
                  11
                  11
                  11
                  11
                  11
                  11
                  11
                  11
                  11
                  11
                  11
                  11
                  11
                  11
                  11
                  12
                  12
                  12
                  12
                  11
                  11
                  11
                  11
                  11
                  11
                  11
                  11
                  11
                  11
                  11
                  12
                  12
                  12
                  12
                  12
                  12
                  12
                  12
                  12
                  12
                  11
                  11
                  11
                  11
                  11
                  11
                  11
                  11
                  11
                  11
                  11
                  11
                  11
                  11
                  11
                  12
                  12
                  12
                  12
                  12
                  12
                  12
                  12
                  12
                  12
                  12
                  12
                  11
                  11
                  11
                  11
                  12
                  12
                  11
                  11
                  11
                  11
                  11
                  11
                  11
                  11
                  11
                  11
                  11
                  11
                  11
                  11
                  11
                  11
                  11
                  11
                  11
                  11
                  12
                  12
                  12
                  12
                  11
                  11
                  11
                  11
                  11
                  11
                  11
                  11
                  11
                  11
                  11
                  12
                  12
                  12
                  12
                  12
                  12
                  12
                  12
                  12
                  12
                  11
                  11
                  11
                  11
                  11
                  11
                  11
                  11
                  11
                  11
                  11
                  11
                  11
                  11
                  11
                  12
                  12
                  12
                  12
                  12
                  12
                  12
                  12
                  12
                  12
                  12
                  12
                  11
                  11
                  11
                  11
                  12
                  12
                  11
                  11
                  11
                  11
                  11
                  11
                  11
                  11
                  11
                  11
                  11
                  11
                  11
                  11
                  11
                  11
                  11
                  11
                  11
                  11
                  12
                  12
                  12
                  12
                  11
                  11
                  11
                  11
                  11
                  11
                  11
                  11
                  11
                  11
                  11
                  12
                  12
                  12
                  12
                  12
                  12
                  12
                  12
                  12
                  12
                  11
                  11
                  11
                  11
                  11
                  11
                  11
                  11
                  11
                  11
                  11
                  11
                  11
                  11
                  11
                  12
                  12
                  12
                  12
                  12
                  12
                  12
                  12
                  12
                  12
                  12
                  12
                  11
                  11
                  11
                  11
                  12
                  12
                  11
                  11
                  11
                  11
                  11
                  11
                  11
                  11
                  11
                  11
                  11
                  11
                  11
                  11
                  11
                  11
                  11
                  11
                  11
                  11
                  12
                  12
                  12
                  12
                  11
                  11
                  11
                  11
                  11
                  11
                  11
                  11
                  11
                  11
                  11
                  12
                  12
                  12
                  12
                  12
                  12
                  12
                  12
                  12
                  12
                  11
                  11
                  11
                  11
                  11
                  11
                  11
                  11
                  11
                  11
                  11
                  11
                  11
                  11
                  11
                  12
                  12
                  12
                  12
                  12
                  12
                  12
                  12
                  12
                  12
                  12
                  12
                  11
                  11
                  11
                  11
                  12
                  12
                  11
                  11
                  11
                  11
                  11
                  11
                  11
                  11
                  11
                  11
                  11
                  11
                  11
                  11
                  11
                  11
                  11
                  11
                  11
                  11
                  12
                  12
                  12
                  12
                  11
                  11
                  11
                  11
                  11
                  11
                  11
                  11
                  11
                  11
                  11
                  12
                  12
                  12
                  12
                  12
                  12
                  12
                  12
                  12
                  12
                  11
                  11
                  11
                  11
                  11
                  11
                  11
                  11
                  11
                  11
                  11
                  11
                  11
                  11
                  11
                  12
                  12
                  12
                  12
                  12
                  12
                  12
                  12
                  12
                  12
                  12
                  12
                  11
                  11
                  11
                  11
                  12
                  12
                  11
                  11
                  11
                  11
                  11
                  11
                  11
                  11
                  11
                  11
                  11
                  11
                  11
                  11
                  11
                  11
                  11
                  11
                  11
                  11
                  12
                  12
                  12
                  12
                  11
                  11
                  11
                  11
                  11
                  11
                  11
                  11
                  11
                  11
                  11
                  12
                  12
                  12
                  12
                  12
                  12
                  12
                  12
                  12
                  12
                  11
                  11
                  11
                  11
                  11
                  11
                  11
                  11
                  11
                  11
                  11
                  11
                  11
                  11
                  11
                  12
                  12
                  12
                  12
                  12
                  12
                  12
                  12
                  12
                  12
                  12
                  12
                  11
                  11
                  11
                  11
                  12
                  12
                  11
                  11
                  11
                  11
                  11
                  11
                  11
                  11
                  11
                  11
                  11
                  11
                  11
                  11
                  11
                  11
                  11
                  11
                  11
                  11
                  12
                  12
                  12
                  12
                  11
                  11
                  11
                  11
                  11
                  11
                  11
                  11
                  11
                  11
                  11
                  12
                  12
                  12
                  12
                  12
                  12
                  12
                  12
                  12
                  12
                  11
                  11
                  11
                  11
                  11
                  11
                  11
                  11
                  11
                  11
                  11
                  11
                  11
                  11
                  11
                  12
                  12
                  12
                  12
                  12
                  12
                  12
                  12
                  12
                  12
                  12
                  12
                  11
                  11
                  11
                  11
                  12
                  12
                  11
                  11
                  11
                  11
                  11
                  11
                  11
                  11
                  11
                  11
                  11
                  11
                  11
                  11
                  11
                  11
                  11
                  11
                  11
                  11
                  12
                  12
                  12
                  12
                  11
                  11
                  11
                  11
                  11
                  11
                  11
                  11
                  11
                  11
                  11
                  12
                  12
                  12
                  12
                  12
                  12
                  12
                  12
                  12
                  12
                  11
                  11
                  11
                  11
                  11
                  11
                  11
                  11
                  11
                  11
                  11
                  11
                  11
                  11
                  11
                  12
                  12
                  12
                  12
                  12
                  12
                  12
                  12
                  12
                  12
                  12
                  12
                  11
                  11
                  11
                  11
                  12
                  12
                  11
                  11
                  11
                  11
                  11
                  11
                  11
                  11
                  11
                  11
                  11
                  11
                  11
                  11
                  11
                  11
                  11
                  11
                  11
                  11
                  12
                  12
                  12
                  12
                  11
                  11
                  11
                  11
                  11
                  11
                  11
                  11
                  11
                  11
                  11
                  12
                  12
                  12
                  12
                  12
                  12
                  12
                  12
                  12
                  12
                  11
                  11
                  11
                  11
                  11
                  11
                  11
                  11
                  11
                  11
                  11
                  11
                  11
                  11
                  11
                  12
                  12
                  12
                  12
                  12
                  12
                  12
                  12
                  12
                  12
                  12
                  12
                  11
                  11
                  11
                  11
                  12
                  12
                  11
                  11
                  11
                  11
                  11
                  11
                  11
                  11
                  11
                  11
                  11
                  11
                  11
                  11
                  11
                  11
                  11
                  11
                  11
                  11
                  12
                  12
                  12
                  12
                  11
                  11
                  11
                  11
                  11
                  11
                  11
                  11
                  11
                  11
                  11
                  12
                  12
                  12
                  12
                  12
                  12
                  12
                  12
                  12
                  12
                  11
                  11
                  11
                  11
                  11
                  11
                  11
                  11
                  11
                  11
                  11
                  11
                  11
                  11
                  11
                  12
                  12
                  12
                  12
                  12
                  12
                  12
                  12
                  12
                  12
                  12
                  12
                  11
                  11
                  11
                  11
                  12
                  12
                  11
                  11
                  11
                  11
                  11
                  11
                  11
                  11
                  11
                  11
                  11
                  11
                  11
                  11
                  11
                  11
                  11
                  11
                  11
                  11
                  12
                  12
                  12
                  12
                  11
                  11
                  11
                  11
                  11
                  11
                  11
                  11
                  11
                  11
                  11
                  12
                  12
                  12
                  12
                  12
                  12
                  12
                  12
                  12
                  12
                  11
                  11
                  11
                  11
                  11
                  11
                  11
                  11
                  11
                  11
                  11
                  11
                  11
                  11
                  11
                  12
                  12
                  12
                  12
                  12
  
SCALARS                         Jspace  double 1
LOOKUP_TABLE default
                  11
                  12
                  11
                  11
                  11
                  12
                  11
                  11
                  11
                  11
                  11
                  11
                  12
                  12
                  12
                  12
                  11
                  12
                  11
                  12
                  12
                  12
                  12
                  12
                  12
                  12
                  12
                  12
                  12
                  12
                  11
                  11
                  11
                  11
                  11
                  11
                  11
                  11
                  11
                  11
                  11
                  11
                  11
                  11
                  11
                  11
                  11
                  11
                  11
                  11
                  11
                  11
                  12
                  12
                  12
                  12
                  12
                  11
                  12
                  11
                  11
                  11
                  11
                  11
                  11
                  11
                  11
                  11
                  11
                  12
                  11
                  12
                  12
                  12
                  12
                  12
                  12
                  12
                  12
                  12
                  12
                  12
                  12
                  12
                  11
                  11
                  11
                  11
                  11
                  11
                  11
                  11
                  11
                  11
                  11
                  11
                  11
                  11
                  11
                  11
                  11
                  11
                  11
                  11
                  11
                  11
                  11
                  11
                  12
                  12
                  12
                  12
                  12
                  12
                  12
                  12
                  12
                  12
                  12
                  12
                  12
                  12
                  12
                  12
                  12
                  12
                  12
                  12
                  11
                  11
                  11
                  11
                  11
                  11
                  11
                  11
                  11
                  11
                  11
                  11
                  11
                  11
                  11
                  11
                  11
                  11
                  11
                  11
                  11
                  11
                  11
                  11
                  11
                  11
                  11
                  11
                  11
                  12
                  11
                  11
                  11
                  11
                  12
                  12
                  11
                  12
                  12
                  12
                  12
                  12
                  12
                  11
                  11
                  11
                  11
                  11
                  11
                  11
                  11
                  11
                  11
                  11
                  12
                  12
                  12
                  11
                  11
                  11
                  11
                  11
                  11
                  12
                  12
                  12
                  12
                  12
                  12
                  12
                  11
                  11
                  11
                  11
                  11
                  11
                  11
                  11
                  11
                  11
                  11
                  11
                  12
                  12
                  12
                  12
                  12
                  12
                  12
                  12
                  12
                  12
                  11
                  11
                  11
                  11
                  11
                  11
                  11
                  11
                  11
                  11
                  11
                  11
                  11
                  11
                  11
                  12
                  11
                  11
                  11
                  11
                  12
                  12
                  11
                  12
                  12
                  12
                  12
                  12
                  12
                  11
                  11
                  11
                  11
                  11
                  11
                  11
                  11
                  11
                  11
                  11
                  12
                  12
                  12
                  11
                  11
                  11
                  11
                  11
                  11
                  12
                  12
                  12
                  12
                  12
                  12
                  12
                  11
                  11
                  11
                  11
                  11
                  11
                  11
                  11
                  11
                  11
                  11
                  11
                  12
                  12
                  12
                  12
                  12
                  12
                  12
                  12
                  12
                  12
                  11
                  11
                  11
                  11
                  11
                  11
                  11
                  11
                  11
                  11
                  11
                  11
                  11
                  11
                  11
                  12
                  11
                  11
                  11
                  11
                  12
                  12
                  11
                  12
                  12
                  12
                  12
                  12
                  12
                  11
                  11
                  11
                  11
                  11
                  11
                  11
                  11
                  11
                  11
                  11
                  12
                  12
                  12
                  11
                  11
                  11
                  11
                  11
                  11
                  12
                  12
                  12
                  12
                  12
                  12
                  12
                  11
                  11
                  11
                  11
                  11
                  11
                  11
                  11
                  11
                  11
                  11
                  11
                  12
                  12
                  12
                  12
                  12
                  12
                  12
                  12
                  12
                  12
                  11
                  11
                  11
                  11
                  11
                  11
                  11
                  11
                  11
                  11
                  11
                  11
                  11
                  11
                  11
                  12
                  11
                  11
                  11
                  11
                  12
                  12
                  11
                  12
                  12
                  12
                  12
                  12
                  12
                  11
                  11
                  11
                  11
                  11
                  11
                  11
                  11
                  11
                  11
                  11
                  12
                  12
                  12
                  11
                  11
                  11
                  11
                  11
                  11
                  12
                  12
                  12
                  12
                  12
                  12
                  12
                  11
                  11
                  11
                  11
                  11
                  11
                  11
                  11
                  11
                  11
                  11
                  11
                  12
                  12
                  12
                  12
                  12
                  12
                  12
                  12
                  12
                  12
                  11
                  11
                  11
                  11
                  11
                  11
                  11
                  11
                  11
                  11
                  11
                  11
                  11
                  11
                  11
                  12
                  11
                  11
                  11
                  11
                  12
                  12
                  11
                  12
                  12
                  12
                  12
                  12
                  12
                  11
                  11
                  11
                  11
                  11
                  11
                  11
                  11
                  11
                  11
                  11
                  12
                  12
                  12
                  11
                  11
                  11
                  11
                  11
                  11
                  12
                  12
                  12
                  12
                  12
                  12
                  12
                  11
                  11
                  11
                  11
                  11
                  11
                  11
                  11
                  11
                  11
                  11
                  11
                  12
                  12
                  12
                  12
                  12
                  12
                  12
                  12
                  12
                  12
                  11
                  11
                  11
                  11
                  11
                  11
                  11
                  11
                  11
                  11
                  11
                  11
                  11
                  11
                  11
                  12
                  11
                  11
                  11
                  11
                  12
                  12
                  11
                  12
                  12
                  12
                  12
                  12
                  12
                  11
                  11
                  11
                  11
                  11
                  11
                  11
                  11
                  11
                  11
                  11
                  12
                  12
                  12
                  11
                  11
                  11
                  11
                  11
                  11
                  12
                  12
                  12
                  12
                  12
                  12
                  12
                  11
                  11
                  11
                  11
                  11
                  11
                  11
                  11
                  11
                  11
                  11
                  11
                  12
                  12
                  12
                  12
                  12
                  12
                  12
                  12
                  12
                  12
                  11
                  11
                  11
                  11
                  11
                  11
                  11
                  11
                  11
                  11
                  11
                  11
                  11
                  11
                  11
                  12
                  11
                  11
                  11
                  11
                  12
                  12
                  11
                  12
                  12
                  12
                  12
                  12
                  12
                  11
                  11
                  11
                  11
                  11
                  11
                  11
                  11
                  11
                  11
                  11
                  12
                  12
                  12
                  11
                  11
                  11
                  11
                  11
                  11
                  12
                  12
                  12
                  12
                  12
                  12
                  12
                  11
                  11
                  11
                  11
                  11
                  11
                  11
                  11
                  11
                  11
                  11
                  11
                  12
                  12
                  12
                  12
                  12
                  12
                  12
                  12
                  12
                  12
                  11
                  11
                  11
                  11
                  11
                  11
                  11
                  11
                  11
                  11
                  11
                  11
                  11
                  11
                  11
                  12
                  11
                  11
                  11
                  11
                  12
                  12
                  11
                  12
                  12
                  12
                  12
                  12
                  12
                  11
                  11
                  11
                  11
                  11
                  11
                  11
                  11
                  11
                  11
                  11
                  12
                  12
                  12
                  11
                  11
                  11
                  11
                  11
                  11
                  12
                  12
                  12
                  12
                  12
                  12
                  12
                  11
                  11
                  11
                  11
                  11
                  11
                  11
                  11
                  11
                  11
                  11
                  11
                  12
                  12
                  12
                  12
                  12
                  12
                  12
                  12
                  12
                  12
                  11
                  11
                  11
                  11
                  11
                  11
                  11
                  11
                  11
                  11
                  11
                  11
                  11
                  11
                  11
                  12
                  11
                  11
                  11
                  11
                  12
                  12
                  11
                  12
                  12
                  12
                  12
                  12
                  12
                  11
                  11
                  11
                  11
                  11
                  11
                  11
                  11
                  11
                  11
                  11
                  12
                  12
                  12
                  11
                  11
                  11
                  11
                  11
                  11
                  12
                  12
                  12
                  12
                  12
                  12
                  12
                  11
                  11
                  11
                  11
                  11
                  11
                  11
                  11
                  11
                  11
                  11
                  11
                  12
                  12
                  12
                  12
                  12
                  12
                  12
                  12
                  12
                  12
                  11
                  11
                  11
                  11
                  11
                  11
                  11
                  11
                  11
                  11
                  11
                  11
                  11
                  11
                  11
                  12
                  11
                  11
                  11
                  11
                  12
                  12
                  11
                  12
                  12
                  12
                  12
                  12
                  12
                  11
                  11
                  11
                  11
                  11
                  11
                  11
                  11
                  11
                  11
                  11
                  12
                  12
                  12
                  11
                  11
                  11
                  11
                  11
                  11
                  12
                  12
                  12
                  12
                  12
                  12
                  12
                  11
                  11
                  11
                  11
                  11
                  11
                  11
                  11
                  11
                  11
                  11
                  11
                  12
                  12
                  12
                  12
                  12
                  12
                  12
                  12
                  12
                  12
                  11
                  11
                  11
                  11
                  11
                  11
                  11
                  11
                  11
                  11
                  11
                  11
                  11
                  11
                  11
                  12
                  11
                  11
                  11
                  11
                  12
                  12
                  11
                  12
                  12
                  12
                  12
                  12
                  12
                  11
                  11
                  11
                  11
                  11
                  11
                  11
                  11
                  11
                  11
                  11
                  12
                  12
                  12
                  11
                  11
                  11
                  11
                  11
                  11
                  12
                  12
                  12
                  12
                  12
                  12
                  12
                  11
                  11
                  11
                  11
                  11
                  11
                  11
                  11
                  11
                  11
                  11
                  11
                  12
                  12
                  12
                  12
                  12
                  12
                  12
                  12
                  12
                  12
                  11
                  11
                  11
                  11
                  11
                  11
                  11
                  11
                  11
                  11
                  11
                  11
                  11
                  11
                  11
                  12
                  11
                  11
                  11
                  11
                  12
                  12
                  11
                  12
                  12
                  12
                  12
                  12
                  12
                  11
                  11
                  11
                  11
                  11
                  11
                  11
                  11
                  11
                  11
                  11
                  12
                  12
                  12
                  11
                  11
                  11
                  11
                  11
                  11
                  12
                  12
                  12
                  12
                  12
                  12
                  12
                  11
                  11
                  11
                  11
                  11
                  11
                  11
                  11
                  11
                  11
                  11
                  11
                  12
                  12
                  12
                  12
                  12
                  12
                  12
                  12
                  12
                  12
                  11
                  11
                  11
                  11
                  11
                  11
                  11
                  11
                  11
                  11
                  11
                  11
                  11
                  11
                  11
                  12
                  11
                  11
                  11
                  11
                  12
                  12
                  11
                  12
                  12
                  12
                  12
                  12
                  12
                  11
                  11
                  11
                  11
                  11
                  11
                  11
                  11
                  11
                  11
                  11
                  12
                  12
                  12
                  11
                  11
                  11
                  11
                  11
                  11
                  12
                  12
                  12
                  12
                  12
                  12
                  12
                  11
                  11
                  11
                  11
                  11
                  11
                  11
                  11
                  11
                  11
                  11
                  11
                  12
                  12
                  12
                  12
                  12
                  12
                  12
                  12
                  12
                  12
                  11
                  11
                  11
                  11
                  11
                  11
                  11
                  11
                  11
                  11
                  11
                  11
                  11
                  11
                  11
                  12
                  11
                  11
                  11
                  11
                  12
                  12
                  11
                  12
                  12
                  12
                  12
                  12
                  12
                  11
                  11
                  11
                  11
                  11
                  11
                  11
                  11
                  11
                  11
                  11
                  12
                  12
                  12
                  11
                  11
                  11
                  11
                  11
                  11
                  12
                  12
                  12
                  12
                  12
                  12
                  12
                  11
                  11
                  11
                  11
                  11
                  11
                  11
                  11
                  11
                  11
                  11
                  11
                  12
                  12
                  12
                  12
                  12
                  12
                  12
                  12
                  12
                  12
                  11
                  11
                  11
                  11
                  11
                  11
                  11
                  11
                  11
                  11
                  11
                  11
                  11
                  11
                  11
                  12
                  11
                  11
                  11
                  11
                  12
                  12
                  11
                  12
                  12
                  12
                  12
                  12
                  12
                  11
                  11
                  11
                  11
                  11
                  11
                  11
                  11
                  11
                  11
                  11
                  12
                  12
                  12
                  11
                  11
                  11
                  11
                  11
                  11
                  12
                  12
                  12
                  12
                  12
                  12
                  12
                  11
                  11
                  11
                  11
                  11
                  11
                  11
                  11
                  11
                  11
                  11
                  11
                  12
                  12
                  12
                  12
                  12
                  12
                  12
                  12
                  12
                  12
                  11
                  11
                  11
                  11
                  11
                  11
                  11
                  11
                  11
                  11
                  11
                  11
                  11
                  11
                  11
                  12
                  11
                  11
                  11
                  11
                  12
                  12
                  11
                  12
                  12
                  12
                  12
                  12
                  12
                  11
                  11
                  11
                  11
                  11
                  11
                  11
                  11
                  11
                  11
                  11
                  12
                  12
                  12
                  11
                  11
                  11
                  11
                  11
                  11
                  12
                  12
                  12
                  12
                  12
                  12
                  12
                  11
                  11
                  11
                  11
                  11
                  11
                  11
                  11
                  11
                  11
                  11
                  11
                  12
                  12
                  12
                  12
                  12
                  12
                  12
                  12
                  12
                  12
                  11
                  11
                  11
                  11
                  11
                  11
                  11
                  11
                  11
                  11
                  11
                  11
                  11
                  11
                  11
                  12
                  11
                  11
                  11
                  11
                  12
                  12
                  11
                  12
                  12
                  12
                  12
                  12
                  12
                  11
                  11
                  11
                  11
                  11
                  11
                  11
                  11
                  11
                  11
                  11
                  12
                  12
                  12
                  11
                  11
                  11
                  11
                  11
                  11
                  12
                  12
                  12
                  12
                  12
                  12
                  12
                  11
                  11
                  11
                  11
                  11
                  11
                  11
                  11
                  11
                  11
                  11
                  11
                  12
                  12
                  12
                  12
                  12
                  12
                  12
                  12
                  12
                  12
                  11
                  11
                  11
                  11
                  11
                  11
                  11
                  11
                  11
                  11
                  11
                  11
                  11
                  11
                  11
                  12
                  11
                  11
                  11
                  11
                  12
                  12
                  11
                  12
                  12
                  12
                  12
                  12
                  12
                  11
                  11
                  11
                  11
                  11
                  11
                  11
                  11
                  11
                  11
                  11
                  12
                  12
                  12
                  11
                  11
                  11
                  11
                  11
                  11
                  12
                  12
                  12
                  12
                  12
                  12
                  12
                  11
                  11
                  11
                  11
                  11
                  11
                  11
                  11
                  11
                  11
                  11
                  11
                  12
                  12
                  12
                  12
                  12
                  12
                  12
                  12
                  12
                  12
                  11
                  11
                  11
                  11
                  11
                  11
                  11
                  11
                  11
                  11
                  11
                  11
                  11
                  11
                  11
                  12
                  11
                  11
                  11
                  11
                  12
                  12
                  11
                  12
                  12
                  12
                  12
                  12
                  12
                  11
                  11
                  11
                  11
                  11
                  11
                  11
                  11
                  11
                  11
                  11
                  12
                  12
                  12
                  11
                  11
                  11
                  11
                  11
                  11
                  12
                  12
                  12
                  12
                  12
                  12
                  12
                  11
                  11
                  11
                  11
                  11
                  11
                  11
                  11
                  11
                  11
                  11
                  11
                  12
                  12
                  12
                  12
                  12
                  12
                  12
                  12
                  12
                  12
                  11
                  11
                  11
                  11
                  11
                  11
                  11
                  11
                  11
                  11
                  11
                  11
                  11
                  11
                  11
                  12
                  11
                  11
                  11
                  11
                  12
                  12
                  11
                  12
                  12
                  12
                  12
                  12
                  12
                  11
                  11
                  11
                  11
                  11
                  11
                  11
                  11
                  11
                  11
                  11
                  12
                  12
                  12
                  11
                  11
                  11
                  11
                  11
                  11
                  12
                  12
                  12
                  12
                  12
                  12
                  12
                  11
                  11
                  11
                  11
                  11
                  11
                  11
                  11
                  11
                  11
                  11
                  11
                  12
                  12
                  12
                  12
                  12
                  12
                  12
                  12
                  12
                  12
                  11
                  11
                  11
                  11
                  11
                  11
                  11
                  11
                  11
                  11
                  11
                  11
                  11
                  11
                  11
                  12
                  11
                  11
                  11
                  11
                  12
                  12
                  11
                  12
                  12
                  12
                  12
                  12
                  12
                  11
                  11
                  11
                  11
                  11
                  11
                  11
                  11
                  11
                  11
                  11
                  12
                  12
                  12
                  11
                  11
                  11
                  11
                  11
                  11
                  12
                  12
                  12
                  12
                  12
                  12
                  12
                  11
                  11
                  11
                  11
                  11
                  11
                  11
                  11
                  11
                  11
                  11
                  11
                  12
                  12
                  12
                  12
                  12
                  12
                  12
                  12
                  12
                  12
                  11
                  11
                  11
                  11
                  11
                  11
                  11
                  11
                  11
                  11
                  11
                  11
                  11
                  11
                  11
                  12
                  11
                  11
                  11
                  11
                  12
                  12
                  11
                  12
                  12
                  12
                  12
                  12
                  12
                  11
                  11
                  11
                  11
                  11
                  11
                  11
                  11
                  11
                  11
                  11
                  12
                  12
                  12
                  11
                  11
                  11
                  11
                  11
                  11
                  12
                  12
                  12
                  12
                  12
                  12
                  12
                  11
                  11
                  11
                  11
                  11
                  11
                  11
                  11
                  11
                  11
                  11
                  11
                  12
                  12
                  12
                  12
                  12
                  12
                  12
                  12
                  12
                  12
                  11
                  11
                  11
                  11
                  11
                  11
                  11
                  11
                  11
                  11
                  11
                  11
                  11
                  11
                  11
                  12
                  11
                  11
                  11
                  11
                  12
                  12
                  11
                  12
                  12
                  12
                  12
                  12
                  12
                  11
                  11
                  11
                  11
                  11
                  11
                  11
                  11
                  11
                  11
                  11
                  12
                  12
                  12
                  11
                  11
                  11
                  11
                  11
                  11
                  12
                  12
                  12
                  12
                  12
                  12
                  12
                  11
                  11
                  11
                  11
                  11
                  11
                  11
                  11
                  11
                  11
                  11
                  11
                  12
                  12
                  12
                  12
                  12
                  12
                  12
                  12
                  12
                  12
                  11
                  11
                  11
                  11
                  11
                  11
                  11
                  11
                  11
                  11
                  11
                  11
                  11
                  11
  
SCALARS                         Kspace  double 1
LOOKUP_TABLE default
                  11
                  11
                  11
                  11
                  11
                  11
                  11
                  11
                  11
                  11
                  11
                  11
                  11
                  11
                  11
                  11
                  11
                  11
                  11
                  11
                  11
                  11
                  11
                  11
                  11
                  11
                  11
                  11
                  11
                  11
                  11
                  11
                  11
                  11
                  11
                  11
                  11
                  11
                  11
                  11
                  11
                  11
                  11
                  11
                  11
                  11
                  11
                  11
                  11
                  11
                  11
                  11
                  11
                  11
                  11
                  11
                  11
                  11
                  11
                  11
                  11
                  11
                  11
                  11
                  11
                  11
                  11
                  11
                  11
                  11
                  11
                  11
                  11
                  11
                  11
                  11
                  11
                  11
                  11
                  11
                  11
                  11
                  11
                  11
                  11
                  11
                  11
                  11
                  11
                  11
                  11
                  11
                  11
                  11
                  11
                  11
                  11
                  11
                  11
                  11
                  11
                  11
                  11
                  11
                  11
                  11
                  11
                  11
                  11
                  11
                  11
                  11
                  11
                  11
                  11
                  11
                  11
                  11
                  11
                  11
                  11
                  11
                  11
                  11
                  11
                  11
                  11
                  11
                  11
                  11
                  11
                  11
                  11
                  11
                  11
                  11
                  11
                  11
                  11
                  11
                  11
                  11
                  11
                  11
                  11
                  11
                  11
                  11
                  11
                  11
                  11
                  11
                  11
                  11
                  11
                  11
                  11
                  11
                  11
                  11
                  11
                  11
                  11
                  11
                  11
                  11
                  11
                  11
                  11
                  11
                  11
                  11
                  11
                  11
                  11
                  11
                  11
                  11
                  11
                  11
                  11
                  11
                  11
                  11
                  11
                  11
                  11
                  11
                  11
                  11
                  11
                  11
                  11
                  11
                  11
                  11
                  11
                  11
                  11
                  11
                  11
                  11
                  11
                  11
                  11
                  11
                  11
                  11
                  11
                  11
                  11
                  11
                  11
                  11
                  11
                  11
                  11
                  11
                  11
                  11
                  11
                  11
                  11
                  11
                  11
                  11
                  11
                  11
                  11
                  11
                  11
                  11
                  11
                  11
                  11
                  11
                  11
                  11
                  11
                  11
                  11
                  11
                  11
                  11
                  11
                  11
                  11
                  11
                  11
                  11
                  11
                  11
                  11
                  11
                  11
                  11
                  11
                  11
                  11
                  11
                  11
                  11
                  11
                  11
                  11
                  11
                  11
                  11
                  11
                  11
                  11
                  11
                  11
                  11
                  11
                  11
                  11
                  11
                  11
                  11
                  11
                  11
                  11
                  11
                  11
                  11
                  11
                  11
                  11
                  11
                  11
                  11
                  11
                  11
                  11
                  11
                  11
                  11
                  11
                  11
                  11
                  11
                  11
                  11
                  11
                  11
                  11
                  11
                  11
                  11
                  11
                  11
                  12
                  12
                  12
                  12
                  12
                  12
                  12
                  12
                  12
                  12
                  12
                  12
                  12
                  12
                  12
                  12
                  12
                  12
                  12
                  12
                  12
                  12
                  12
                  12
                  12
                  12
                  12
                  12
                  12
                  12
                  12
                  12
                  12
                  12
                  12
                  12
                  12
                  12
                  12
                  12
                  12
                  12
                  12
                  12
                  12
                  12
                  12
                  12
                  12
                  12
                  12
                  12
                  12
                  12
                  12
                  12
                  12
                  12
                  12
                  12
                  12
                  12
                  12
                  12
                  12
                  12
                  12
                  12
                  12
                  12
                  12
                  12
                  12
                  12
                  12
                  12
                  12
                  12
                  12
                  12
                  12
                  12
                  12
                  12
                  12
                  12
                  12
                  12
                  12
                  12
                  12
                  12
                  12
                  12
                  12
                  12
                  12
                  12
                  12
                  12
                  12
                  12
                  12
                  12
                  12
                  12
                  12
                  12
                  12
                  12
                  12
                  12
                  12
                  12
                  12
                  12
                  12
                  12
                  12
                  12
                  12
                  12
                  12
                  12
                  12
                  12
                  12
                  12
                  12
                  12
                  12
                  12
                  12
                  12
                  12
                  12
                  12
                  12
                  12
                  12
                  12
                  12
                  12
                  12
                  12
                  12
                  12
                  12
                  12
                  12
                  12
                  12
                  12
                  12
                  12
                  12
                  12
                  12
                  12
                  12
                  12
                  12
                  12
                  12
                  12
                  12
                  12
                  12
                  12
                  12
                  12
                  12
                  12
                  12
                  12
                  12
                  12
                  12
                  12
                  12
                  12
                  12
                  12
                  12
                  12
                  12
                  12
                  12
                  12
                  12
                  12
                  12
                  12
                  12
                  12
                  12
                  12
                  12
                  12
                  12
                  12
                  12
                  12
                  12
                  12
                  12
                  12
                  12
                  12
                  12
                  12
                  12
                  12
                  12
                  12
                  12
                  12
                  12
                  12
                  12
                  12
                  12
                  12
                  12
                  12
                  12
                  12
                  12
                  12
                  12
                  12
                  12
                  12
                  12
                  13
                  13
                  13
                  13
                  13
                  13
                  13
                  13
                  13
                  13
                  13
                  13
                  13
                  13
                  13
                  13
                  13
                  13
                  13
                  13
                  13
                  13
                  13
                  13
                  13
                  13
                  13
                  13
                  13
                  13
                  13
                  13
                  13
                  13
                  13
                  13
                  13
                  13
                  13
                  13
                  13
                  13
                  13
                  13
                  13
                  13
                  13
                  13
                  13
                  13
                  13
                  13
                  13
                  13
                  13
                  13
                  13
                  13
                  13
                  13
                  13
                  13
                  13
                  13
                  13
                  13
                  13
                  13
                  13
                  13
                  13
                  13
                  13
                  13
                  13
                  13
                  13
                  13
                  13
                  13
                  13
                  13
                  13
                  13
                  13
                  13
                  13
                  13
                  13
                  13
                  13
                  13
                  13
                  13
                  13
                  13
                  13
                  13
                  13
                  13
                  13
                  13
                  13
                  13
                  13
                  13
                  13
                  13
                  13
                  13
                  13
                  13
                  13
                  13
                  13
                  13
                  13
                  13
                  13
                  13
                  13
                  13
                  13
                  13
                  13
                  13
                  13
                  13
                  13
                  13
                  13
                  13
                  13
                  13
                  13
                  13
                  13
                  13
                  13
                  13
                  13
                  13
                  13
                  13
                  13
                  13
                  13
                  13
                  13
                  13
                  13
                  13
                  13
                  13
                  13
                  13
                  13
                  13
                  13
                  13
                  13
                  13
                  13
                  13
                  13
                  13
                  13
                  13
                  13
                  13
                  13
                  13
                  13
                  13
                  13
                  13
                  13
                  13
                  13
                  13
                  13
                  13
                  13
                  13
                  13
                  13
                  13
                  13
                  13
                  13
                  13
                  13
                  13
                  13
                  13
                  13
                  13
                  13
                  13
                  13
                  13
                  13
                  13
                  13
                  13
                  13
                  13
                  13
                  13
                  13
                  13
                  13
                  13
                  13
                  13
                  13
                  13
                  13
                  13
                  13
                  13
                  13
                  13
                  13
                  13
                  13
                  13
                  13
                  13
                  13
                  13
                  13
                  13
                  13
                  14
                  14
                  14
                  14
                  14
                  14
                  14
                  14
                  14
                  14
                  14
                  14
                  14
                  14
                  14
                  14
                  14
                  14
                  14
                  14
                  14
                  14
                  14
                  14
                  14
                  14
                  14
                  14
                  14
                  14
                  14
                  14
                  14
                  14
                  14
                  14
                  14
                  14
                  14
                  14
                  14
                  14
                  14
                  14
                  14
                  14
                  14
                  14
                  14
                  14
                  14
                  14
                  14
                  14
                  14
                  14
                  14
                  14
                  14
                  14
                  14
                  14
                  14
                  14
                  14
                  14
                  14
                  14
                  14
                  14
                  14
                  14
                  14
                  14
                  14
                  14
                  14
                  14
                  14
                  14
                  14
                  14
                  14
                  14
                  14
                  14
                  14
                  14
                  14
                  14
                  14
                  14
                  14
                  14
                  14
                  14
                  14
                  14
                  14
                  14
                  14
                  14
                  14
                  14
                  14
                  14
                  14
                  14
                  14
                  14
                  14
                  14
                  14
                  14
                  14
                  14
                  14
                  14
                  14
                  14
                  14
                  14
                  14
                  14
                  14
                  14
                  14
                  14
                  14
                  14
                  14
                  14
                  14
                  14
                  14
                  14
                  14
                  14
                  14
                  14
                  14
                  14
                  14
                  14
                  14
                  14
                  14
                  14
                  14
                  14
                  14
                  14
                  14
                  14
                  14
                  14
                  14
                  14
                  14
                  14
                  14
                  14
                  14
                  14
                  14
                  14
                  14
                  14
                  14
                  14
                  14
                  14
                  14
                  14
                  14
                  14
                  14
                  14
                  14
                  14
                  14
                  14
                  14
                  14
                  14
                  14
                  14
                  14
                  14
                  14
                  14
                  14
                  14
                  14
                  14
                  14
                  14
                  14
                  14
                  14
                  14
                  14
                  14
                  14
                  14
                  14
                  14
                  14
                  14
                  14
                  14
                  14
                  14
                  14
                  14
                  14
                  14
                  14
                  14
                  14
                  14
                  14
                  14
                  14
                  14
                  14
                  14
                  14
                  14
                  14
                  14
                  14
                  14
                  14
                  15
                  15
                  15
                  15
                  15
                  15
                  15
                  15
                  15
                  15
                  15
                  15
                  15
                  15
                  15
                  15
                  15
                  15
                  15
                  15
                  15
                  15
                  15
                  15
                  15
                  15
                  15
                  15
                  15
                  15
                  15
                  15
                  15
                  15
                  15
                  15
                  15
                  15
                  15
                  15
                  15
                  15
                  15
                  15
                  15
                  15
                  15
                  15
                  15
                  15
                  15
                  15
                  15
                  15
                  15
                  15
                  15
                  15
                  15
                  15
                  15
                  15
                  15
                  15
                  15
                  15
                  15
                  15
                  15
                  15
                  15
                  15
                  15
                  15
                  15
                  15
                  15
                  15
                  15
                  15
                  15
                  15
                  15
                  15
                  15
                  15
                  15
                  15
                  15
                  15
                  15
                  15
                  15
                  15
                  15
                  15
                  15
                  15
                  15
                  15
                  15
                  15
                  15
                  15
                  15
                  15
                  15
                  15
                  15
                  15
                  15
                  15
                  15
                  15
                  15
                  15
                  15
                  15
                  15
                  15
                  15
                  15
                  15
                  15
                  15
                  15
                  15
                  15
                  15
                  15
                  15
                  15
                  15
                  15
                  15
                  15
                  15
                  15
                  15
                  15
                  15
                  15
                  15
                  15
                  15
                  15
                  15
                  15
                  15
                  15
                  15
                  15
                  15
                  15
                  15
                  15
                  15
                  15
                  15
                  15
                  15
                  15
                  15
                  15
                  15
                  15
                  15
                  15
                  15
                  15
                  15
                  15
                  15
                  15
                  15
                  15
                  15
                  15
                  15
                  15
                  15
                  15
                  15
                  15
                  15
                  15
                  15
                  15
                  15
                  15
                  15
                  15
                  15
                  15
                  15
                  15
                  15
                  15
                  15
                  15
                  15
                  15
                  15
                  15
                  15
                  15
                  15
                  15
                  15
                  15
                  15
                  15
                  15
                  15
                  15
                  15
                  15
                  15
                  15
                  15
                  15
                  15
                  15
                  15
                  15
                  15
                  15
                  15
                  15
                  15
                  15
                  15
                  15
                  15
                  15
                  15
                  15
                  15
                  15
                  15
                  15
                  15
                  15
                  15
                  15
                  15
                  15
                  15
                  15
                  15
                  15
                  15
                  15
                  15
                  15
                  15
                  15
                  15
                  15
                  15
                  15
                  15
                  15
                  15
                  15
                  15
                  15
                  15
                  15
                  15
                  15
                  15
                  15
                  15
                  15
                  15
                  15
                  15
                  15
                  15
                  15
                  15
                  15
                  15
                  15
                  15
                  15
                  15
                  15
                  15
                  15
                  15
                  15
                  15
                  15
                  15
                  15
                  15
                  15
                  15
                  15
                  15
                  15
                  15
                  15
                  15
                  15
                  15
                  15
                  15
                  15
                  15
                  16
                  16
                  16
                  16
                  16
                  16
                  16
                  16
                  16
                  16
                  16
                  16
                  16
                  16
                  16
                  16
                  16
                  16
                  16
                  16
                  16
                  16
                  16
                  16
                  16
                  16
                  16
                  16
                  16
                  16
                  16
                  16
                  16
                  16
                  16
                  16
                  16
                  16
                  16
                  16
                  16
                  16
                  16
                  16
                  16
                  16
                  16
                  16
                  16
                  16
                  16
                  16
                  16
                  16
                  16
                  16
                  16
                  16
                  16
                  16
                  16
                  16
                  16
                  16
                  16
                  16
                  16
                  16
                  16
                  16
                  16
                  16
                  16
                  16
                  16
                  16
                  16
                  16
                  16
                  16
                  16
                  16
                  16
                  16
                  16
                  16
                  16
                  16
                  16
                  16
                  16
                  16
                  16
                  16
                  16
                  16
                  16
                  16
                  16
                  16
                  16
                  16
                  16
                  16
                  16
                  16
                  16
                  16
                  16
                  16
                  16
                  16
                  16
                  16
                  16
                  16
                  16
                  16
                  16
                  16
                  16
                  16
                  16
                  16
                  16
                  16
                  16
                  16
                  16
                  16
                  16
                  16
                  16
                  16
                  16
                  16
                  16
                  16
                  16
                  16
                  16
                  16
                  16
                  16
                  16
                  16
                  16
                  16
                  16
                  16
                  16
                  16
                  16
                  16
                  16
                  16
                  16
                  16
                  16
                  16
                  16
                  16
                  16
                  16
                  16
                  16
                  16
                  16
                  16
                  16
                  16
                  16
                  16
                  16
                  16
                  16
                  16
                  16
                  16
                  16
                  16
                  16
                  16
                  16
                  16
                  16
                  16
                  16
                  16
                  16
                  16
                  16
                  16
                  16
                  16
                  16
                  16
                  16
                  16
                  16
                  16
                  16
                  16
                  16
                  16
                  16
                  16
                  16
                  16
                  16
                  16
                  16
                  16
                  16
                  16
                  16
                  16
                  16
                  16
                  16
                  16
                  16
                  16
                  16
                  16
                  16
                  16
                  16
                  16
                  16
                  16
                  16
                  16
                  16
                  17
                  17
                  17
                  17
                  17
                  17
                  17
                  17
                  17
                  17
                  17
                  17
                  17
                  17
                  17
                  17
                  17
                  17
                  17
                  17
                  17
                  17
                  17
                  17
                  17
                  17
                  17
                  17
                  17
                  17
                  17
                  17
                  17
                  17
                  17
                  17
                  17
                  17
                  17
                  17
                  17
                  17
                  17
                  17
                  17
                  17
                  17
                  17
                  17
                  17
                  17
                  17
                  17
                  17
                  17
                  17
                  17
                  17
                  17
                  17
                  17
                  17
                  17
                  17
                  17
                  17
                  17
                  17
                  17
                  17
                  17
                  17
                  17
                  17
                  17
                  17
                  17
                  17
                  17
                  17
                  17
                  17
                  17
                  17
                  17
                  17
                  17
                  17
                  17
                  17
                  17
                  17
                  17
                  17
                  17
                  17
                  17
                  17
                  17
                  17
                  17
                  17
                  17
                  17
                  17
                  17
                  17
                  17
                  17
                  17
                  17
                  17
                  17
                  17
                  17
                  17
                  17
                  17
                  17
                  17
                  17
                  17
                  17
                  17
                  17
                  17
                  17
                  17
                  17
                  17
                  17
                  17
                  17
                  17
                  17
                  17
                  17
                  17
                  17
                  17
                  17
                  17
                  17
                  17
                  17
                  17
                  17
                  17
                  17
                  17
                  17
                  17
                  17
                  17
                  17
                  17
                  17
                  17
                  17
                  17
                  17
                  17
                  17
                  17
                  17
                  17
                  17
                  17
                  17
                  17
                  17
                  17
                  17
                  17
                  17
                  17
                  17
                  17
                  17
                  17
                  17
                  17
                  17
                  17
                  17
                  17
                  17
                  17
                  17
                  17
                  17
                  17
                  17
                  17
                  17
                  17
                  17
                  17
                  17
                  17
                  17
                  17
                  17
                  17
                  17
                  17
                  17
                  17
                  17
                  17
                  17
                  17
                  17
                  17
                  17
                  17
                  17
                  17
                  17
                  17
                  17
                  17
                  17
                  17
                  17
                  17
                  17
                  17
                  17
                  17
                  17
                  17
                  17
                  17
                  18
                  18
                  18
                  18
                  18
                  18
                  18
                  18
                  18
                  18
                  18
                  18
                  18
                  18
                  18
                  18
                  18
                  18
                  18
                  18
                  18
                  18
                  18
                  18
                  18
                  18
                  18
                  18
                  18
                  18
                  18
                  18
                  18
                  18
                  18
                  18
                  18
                  18
                  18
                  18
                  18
                  18
                  18
                  18
                  18
                  18
                  18
                  18
                  18
                  18
                  18
                  18
                  18
                  18
                  18
                  18
                  18
                  18
                  18
                  18
                  18
                  18
                  18
                  18
                  18
                  18
                  18
                  18
                  18
                  18
                  18
                  18
                  18
                  18
                  18
                  18
                  18
                  18
                  18
                  18
                  18
                  18
                  18
                  18
                  18
                  18
                  18
                  18
                  18
                  18
                  18
                  18
                  18
                  18
                  18
                  18
                  18
                  18
                  18
                  18
                  18
                  18
                  18
                  18
                  18
                  18
                  18
                  18
                  18
                  18
                  18
                  18
                  18
                  18
                  18
                  18
                  18
                  18
                  18
                  18
                  18
                  18
                  18
                  18
                  18
                  18
                  18
                  18
                  18
                  18
                  18
                  18
                  18
                  18
                  18
                  18
                  18
                  18
                  18
                  18
                  18
                  18
                  18
                  18
                  18
                  18
                  18
                  18
                  18
                  18
                  18
                  18
                  18
                  18
                  18
                  18
  
SCALARS                 displacement_x  double 1
LOOKUP_TABLE default
         0.00000E+00
         0.00000E+00
         0.00000E+00
         0.00000E+00
         0.00000E+00
         0.00000E+00
         0.00000E+00
         0.00000E+00
         0.00000E+00
         0.00000E+00
         0.00000E+00
         0.00000E+00
         0.00000E+00
         0.00000E+00
         0.00000E+00
         0.00000E+00
         0.00000E+00
         0.00000E+00
         0.00000E+00
         0.00000E+00
         0.00000E+00
         0.00000E+00
         0.00000E+00
         0.00000E+00
         0.00000E+00
         0.00000E+00
         0.00000E+00
         0.00000E+00
         0.00000E+00
         0.00000E+00
         0.00000E+00
         0.00000E+00
         0.00000E+00
         0.00000E+00
         0.00000E+00
         0.00000E+00
         0.00000E+00
         0.00000E+00
         0.00000E+00
         0.00000E+00
         0.00000E+00
         0.00000E+00
         0.00000E+00
         0.00000E+00
         0.00000E+00
         0.00000E+00
         0.00000E+00
         0.00000E+00
         0.00000E+00
         0.00000E+00
         0.00000E+00
         0.00000E+00
         0.00000E+00
         0.00000E+00
         0.00000E+00
         0.00000E+00
         0.00000E+00
         0.00000E+00
         0.00000E+00
         0.00000E+00
         0.00000E+00
         0.00000E+00
         0.00000E+00
         0.00000E+00
         0.00000E+00
         0.00000E+00
         0.00000E+00
         0.00000E+00
         0.00000E+00
         0.00000E+00
         0.00000E+00
         0.00000E+00
         0.00000E+00
         0.00000E+00
         0.00000E+00
         0.00000E+00
         0.00000E+00
         0.00000E+00
         0.00000E+00
         0.00000E+00
         0.00000E+00
         0.00000E+00
         0.00000E+00
         0.00000E+00
         0.00000E+00
         0.00000E+00
         0.00000E+00
         0.00000E+00
         0.00000E+00
         0.00000E+00
         0.00000E+00
         0.00000E+00
         0.00000E+00
         0.00000E+00
         0.00000E+00
         0.00000E+00
         0.00000E+00
         0.00000E+00
         0.00000E+00
         0.00000E+00
         0.00000E+00
         0.00000E+00
         0.00000E+00
         0.00000E+00
         0.00000E+00
         0.00000E+00
         0.00000E+00
         0.00000E+00
         0.00000E+00
         0.00000E+00
         0.00000E+00
         0.00000E+00
         0.00000E+00
         0.00000E+00
         0.00000E+00
         0.00000E+00
         0.00000E+00
         0.00000E+00
         0.00000E+00
         0.00000E+00
         0.00000E+00
         0.00000E+00
         0.00000E+00
         0.00000E+00
         0.00000E+00
         0.00000E+00
         0.00000E+00
         0.00000E+00
         0.00000E+00
         0.00000E+00
         0.00000E+00
         0.00000E+00
         0.00000E+00
         0.00000E+00
         0.00000E+00
         0.00000E+00
         0.00000E+00
         0.00000E+00
         0.00000E+00
         0.00000E+00
         0.00000E+00
         0.00000E+00
         0.00000E+00
         0.00000E+00
         0.00000E+00
         0.00000E+00
         0.00000E+00
         0.00000E+00
         0.00000E+00
         0.00000E+00
         0.00000E+00
         0.00000E+00
         0.00000E+00
         0.00000E+00
         0.00000E+00
         0.00000E+00
         0.00000E+00
         0.00000E+00
         0.00000E+00
         0.00000E+00
         0.00000E+00
         0.00000E+00
         0.00000E+00
         0.00000E+00
         0.00000E+00
         0.00000E+00
         0.00000E+00
         0.00000E+00
         0.00000E+00
         0.00000E+00
         0.00000E+00
         0.00000E+00
         0.00000E+00
         0.00000E+00
         0.00000E+00
         0.00000E+00
         0.00000E+00
         0.00000E+00
         0.00000E+00
         0.00000E+00
         0.00000E+00
         0.00000E+00
         0.00000E+00
         0.00000E+00
         0.00000E+00
         0.00000E+00
         0.00000E+00
         0.00000E+00
         0.00000E+00
         0.00000E+00
         0.00000E+00
         0.00000E+00
         0.00000E+00
         0.00000E+00
         0.00000E+00
         0.00000E+00
         0.00000E+00
         0.00000E+00
         0.00000E+00
         0.00000E+00
         0.00000E+00
         0.00000E+00
         0.00000E+00
         0.00000E+00
         0.00000E+00
         0.00000E+00
         0.00000E+00
         0.00000E+00
         0.00000E+00
         0.00000E+00
         0.00000E+00
         0.00000E+00
         0.00000E+00
         0.00000E+00
         0.00000E+00
         0.00000E+00
         0.00000E+00
         0.00000E+00
         0.00000E+00
         0.00000E+00
         0.00000E+00
         0.00000E+00
         0.00000E+00
         0.00000E+00
         0.00000E+00
         0.00000E+00
         0.00000E+00
         0.00000E+00
         0.00000E+00
         0.00000E+00
         0.00000E+00
         0.00000E+00
         0.00000E+00
         0.00000E+00
         0.00000E+00
         0.00000E+00
         0.00000E+00
         0.00000E+00
         0.00000E+00
         0.00000E+00
         0.00000E+00
         0.00000E+00
         0.00000E+00
         0.00000E+00
         0.00000E+00
         0.00000E+00
         0.00000E+00
         0.00000E+00
         0.00000E+00
         0.00000E+00
         0.00000E+00
         0.00000E+00
         0.00000E+00
         0.00000E+00
         0.00000E+00
         0.00000E+00
         0.00000E+00
         0.00000E+00
         0.00000E+00
         0.00000E+00
         0.00000E+00
         0.00000E+00
         0.00000E+00
         0.00000E+00
         0.00000E+00
         0.00000E+00
         0.00000E+00
         0.00000E+00
         0.00000E+00
         0.00000E+00
         0.00000E+00
         0.00000E+00
         0.00000E+00
         0.00000E+00
         0.00000E+00
         0.00000E+00
         0.00000E+00
         0.00000E+00
         0.00000E+00
         0.00000E+00
         0.00000E+00
         0.00000E+00
         0.00000E+00
         0.00000E+00
         0.00000E+00
         0.00000E+00
         0.00000E+00
         0.00000E+00
         0.00000E+00
         0.00000E+00
         0.00000E+00
         0.00000E+00
         0.00000E+00
         0.00000E+00
         0.00000E+00
         0.00000E+00
         0.00000E+00
         0.00000E+00
         0.00000E+00
         0.00000E+00
         0.00000E+00
         0.00000E+00
         0.00000E+00
         0.00000E+00
         0.00000E+00
         0.00000E+00
         0.00000E+00
         0.00000E+00
         0.00000E+00
         0.00000E+00
         0.00000E+00
         0.00000E+00
         0.00000E+00
         0.00000E+00
         0.00000E+00
         0.00000E+00
         0.00000E+00
         0.00000E+00
         0.00000E+00
         0.00000E+00
         0.00000E+00
         0.00000E+00
         0.00000E+00
         0.00000E+00
         0.00000E+00
         0.00000E+00
         0.00000E+00
         0.00000E+00
         0.00000E+00
         0.00000E+00
         0.00000E+00
         0.00000E+00
         0.00000E+00
         0.00000E+00
         0.00000E+00
         0.00000E+00
         0.00000E+00
         0.00000E+00
         0.00000E+00
         0.00000E+00
         0.00000E+00
         0.00000E+00
         0.00000E+00
         0.00000E+00
         0.00000E+00
         0.00000E+00
         0.00000E+00
         0.00000E+00
         0.00000E+00
         0.00000E+00
         0.00000E+00
         0.00000E+00
         0.00000E+00
         0.00000E+00
         0.00000E+00
         0.00000E+00
         0.00000E+00
         0.00000E+00
         0.00000E+00
         0.00000E+00
         0.00000E+00
         0.00000E+00
         0.00000E+00
         0.00000E+00
         0.00000E+00
         0.00000E+00
         0.00000E+00
         0.00000E+00
         0.00000E+00
         0.00000E+00
         0.00000E+00
         0.00000E+00
         0.00000E+00
         0.00000E+00
         0.00000E+00
         0.00000E+00
         0.00000E+00
         0.00000E+00
         0.00000E+00
         0.00000E+00
         0.00000E+00
         0.00000E+00
         0.00000E+00
         0.00000E+00
         0.00000E+00
         0.00000E+00
         0.00000E+00
         0.00000E+00
         0.00000E+00
         0.00000E+00
         0.00000E+00
         0.00000E+00
         0.00000E+00
         0.00000E+00
         0.00000E+00
         0.00000E+00
         0.00000E+00
         0.00000E+00
         0.00000E+00
         0.00000E+00
         0.00000E+00
         0.00000E+00
         0.00000E+00
         0.00000E+00
         0.00000E+00
         0.00000E+00
         0.00000E+00
         0.00000E+00
         0.00000E+00
         0.00000E+00
         0.00000E+00
         0.00000E+00
         0.00000E+00
         0.00000E+00
         0.00000E+00
         0.00000E+00
         0.00000E+00
         0.00000E+00
         0.00000E+00
         0.00000E+00
         0.00000E+00
         0.00000E+00
         0.00000E+00
         0.00000E+00
         0.00000E+00
         0.00000E+00
         0.00000E+00
         0.00000E+00
         0.00000E+00
         0.00000E+00
         0.00000E+00
         0.00000E+00
         0.00000E+00
         0.00000E+00
         0.00000E+00
         0.00000E+00
         0.00000E+00
         0.00000E+00
         0.00000E+00
         0.00000E+00
         0.00000E+00
         0.00000E+00
         0.00000E+00
         0.00000E+00
         0.00000E+00
         0.00000E+00
         0.00000E+00
         0.00000E+00
         0.00000E+00
         0.00000E+00
         0.00000E+00
         0.00000E+00
         0.00000E+00
         0.00000E+00
         0.00000E+00
         0.00000E+00
         0.00000E+00
         0.00000E+00
         0.00000E+00
         0.00000E+00
         0.00000E+00
         0.00000E+00
         0.00000E+00
         0.00000E+00
         0.00000E+00
         0.00000E+00
         0.00000E+00
         0.00000E+00
         0.00000E+00
         0.00000E+00
         0.00000E+00
         0.00000E+00
         0.00000E+00
         0.00000E+00
         0.00000E+00
         0.00000E+00
         0.00000E+00
         0.00000E+00
         0.00000E+00
         0.00000E+00
         0.00000E+00
         0.00000E+00
         0.00000E+00
         0.00000E+00
         0.00000E+00
         0.00000E+00
         0.00000E+00
         0.00000E+00
         0.00000E+00
         0.00000E+00
         0.00000E+00
         0.00000E+00
         0.00000E+00
         0.00000E+00
         0.00000E+00
         0.00000E+00
         0.00000E+00
         0.00000E+00
         0.00000E+00
         0.00000E+00
         0.00000E+00
         0.00000E+00
         0.00000E+00
         0.00000E+00
         0.00000E+00
         0.00000E+00
         0.00000E+00
         0.00000E+00
         0.00000E+00
         0.00000E+00
         0.00000E+00
         0.00000E+00
         0.00000E+00
         0.00000E+00
         0.00000E+00
         0.00000E+00
         0.00000E+00
         0.00000E+00
         0.00000E+00
         0.00000E+00
         0.00000E+00
         0.00000E+00
         0.00000E+00
         0.00000E+00
         0.00000E+00
         0.00000E+00
         0.00000E+00
         0.00000E+00
         0.00000E+00
         0.00000E+00
         0.00000E+00
         0.00000E+00
         0.00000E+00
         0.00000E+00
         0.00000E+00
         0.00000E+00
         0.00000E+00
         0.00000E+00
         0.00000E+00
         0.00000E+00
         0.00000E+00
         0.00000E+00
         0.00000E+00
         0.00000E+00
         0.00000E+00
         0.00000E+00
         0.00000E+00
         0.00000E+00
         0.00000E+00
         0.00000E+00
         0.00000E+00
         0.00000E+00
         0.00000E+00
         0.00000E+00
         0.00000E+00
         0.00000E+00
         0.00000E+00
         0.00000E+00
         0.00000E+00
         0.00000E+00
         0.00000E+00
         0.00000E+00
         0.00000E+00
         0.00000E+00
         0.00000E+00
         0.00000E+00
         0.00000E+00
         0.00000E+00
         0.00000E+00
         0.00000E+00
         0.00000E+00
         0.00000E+00
         0.00000E+00
         0.00000E+00
         0.00000E+00
         0.00000E+00
         0.00000E+00
         0.00000E+00
         0.00000E+00
         0.00000E+00
         0.00000E+00
         0.00000E+00
         0.00000E+00
         0.00000E+00
         0.00000E+00
         0.00000E+00
         0.00000E+00
         0.00000E+00
         0.00000E+00
         0.00000E+00
         0.00000E+00
         0.00000E+00
         0.00000E+00
         0.00000E+00
         0.00000E+00
         0.00000E+00
         0.00000E+00
         0.00000E+00
         0.00000E+00
         0.00000E+00
         0.00000E+00
         0.00000E+00
         0.00000E+00
         0.00000E+00
         0.00000E+00
         0.00000E+00
         0.00000E+00
         0.00000E+00
         0.00000E+00
         0.00000E+00
         0.00000E+00
         0.00000E+00
         0.00000E+00
         0.00000E+00
         0.00000E+00
         0.00000E+00
         0.00000E+00
         0.00000E+00
         0.00000E+00
         0.00000E+00
         0.00000E+00
         0.00000E+00
         0.00000E+00
         0.00000E+00
         0.00000E+00
         0.00000E+00
         0.00000E+00
         0.00000E+00
         0.00000E+00
         0.00000E+00
         0.00000E+00
         0.00000E+00
         0.00000E+00
         0.00000E+00
         0.00000E+00
         0.00000E+00
         0.00000E+00
         0.00000E+00
         0.00000E+00
         0.00000E+00
         0.00000E+00
         0.00000E+00
         0.00000E+00
         0.00000E+00
         0.00000E+00
         0.00000E+00
         0.00000E+00
         0.00000E+00
         0.00000E+00
         0.00000E+00
         0.00000E+00
         0.00000E+00
         0.00000E+00
         0.00000E+00
         0.00000E+00
         0.00000E+00
         0.00000E+00
         0.00000E+00
         0.00000E+00
         0.00000E+00
         0.00000E+00
         0.00000E+00
         0.00000E+00
         0.00000E+00
         0.00000E+00
         0.00000E+00
         0.00000E+00
         0.00000E+00
         0.00000E+00
         0.00000E+00
         0.00000E+00
         0.00000E+00
         0.00000E+00
         0.00000E+00
         0.00000E+00
         0.00000E+00
         0.00000E+00
         0.00000E+00
         0.00000E+00
         0.00000E+00
         0.00000E+00
         0.00000E+00
         0.00000E+00
         0.00000E+00
         0.00000E+00
         0.00000E+00
         0.00000E+00
         0.00000E+00
         0.00000E+00
         0.00000E+00
         0.00000E+00
         0.00000E+00
         0.00000E+00
         0.00000E+00
         0.00000E+00
         0.00000E+00
         0.00000E+00
         0.00000E+00
         0.00000E+00
         0.00000E+00
         0.00000E+00
         0.00000E+00
         0.00000E+00
         0.00000E+00
         0.00000E+00
         0.00000E+00
         0.00000E+00
         0.00000E+00
         0.00000E+00
         0.00000E+00
         0.00000E+00
         0.00000E+00
         0.00000E+00
         0.00000E+00
         0.00000E+00
         0.00000E+00
         0.00000E+00
         0.00000E+00
         0.00000E+00
         0.00000E+00
         0.00000E+00
         0.00000E+00
         0.00000E+00
         0.00000E+00
         0.00000E+00
         0.00000E+00
         0.00000E+00
         0.00000E+00
         0.00000E+00
         0.00000E+00
         0.00000E+00
         0.00000E+00
         0.00000E+00
         0.00000E+00
         0.00000E+00
         0.00000E+00
         0.00000E+00
         0.00000E+00
         0.00000E+00
         0.00000E+00
         0.00000E+00
         0.00000E+00
         0.00000E+00
         0.00000E+00
         0.00000E+00
         0.00000E+00
         0.00000E+00
         0.00000E+00
         0.00000E+00
         0.00000E+00
         0.00000E+00
         0.00000E+00
         0.00000E+00
         0.00000E+00
         0.00000E+00
         0.00000E+00
         0.00000E+00
         0.00000E+00
         0.00000E+00
         0.00000E+00
         0.00000E+00
         0.00000E+00
         0.00000E+00
         0.00000E+00
         0.00000E+00
         0.00000E+00
         0.00000E+00
         0.00000E+00
         0.00000E+00
         0.00000E+00
         0.00000E+00
         0.00000E+00
         0.00000E+00
         0.00000E+00
         0.00000E+00
         0.00000E+00
         0.00000E+00
         0.00000E+00
         0.00000E+00
         0.00000E+00
         0.00000E+00
         0.00000E+00
         0.00000E+00
         0.00000E+00
         0.00000E+00
         0.00000E+00
         0.00000E+00
         0.00000E+00
         0.00000E+00
         0.00000E+00
         0.00000E+00
         0.00000E+00
         0.00000E+00
         0.00000E+00
         0.00000E+00
         0.00000E+00
         0.00000E+00
         0.00000E+00
         0.00000E+00
         0.00000E+00
         0.00000E+00
         0.00000E+00
         0.00000E+00
         0.00000E+00
         0.00000E+00
         0.00000E+00
         0.00000E+00
         0.00000E+00
         0.00000E+00
         0.00000E+00
         0.00000E+00
         0.00000E+00
         0.00000E+00
         0.00000E+00
         0.00000E+00
         0.00000E+00
         0.00000E+00
         0.00000E+00
         0.00000E+00
         0.00000E+00
         0.00000E+00
         0.00000E+00
         0.00000E+00
         0.00000E+00
         0.00000E+00
         0.00000E+00
         0.00000E+00
         0.00000E+00
         0.00000E+00
         0.00000E+00
         0.00000E+00
         0.00000E+00
         0.00000E+00
         0.00000E+00
         0.00000E+00
         0.00000E+00
         0.00000E+00
         0.00000E+00
         0.00000E+00
         0.00000E+00
         0.00000E+00
         0.00000E+00
         0.00000E+00
         0.00000E+00
         0.00000E+00
         0.00000E+00
         0.00000E+00
         0.00000E+00
         0.00000E+00
         0.00000E+00
         0.00000E+00
         0.00000E+00
         0.00000E+00
         0.00000E+00
         0.00000E+00
         0.00000E+00
         0.00000E+00
         0.00000E+00
         0.00000E+00
         0.00000E+00
         0.00000E+00
         0.00000E+00
         0.00000E+00
         0.00000E+00
         0.00000E+00
         0.00000E+00
         0.00000E+00
         0.00000E+00
         0.00000E+00
         0.00000E+00
         0.00000E+00
         0.00000E+00
         0.00000E+00
         0.00000E+00
         0.00000E+00
         0.00000E+00
         0.00000E+00
         0.00000E+00
         0.00000E+00
         0.00000E+00
         0.00000E+00
         0.00000E+00
         0.00000E+00
         0.00000E+00
         0.00000E+00
         0.00000E+00
         0.00000E+00
         0.00000E+00
         0.00000E+00
         0.00000E+00
         0.00000E+00
         0.00000E+00
         0.00000E+00
         0.00000E+00
         0.00000E+00
         0.00000E+00
         0.00000E+00
         0.00000E+00
         0.00000E+00
         0.00000E+00
         0.00000E+00
         0.00000E+00
         0.00000E+00
         0.00000E+00
         0.00000E+00
         0.00000E+00
         0.00000E+00
         0.00000E+00
         0.00000E+00
         0.00000E+00
         0.00000E+00
         0.00000E+00
         0.00000E+00
         0.00000E+00
         0.00000E+00
         0.00000E+00
         0.00000E+00
         0.00000E+00
         0.00000E+00
         0.00000E+00
         0.00000E+00
         0.00000E+00
         0.00000E+00
         0.00000E+00
         0.00000E+00
         0.00000E+00
         0.00000E+00
         0.00000E+00
         0.00000E+00
         0.00000E+00
         0.00000E+00
         0.00000E+00
         0.00000E+00
         0.00000E+00
         0.00000E+00
         0.00000E+00
         0.00000E+00
         0.00000E+00
         0.00000E+00
         0.00000E+00
         0.00000E+00
         0.00000E+00
         0.00000E+00
         0.00000E+00
         0.00000E+00
         0.00000E+00
         0.00000E+00
         0.00000E+00
         0.00000E+00
         0.00000E+00
         0.00000E+00
         0.00000E+00
         0.00000E+00
         0.00000E+00
         0.00000E+00
         0.00000E+00
         0.00000E+00
         0.00000E+00
         0.00000E+00
         0.00000E+00
         0.00000E+00
         0.00000E+00
         0.00000E+00
         0.00000E+00
         0.00000E+00
         0.00000E+00
         0.00000E+00
         0.00000E+00
         0.00000E+00
         0.00000E+00
         0.00000E+00
         0.00000E+00
         0.00000E+00
         0.00000E+00
         0.00000E+00
         0.00000E+00
         0.00000E+00
         0.00000E+00
         0.00000E+00
         0.00000E+00
         0.00000E+00
         0.00000E+00
         0.00000E+00
         0.00000E+00
         0.00000E+00
         0.00000E+00
         0.00000E+00
         0.00000E+00
         0.00000E+00
         0.00000E+00
         0.00000E+00
         0.00000E+00
         0.00000E+00
         0.00000E+00
         0.00000E+00
         0.00000E+00
         0.00000E+00
         0.00000E+00
         0.00000E+00
         0.00000E+00
         0.00000E+00
         0.00000E+00
         0.00000E+00
         0.00000E+00
         0.00000E+00
         0.00000E+00
         0.00000E+00
         0.00000E+00
         0.00000E+00
         0.00000E+00
         0.00000E+00
         0.00000E+00
         0.00000E+00
         0.00000E+00
         0.00000E+00
         0.00000E+00
         0.00000E+00
         0.00000E+00
         0.00000E+00
         0.00000E+00
         0.00000E+00
         0.00000E+00
         0.00000E+00
         0.00000E+00
         0.00000E+00
         0.00000E+00
         0.00000E+00
         0.00000E+00
         0.00000E+00
         0.00000E+00
         0.00000E+00
         0.00000E+00
         0.00000E+00
         0.00000E+00
         0.00000E+00
         0.00000E+00
         0.00000E+00
         0.00000E+00
         0.00000E+00
         0.00000E+00
         0.00000E+00
         0.00000E+00
         0.00000E+00
         0.00000E+00
         0.00000E+00
         0.00000E+00
         0.00000E+00
         0.00000E+00
         0.00000E+00
         0.00000E+00
         0.00000E+00
         0.00000E+00
         0.00000E+00
         0.00000E+00
         0.00000E+00
         0.00000E+00
         0.00000E+00
         0.00000E+00
         0.00000E+00
         0.00000E+00
         0.00000E+00
         0.00000E+00
         0.00000E+00
         0.00000E+00
         0.00000E+00
         0.00000E+00
         0.00000E+00
         0.00000E+00
         0.00000E+00
         0.00000E+00
         0.00000E+00
         0.00000E+00
         0.00000E+00
         0.00000E+00
         0.00000E+00
         0.00000E+00
         0.00000E+00
         0.00000E+00
         0.00000E+00
         0.00000E+00
         0.00000E+00
         0.00000E+00
         0.00000E+00
         0.00000E+00
         0.00000E+00
         0.00000E+00
         0.00000E+00
         0.00000E+00
         0.00000E+00
         0.00000E+00
         0.00000E+00
         0.00000E+00
         0.00000E+00
         0.00000E+00
         0.00000E+00
         0.00000E+00
         0.00000E+00
         0.00000E+00
         0.00000E+00
         0.00000E+00
         0.00000E+00
         0.00000E+00
         0.00000E+00
         0.00000E+00
         0.00000E+00
         0.00000E+00
         0.00000E+00
         0.00000E+00
         0.00000E+00
         0.00000E+00
         0.00000E+00
         0.00000E+00
         0.00000E+00
         0.00000E+00
         0.00000E+00
         0.00000E+00
         0.00000E+00
         0.00000E+00
         0.00000E+00
         0.00000E+00
         0.00000E+00
         0.00000E+00
         0.00000E+00
         0.00000E+00
         0.00000E+00
         0.00000E+00
         0.00000E+00
         0.00000E+00
         0.00000E+00
         0.00000E+00
         0.00000E+00
         0.00000E+00
         0.00000E+00
         0.00000E+00
         0.00000E+00
         0.00000E+00
         0.00000E+00
         0.00000E+00
         0.00000E+00
         0.00000E+00
         0.00000E+00
         0.00000E+00
         0.00000E+00
         0.00000E+00
         0.00000E+00
         0.00000E+00
         0.00000E+00
         0.00000E+00
         0.00000E+00
         0.00000E+00
         0.00000E+00
         0.00000E+00
         0.00000E+00
         0.00000E+00
         0.00000E+00
         0.00000E+00
         0.00000E+00
         0.00000E+00
         0.00000E+00
         0.00000E+00
         0.00000E+00
         0.00000E+00
         0.00000E+00
         0.00000E+00
         0.00000E+00
         0.00000E+00
         0.00000E+00
         0.00000E+00
         0.00000E+00
         0.00000E+00
         0.00000E+00
         0.00000E+00
         0.00000E+00
         0.00000E+00
         0.00000E+00
         0.00000E+00
         0.00000E+00
         0.00000E+00
         0.00000E+00
         0.00000E+00
         0.00000E+00
         0.00000E+00
         0.00000E+00
         0.00000E+00
         0.00000E+00
         0.00000E+00
         0.00000E+00
         0.00000E+00
         0.00000E+00
         0.00000E+00
         0.00000E+00
         0.00000E+00
         0.00000E+00
         0.00000E+00
         0.00000E+00
         0.00000E+00
         0.00000E+00
         0.00000E+00
         0.00000E+00
         0.00000E+00
         0.00000E+00
         0.00000E+00
         0.00000E+00
         0.00000E+00
         0.00000E+00
         0.00000E+00
         0.00000E+00
         0.00000E+00
         0.00000E+00
         0.00000E+00
         0.00000E+00
         0.00000E+00
         0.00000E+00
         0.00000E+00
         0.00000E+00
         0.00000E+00
         0.00000E+00
         0.00000E+00
         0.00000E+00
         0.00000E+00
         0.00000E+00
         0.00000E+00
         0.00000E+00
         0.00000E+00
         0.00000E+00
         0.00000E+00
         0.00000E+00
         0.00000E+00
         0.00000E+00
         0.00000E+00
         0.00000E+00
         0.00000E+00
         0.00000E+00
         0.00000E+00
         0.00000E+00
         0.00000E+00
         0.00000E+00
         0.00000E+00
         0.00000E+00
         0.00000E+00
         0.00000E+00
         0.00000E+00
         0.00000E+00
         0.00000E+00
         0.00000E+00
         0.00000E+00
         0.00000E+00
         0.00000E+00
         0.00000E+00
         0.00000E+00
         0.00000E+00
         0.00000E+00
         0.00000E+00
         0.00000E+00
         0.00000E+00
         0.00000E+00
         0.00000E+00
         0.00000E+00
         0.00000E+00
         0.00000E+00
         0.00000E+00
         0.00000E+00
         0.00000E+00
         0.00000E+00
         0.00000E+00
         0.00000E+00
         0.00000E+00
         0.00000E+00
         0.00000E+00
         0.00000E+00
         0.00000E+00
         0.00000E+00
         0.00000E+00
         0.00000E+00
         0.00000E+00
         0.00000E+00
         0.00000E+00
         0.00000E+00
         0.00000E+00
         0.00000E+00
         0.00000E+00
         0.00000E+00
         0.00000E+00
         0.00000E+00
         0.00000E+00
         0.00000E+00
         0.00000E+00
         0.00000E+00
         0.00000E+00
         0.00000E+00
         0.00000E+00
         0.00000E+00
         0.00000E+00
         0.00000E+00
         0.00000E+00
         0.00000E+00
         0.00000E+00
         0.00000E+00
         0.00000E+00
         0.00000E+00
         0.00000E+00
         0.00000E+00
         0.00000E+00
         0.00000E+00
         0.00000E+00
         0.00000E+00
         0.00000E+00
         0.00000E+00
         0.00000E+00
         0.00000E+00
         0.00000E+00
         0.00000E+00
         0.00000E+00
         0.00000E+00
         0.00000E+00
         0.00000E+00
         0.00000E+00
         0.00000E+00
         0.00000E+00
         0.00000E+00
         0.00000E+00
         0.00000E+00
         0.00000E+00
         0.00000E+00
         0.00000E+00
         0.00000E+00
         0.00000E+00
         0.00000E+00
         0.00000E+00
         0.00000E+00
         0.00000E+00
         0.00000E+00
         0.00000E+00
         0.00000E+00
         0.00000E+00
         0.00000E+00
         0.00000E+00
         0.00000E+00
         0.00000E+00
         0.00000E+00
         0.00000E+00
         0.00000E+00
         0.00000E+00
         0.00000E+00
         0.00000E+00
         0.00000E+00
         0.00000E+00
         0.00000E+00
         0.00000E+00
         0.00000E+00
         0.00000E+00
         0.00000E+00
         0.00000E+00
         0.00000E+00
         0.00000E+00
         0.00000E+00
         0.00000E+00
         0.00000E+00
         0.00000E+00
         0.00000E+00
         0.00000E+00
         0.00000E+00
         0.00000E+00
         0.00000E+00
         0.00000E+00
         0.00000E+00
         0.00000E+00
         0.00000E+00
         0.00000E+00
         0.00000E+00
         0.00000E+00
         0.00000E+00
         0.00000E+00
         0.00000E+00
         0.00000E+00
         0.00000E+00
         0.00000E+00
         0.00000E+00
         0.00000E+00
         0.00000E+00
         0.00000E+00
         0.00000E+00
         0.00000E+00
         0.00000E+00
         0.00000E+00
         0.00000E+00
         0.00000E+00
         0.00000E+00
         0.00000E+00
         0.00000E+00
         0.00000E+00
         0.00000E+00
         0.00000E+00
         0.00000E+00
         0.00000E+00
         0.00000E+00
         0.00000E+00
         0.00000E+00
         0.00000E+00
         0.00000E+00
         0.00000E+00
         0.00000E+00
         0.00000E+00
         0.00000E+00
         0.00000E+00
         0.00000E+00
         0.00000E+00
         0.00000E+00
         0.00000E+00
         0.00000E+00
         0.00000E+00
         0.00000E+00
         0.00000E+00
         0.00000E+00
         0.00000E+00
         0.00000E+00
         0.00000E+00
         0.00000E+00
         0.00000E+00
         0.00000E+00
         0.00000E+00
         0.00000E+00
         0.00000E+00
         0.00000E+00
         0.00000E+00
         0.00000E+00
         0.00000E+00
         0.00000E+00
         0.00000E+00
         0.00000E+00
         0.00000E+00
         0.00000E+00
         0.00000E+00
         0.00000E+00
         0.00000E+00
         0.00000E+00
         0.00000E+00
         0.00000E+00
         0.00000E+00
         0.00000E+00
         0.00000E+00
         0.00000E+00
         0.00000E+00
         0.00000E+00
         0.00000E+00
         0.00000E+00
         0.00000E+00
         0.00000E+00
         0.00000E+00
         0.00000E+00
         0.00000E+00
         0.00000E+00
         0.00000E+00
         0.00000E+00
         0.00000E+00
         0.00000E+00
         0.00000E+00
         0.00000E+00
         0.00000E+00
         0.00000E+00
         0.00000E+00
         0.00000E+00
         0.00000E+00
         0.00000E+00
         0.00000E+00
         0.00000E+00
         0.00000E+00
         0.00000E+00
         0.00000E+00
         0.00000E+00
         0.00000E+00
         0.00000E+00
         0.00000E+00
         0.00000E+00
         0.00000E+00
         0.00000E+00
         0.00000E+00
         0.00000E+00
         0.00000E+00
         0.00000E+00
         0.00000E+00
         0.00000E+00
         0.00000E+00
         0.00000E+00
         0.00000E+00
         0.00000E+00
         0.00000E+00
         0.00000E+00
         0.00000E+00
         0.00000E+00
         0.00000E+00
         0.00000E+00
         0.00000E+00
         0.00000E+00
         0.00000E+00
         0.00000E+00
         0.00000E+00
         0.00000E+00
         0.00000E+00
         0.00000E+00
         0.00000E+00
         0.00000E+00
         0.00000E+00
         0.00000E+00
         0.00000E+00
         0.00000E+00
         0.00000E+00
         0.00000E+00
         0.00000E+00
         0.00000E+00
         0.00000E+00
         0.00000E+00
         0.00000E+00
         0.00000E+00
         0.00000E+00
         0.00000E+00
         0.00000E+00
         0.00000E+00
         0.00000E+00
         0.00000E+00
         0.00000E+00
         0.00000E+00
         0.00000E+00
         0.00000E+00
         0.00000E+00
         0.00000E+00
         0.00000E+00
         0.00000E+00
         0.00000E+00
         0.00000E+00
         0.00000E+00
         0.00000E+00
         0.00000E+00
         0.00000E+00
         0.00000E+00
         0.00000E+00
         0.00000E+00
         0.00000E+00
         0.00000E+00
         0.00000E+00
         0.00000E+00
         0.00000E+00
         0.00000E+00
         0.00000E+00
         0.00000E+00
         0.00000E+00
         0.00000E+00
         0.00000E+00
         0.00000E+00
         0.00000E+00
         0.00000E+00
         0.00000E+00
         0.00000E+00
         0.00000E+00
         0.00000E+00
         0.00000E+00
         0.00000E+00
         0.00000E+00
         0.00000E+00
         0.00000E+00
         0.00000E+00
         0.00000E+00
         0.00000E+00
         0.00000E+00
         0.00000E+00
         0.00000E+00
         0.00000E+00
         0.00000E+00
         0.00000E+00
         0.00000E+00
         0.00000E+00
         0.00000E+00
         0.00000E+00
         0.00000E+00
         0.00000E+00
         0.00000E+00
         0.00000E+00
         0.00000E+00
         0.00000E+00
         0.00000E+00
         0.00000E+00
         0.00000E+00
         0.00000E+00
         0.00000E+00
         0.00000E+00
         0.00000E+00
         0.00000E+00
         0.00000E+00
         0.00000E+00
         0.00000E+00
         0.00000E+00
         0.00000E+00
         0.00000E+00
         0.00000E+00
         0.00000E+00
         0.00000E+00
         0.00000E+00
         0.00000E+00
         0.00000E+00
         0.00000E+00
         0.00000E+00
         0.00000E+00
         0.00000E+00
         0.00000E+00
         0.00000E+00
         0.00000E+00
         0.00000E+00
         0.00000E+00
         0.00000E+00
         0.00000E+00
         0.00000E+00
         0.00000E+00
         0.00000E+00
         0.00000E+00
         0.00000E+00
         0.00000E+00
         0.00000E+00
         0.00000E+00
         0.00000E+00
         0.00000E+00
         0.00000E+00
         0.00000E+00
         0.00000E+00
         0.00000E+00
         0.00000E+00
         0.00000E+00
         0.00000E+00
         0.00000E+00
         0.00000E+00
         0.00000E+00
         0.00000E+00
         0.00000E+00
         0.00000E+00
         0.00000E+00
         0.00000E+00
         0.00000E+00
         0.00000E+00
         0.00000E+00
         0.00000E+00
         0.00000E+00
         0.00000E+00
         0.00000E+00
         0.00000E+00
         0.00000E+00
         0.00000E+00
         0.00000E+00
         0.00000E+00
         0.00000E+00
         0.00000E+00
         0.00000E+00
         0.00000E+00
         0.00000E+00
         0.00000E+00
         0.00000E+00
         0.00000E+00
         0.00000E+00
         0.00000E+00
         0.00000E+00
         0.00000E+00
         0.00000E+00
         0.00000E+00
         0.00000E+00
         0.00000E+00
         0.00000E+00
         0.00000E+00
         0.00000E+00
         0.00000E+00
         0.00000E+00
         0.00000E+00
         0.00000E+00
         0.00000E+00
         0.00000E+00
         0.00000E+00
         0.00000E+00
         0.00000E+00
         0.00000E+00
         0.00000E+00
         0.00000E+00
         0.00000E+00
         0.00000E+00
         0.00000E+00
         0.00000E+00
         0.00000E+00
         0.00000E+00
         0.00000E+00
         0.00000E+00
         0.00000E+00
         0.00000E+00
         0.00000E+00
         0.00000E+00
         0.00000E+00
         0.00000E+00
         0.00000E+00
         0.00000E+00
         0.00000E+00
         0.00000E+00
         0.00000E+00
         0.00000E+00
         0.00000E+00
         0.00000E+00
         0.00000E+00
         0.00000E+00
         0.00000E+00
         0.00000E+00
         0.00000E+00
         0.00000E+00
         0.00000E+00
         0.00000E+00
         0.00000E+00
         0.00000E+00
         0.00000E+00
         0.00000E+00
         0.00000E+00
         0.00000E+00
         0.00000E+00
         0.00000E+00
         0.00000E+00
         0.00000E+00
         0.00000E+00
         0.00000E+00
         0.00000E+00
         0.00000E+00
         0.00000E+00
         0.00000E+00
         0.00000E+00
         0.00000E+00
         0.00000E+00
         0.00000E+00
         0.00000E+00
         0.00000E+00
         0.00000E+00
         0.00000E+00
         0.00000E+00
         0.00000E+00
         0.00000E+00
         0.00000E+00
         0.00000E+00
         0.00000E+00
         0.00000E+00
         0.00000E+00
         0.00000E+00
         0.00000E+00
         0.00000E+00
         0.00000E+00
         0.00000E+00
         0.00000E+00
         0.00000E+00
         0.00000E+00
         0.00000E+00
         0.00000E+00
         0.00000E+00
         0.00000E+00
         0.00000E+00
         0.00000E+00
         0.00000E+00
         0.00000E+00
         0.00000E+00
         0.00000E+00
         0.00000E+00
         0.00000E+00
         0.00000E+00
         0.00000E+00
         0.00000E+00
         0.00000E+00
         0.00000E+00
         0.00000E+00
         0.00000E+00
         0.00000E+00
         0.00000E+00
         0.00000E+00
         0.00000E+00
         0.00000E+00
         0.00000E+00
         0.00000E+00
         0.00000E+00
         0.00000E+00
         0.00000E+00
         0.00000E+00
         0.00000E+00
         0.00000E+00
         0.00000E+00
         0.00000E+00
         0.00000E+00
         0.00000E+00
         0.00000E+00
         0.00000E+00
         0.00000E+00
         0.00000E+00
         0.00000E+00
         0.00000E+00
         0.00000E+00
         0.00000E+00
         0.00000E+00
         0.00000E+00
         0.00000E+00
         0.00000E+00
         0.00000E+00
         0.00000E+00
         0.00000E+00
         0.00000E+00
         0.00000E+00
         0.00000E+00
         0.00000E+00
         0.00000E+00
         0.00000E+00
         0.00000E+00
         0.00000E+00
         0.00000E+00
         0.00000E+00
         0.00000E+00
         0.00000E+00
         0.00000E+00
         0.00000E+00
         0.00000E+00
         0.00000E+00
         0.00000E+00
         0.00000E+00
         0.00000E+00
         0.00000E+00
         0.00000E+00
         0.00000E+00
         0.00000E+00
         0.00000E+00
         0.00000E+00
         0.00000E+00
         0.00000E+00
         0.00000E+00
         0.00000E+00
         0.00000E+00
         0.00000E+00
         0.00000E+00
         0.00000E+00
         0.00000E+00
         0.00000E+00
         0.00000E+00
         0.00000E+00
         0.00000E+00
         0.00000E+00
         0.00000E+00
         0.00000E+00
         0.00000E+00
         0.00000E+00
         0.00000E+00
         0.00000E+00
         0.00000E+00
         0.00000E+00
         0.00000E+00
         0.00000E+00
         0.00000E+00
         0.00000E+00
         0.00000E+00
         0.00000E+00
         0.00000E+00
         0.00000E+00
         0.00000E+00
         0.00000E+00
         0.00000E+00
         0.00000E+00
         0.00000E+00
         0.00000E+00
         0.00000E+00
         0.00000E+00
         0.00000E+00
         0.00000E+00
         0.00000E+00
         0.00000E+00
         0.00000E+00
         0.00000E+00
         0.00000E+00
         0.00000E+00
         0.00000E+00
         0.00000E+00
         0.00000E+00
         0.00000E+00
         0.00000E+00
         0.00000E+00
         0.00000E+00
         0.00000E+00
         0.00000E+00
         0.00000E+00
         0.00000E+00
         0.00000E+00
         0.00000E+00
         0.00000E+00
         0.00000E+00
         0.00000E+00
         0.00000E+00
         0.00000E+00
         0.00000E+00
         0.00000E+00
         0.00000E+00
         0.00000E+00
         0.00000E+00
         0.00000E+00
         0.00000E+00
         0.00000E+00
         0.00000E+00
         0.00000E+00
         0.00000E+00
         0.00000E+00
         0.00000E+00
         0.00000E+00
         0.00000E+00
         0.00000E+00
         0.00000E+00
         0.00000E+00
         0.00000E+00
         0.00000E+00
         0.00000E+00
         0.00000E+00
         0.00000E+00
         0.00000E+00
         0.00000E+00
         0.00000E+00
         0.00000E+00
         0.00000E+00
         0.00000E+00
         0.00000E+00
         0.00000E+00
         0.00000E+00
         0.00000E+00
         0.00000E+00
         0.00000E+00
         0.00000E+00
         0.00000E+00
         0.00000E+00
         0.00000E+00
         0.00000E+00
         0.00000E+00
         0.00000E+00
         0.00000E+00
         0.00000E+00
         0.00000E+00
         0.00000E+00
         0.00000E+00
         0.00000E+00
         0.00000E+00
         0.00000E+00
         0.00000E+00
         0.00000E+00
         0.00000E+00
         0.00000E+00
         0.00000E+00
         0.00000E+00
         0.00000E+00
         0.00000E+00
         0.00000E+00
         0.00000E+00
         0.00000E+00
         0.00000E+00
  
SCALARS                 displacement_y  double 1
LOOKUP_TABLE default
         0.00000E+00
         0.00000E+00
         0.00000E+00
         0.00000E+00
         0.00000E+00
         0.00000E+00
         0.00000E+00
         0.00000E+00
         0.00000E+00
         0.00000E+00
         0.00000E+00
         0.00000E+00
         0.00000E+00
         0.00000E+00
         0.00000E+00
         0.00000E+00
         0.00000E+00
         0.00000E+00
         0.00000E+00
         0.00000E+00
         0.00000E+00
         0.00000E+00
         0.00000E+00
         0.00000E+00
         0.00000E+00
         0.00000E+00
         0.00000E+00
         0.00000E+00
         0.00000E+00
         0.00000E+00
         0.00000E+00
         0.00000E+00
         0.00000E+00
         0.00000E+00
         0.00000E+00
         0.00000E+00
         0.00000E+00
         0.00000E+00
         0.00000E+00
         0.00000E+00
         0.00000E+00
         0.00000E+00
         0.00000E+00
         0.00000E+00
         0.00000E+00
         0.00000E+00
         0.00000E+00
         0.00000E+00
         0.00000E+00
         0.00000E+00
         0.00000E+00
         0.00000E+00
         0.00000E+00
         0.00000E+00
         0.00000E+00
         0.00000E+00
         0.00000E+00
         0.00000E+00
         0.00000E+00
         0.00000E+00
         0.00000E+00
         0.00000E+00
         0.00000E+00
         0.00000E+00
         0.00000E+00
         0.00000E+00
         0.00000E+00
         0.00000E+00
         0.00000E+00
         0.00000E+00
         0.00000E+00
         0.00000E+00
         0.00000E+00
         0.00000E+00
         0.00000E+00
         0.00000E+00
         0.00000E+00
         0.00000E+00
         0.00000E+00
         0.00000E+00
         0.00000E+00
         0.00000E+00
         0.00000E+00
         0.00000E+00
         0.00000E+00
         0.00000E+00
         0.00000E+00
         0.00000E+00
         0.00000E+00
         0.00000E+00
         0.00000E+00
         0.00000E+00
         0.00000E+00
         0.00000E+00
         0.00000E+00
         0.00000E+00
         0.00000E+00
         0.00000E+00
         0.00000E+00
         0.00000E+00
         0.00000E+00
         0.00000E+00
         0.00000E+00
         0.00000E+00
         0.00000E+00
         0.00000E+00
         0.00000E+00
         0.00000E+00
         0.00000E+00
         0.00000E+00
         0.00000E+00
         0.00000E+00
         0.00000E+00
         0.00000E+00
         0.00000E+00
         0.00000E+00
         0.00000E+00
         0.00000E+00
         0.00000E+00
         0.00000E+00
         0.00000E+00
         0.00000E+00
         0.00000E+00
         0.00000E+00
         0.00000E+00
         0.00000E+00
         0.00000E+00
         0.00000E+00
         0.00000E+00
         0.00000E+00
         0.00000E+00
         0.00000E+00
         0.00000E+00
         0.00000E+00
         0.00000E+00
         0.00000E+00
         0.00000E+00
         0.00000E+00
         0.00000E+00
         0.00000E+00
         0.00000E+00
         0.00000E+00
         0.00000E+00
         0.00000E+00
         0.00000E+00
         0.00000E+00
         0.00000E+00
         0.00000E+00
         0.00000E+00
         0.00000E+00
         0.00000E+00
         0.00000E+00
         0.00000E+00
         0.00000E+00
         0.00000E+00
         0.00000E+00
         0.00000E+00
         0.00000E+00
         0.00000E+00
         0.00000E+00
         0.00000E+00
         0.00000E+00
         0.00000E+00
         0.00000E+00
         0.00000E+00
         0.00000E+00
         0.00000E+00
         0.00000E+00
         0.00000E+00
         0.00000E+00
         0.00000E+00
         0.00000E+00
         0.00000E+00
         0.00000E+00
         0.00000E+00
         0.00000E+00
         0.00000E+00
         0.00000E+00
         0.00000E+00
         0.00000E+00
         0.00000E+00
         0.00000E+00
         0.00000E+00
         0.00000E+00
         0.00000E+00
         0.00000E+00
         0.00000E+00
         0.00000E+00
         0.00000E+00
         0.00000E+00
         0.00000E+00
         0.00000E+00
         0.00000E+00
         0.00000E+00
         0.00000E+00
         0.00000E+00
         0.00000E+00
         0.00000E+00
         0.00000E+00
         0.00000E+00
         0.00000E+00
         0.00000E+00
         0.00000E+00
         0.00000E+00
         0.00000E+00
         0.00000E+00
         0.00000E+00
         0.00000E+00
         0.00000E+00
         0.00000E+00
         0.00000E+00
         0.00000E+00
         0.00000E+00
         0.00000E+00
         0.00000E+00
         0.00000E+00
         0.00000E+00
         0.00000E+00
         0.00000E+00
         0.00000E+00
         0.00000E+00
         0.00000E+00
         0.00000E+00
         0.00000E+00
         0.00000E+00
         0.00000E+00
         0.00000E+00
         0.00000E+00
         0.00000E+00
         0.00000E+00
         0.00000E+00
         0.00000E+00
         0.00000E+00
         0.00000E+00
         0.00000E+00
         0.00000E+00
         0.00000E+00
         0.00000E+00
         0.00000E+00
         0.00000E+00
         0.00000E+00
         0.00000E+00
         0.00000E+00
         0.00000E+00
         0.00000E+00
         0.00000E+00
         0.00000E+00
         0.00000E+00
         0.00000E+00
         0.00000E+00
         0.00000E+00
         0.00000E+00
         0.00000E+00
         0.00000E+00
         0.00000E+00
         0.00000E+00
         0.00000E+00
         0.00000E+00
         0.00000E+00
         0.00000E+00
         0.00000E+00
         0.00000E+00
         0.00000E+00
         0.00000E+00
         0.00000E+00
         0.00000E+00
         0.00000E+00
         0.00000E+00
         0.00000E+00
         0.00000E+00
         0.00000E+00
         0.00000E+00
         0.00000E+00
         0.00000E+00
         0.00000E+00
         0.00000E+00
         0.00000E+00
         0.00000E+00
         0.00000E+00
         0.00000E+00
         0.00000E+00
         0.00000E+00
         0.00000E+00
         0.00000E+00
         0.00000E+00
         0.00000E+00
         0.00000E+00
         0.00000E+00
         0.00000E+00
         0.00000E+00
         0.00000E+00
         0.00000E+00
         0.00000E+00
         0.00000E+00
         0.00000E+00
         0.00000E+00
         0.00000E+00
         0.00000E+00
         0.00000E+00
         0.00000E+00
         0.00000E+00
         0.00000E+00
         0.00000E+00
         0.00000E+00
         0.00000E+00
         0.00000E+00
         0.00000E+00
         0.00000E+00
         0.00000E+00
         0.00000E+00
         0.00000E+00
         0.00000E+00
         0.00000E+00
         0.00000E+00
         0.00000E+00
         0.00000E+00
         0.00000E+00
         0.00000E+00
         0.00000E+00
         0.00000E+00
         0.00000E+00
         0.00000E+00
         0.00000E+00
         0.00000E+00
         0.00000E+00
         0.00000E+00
         0.00000E+00
         0.00000E+00
         0.00000E+00
         0.00000E+00
         0.00000E+00
         0.00000E+00
         0.00000E+00
         0.00000E+00
         0.00000E+00
         0.00000E+00
         0.00000E+00
         0.00000E+00
         0.00000E+00
         0.00000E+00
         0.00000E+00
         0.00000E+00
         0.00000E+00
         0.00000E+00
         0.00000E+00
         0.00000E+00
         0.00000E+00
         0.00000E+00
         0.00000E+00
         0.00000E+00
         0.00000E+00
         0.00000E+00
         0.00000E+00
         0.00000E+00
         0.00000E+00
         0.00000E+00
         0.00000E+00
         0.00000E+00
         0.00000E+00
         0.00000E+00
         0.00000E+00
         0.00000E+00
         0.00000E+00
         0.00000E+00
         0.00000E+00
         0.00000E+00
         0.00000E+00
         0.00000E+00
         0.00000E+00
         0.00000E+00
         0.00000E+00
         0.00000E+00
         0.00000E+00
         0.00000E+00
         0.00000E+00
         0.00000E+00
         0.00000E+00
         0.00000E+00
         0.00000E+00
         0.00000E+00
         0.00000E+00
         0.00000E+00
         0.00000E+00
         0.00000E+00
         0.00000E+00
         0.00000E+00
         0.00000E+00
         0.00000E+00
         0.00000E+00
         0.00000E+00
         0.00000E+00
         0.00000E+00
         0.00000E+00
         0.00000E+00
         0.00000E+00
         0.00000E+00
         0.00000E+00
         0.00000E+00
         0.00000E+00
         0.00000E+00
         0.00000E+00
         0.00000E+00
         0.00000E+00
         0.00000E+00
         0.00000E+00
         0.00000E+00
         0.00000E+00
         0.00000E+00
         0.00000E+00
         0.00000E+00
         0.00000E+00
         0.00000E+00
         0.00000E+00
         0.00000E+00
         0.00000E+00
         0.00000E+00
         0.00000E+00
         0.00000E+00
         0.00000E+00
         0.00000E+00
         0.00000E+00
         0.00000E+00
         0.00000E+00
         0.00000E+00
         0.00000E+00
         0.00000E+00
         0.00000E+00
         0.00000E+00
         0.00000E+00
         0.00000E+00
         0.00000E+00
         0.00000E+00
         0.00000E+00
         0.00000E+00
         0.00000E+00
         0.00000E+00
         0.00000E+00
         0.00000E+00
         0.00000E+00
         0.00000E+00
         0.00000E+00
         0.00000E+00
         0.00000E+00
         0.00000E+00
         0.00000E+00
         0.00000E+00
         0.00000E+00
         0.00000E+00
         0.00000E+00
         0.00000E+00
         0.00000E+00
         0.00000E+00
         0.00000E+00
         0.00000E+00
         0.00000E+00
         0.00000E+00
         0.00000E+00
         0.00000E+00
         0.00000E+00
         0.00000E+00
         0.00000E+00
         0.00000E+00
         0.00000E+00
         0.00000E+00
         0.00000E+00
         0.00000E+00
         0.00000E+00
         0.00000E+00
         0.00000E+00
         0.00000E+00
         0.00000E+00
         0.00000E+00
         0.00000E+00
         0.00000E+00
         0.00000E+00
         0.00000E+00
         0.00000E+00
         0.00000E+00
         0.00000E+00
         0.00000E+00
         0.00000E+00
         0.00000E+00
         0.00000E+00
         0.00000E+00
         0.00000E+00
         0.00000E+00
         0.00000E+00
         0.00000E+00
         0.00000E+00
         0.00000E+00
         0.00000E+00
         0.00000E+00
         0.00000E+00
         0.00000E+00
         0.00000E+00
         0.00000E+00
         0.00000E+00
         0.00000E+00
         0.00000E+00
         0.00000E+00
         0.00000E+00
         0.00000E+00
         0.00000E+00
         0.00000E+00
         0.00000E+00
         0.00000E+00
         0.00000E+00
         0.00000E+00
         0.00000E+00
         0.00000E+00
         0.00000E+00
         0.00000E+00
         0.00000E+00
         0.00000E+00
         0.00000E+00
         0.00000E+00
         0.00000E+00
         0.00000E+00
         0.00000E+00
         0.00000E+00
         0.00000E+00
         0.00000E+00
         0.00000E+00
         0.00000E+00
         0.00000E+00
         0.00000E+00
         0.00000E+00
         0.00000E+00
         0.00000E+00
         0.00000E+00
         0.00000E+00
         0.00000E+00
         0.00000E+00
         0.00000E+00
         0.00000E+00
         0.00000E+00
         0.00000E+00
         0.00000E+00
         0.00000E+00
         0.00000E+00
         0.00000E+00
         0.00000E+00
         0.00000E+00
         0.00000E+00
         0.00000E+00
         0.00000E+00
         0.00000E+00
         0.00000E+00
         0.00000E+00
         0.00000E+00
         0.00000E+00
         0.00000E+00
         0.00000E+00
         0.00000E+00
         0.00000E+00
         0.00000E+00
         0.00000E+00
         0.00000E+00
         0.00000E+00
         0.00000E+00
         0.00000E+00
         0.00000E+00
         0.00000E+00
         0.00000E+00
         0.00000E+00
         0.00000E+00
         0.00000E+00
         0.00000E+00
         0.00000E+00
         0.00000E+00
         0.00000E+00
         0.00000E+00
         0.00000E+00
         0.00000E+00
         0.00000E+00
         0.00000E+00
         0.00000E+00
         0.00000E+00
         0.00000E+00
         0.00000E+00
         0.00000E+00
         0.00000E+00
         0.00000E+00
         0.00000E+00
         0.00000E+00
         0.00000E+00
         0.00000E+00
         0.00000E+00
         0.00000E+00
         0.00000E+00
         0.00000E+00
         0.00000E+00
         0.00000E+00
         0.00000E+00
         0.00000E+00
         0.00000E+00
         0.00000E+00
         0.00000E+00
         0.00000E+00
         0.00000E+00
         0.00000E+00
         0.00000E+00
         0.00000E+00
         0.00000E+00
         0.00000E+00
         0.00000E+00
         0.00000E+00
         0.00000E+00
         0.00000E+00
         0.00000E+00
         0.00000E+00
         0.00000E+00
         0.00000E+00
         0.00000E+00
         0.00000E+00
         0.00000E+00
         0.00000E+00
         0.00000E+00
         0.00000E+00
         0.00000E+00
         0.00000E+00
         0.00000E+00
         0.00000E+00
         0.00000E+00
         0.00000E+00
         0.00000E+00
         0.00000E+00
         0.00000E+00
         0.00000E+00
         0.00000E+00
         0.00000E+00
         0.00000E+00
         0.00000E+00
         0.00000E+00
         0.00000E+00
         0.00000E+00
         0.00000E+00
         0.00000E+00
         0.00000E+00
         0.00000E+00
         0.00000E+00
         0.00000E+00
         0.00000E+00
         0.00000E+00
         0.00000E+00
         0.00000E+00
         0.00000E+00
         0.00000E+00
         0.00000E+00
         0.00000E+00
         0.00000E+00
         0.00000E+00
         0.00000E+00
         0.00000E+00
         0.00000E+00
         0.00000E+00
         0.00000E+00
         0.00000E+00
         0.00000E+00
         0.00000E+00
         0.00000E+00
         0.00000E+00
         0.00000E+00
         0.00000E+00
         0.00000E+00
         0.00000E+00
         0.00000E+00
         0.00000E+00
         0.00000E+00
         0.00000E+00
         0.00000E+00
         0.00000E+00
         0.00000E+00
         0.00000E+00
         0.00000E+00
         0.00000E+00
         0.00000E+00
         0.00000E+00
         0.00000E+00
         0.00000E+00
         0.00000E+00
         0.00000E+00
         0.00000E+00
         0.00000E+00
         0.00000E+00
         0.00000E+00
         0.00000E+00
         0.00000E+00
         0.00000E+00
         0.00000E+00
         0.00000E+00
         0.00000E+00
         0.00000E+00
         0.00000E+00
         0.00000E+00
         0.00000E+00
         0.00000E+00
         0.00000E+00
         0.00000E+00
         0.00000E+00
         0.00000E+00
         0.00000E+00
         0.00000E+00
         0.00000E+00
         0.00000E+00
         0.00000E+00
         0.00000E+00
         0.00000E+00
         0.00000E+00
         0.00000E+00
         0.00000E+00
         0.00000E+00
         0.00000E+00
         0.00000E+00
         0.00000E+00
         0.00000E+00
         0.00000E+00
         0.00000E+00
         0.00000E+00
         0.00000E+00
         0.00000E+00
         0.00000E+00
         0.00000E+00
         0.00000E+00
         0.00000E+00
         0.00000E+00
         0.00000E+00
         0.00000E+00
         0.00000E+00
         0.00000E+00
         0.00000E+00
         0.00000E+00
         0.00000E+00
         0.00000E+00
         0.00000E+00
         0.00000E+00
         0.00000E+00
         0.00000E+00
         0.00000E+00
         0.00000E+00
         0.00000E+00
         0.00000E+00
         0.00000E+00
         0.00000E+00
         0.00000E+00
         0.00000E+00
         0.00000E+00
         0.00000E+00
         0.00000E+00
         0.00000E+00
         0.00000E+00
         0.00000E+00
         0.00000E+00
         0.00000E+00
         0.00000E+00
         0.00000E+00
         0.00000E+00
         0.00000E+00
         0.00000E+00
         0.00000E+00
         0.00000E+00
         0.00000E+00
         0.00000E+00
         0.00000E+00
         0.00000E+00
         0.00000E+00
         0.00000E+00
         0.00000E+00
         0.00000E+00
         0.00000E+00
         0.00000E+00
         0.00000E+00
         0.00000E+00
         0.00000E+00
         0.00000E+00
         0.00000E+00
         0.00000E+00
         0.00000E+00
         0.00000E+00
         0.00000E+00
         0.00000E+00
         0.00000E+00
         0.00000E+00
         0.00000E+00
         0.00000E+00
         0.00000E+00
         0.00000E+00
         0.00000E+00
         0.00000E+00
         0.00000E+00
         0.00000E+00
         0.00000E+00
         0.00000E+00
         0.00000E+00
         0.00000E+00
         0.00000E+00
         0.00000E+00
         0.00000E+00
         0.00000E+00
         0.00000E+00
         0.00000E+00
         0.00000E+00
         0.00000E+00
         0.00000E+00
         0.00000E+00
         0.00000E+00
         0.00000E+00
         0.00000E+00
         0.00000E+00
         0.00000E+00
         0.00000E+00
         0.00000E+00
         0.00000E+00
         0.00000E+00
         0.00000E+00
         0.00000E+00
         0.00000E+00
         0.00000E+00
         0.00000E+00
         0.00000E+00
         0.00000E+00
         0.00000E+00
         0.00000E+00
         0.00000E+00
         0.00000E+00
         0.00000E+00
         0.00000E+00
         0.00000E+00
         0.00000E+00
         0.00000E+00
         0.00000E+00
         0.00000E+00
         0.00000E+00
         0.00000E+00
         0.00000E+00
         0.00000E+00
         0.00000E+00
         0.00000E+00
         0.00000E+00
         0.00000E+00
         0.00000E+00
         0.00000E+00
         0.00000E+00
         0.00000E+00
         0.00000E+00
         0.00000E+00
         0.00000E+00
         0.00000E+00
         0.00000E+00
         0.00000E+00
         0.00000E+00
         0.00000E+00
         0.00000E+00
         0.00000E+00
         0.00000E+00
         0.00000E+00
         0.00000E+00
         0.00000E+00
         0.00000E+00
         0.00000E+00
         0.00000E+00
         0.00000E+00
         0.00000E+00
         0.00000E+00
         0.00000E+00
         0.00000E+00
         0.00000E+00
         0.00000E+00
         0.00000E+00
         0.00000E+00
         0.00000E+00
         0.00000E+00
         0.00000E+00
         0.00000E+00
         0.00000E+00
         0.00000E+00
         0.00000E+00
         0.00000E+00
         0.00000E+00
         0.00000E+00
         0.00000E+00
         0.00000E+00
         0.00000E+00
         0.00000E+00
         0.00000E+00
         0.00000E+00
         0.00000E+00
         0.00000E+00
         0.00000E+00
         0.00000E+00
         0.00000E+00
         0.00000E+00
         0.00000E+00
         0.00000E+00
         0.00000E+00
         0.00000E+00
         0.00000E+00
         0.00000E+00
         0.00000E+00
         0.00000E+00
         0.00000E+00
         0.00000E+00
         0.00000E+00
         0.00000E+00
         0.00000E+00
         0.00000E+00
         0.00000E+00
         0.00000E+00
         0.00000E+00
         0.00000E+00
         0.00000E+00
         0.00000E+00
         0.00000E+00
         0.00000E+00
         0.00000E+00
         0.00000E+00
         0.00000E+00
         0.00000E+00
         0.00000E+00
         0.00000E+00
         0.00000E+00
         0.00000E+00
         0.00000E+00
         0.00000E+00
         0.00000E+00
         0.00000E+00
         0.00000E+00
         0.00000E+00
         0.00000E+00
         0.00000E+00
         0.00000E+00
         0.00000E+00
         0.00000E+00
         0.00000E+00
         0.00000E+00
         0.00000E+00
         0.00000E+00
         0.00000E+00
         0.00000E+00
         0.00000E+00
         0.00000E+00
         0.00000E+00
         0.00000E+00
         0.00000E+00
         0.00000E+00
         0.00000E+00
         0.00000E+00
         0.00000E+00
         0.00000E+00
         0.00000E+00
         0.00000E+00
         0.00000E+00
         0.00000E+00
         0.00000E+00
         0.00000E+00
         0.00000E+00
         0.00000E+00
         0.00000E+00
         0.00000E+00
         0.00000E+00
         0.00000E+00
         0.00000E+00
         0.00000E+00
         0.00000E+00
         0.00000E+00
         0.00000E+00
         0.00000E+00
         0.00000E+00
         0.00000E+00
         0.00000E+00
         0.00000E+00
         0.00000E+00
         0.00000E+00
         0.00000E+00
         0.00000E+00
         0.00000E+00
         0.00000E+00
         0.00000E+00
         0.00000E+00
         0.00000E+00
         0.00000E+00
         0.00000E+00
         0.00000E+00
         0.00000E+00
         0.00000E+00
         0.00000E+00
         0.00000E+00
         0.00000E+00
         0.00000E+00
         0.00000E+00
         0.00000E+00
         0.00000E+00
         0.00000E+00
         0.00000E+00
         0.00000E+00
         0.00000E+00
         0.00000E+00
         0.00000E+00
         0.00000E+00
         0.00000E+00
         0.00000E+00
         0.00000E+00
         0.00000E+00
         0.00000E+00
         0.00000E+00
         0.00000E+00
         0.00000E+00
         0.00000E+00
         0.00000E+00
         0.00000E+00
         0.00000E+00
         0.00000E+00
         0.00000E+00
         0.00000E+00
         0.00000E+00
         0.00000E+00
         0.00000E+00
         0.00000E+00
         0.00000E+00
         0.00000E+00
         0.00000E+00
         0.00000E+00
         0.00000E+00
         0.00000E+00
         0.00000E+00
         0.00000E+00
         0.00000E+00
         0.00000E+00
         0.00000E+00
         0.00000E+00
         0.00000E+00
         0.00000E+00
         0.00000E+00
         0.00000E+00
         0.00000E+00
         0.00000E+00
         0.00000E+00
         0.00000E+00
         0.00000E+00
         0.00000E+00
         0.00000E+00
         0.00000E+00
         0.00000E+00
         0.00000E+00
         0.00000E+00
         0.00000E+00
         0.00000E+00
         0.00000E+00
         0.00000E+00
         0.00000E+00
         0.00000E+00
         0.00000E+00
         0.00000E+00
         0.00000E+00
         0.00000E+00
         0.00000E+00
         0.00000E+00
         0.00000E+00
         0.00000E+00
         0.00000E+00
         0.00000E+00
         0.00000E+00
         0.00000E+00
         0.00000E+00
         0.00000E+00
         0.00000E+00
         0.00000E+00
         0.00000E+00
         0.00000E+00
         0.00000E+00
         0.00000E+00
         0.00000E+00
         0.00000E+00
         0.00000E+00
         0.00000E+00
         0.00000E+00
         0.00000E+00
         0.00000E+00
         0.00000E+00
         0.00000E+00
         0.00000E+00
         0.00000E+00
         0.00000E+00
         0.00000E+00
         0.00000E+00
         0.00000E+00
         0.00000E+00
         0.00000E+00
         0.00000E+00
         0.00000E+00
         0.00000E+00
         0.00000E+00
         0.00000E+00
         0.00000E+00
         0.00000E+00
         0.00000E+00
         0.00000E+00
         0.00000E+00
         0.00000E+00
         0.00000E+00
         0.00000E+00
         0.00000E+00
         0.00000E+00
         0.00000E+00
         0.00000E+00
         0.00000E+00
         0.00000E+00
         0.00000E+00
         0.00000E+00
         0.00000E+00
         0.00000E+00
         0.00000E+00
         0.00000E+00
         0.00000E+00
         0.00000E+00
         0.00000E+00
         0.00000E+00
         0.00000E+00
         0.00000E+00
         0.00000E+00
         0.00000E+00
         0.00000E+00
         0.00000E+00
         0.00000E+00
         0.00000E+00
         0.00000E+00
         0.00000E+00
         0.00000E+00
         0.00000E+00
         0.00000E+00
         0.00000E+00
         0.00000E+00
         0.00000E+00
         0.00000E+00
         0.00000E+00
         0.00000E+00
         0.00000E+00
         0.00000E+00
         0.00000E+00
         0.00000E+00
         0.00000E+00
         0.00000E+00
         0.00000E+00
         0.00000E+00
         0.00000E+00
         0.00000E+00
         0.00000E+00
         0.00000E+00
         0.00000E+00
         0.00000E+00
         0.00000E+00
         0.00000E+00
         0.00000E+00
         0.00000E+00
         0.00000E+00
         0.00000E+00
         0.00000E+00
         0.00000E+00
         0.00000E+00
         0.00000E+00
         0.00000E+00
         0.00000E+00
         0.00000E+00
         0.00000E+00
         0.00000E+00
         0.00000E+00
         0.00000E+00
         0.00000E+00
         0.00000E+00
         0.00000E+00
         0.00000E+00
         0.00000E+00
         0.00000E+00
         0.00000E+00
         0.00000E+00
         0.00000E+00
         0.00000E+00
         0.00000E+00
         0.00000E+00
         0.00000E+00
         0.00000E+00
         0.00000E+00
         0.00000E+00
         0.00000E+00
         0.00000E+00
         0.00000E+00
         0.00000E+00
         0.00000E+00
         0.00000E+00
         0.00000E+00
         0.00000E+00
         0.00000E+00
         0.00000E+00
         0.00000E+00
         0.00000E+00
         0.00000E+00
         0.00000E+00
         0.00000E+00
         0.00000E+00
         0.00000E+00
         0.00000E+00
         0.00000E+00
         0.00000E+00
         0.00000E+00
         0.00000E+00
         0.00000E+00
         0.00000E+00
         0.00000E+00
         0.00000E+00
         0.00000E+00
         0.00000E+00
         0.00000E+00
         0.00000E+00
         0.00000E+00
         0.00000E+00
         0.00000E+00
         0.00000E+00
         0.00000E+00
         0.00000E+00
         0.00000E+00
         0.00000E+00
         0.00000E+00
         0.00000E+00
         0.00000E+00
         0.00000E+00
         0.00000E+00
         0.00000E+00
         0.00000E+00
         0.00000E+00
         0.00000E+00
         0.00000E+00
         0.00000E+00
         0.00000E+00
         0.00000E+00
         0.00000E+00
         0.00000E+00
         0.00000E+00
         0.00000E+00
         0.00000E+00
         0.00000E+00
         0.00000E+00
         0.00000E+00
         0.00000E+00
         0.00000E+00
         0.00000E+00
         0.00000E+00
         0.00000E+00
         0.00000E+00
         0.00000E+00
         0.00000E+00
         0.00000E+00
         0.00000E+00
         0.00000E+00
         0.00000E+00
         0.00000E+00
         0.00000E+00
         0.00000E+00
         0.00000E+00
         0.00000E+00
         0.00000E+00
         0.00000E+00
         0.00000E+00
         0.00000E+00
         0.00000E+00
         0.00000E+00
         0.00000E+00
         0.00000E+00
         0.00000E+00
         0.00000E+00
         0.00000E+00
         0.00000E+00
         0.00000E+00
         0.00000E+00
         0.00000E+00
         0.00000E+00
         0.00000E+00
         0.00000E+00
         0.00000E+00
         0.00000E+00
         0.00000E+00
         0.00000E+00
         0.00000E+00
         0.00000E+00
         0.00000E+00
         0.00000E+00
         0.00000E+00
         0.00000E+00
         0.00000E+00
         0.00000E+00
         0.00000E+00
         0.00000E+00
         0.00000E+00
         0.00000E+00
         0.00000E+00
         0.00000E+00
         0.00000E+00
         0.00000E+00
         0.00000E+00
         0.00000E+00
         0.00000E+00
         0.00000E+00
         0.00000E+00
         0.00000E+00
         0.00000E+00
         0.00000E+00
         0.00000E+00
         0.00000E+00
         0.00000E+00
         0.00000E+00
         0.00000E+00
         0.00000E+00
         0.00000E+00
         0.00000E+00
         0.00000E+00
         0.00000E+00
         0.00000E+00
         0.00000E+00
         0.00000E+00
         0.00000E+00
         0.00000E+00
         0.00000E+00
         0.00000E+00
         0.00000E+00
         0.00000E+00
         0.00000E+00
         0.00000E+00
         0.00000E+00
         0.00000E+00
         0.00000E+00
         0.00000E+00
         0.00000E+00
         0.00000E+00
         0.00000E+00
         0.00000E+00
         0.00000E+00
         0.00000E+00
         0.00000E+00
         0.00000E+00
         0.00000E+00
         0.00000E+00
         0.00000E+00
         0.00000E+00
         0.00000E+00
         0.00000E+00
         0.00000E+00
         0.00000E+00
         0.00000E+00
         0.00000E+00
         0.00000E+00
         0.00000E+00
         0.00000E+00
         0.00000E+00
         0.00000E+00
         0.00000E+00
         0.00000E+00
         0.00000E+00
         0.00000E+00
         0.00000E+00
         0.00000E+00
         0.00000E+00
         0.00000E+00
         0.00000E+00
         0.00000E+00
         0.00000E+00
         0.00000E+00
         0.00000E+00
         0.00000E+00
         0.00000E+00
         0.00000E+00
         0.00000E+00
         0.00000E+00
         0.00000E+00
         0.00000E+00
         0.00000E+00
         0.00000E+00
         0.00000E+00
         0.00000E+00
         0.00000E+00
         0.00000E+00
         0.00000E+00
         0.00000E+00
         0.00000E+00
         0.00000E+00
         0.00000E+00
         0.00000E+00
         0.00000E+00
         0.00000E+00
         0.00000E+00
         0.00000E+00
         0.00000E+00
         0.00000E+00
         0.00000E+00
         0.00000E+00
         0.00000E+00
         0.00000E+00
         0.00000E+00
         0.00000E+00
         0.00000E+00
         0.00000E+00
         0.00000E+00
         0.00000E+00
         0.00000E+00
         0.00000E+00
         0.00000E+00
         0.00000E+00
         0.00000E+00
         0.00000E+00
         0.00000E+00
         0.00000E+00
         0.00000E+00
         0.00000E+00
         0.00000E+00
         0.00000E+00
         0.00000E+00
         0.00000E+00
         0.00000E+00
         0.00000E+00
         0.00000E+00
         0.00000E+00
         0.00000E+00
         0.00000E+00
         0.00000E+00
         0.00000E+00
         0.00000E+00
         0.00000E+00
         0.00000E+00
         0.00000E+00
         0.00000E+00
         0.00000E+00
         0.00000E+00
         0.00000E+00
         0.00000E+00
         0.00000E+00
         0.00000E+00
         0.00000E+00
         0.00000E+00
         0.00000E+00
         0.00000E+00
         0.00000E+00
         0.00000E+00
         0.00000E+00
         0.00000E+00
         0.00000E+00
         0.00000E+00
         0.00000E+00
         0.00000E+00
         0.00000E+00
         0.00000E+00
         0.00000E+00
         0.00000E+00
         0.00000E+00
         0.00000E+00
         0.00000E+00
         0.00000E+00
         0.00000E+00
         0.00000E+00
         0.00000E+00
         0.00000E+00
         0.00000E+00
         0.00000E+00
         0.00000E+00
         0.00000E+00
         0.00000E+00
         0.00000E+00
         0.00000E+00
         0.00000E+00
         0.00000E+00
         0.00000E+00
         0.00000E+00
         0.00000E+00
         0.00000E+00
         0.00000E+00
         0.00000E+00
         0.00000E+00
         0.00000E+00
         0.00000E+00
         0.00000E+00
         0.00000E+00
         0.00000E+00
         0.00000E+00
         0.00000E+00
         0.00000E+00
         0.00000E+00
         0.00000E+00
         0.00000E+00
         0.00000E+00
         0.00000E+00
         0.00000E+00
         0.00000E+00
         0.00000E+00
         0.00000E+00
         0.00000E+00
         0.00000E+00
         0.00000E+00
         0.00000E+00
         0.00000E+00
         0.00000E+00
         0.00000E+00
         0.00000E+00
         0.00000E+00
         0.00000E+00
         0.00000E+00
         0.00000E+00
         0.00000E+00
         0.00000E+00
         0.00000E+00
         0.00000E+00
         0.00000E+00
         0.00000E+00
         0.00000E+00
         0.00000E+00
         0.00000E+00
         0.00000E+00
         0.00000E+00
         0.00000E+00
         0.00000E+00
         0.00000E+00
         0.00000E+00
         0.00000E+00
         0.00000E+00
         0.00000E+00
         0.00000E+00
         0.00000E+00
         0.00000E+00
         0.00000E+00
         0.00000E+00
         0.00000E+00
         0.00000E+00
         0.00000E+00
         0.00000E+00
         0.00000E+00
         0.00000E+00
         0.00000E+00
         0.00000E+00
         0.00000E+00
         0.00000E+00
         0.00000E+00
         0.00000E+00
         0.00000E+00
         0.00000E+00
         0.00000E+00
         0.00000E+00
         0.00000E+00
         0.00000E+00
         0.00000E+00
         0.00000E+00
         0.00000E+00
         0.00000E+00
         0.00000E+00
         0.00000E+00
         0.00000E+00
         0.00000E+00
         0.00000E+00
         0.00000E+00
         0.00000E+00
         0.00000E+00
         0.00000E+00
         0.00000E+00
         0.00000E+00
         0.00000E+00
         0.00000E+00
         0.00000E+00
         0.00000E+00
         0.00000E+00
         0.00000E+00
         0.00000E+00
         0.00000E+00
         0.00000E+00
         0.00000E+00
         0.00000E+00
         0.00000E+00
         0.00000E+00
         0.00000E+00
         0.00000E+00
         0.00000E+00
         0.00000E+00
         0.00000E+00
         0.00000E+00
         0.00000E+00
         0.00000E+00
         0.00000E+00
         0.00000E+00
         0.00000E+00
         0.00000E+00
         0.00000E+00
         0.00000E+00
         0.00000E+00
         0.00000E+00
         0.00000E+00
         0.00000E+00
         0.00000E+00
         0.00000E+00
         0.00000E+00
         0.00000E+00
         0.00000E+00
         0.00000E+00
         0.00000E+00
         0.00000E+00
         0.00000E+00
         0.00000E+00
         0.00000E+00
         0.00000E+00
         0.00000E+00
         0.00000E+00
         0.00000E+00
         0.00000E+00
         0.00000E+00
         0.00000E+00
         0.00000E+00
         0.00000E+00
         0.00000E+00
         0.00000E+00
         0.00000E+00
         0.00000E+00
         0.00000E+00
         0.00000E+00
         0.00000E+00
         0.00000E+00
         0.00000E+00
         0.00000E+00
         0.00000E+00
         0.00000E+00
         0.00000E+00
         0.00000E+00
         0.00000E+00
         0.00000E+00
         0.00000E+00
         0.00000E+00
         0.00000E+00
         0.00000E+00
         0.00000E+00
         0.00000E+00
         0.00000E+00
         0.00000E+00
         0.00000E+00
         0.00000E+00
         0.00000E+00
         0.00000E+00
         0.00000E+00
         0.00000E+00
         0.00000E+00
         0.00000E+00
         0.00000E+00
         0.00000E+00
         0.00000E+00
         0.00000E+00
         0.00000E+00
         0.00000E+00
         0.00000E+00
         0.00000E+00
         0.00000E+00
         0.00000E+00
         0.00000E+00
         0.00000E+00
         0.00000E+00
         0.00000E+00
         0.00000E+00
         0.00000E+00
         0.00000E+00
         0.00000E+00
         0.00000E+00
         0.00000E+00
         0.00000E+00
         0.00000E+00
         0.00000E+00
         0.00000E+00
         0.00000E+00
         0.00000E+00
         0.00000E+00
         0.00000E+00
         0.00000E+00
         0.00000E+00
         0.00000E+00
         0.00000E+00
         0.00000E+00
         0.00000E+00
         0.00000E+00
         0.00000E+00
         0.00000E+00
         0.00000E+00
         0.00000E+00
         0.00000E+00
         0.00000E+00
         0.00000E+00
         0.00000E+00
         0.00000E+00
         0.00000E+00
         0.00000E+00
         0.00000E+00
         0.00000E+00
         0.00000E+00
         0.00000E+00
         0.00000E+00
         0.00000E+00
         0.00000E+00
         0.00000E+00
         0.00000E+00
         0.00000E+00
         0.00000E+00
         0.00000E+00
         0.00000E+00
         0.00000E+00
         0.00000E+00
         0.00000E+00
         0.00000E+00
         0.00000E+00
         0.00000E+00
         0.00000E+00
         0.00000E+00
         0.00000E+00
         0.00000E+00
         0.00000E+00
         0.00000E+00
         0.00000E+00
         0.00000E+00
         0.00000E+00
         0.00000E+00
         0.00000E+00
         0.00000E+00
         0.00000E+00
         0.00000E+00
         0.00000E+00
         0.00000E+00
         0.00000E+00
         0.00000E+00
         0.00000E+00
         0.00000E+00
         0.00000E+00
         0.00000E+00
         0.00000E+00
         0.00000E+00
         0.00000E+00
         0.00000E+00
         0.00000E+00
         0.00000E+00
         0.00000E+00
         0.00000E+00
         0.00000E+00
         0.00000E+00
         0.00000E+00
         0.00000E+00
         0.00000E+00
         0.00000E+00
         0.00000E+00
         0.00000E+00
         0.00000E+00
         0.00000E+00
         0.00000E+00
         0.00000E+00
         0.00000E+00
         0.00000E+00
         0.00000E+00
         0.00000E+00
         0.00000E+00
         0.00000E+00
         0.00000E+00
         0.00000E+00
         0.00000E+00
         0.00000E+00
         0.00000E+00
         0.00000E+00
         0.00000E+00
         0.00000E+00
         0.00000E+00
         0.00000E+00
         0.00000E+00
         0.00000E+00
         0.00000E+00
         0.00000E+00
         0.00000E+00
         0.00000E+00
         0.00000E+00
         0.00000E+00
         0.00000E+00
         0.00000E+00
         0.00000E+00
         0.00000E+00
         0.00000E+00
         0.00000E+00
         0.00000E+00
         0.00000E+00
         0.00000E+00
         0.00000E+00
         0.00000E+00
         0.00000E+00
         0.00000E+00
         0.00000E+00
         0.00000E+00
         0.00000E+00
         0.00000E+00
         0.00000E+00
         0.00000E+00
         0.00000E+00
         0.00000E+00
         0.00000E+00
         0.00000E+00
         0.00000E+00
         0.00000E+00
         0.00000E+00
         0.00000E+00
         0.00000E+00
         0.00000E+00
         0.00000E+00
         0.00000E+00
         0.00000E+00
         0.00000E+00
         0.00000E+00
         0.00000E+00
         0.00000E+00
         0.00000E+00
         0.00000E+00
         0.00000E+00
         0.00000E+00
         0.00000E+00
         0.00000E+00
         0.00000E+00
         0.00000E+00
         0.00000E+00
         0.00000E+00
         0.00000E+00
         0.00000E+00
         0.00000E+00
         0.00000E+00
         0.00000E+00
         0.00000E+00
         0.00000E+00
         0.00000E+00
         0.00000E+00
         0.00000E+00
         0.00000E+00
         0.00000E+00
         0.00000E+00
         0.00000E+00
         0.00000E+00
         0.00000E+00
         0.00000E+00
         0.00000E+00
         0.00000E+00
         0.00000E+00
         0.00000E+00
         0.00000E+00
         0.00000E+00
         0.00000E+00
         0.00000E+00
         0.00000E+00
         0.00000E+00
         0.00000E+00
         0.00000E+00
         0.00000E+00
         0.00000E+00
         0.00000E+00
         0.00000E+00
         0.00000E+00
         0.00000E+00
         0.00000E+00
         0.00000E+00
         0.00000E+00
         0.00000E+00
         0.00000E+00
         0.00000E+00
         0.00000E+00
         0.00000E+00
         0.00000E+00
         0.00000E+00
         0.00000E+00
         0.00000E+00
         0.00000E+00
         0.00000E+00
         0.00000E+00
         0.00000E+00
         0.00000E+00
         0.00000E+00
         0.00000E+00
         0.00000E+00
         0.00000E+00
         0.00000E+00
         0.00000E+00
         0.00000E+00
         0.00000E+00
         0.00000E+00
         0.00000E+00
         0.00000E+00
         0.00000E+00
         0.00000E+00
         0.00000E+00
         0.00000E+00
         0.00000E+00
         0.00000E+00
         0.00000E+00
         0.00000E+00
         0.00000E+00
         0.00000E+00
         0.00000E+00
         0.00000E+00
         0.00000E+00
         0.00000E+00
         0.00000E+00
         0.00000E+00
         0.00000E+00
         0.00000E+00
         0.00000E+00
         0.00000E+00
         0.00000E+00
         0.00000E+00
         0.00000E+00
         0.00000E+00
         0.00000E+00
         0.00000E+00
         0.00000E+00
         0.00000E+00
         0.00000E+00
         0.00000E+00
         0.00000E+00
         0.00000E+00
         0.00000E+00
         0.00000E+00
         0.00000E+00
         0.00000E+00
         0.00000E+00
         0.00000E+00
         0.00000E+00
         0.00000E+00
         0.00000E+00
         0.00000E+00
         0.00000E+00
         0.00000E+00
         0.00000E+00
         0.00000E+00
         0.00000E+00
         0.00000E+00
         0.00000E+00
         0.00000E+00
         0.00000E+00
         0.00000E+00
         0.00000E+00
         0.00000E+00
         0.00000E+00
         0.00000E+00
         0.00000E+00
         0.00000E+00
         0.00000E+00
         0.00000E+00
         0.00000E+00
         0.00000E+00
         0.00000E+00
         0.00000E+00
         0.00000E+00
         0.00000E+00
         0.00000E+00
         0.00000E+00
  
SCALARS                 displacement_z  double 1
LOOKUP_TABLE default
        -0.68262E-02
        -0.68153E-02
        -0.68137E-02
        -0.68338E-02
        -0.41948E-16
        -0.47038E-16
        -0.45041E-16
        -0.40918E-16
        -0.67933E-02
        -0.68174E-02
        -0.42299E-16
        -0.40936E-16
        -0.68035E-02
        -0.68189E-02
        -0.50259E-16
        -0.47256E-16
        -0.68271E-02
        -0.68300E-02
        -0.37138E-16
        -0.41190E-16
        -0.67953E-02
        -0.67860E-02
        -0.67905E-02
        -0.49812E-16
        -0.43502E-16
        -0.44921E-16
        -0.68143E-02
        -0.68082E-02
        -0.47787E-16
        -0.40301E-16
        -0.68357E-02
        -0.68410E-02
        -0.68320E-02
        -0.40781E-16
        -0.37913E-16
        -0.36861E-16
        -0.68140E-02
        -0.68361E-02
        -0.43145E-16
        -0.39370E-16
        -0.68076E-02
        -0.68262E-02
        -0.37289E-16
        -0.33012E-16
        -0.67905E-02
        -0.67992E-02
        -0.40863E-16
        -0.45659E-16
        -0.68425E-02
        -0.39920E-16
        -0.68112E-02
        -0.46908E-16
        -0.68344E-02
        -0.42155E-16
        -0.68411E-02
        -0.40435E-16
        -0.68227E-02
        -0.68373E-02
        -0.41200E-16
        -0.40125E-16
        -0.68308E-02
        -0.68111E-02
        -0.41314E-16
        -0.46705E-16
        -0.68296E-02
        -0.39866E-16
        -0.68214E-02
        -0.43509E-16
        -0.67629E-02
        -0.67865E-02
        -0.41880E-16
        -0.43883E-16
        -0.67954E-02
        -0.44251E-16
        -0.68208E-02
        -0.34961E-16
        -0.68184E-02
        -0.33935E-16
        -0.67961E-02
        -0.35782E-16
        -0.67707E-02
        -0.68025E-02
        -0.34092E-16
        -0.35543E-16
        -0.68284E-02
        -0.33103E-16
        -0.67927E-02
        -0.43410E-16
        -0.67834E-02
        -0.44430E-16
        -0.67604E-02
        -0.67918E-02
        -0.42667E-16
        -0.43165E-16
        -0.68131E-02
        -0.39206E-16
        -0.68101E-02
        -0.38647E-16
        -0.67930E-02
        -0.41373E-16
        -0.67686E-02
        -0.67971E-02
        -0.40572E-16
        -0.41763E-16
        -0.66978E-02
        -0.67091E-02
        -0.31499E-16
        -0.29627E-16
        -0.67078E-02
        -0.30078E-16
        -0.66996E-02
        -0.28840E-16
        -0.67003E-02
        -0.28438E-16
        -0.66993E-02
        -0.26874E-16
        -0.67058E-02
        -0.23875E-16
        -0.67086E-02
        -0.21498E-16
        -0.67069E-02
        -0.21349E-16
        -0.67055E-02
        -0.23152E-16
        -0.66957E-02
        -0.24331E-16
        -0.67083E-02
        -0.22217E-16
        -0.67128E-02
        -0.20026E-16
        -0.67116E-02
        -0.20004E-16
        -0.67066E-02
        -0.22359E-16
        -0.67016E-02
        -0.25494E-16
        -0.66989E-02
        -0.27389E-16
        -0.67068E-02
        -0.29580E-16
        -0.66992E-02
        -0.31690E-16
        -0.67106E-02
        -0.29030E-16
        -0.67068E-02
        -0.25467E-16
        -0.67031E-02
        -0.25389E-16
        -0.67095E-02
        -0.27778E-16
        -0.67004E-02
        -0.29614E-16
        -0.67096E-02
        -0.28103E-16
        -0.67097E-02
        -0.27170E-16
        -0.96213E-02
        -0.96194E-02
        -0.96192E-02
        -0.96221E-02
        -0.96162E-02
        -0.96197E-02
        -0.96175E-02
        -0.96199E-02
        -0.96218E-02
        -0.96221E-02
        -0.96166E-02
        -0.96153E-02
        -0.96156E-02
        -0.96192E-02
        -0.96185E-02
        -0.96222E-02
        -0.96236E-02
        -0.96222E-02
        -0.96194E-02
        -0.96228E-02
        -0.96183E-02
        -0.96215E-02
        -0.96157E-02
        -0.96172E-02
        -0.96237E-02
        -0.96187E-02
        -0.96225E-02
        -0.96233E-02
        -0.96204E-02
        -0.96228E-02
        -0.96220E-02
        -0.96187E-02
        -0.96218E-02
        -0.96201E-02
        -0.96120E-02
        -0.96149E-02
        -0.96163E-02
        -0.96207E-02
        -0.96201E-02
        -0.96164E-02
        -0.96129E-02
        -0.96174E-02
        -0.96216E-02
        -0.96158E-02
        -0.96145E-02
        -0.96116E-02
        -0.96157E-02
        -0.96191E-02
        -0.96186E-02
        -0.96159E-02
        -0.96128E-02
        -0.96166E-02
        -0.96050E-02
        -0.96068E-02
        -0.96067E-02
        -0.96057E-02
        -0.96058E-02
        -0.96059E-02
        -0.96068E-02
        -0.96070E-02
        -0.96064E-02
        -0.96060E-02
        -0.96044E-02
        -0.96066E-02
        -0.96076E-02
        -0.96075E-02
        -0.96067E-02
        -0.96059E-02
        -0.96056E-02
        -0.96066E-02
        -0.96053E-02
        -0.96073E-02
        -0.96072E-02
        -0.96063E-02
        -0.96069E-02
        -0.96054E-02
        -0.96069E-02
        -0.96075E-02
        -0.98503E-02
        -0.98503E-02
        -0.98503E-02
        -0.98503E-02
        -0.98503E-02
        -0.98503E-02
        -0.98503E-02
        -0.98503E-02
        -0.98503E-02
        -0.98503E-02
        -0.98503E-02
        -0.98503E-02
        -0.98503E-02
        -0.98503E-02
        -0.98503E-02
        -0.98503E-02
        -0.98503E-02
        -0.98503E-02
        -0.98503E-02
        -0.98503E-02
        -0.98503E-02
        -0.98503E-02
        -0.98503E-02
        -0.98503E-02
        -0.98503E-02
        -0.98503E-02
        -0.98503E-02
        -0.98503E-02
        -0.98503E-02
        -0.98503E-02
        -0.98503E-02
        -0.98503E-02
        -0.98503E-02
        -0.98503E-02
        -0.98503E-02
        -0.98503E-02
        -0.98503E-02
        -0.98503E-02
        -0.98503E-02
        -0.98503E-02
        -0.98503E-02
        -0.98503E-02
        -0.98503E-02
        -0.98503E-02
        -0.98503E-02
        -0.98503E-02
        -0.98503E-02
        -0.98503E-02
        -0.98503E-02
        -0.98503E-02
        -0.98503E-02
        -0.98503E-02
        -0.98503E-02
        -0.98503E-02
        -0.98503E-02
        -0.98503E-02
        -0.98503E-02
        -0.98503E-02
        -0.98503E-02
        -0.98503E-02
        -0.98503E-02
        -0.98503E-02
        -0.98503E-02
        -0.98503E-02
        -0.98503E-02
        -0.98503E-02
        -0.98503E-02
        -0.98503E-02
        -0.98503E-02
        -0.98503E-02
        -0.98503E-02
        -0.98503E-02
        -0.98503E-02
        -0.98503E-02
        -0.98503E-02
        -0.98503E-02
        -0.98503E-02
        -0.98503E-02
        -0.98503E-02
        -0.98503E-02
        -0.98503E-02
        -0.98503E-02
        -0.98503E-02
        -0.98503E-02
        -0.98503E-02
        -0.98503E-02
        -0.98503E-02
        -0.98503E-02
        -0.98503E-02
        -0.98503E-02
        -0.98503E-02
        -0.98503E-02
        -0.98503E-02
        -0.98503E-02
        -0.98503E-02
        -0.98503E-02
        -0.98503E-02
        -0.98503E-02
        -0.98503E-02
        -0.98503E-02
        -0.98503E-02
        -0.98503E-02
        -0.98503E-02
        -0.98503E-02
        -0.98503E-02
        -0.98503E-02
        -0.98503E-02
        -0.98503E-02
        -0.98503E-02
        -0.98503E-02
        -0.98503E-02
        -0.98503E-02
        -0.98503E-02
        -0.98503E-02
        -0.98503E-02
        -0.98503E-02
        -0.98503E-02
        -0.98503E-02
        -0.98503E-02
        -0.98503E-02
        -0.98503E-02
        -0.98503E-02
        -0.98503E-02
        -0.98503E-02
        -0.98503E-02
        -0.98503E-02
        -0.98503E-02
        -0.98503E-02
        -0.98503E-02
        -0.98503E-02
        -0.98503E-02
        -0.98503E-02
        -0.98503E-02
        -0.98503E-02
        -0.98503E-02
        -0.98503E-02
        -0.98503E-02
        -0.98503E-02
        -0.98503E-02
        -0.98503E-02
        -0.98503E-02
        -0.98503E-02
        -0.98503E-02
        -0.98503E-02
        -0.98503E-02
        -0.98503E-02
        -0.98503E-02
        -0.98503E-02
        -0.98503E-02
        -0.98503E-02
        -0.98503E-02
        -0.98503E-02
        -0.98503E-02
        -0.98503E-02
        -0.98503E-02
        -0.98503E-02
        -0.98503E-02
        -0.98503E-02
        -0.98503E-02
        -0.98503E-02
        -0.98503E-02
        -0.98503E-02
        -0.98503E-02
        -0.98503E-02
        -0.98503E-02
        -0.98503E-02
        -0.98503E-02
        -0.98503E-02
        -0.98503E-02
        -0.98503E-02
        -0.98503E-02
        -0.98503E-02
        -0.98503E-02
        -0.98503E-02
        -0.98503E-02
        -0.98503E-02
        -0.98503E-02
        -0.98503E-02
        -0.98503E-02
        -0.98503E-02
        -0.98503E-02
        -0.98503E-02
        -0.98503E-02
        -0.98503E-02
        -0.98503E-02
        -0.98503E-02
        -0.98503E-02
        -0.98503E-02
        -0.98503E-02
        -0.98503E-02
        -0.98503E-02
        -0.98503E-02
        -0.98503E-02
        -0.98503E-02
        -0.98503E-02
        -0.98503E-02
        -0.98503E-02
        -0.98503E-02
        -0.98503E-02
        -0.98503E-02
        -0.98503E-02
        -0.98503E-02
        -0.98503E-02
        -0.98503E-02
        -0.98503E-02
        -0.98503E-02
        -0.98503E-02
        -0.98503E-02
        -0.98503E-02
        -0.98503E-02
        -0.98503E-02
        -0.98503E-02
        -0.98503E-02
        -0.98503E-02
        -0.98503E-02
        -0.98503E-02
        -0.98503E-02
        -0.98503E-02
        -0.98503E-02
        -0.98503E-02
        -0.98503E-02
        -0.98503E-02
        -0.98503E-02
        -0.98503E-02
        -0.98503E-02
        -0.98503E-02
        -0.98503E-02
        -0.98503E-02
        -0.98503E-02
        -0.98503E-02
        -0.98503E-02
        -0.98503E-02
        -0.98503E-02
        -0.98503E-02
        -0.98503E-02
        -0.98503E-02
        -0.98503E-02
        -0.98503E-02
        -0.98503E-02
        -0.98503E-02
        -0.98503E-02
        -0.98503E-02
        -0.98503E-02
        -0.98503E-02
        -0.98503E-02
        -0.98503E-02
        -0.98503E-02
        -0.98503E-02
        -0.98503E-02
        -0.98503E-02
        -0.98503E-02
        -0.98503E-02
        -0.98503E-02
        -0.98503E-02
        -0.98503E-02
        -0.98503E-02
        -0.98503E-02
        -0.98503E-02
        -0.98503E-02
        -0.98503E-02
        -0.98503E-02
        -0.98503E-02
        -0.98503E-02
        -0.98503E-02
        -0.98503E-02
        -0.98503E-02
        -0.98503E-02
        -0.98503E-02
        -0.98503E-02
        -0.98503E-02
        -0.98503E-02
        -0.98503E-02
        -0.98503E-02
        -0.98503E-02
        -0.98503E-02
        -0.98503E-02
        -0.98503E-02
        -0.98503E-02
        -0.98503E-02
        -0.98503E-02
        -0.98503E-02
        -0.98503E-02
        -0.98503E-02
        -0.98503E-02
        -0.98503E-02
        -0.98503E-02
        -0.98503E-02
        -0.98503E-02
        -0.98503E-02
        -0.98503E-02
        -0.98503E-02
        -0.98503E-02
        -0.98503E-02
        -0.98503E-02
        -0.98503E-02
        -0.98503E-02
        -0.98503E-02
        -0.98503E-02
        -0.98503E-02
        -0.98503E-02
        -0.98503E-02
        -0.98503E-02
        -0.98503E-02
        -0.98503E-02
        -0.98503E-02
        -0.98503E-02
        -0.98503E-02
        -0.98503E-02
        -0.98503E-02
        -0.98503E-02
        -0.98503E-02
        -0.98503E-02
        -0.98503E-02
        -0.98503E-02
        -0.98503E-02
        -0.98503E-02
        -0.98503E-02
        -0.98503E-02
        -0.98503E-02
        -0.98503E-02
        -0.98503E-02
        -0.98503E-02
        -0.98503E-02
        -0.98503E-02
        -0.98503E-02
        -0.98503E-02
        -0.98503E-02
        -0.98503E-02
        -0.98503E-02
        -0.98503E-02
        -0.98503E-02
        -0.98503E-02
        -0.98503E-02
        -0.98503E-02
        -0.98503E-02
        -0.98503E-02
        -0.98503E-02
        -0.98503E-02
        -0.98503E-02
        -0.98503E-02
        -0.98503E-02
        -0.98503E-02
        -0.98503E-02
        -0.98503E-02
        -0.98503E-02
        -0.98503E-02
        -0.98503E-02
        -0.98503E-02
        -0.98503E-02
        -0.98503E-02
        -0.98503E-02
        -0.98503E-02
        -0.98503E-02
        -0.98503E-02
        -0.98503E-02
        -0.98503E-02
        -0.98503E-02
        -0.98503E-02
        -0.98503E-02
        -0.98503E-02
        -0.98503E-02
        -0.98503E-02
        -0.98503E-02
        -0.98503E-02
        -0.98503E-02
        -0.98503E-02
        -0.98503E-02
        -0.98503E-02
        -0.98503E-02
        -0.98503E-02
        -0.98503E-02
        -0.98503E-02
        -0.98503E-02
        -0.98503E-02
        -0.98503E-02
        -0.98503E-02
        -0.98503E-02
        -0.98503E-02
        -0.98503E-02
        -0.98503E-02
        -0.98503E-02
        -0.98503E-02
        -0.98503E-02
        -0.98503E-02
        -0.98503E-02
        -0.98503E-02
        -0.98503E-02
        -0.98503E-02
        -0.98503E-02
        -0.98503E-02
        -0.98503E-02
        -0.98503E-02
        -0.98503E-02
        -0.98503E-02
        -0.98503E-02
        -0.98503E-02
        -0.98503E-02
        -0.98503E-02
        -0.98503E-02
        -0.98503E-02
        -0.98503E-02
        -0.98503E-02
        -0.98503E-02
        -0.98503E-02
        -0.98503E-02
        -0.98503E-02
        -0.98503E-02
        -0.98503E-02
        -0.98503E-02
        -0.98503E-02
        -0.98503E-02
        -0.98503E-02
        -0.98503E-02
        -0.98503E-02
        -0.98503E-02
        -0.98503E-02
        -0.98503E-02
        -0.98503E-02
        -0.98503E-02
        -0.98503E-02
        -0.98503E-02
        -0.98503E-02
        -0.98503E-02
        -0.98503E-02
        -0.98503E-02
        -0.98503E-02
        -0.98503E-02
        -0.98503E-02
        -0.98503E-02
        -0.98503E-02
        -0.98503E-02
        -0.98503E-02
        -0.98503E-02
        -0.98503E-02
        -0.98503E-02
        -0.98503E-02
        -0.98503E-02
        -0.98503E-02
        -0.98503E-02
        -0.98503E-02
        -0.98503E-02
        -0.98503E-02
        -0.98503E-02
        -0.98503E-02
        -0.98503E-02
        -0.98503E-02
        -0.98503E-02
        -0.98503E-02
        -0.98503E-02
        -0.98503E-02
        -0.98503E-02
        -0.98503E-02
        -0.98503E-02
        -0.98503E-02
        -0.98503E-02
        -0.98503E-02
        -0.98503E-02
        -0.98503E-02
        -0.98503E-02
        -0.98503E-02
        -0.98503E-02
        -0.98503E-02
        -0.98503E-02
        -0.98503E-02
        -0.98503E-02
        -0.98503E-02
        -0.98503E-02
        -0.98503E-02
        -0.98503E-02
        -0.98503E-02
        -0.98503E-02
        -0.98503E-02
        -0.98503E-02
        -0.98503E-02
        -0.98503E-02
        -0.98503E-02
        -0.98503E-02
        -0.98503E-02
        -0.98503E-02
        -0.98503E-02
        -0.98503E-02
        -0.98503E-02
        -0.98503E-02
        -0.98503E-02
        -0.98503E-02
        -0.98503E-02
        -0.98503E-02
        -0.98503E-02
        -0.98503E-02
        -0.98503E-02
        -0.98503E-02
        -0.98503E-02
        -0.98503E-02
        -0.98503E-02
        -0.98503E-02
        -0.98503E-02
        -0.98503E-02
        -0.98503E-02
        -0.98503E-02
        -0.98503E-02
        -0.98503E-02
        -0.98503E-02
        -0.98503E-02
        -0.98503E-02
        -0.98503E-02
        -0.98503E-02
        -0.98503E-02
        -0.98503E-02
        -0.98503E-02
        -0.98503E-02
        -0.98503E-02
        -0.98503E-02
        -0.98503E-02
        -0.98503E-02
        -0.98503E-02
        -0.98503E-02
        -0.98503E-02
        -0.98503E-02
        -0.98503E-02
        -0.98503E-02
        -0.98503E-02
        -0.98503E-02
        -0.98503E-02
        -0.98503E-02
        -0.98503E-02
        -0.98503E-02
        -0.98503E-02
        -0.98503E-02
        -0.98503E-02
        -0.98503E-02
        -0.98503E-02
        -0.98503E-02
        -0.98503E-02
        -0.98503E-02
        -0.98503E-02
        -0.98503E-02
        -0.98503E-02
        -0.98503E-02
        -0.98503E-02
        -0.98503E-02
        -0.98503E-02
        -0.98503E-02
        -0.98503E-02
        -0.98503E-02
        -0.98503E-02
        -0.98503E-02
        -0.98503E-02
        -0.98503E-02
        -0.98503E-02
        -0.98503E-02
        -0.98503E-02
        -0.98503E-02
        -0.98503E-02
        -0.98503E-02
        -0.98503E-02
        -0.98503E-02
        -0.98503E-02
        -0.98503E-02
        -0.98503E-02
        -0.98503E-02
        -0.98503E-02
        -0.98503E-02
        -0.98503E-02
        -0.98503E-02
        -0.98503E-02
        -0.98503E-02
        -0.98503E-02
        -0.98503E-02
        -0.98503E-02
        -0.98503E-02
        -0.98503E-02
        -0.98503E-02
        -0.98503E-02
        -0.98503E-02
        -0.98503E-02
        -0.98503E-02
        -0.98503E-02
        -0.98503E-02
        -0.98503E-02
        -0.98503E-02
        -0.98503E-02
        -0.98503E-02
        -0.98503E-02
        -0.98503E-02
        -0.98503E-02
        -0.98503E-02
        -0.98503E-02
        -0.98503E-02
        -0.98503E-02
        -0.98503E-02
        -0.98503E-02
        -0.98503E-02
        -0.98503E-02
        -0.98503E-02
        -0.98503E-02
        -0.98503E-02
        -0.98503E-02
        -0.98503E-02
        -0.98503E-02
        -0.98503E-02
        -0.98503E-02
        -0.98503E-02
        -0.98503E-02
        -0.98503E-02
        -0.98503E-02
        -0.98503E-02
        -0.98503E-02
        -0.98503E-02
        -0.98503E-02
        -0.98503E-02
        -0.98503E-02
        -0.98503E-02
        -0.98503E-02
        -0.98503E-02
        -0.98503E-02
        -0.98503E-02
        -0.98503E-02
        -0.98503E-02
        -0.98503E-02
        -0.98503E-02
        -0.98503E-02
        -0.98503E-02
        -0.98503E-02
        -0.98503E-02
        -0.98503E-02
        -0.98503E-02
        -0.98503E-02
        -0.98503E-02
        -0.98503E-02
        -0.98503E-02
        -0.98503E-02
        -0.98503E-02
        -0.98503E-02
        -0.98503E-02
        -0.98503E-02
        -0.98503E-02
        -0.98503E-02
        -0.98503E-02
        -0.98503E-02
        -0.98503E-02
        -0.98503E-02
        -0.98503E-02
        -0.98503E-02
        -0.98503E-02
        -0.98503E-02
        -0.98503E-02
        -0.98503E-02
        -0.98503E-02
        -0.98503E-02
        -0.98503E-02
        -0.98503E-02
        -0.98503E-02
        -0.98503E-02
        -0.98503E-02
        -0.98503E-02
        -0.98503E-02
        -0.98503E-02
        -0.98503E-02
        -0.98503E-02
        -0.98503E-02
        -0.98503E-02
        -0.98503E-02
        -0.98503E-02
        -0.98503E-02
        -0.98503E-02
        -0.98503E-02
        -0.98503E-02
        -0.98503E-02
        -0.98503E-02
        -0.98503E-02
        -0.98503E-02
        -0.98503E-02
        -0.98503E-02
        -0.98503E-02
        -0.98503E-02
        -0.98503E-02
        -0.98503E-02
        -0.98503E-02
        -0.98503E-02
        -0.98503E-02
        -0.98503E-02
        -0.98503E-02
        -0.98503E-02
        -0.98503E-02
        -0.98503E-02
        -0.98503E-02
        -0.98503E-02
        -0.98503E-02
        -0.98503E-02
        -0.98503E-02
        -0.98503E-02
        -0.98503E-02
        -0.98503E-02
        -0.98503E-02
        -0.98503E-02
        -0.98503E-02
        -0.98503E-02
        -0.98503E-02
        -0.98503E-02
        -0.98503E-02
        -0.98503E-02
        -0.98503E-02
        -0.98503E-02
        -0.98503E-02
        -0.98503E-02
        -0.98503E-02
        -0.98503E-02
        -0.98503E-02
        -0.98503E-02
        -0.98503E-02
        -0.98503E-02
        -0.98503E-02
        -0.98503E-02
        -0.98503E-02
        -0.98503E-02
        -0.98503E-02
        -0.98503E-02
        -0.98503E-02
        -0.98503E-02
        -0.98503E-02
        -0.98503E-02
        -0.98503E-02
        -0.98503E-02
        -0.98503E-02
        -0.98503E-02
        -0.98503E-02
        -0.98503E-02
        -0.98503E-02
        -0.98503E-02
        -0.98503E-02
        -0.98503E-02
        -0.98503E-02
        -0.98503E-02
        -0.98503E-02
        -0.98503E-02
        -0.98503E-02
        -0.98503E-02
        -0.98503E-02
        -0.98503E-02
        -0.98503E-02
        -0.98503E-02
        -0.98503E-02
        -0.98503E-02
        -0.98503E-02
        -0.98503E-02
        -0.98503E-02
        -0.98503E-02
        -0.98503E-02
        -0.98503E-02
        -0.98503E-02
        -0.98503E-02
        -0.98503E-02
        -0.98503E-02
        -0.98503E-02
        -0.98503E-02
        -0.98503E-02
        -0.98503E-02
        -0.98503E-02
        -0.98503E-02
        -0.98503E-02
        -0.98503E-02
        -0.98503E-02
        -0.98503E-02
        -0.98503E-02
        -0.98503E-02
        -0.98503E-02
        -0.98503E-02
        -0.98503E-02
        -0.98503E-02
        -0.98503E-02
        -0.98503E-02
        -0.98503E-02
        -0.98503E-02
        -0.98503E-02
        -0.98503E-02
        -0.98503E-02
        -0.98503E-02
        -0.98503E-02
        -0.98503E-02
        -0.98503E-02
        -0.98503E-02
        -0.98503E-02
        -0.98503E-02
        -0.98503E-02
        -0.98503E-02
        -0.98503E-02
        -0.98503E-02
        -0.98503E-02
        -0.98503E-02
        -0.98503E-02
        -0.98503E-02
        -0.98503E-02
        -0.98503E-02
        -0.98503E-02
        -0.98503E-02
        -0.98503E-02
        -0.98503E-02
        -0.98503E-02
        -0.98503E-02
        -0.98503E-02
        -0.98503E-02
        -0.98503E-02
        -0.98503E-02
        -0.98503E-02
        -0.98503E-02
        -0.98503E-02
        -0.98503E-02
        -0.98503E-02
        -0.98503E-02
        -0.98503E-02
        -0.98503E-02
        -0.98503E-02
        -0.98503E-02
        -0.98503E-02
        -0.98503E-02
        -0.98503E-02
        -0.98503E-02
        -0.98503E-02
        -0.98503E-02
        -0.98503E-02
        -0.98503E-02
        -0.98503E-02
        -0.98503E-02
        -0.98503E-02
        -0.98503E-02
        -0.98503E-02
        -0.98503E-02
        -0.98503E-02
        -0.98503E-02
        -0.98503E-02
        -0.98503E-02
        -0.98503E-02
        -0.98503E-02
        -0.98503E-02
        -0.98503E-02
        -0.98503E-02
        -0.98503E-02
        -0.98503E-02
        -0.98503E-02
        -0.98503E-02
        -0.98503E-02
        -0.98503E-02
        -0.98503E-02
        -0.98503E-02
        -0.98503E-02
        -0.98503E-02
        -0.98503E-02
        -0.98503E-02
        -0.98503E-02
        -0.98503E-02
        -0.98503E-02
        -0.98503E-02
        -0.98503E-02
        -0.98503E-02
        -0.98503E-02
        -0.98503E-02
        -0.98503E-02
        -0.98503E-02
        -0.98503E-02
        -0.98503E-02
        -0.98503E-02
        -0.98503E-02
        -0.98503E-02
        -0.98503E-02
        -0.98503E-02
        -0.98503E-02
        -0.98503E-02
        -0.98503E-02
        -0.98503E-02
        -0.98503E-02
        -0.98503E-02
        -0.98503E-02
        -0.98503E-02
        -0.98503E-02
        -0.98503E-02
        -0.98503E-02
        -0.98503E-02
        -0.98503E-02
        -0.98503E-02
        -0.98503E-02
        -0.98503E-02
        -0.98503E-02
        -0.98503E-02
        -0.98503E-02
        -0.98503E-02
        -0.98503E-02
        -0.98503E-02
        -0.98503E-02
        -0.98503E-02
        -0.98503E-02
        -0.98503E-02
        -0.98503E-02
        -0.98503E-02
        -0.98503E-02
        -0.98503E-02
        -0.98503E-02
        -0.98503E-02
        -0.98503E-02
        -0.98503E-02
        -0.98503E-02
        -0.98503E-02
        -0.98503E-02
        -0.98503E-02
        -0.98503E-02
        -0.98503E-02
        -0.98503E-02
        -0.98503E-02
        -0.98503E-02
        -0.98503E-02
        -0.98503E-02
        -0.98503E-02
        -0.98503E-02
        -0.98503E-02
        -0.98503E-02
        -0.98503E-02
        -0.98503E-02
        -0.98503E-02
        -0.98503E-02
        -0.98503E-02
        -0.98503E-02
        -0.98503E-02
        -0.98503E-02
        -0.98503E-02
        -0.98503E-02
        -0.98503E-02
        -0.98503E-02
        -0.98503E-02
        -0.98503E-02
        -0.98503E-02
        -0.98503E-02
        -0.98503E-02
        -0.98503E-02
        -0.98503E-02
        -0.98503E-02
        -0.98503E-02
        -0.98503E-02
        -0.98503E-02
        -0.98503E-02
        -0.98503E-02
        -0.98503E-02
        -0.98503E-02
        -0.98503E-02
        -0.98503E-02
        -0.98503E-02
        -0.98503E-02
        -0.98503E-02
        -0.98503E-02
        -0.98503E-02
        -0.98503E-02
        -0.98503E-02
        -0.98503E-02
        -0.98503E-02
        -0.98503E-02
        -0.98503E-02
        -0.98503E-02
        -0.98503E-02
        -0.98503E-02
        -0.98503E-02
        -0.98503E-02
        -0.98503E-02
        -0.98503E-02
        -0.98503E-02
        -0.98503E-02
        -0.98503E-02
        -0.98503E-02
        -0.98503E-02
        -0.98503E-02
        -0.98503E-02
        -0.98503E-02
        -0.98503E-02
        -0.98503E-02
        -0.98503E-02
        -0.98503E-02
        -0.98503E-02
        -0.98503E-02
        -0.98503E-02
        -0.98503E-02
        -0.98503E-02
        -0.98503E-02
        -0.98503E-02
        -0.98503E-02
        -0.98503E-02
        -0.98503E-02
        -0.98503E-02
        -0.98503E-02
        -0.98503E-02
        -0.98503E-02
        -0.98503E-02
        -0.98503E-02
        -0.98503E-02
        -0.98503E-02
        -0.98503E-02
        -0.98503E-02
        -0.98503E-02
        -0.98503E-02
        -0.98503E-02
        -0.98503E-02
        -0.98503E-02
        -0.98503E-02
        -0.98503E-02
        -0.98503E-02
        -0.98503E-02
        -0.98503E-02
        -0.98503E-02
        -0.98503E-02
        -0.98503E-02
        -0.98503E-02
        -0.98503E-02
        -0.98503E-02
        -0.98503E-02
        -0.98503E-02
        -0.98503E-02
        -0.98503E-02
        -0.98503E-02
        -0.98503E-02
        -0.98503E-02
        -0.98503E-02
        -0.98503E-02
        -0.98503E-02
        -0.98503E-02
        -0.98503E-02
        -0.98503E-02
        -0.98503E-02
        -0.98503E-02
        -0.98503E-02
        -0.98503E-02
        -0.98503E-02
        -0.98503E-02
        -0.98503E-02
        -0.98503E-02
        -0.98503E-02
        -0.98503E-02
        -0.98503E-02
        -0.98503E-02
        -0.98503E-02
        -0.98503E-02
        -0.98503E-02
        -0.98503E-02
        -0.98503E-02
        -0.98503E-02
        -0.98503E-02
        -0.98503E-02
        -0.98503E-02
        -0.98503E-02
        -0.98503E-02
        -0.98503E-02
        -0.98503E-02
        -0.98503E-02
        -0.98503E-02
        -0.98503E-02
        -0.98503E-02
        -0.98503E-02
        -0.98503E-02
        -0.98503E-02
        -0.98503E-02
        -0.98503E-02
        -0.98503E-02
        -0.98503E-02
        -0.98503E-02
        -0.98503E-02
        -0.98503E-02
        -0.98503E-02
        -0.98503E-02
        -0.98503E-02
        -0.98503E-02
        -0.98503E-02
        -0.98503E-02
        -0.98503E-02
        -0.98503E-02
        -0.98503E-02
        -0.98503E-02
        -0.98503E-02
        -0.98503E-02
        -0.98503E-02
        -0.98503E-02
        -0.98503E-02
        -0.98503E-02
        -0.98503E-02
        -0.98503E-02
        -0.98503E-02
        -0.98503E-02
        -0.98503E-02
        -0.98503E-02
        -0.98503E-02
        -0.98503E-02
        -0.98503E-02
        -0.98503E-02
        -0.98503E-02
        -0.98503E-02
        -0.98503E-02
        -0.98503E-02
        -0.98503E-02
        -0.98503E-02
        -0.98503E-02
        -0.98503E-02
        -0.98503E-02
        -0.98503E-02
        -0.98503E-02
        -0.98503E-02
        -0.98503E-02
        -0.98503E-02
        -0.98503E-02
        -0.98503E-02
        -0.98503E-02
        -0.98503E-02
        -0.98503E-02
        -0.98503E-02
        -0.98503E-02
        -0.98503E-02
        -0.98503E-02
        -0.98503E-02
        -0.98503E-02
        -0.98503E-02
        -0.98503E-02
        -0.98503E-02
        -0.98503E-02
        -0.98503E-02
        -0.98503E-02
        -0.98503E-02
        -0.98503E-02
        -0.98503E-02
        -0.98503E-02
        -0.98503E-02
        -0.98503E-02
        -0.98503E-02
        -0.98503E-02
        -0.98503E-02
        -0.98503E-02
        -0.98503E-02
        -0.98503E-02
        -0.98503E-02
        -0.98503E-02
        -0.98503E-02
        -0.98503E-02
        -0.98503E-02
        -0.98503E-02
        -0.98503E-02
        -0.98503E-02
        -0.98503E-02
        -0.98503E-02
        -0.98503E-02
        -0.98503E-02
        -0.98503E-02
        -0.98503E-02
        -0.98503E-02
        -0.98503E-02
        -0.98503E-02
        -0.98503E-02
        -0.98503E-02
        -0.98503E-02
        -0.98503E-02
        -0.98503E-02
        -0.98503E-02
        -0.98503E-02
        -0.98503E-02
        -0.98503E-02
        -0.98503E-02
        -0.98503E-02
        -0.98503E-02
        -0.98503E-02
        -0.98503E-02
        -0.98503E-02
        -0.98503E-02
        -0.98503E-02
        -0.98503E-02
        -0.98503E-02
        -0.98503E-02
        -0.98503E-02
        -0.98503E-02
        -0.98503E-02
        -0.98503E-02
        -0.98503E-02
        -0.98503E-02
        -0.98503E-02
        -0.98503E-02
        -0.98503E-02
        -0.98503E-02
        -0.98503E-02
        -0.98503E-02
        -0.98503E-02
        -0.98503E-02
        -0.98503E-02
        -0.98503E-02
        -0.98503E-02
        -0.98503E-02
        -0.98503E-02
        -0.98503E-02
        -0.98503E-02
        -0.98503E-02
        -0.98503E-02
        -0.98503E-02
        -0.98503E-02
        -0.98503E-02
        -0.98503E-02
        -0.98503E-02
        -0.98503E-02
        -0.98503E-02
        -0.98503E-02
        -0.98503E-02
        -0.98503E-02
        -0.98503E-02
        -0.98503E-02
        -0.98503E-02
        -0.98503E-02
        -0.98503E-02
        -0.98503E-02
        -0.98503E-02
        -0.98503E-02
        -0.98503E-02
        -0.98503E-02
        -0.98503E-02
        -0.98503E-02
        -0.98503E-02
        -0.98503E-02
        -0.98503E-02
        -0.98503E-02
        -0.98503E-02
        -0.98503E-02
        -0.98503E-02
        -0.98503E-02
        -0.98503E-02
        -0.98503E-02
        -0.98503E-02
        -0.98503E-02
        -0.98503E-02
        -0.98503E-02
        -0.98503E-02
        -0.98503E-02
        -0.98503E-02
        -0.98503E-02
        -0.98503E-02
        -0.98503E-02
        -0.98503E-02
        -0.98503E-02
        -0.98503E-02
        -0.98503E-02
        -0.98503E-02
        -0.98503E-02
        -0.98503E-02
        -0.98503E-02
        -0.98503E-02
        -0.98503E-02
        -0.98503E-02
        -0.98503E-02
        -0.98503E-02
        -0.98503E-02
        -0.98503E-02
        -0.98503E-02
        -0.98503E-02
        -0.98503E-02
        -0.98503E-02
        -0.98503E-02
        -0.98503E-02
        -0.98503E-02
        -0.98503E-02
        -0.98503E-02
        -0.98503E-02
        -0.98503E-02
        -0.98503E-02
        -0.98503E-02
        -0.98503E-02
        -0.98503E-02
        -0.98503E-02
        -0.98503E-02
        -0.98503E-02
        -0.98503E-02
        -0.98503E-02
        -0.98503E-02
        -0.98503E-02
        -0.98503E-02
        -0.98503E-02
        -0.98503E-02
        -0.98503E-02
        -0.98503E-02
        -0.98503E-02
        -0.98503E-02
        -0.98503E-02
        -0.98503E-02
        -0.98503E-02
        -0.98503E-02
        -0.98503E-02
        -0.98503E-02
        -0.98503E-02
        -0.98503E-02
        -0.98503E-02
        -0.98503E-02
        -0.98503E-02
        -0.98503E-02
        -0.98503E-02
        -0.98503E-02
        -0.98503E-02
        -0.98503E-02
        -0.98503E-02
        -0.98503E-02
        -0.98503E-02
        -0.98503E-02
        -0.98503E-02
        -0.98503E-02
        -0.98503E-02
        -0.98503E-02
        -0.98503E-02
        -0.98503E-02
        -0.98503E-02
        -0.98503E-02
        -0.98503E-02
        -0.98503E-02
        -0.98503E-02
        -0.98503E-02
        -0.98503E-02
        -0.98503E-02
        -0.98503E-02
        -0.98503E-02
        -0.98503E-02
        -0.98503E-02
        -0.98503E-02
        -0.98503E-02
        -0.98503E-02
        -0.98503E-02
        -0.98503E-02
        -0.98503E-02
        -0.98503E-02
        -0.98503E-02
        -0.98503E-02
        -0.98503E-02
        -0.98503E-02
        -0.98503E-02
        -0.98503E-02
        -0.98503E-02
        -0.98503E-02
        -0.98503E-02
        -0.98503E-02
        -0.98503E-02
        -0.98503E-02
        -0.98503E-02
        -0.98503E-02
        -0.98503E-02
        -0.98503E-02
        -0.98503E-02
        -0.98503E-02
        -0.98503E-02
        -0.98503E-02
        -0.98503E-02
        -0.98503E-02
        -0.98503E-02
        -0.98503E-02
        -0.98503E-02
        -0.98503E-02
        -0.98503E-02
        -0.98503E-02
        -0.98503E-02
        -0.98503E-02
        -0.98503E-02
        -0.98503E-02
        -0.98503E-02
        -0.98503E-02
        -0.98503E-02
        -0.98503E-02
        -0.98503E-02
        -0.98503E-02
        -0.98503E-02
        -0.98503E-02
        -0.98503E-02
        -0.98503E-02
        -0.98503E-02
        -0.98503E-02
        -0.98503E-02
        -0.98503E-02
        -0.98503E-02
        -0.98503E-02
        -0.98503E-02
        -0.98503E-02
        -0.98503E-02
        -0.98503E-02
        -0.98503E-02
        -0.98503E-02
        -0.98503E-02
        -0.98503E-02
        -0.98503E-02
        -0.98503E-02
        -0.98503E-02
        -0.98503E-02
        -0.98503E-02
        -0.98503E-02
        -0.98503E-02
        -0.98503E-02
        -0.98503E-02
        -0.98503E-02
        -0.98503E-02
        -0.98503E-02
        -0.98503E-02
        -0.98503E-02
        -0.98503E-02
        -0.98503E-02
        -0.98503E-02
        -0.98503E-02
        -0.98503E-02
        -0.98503E-02
        -0.98503E-02
        -0.98503E-02
        -0.98503E-02
        -0.98503E-02
        -0.98503E-02
        -0.98503E-02
        -0.98503E-02
        -0.98503E-02
        -0.98503E-02
        -0.98503E-02
        -0.98503E-02
        -0.98503E-02
        -0.98503E-02
        -0.98503E-02
        -0.98503E-02
        -0.98503E-02
        -0.98503E-02
        -0.98503E-02
        -0.98503E-02
        -0.98503E-02
        -0.98503E-02
        -0.98503E-02
        -0.98503E-02
        -0.98503E-02
        -0.98503E-02
        -0.98503E-02
        -0.98503E-02
        -0.98503E-02
        -0.98503E-02
        -0.98503E-02
        -0.98503E-02
        -0.98503E-02
        -0.98503E-02
        -0.98503E-02
        -0.98503E-02
        -0.98503E-02
        -0.98503E-02
        -0.98503E-02
        -0.98503E-02
        -0.98503E-02
        -0.98503E-02
        -0.98503E-02
        -0.98503E-02
        -0.98503E-02
        -0.98503E-02
        -0.98503E-02
        -0.98503E-02
        -0.98503E-02
        -0.98503E-02
        -0.98503E-02
        -0.98503E-02
        -0.98503E-02
        -0.98503E-02
        -0.98503E-02
        -0.98503E-02
        -0.98503E-02
        -0.98503E-02
        -0.98503E-02
        -0.98503E-02
        -0.98503E-02
        -0.98503E-02
        -0.98503E-02
        -0.98503E-02
        -0.98503E-02
        -0.98503E-02
        -0.98503E-02
        -0.98503E-02
        -0.98503E-02
        -0.98503E-02
        -0.98503E-02
        -0.98503E-02
        -0.98503E-02
        -0.98503E-02
        -0.98503E-02
        -0.98503E-02
        -0.98503E-02
        -0.98503E-02
        -0.98503E-02
        -0.98503E-02
        -0.98503E-02
        -0.98503E-02
        -0.98503E-02
        -0.98503E-02
        -0.98503E-02
        -0.98503E-02
        -0.98503E-02
        -0.98503E-02
        -0.98503E-02
        -0.98503E-02
        -0.98503E-02
        -0.98503E-02
        -0.98503E-02
        -0.98503E-02
        -0.98503E-02
        -0.98503E-02
        -0.98503E-02
        -0.98503E-02
        -0.98503E-02
        -0.98503E-02
        -0.98503E-02
        -0.98503E-02
        -0.98503E-02
        -0.98503E-02
        -0.98503E-02
        -0.98503E-02
        -0.98503E-02
        -0.98503E-02
        -0.98503E-02
        -0.98503E-02
        -0.98503E-02
        -0.98503E-02
        -0.98503E-02
        -0.98503E-02
        -0.98503E-02
        -0.98503E-02
        -0.98503E-02
        -0.98503E-02
        -0.98503E-02
        -0.98503E-02
        -0.98503E-02
        -0.98503E-02
        -0.98503E-02
        -0.98503E-02
        -0.98503E-02
        -0.98503E-02
        -0.98503E-02
        -0.98503E-02
        -0.98503E-02
        -0.98503E-02
        -0.98503E-02
        -0.98503E-02
        -0.98503E-02
        -0.98503E-02
        -0.98503E-02
        -0.98503E-02
        -0.98503E-02
        -0.98503E-02
        -0.98503E-02
        -0.98503E-02
        -0.98503E-02
        -0.98503E-02
        -0.98503E-02
        -0.98503E-02
        -0.98503E-02
        -0.98503E-02
        -0.98503E-02
        -0.98503E-02
        -0.98503E-02
        -0.98503E-02
        -0.98503E-02
        -0.98503E-02
        -0.98503E-02
        -0.98503E-02
        -0.98503E-02
        -0.98503E-02
        -0.98503E-02
        -0.98503E-02
        -0.98503E-02
        -0.98503E-02
        -0.98503E-02
        -0.98503E-02
        -0.98503E-02
        -0.98503E-02
        -0.98503E-02
        -0.98503E-02
        -0.98503E-02
        -0.98503E-02
        -0.98503E-02
        -0.98503E-02
        -0.98503E-02
        -0.98503E-02
        -0.98503E-02
        -0.98503E-02
        -0.98503E-02
        -0.98503E-02
        -0.98503E-02
        -0.98503E-02
        -0.98503E-02
        -0.98503E-02
        -0.98503E-02
        -0.98503E-02
        -0.98503E-02
        -0.98503E-02
        -0.98503E-02
        -0.98503E-02
        -0.98503E-02
        -0.98503E-02
        -0.98503E-02
        -0.98503E-02
        -0.98503E-02
        -0.98503E-02
        -0.98503E-02
        -0.98503E-02
        -0.98503E-02
        -0.98503E-02
        -0.98503E-02
        -0.98503E-02
        -0.98503E-02
        -0.98503E-02
        -0.98503E-02
        -0.98503E-02
        -0.98503E-02
        -0.98503E-02
        -0.98503E-02
        -0.98503E-02
        -0.98503E-02
        -0.98503E-02
        -0.98503E-02
        -0.98503E-02
        -0.98503E-02
        -0.98503E-02
        -0.98503E-02
        -0.98503E-02
        -0.98503E-02
        -0.98503E-02
        -0.98503E-02
        -0.98503E-02
        -0.98503E-02
        -0.98503E-02
        -0.98503E-02
        -0.98503E-02
        -0.98503E-02
        -0.98503E-02
        -0.98503E-02
        -0.98503E-02
        -0.98503E-02
        -0.98503E-02
        -0.98503E-02
        -0.98503E-02
        -0.98503E-02
        -0.98503E-02
        -0.98503E-02
        -0.98503E-02
        -0.98503E-02
        -0.98503E-02
        -0.98503E-02
        -0.98503E-02
        -0.98503E-02
        -0.98503E-02
        -0.98503E-02
        -0.98503E-02
        -0.98503E-02
        -0.98503E-02
        -0.98503E-02
        -0.98503E-02
        -0.98503E-02
        -0.98503E-02
        -0.98503E-02
        -0.98503E-02
        -0.98503E-02
        -0.98503E-02
        -0.98503E-02
        -0.98503E-02
        -0.98503E-02
        -0.98503E-02
        -0.98503E-02
        -0.98503E-02
        -0.98503E-02
        -0.98503E-02
        -0.98503E-02
        -0.98503E-02
        -0.98503E-02
        -0.98503E-02
        -0.98503E-02
        -0.98503E-02
        -0.98503E-02
        -0.98503E-02
        -0.98503E-02
        -0.98503E-02
        -0.98503E-02
        -0.98503E-02
        -0.98503E-02
        -0.98503E-02
        -0.98503E-02
        -0.98503E-02
        -0.98503E-02
        -0.98503E-02
        -0.98503E-02
        -0.98503E-02
        -0.98503E-02
        -0.98503E-02
        -0.98503E-02
        -0.98503E-02
        -0.98503E-02
        -0.98503E-02
        -0.98503E-02
        -0.98503E-02
        -0.98503E-02
        -0.98503E-02
        -0.98503E-02
        -0.98503E-02
        -0.98503E-02
        -0.98503E-02
        -0.98503E-02
        -0.98503E-02
        -0.98503E-02
        -0.98503E-02
        -0.98503E-02
        -0.98503E-02
        -0.98503E-02
        -0.98503E-02
        -0.98503E-02
        -0.98503E-02
        -0.98503E-02
        -0.98503E-02
        -0.98503E-02
        -0.98503E-02
        -0.98503E-02
        -0.98503E-02
        -0.98503E-02
        -0.98503E-02
        -0.98503E-02
        -0.98503E-02
        -0.98503E-02
        -0.98503E-02
        -0.98503E-02
        -0.98503E-02
        -0.98503E-02
        -0.98503E-02
  
SCALARS                     velocity_x  double 1
LOOKUP_TABLE default
         0.00000E+00
         0.00000E+00
         0.00000E+00
         0.00000E+00
         0.00000E+00
         0.00000E+00
         0.00000E+00
         0.00000E+00
         0.00000E+00
         0.00000E+00
         0.00000E+00
         0.00000E+00
         0.00000E+00
         0.00000E+00
         0.00000E+00
         0.00000E+00
         0.00000E+00
         0.00000E+00
         0.00000E+00
         0.00000E+00
         0.00000E+00
         0.00000E+00
         0.00000E+00
         0.00000E+00
         0.00000E+00
         0.00000E+00
         0.00000E+00
         0.00000E+00
         0.00000E+00
         0.00000E+00
         0.00000E+00
         0.00000E+00
         0.00000E+00
         0.00000E+00
         0.00000E+00
         0.00000E+00
         0.00000E+00
         0.00000E+00
         0.00000E+00
         0.00000E+00
         0.00000E+00
         0.00000E+00
         0.00000E+00
         0.00000E+00
         0.00000E+00
         0.00000E+00
         0.00000E+00
         0.00000E+00
         0.00000E+00
         0.00000E+00
         0.00000E+00
         0.00000E+00
         0.00000E+00
         0.00000E+00
         0.00000E+00
         0.00000E+00
         0.00000E+00
         0.00000E+00
         0.00000E+00
         0.00000E+00
         0.00000E+00
         0.00000E+00
         0.00000E+00
         0.00000E+00
         0.00000E+00
         0.00000E+00
         0.00000E+00
         0.00000E+00
         0.00000E+00
         0.00000E+00
         0.00000E+00
         0.00000E+00
         0.00000E+00
         0.00000E+00
         0.00000E+00
         0.00000E+00
         0.00000E+00
         0.00000E+00
         0.00000E+00
         0.00000E+00
         0.00000E+00
         0.00000E+00
         0.00000E+00
         0.00000E+00
         0.00000E+00
         0.00000E+00
         0.00000E+00
         0.00000E+00
         0.00000E+00
         0.00000E+00
         0.00000E+00
         0.00000E+00
         0.00000E+00
         0.00000E+00
         0.00000E+00
         0.00000E+00
         0.00000E+00
         0.00000E+00
         0.00000E+00
         0.00000E+00
         0.00000E+00
         0.00000E+00
         0.00000E+00
         0.00000E+00
         0.00000E+00
         0.00000E+00
         0.00000E+00
         0.00000E+00
         0.00000E+00
         0.00000E+00
         0.00000E+00
         0.00000E+00
         0.00000E+00
         0.00000E+00
         0.00000E+00
         0.00000E+00
         0.00000E+00
         0.00000E+00
         0.00000E+00
         0.00000E+00
         0.00000E+00
         0.00000E+00
         0.00000E+00
         0.00000E+00
         0.00000E+00
         0.00000E+00
         0.00000E+00
         0.00000E+00
         0.00000E+00
         0.00000E+00
         0.00000E+00
         0.00000E+00
         0.00000E+00
         0.00000E+00
         0.00000E+00
         0.00000E+00
         0.00000E+00
         0.00000E+00
         0.00000E+00
         0.00000E+00
         0.00000E+00
         0.00000E+00
         0.00000E+00
         0.00000E+00
         0.00000E+00
         0.00000E+00
         0.00000E+00
         0.00000E+00
         0.00000E+00
         0.00000E+00
         0.00000E+00
         0.00000E+00
         0.00000E+00
         0.00000E+00
         0.00000E+00
         0.00000E+00
         0.00000E+00
         0.00000E+00
         0.00000E+00
         0.00000E+00
         0.00000E+00
         0.00000E+00
         0.00000E+00
         0.00000E+00
         0.00000E+00
         0.00000E+00
         0.00000E+00
         0.00000E+00
         0.00000E+00
         0.00000E+00
         0.00000E+00
         0.00000E+00
         0.00000E+00
         0.00000E+00
         0.00000E+00
         0.00000E+00
         0.00000E+00
         0.00000E+00
         0.00000E+00
         0.00000E+00
         0.00000E+00
         0.00000E+00
         0.00000E+00
         0.00000E+00
         0.00000E+00
         0.00000E+00
         0.00000E+00
         0.00000E+00
         0.00000E+00
         0.00000E+00
         0.00000E+00
         0.00000E+00
         0.00000E+00
         0.00000E+00
         0.00000E+00
         0.00000E+00
         0.00000E+00
         0.00000E+00
         0.00000E+00
         0.00000E+00
         0.00000E+00
         0.00000E+00
         0.00000E+00
         0.00000E+00
         0.00000E+00
         0.00000E+00
         0.00000E+00
         0.00000E+00
         0.00000E+00
         0.00000E+00
         0.00000E+00
         0.00000E+00
         0.00000E+00
         0.00000E+00
         0.00000E+00
         0.00000E+00
         0.00000E+00
         0.00000E+00
         0.00000E+00
         0.00000E+00
         0.00000E+00
         0.00000E+00
         0.00000E+00
         0.00000E+00
         0.00000E+00
         0.00000E+00
         0.00000E+00
         0.00000E+00
         0.00000E+00
         0.00000E+00
         0.00000E+00
         0.00000E+00
         0.00000E+00
         0.00000E+00
         0.00000E+00
         0.00000E+00
         0.00000E+00
         0.00000E+00
         0.00000E+00
         0.00000E+00
         0.00000E+00
         0.00000E+00
         0.00000E+00
         0.00000E+00
         0.00000E+00
         0.00000E+00
         0.00000E+00
         0.00000E+00
         0.00000E+00
         0.00000E+00
         0.00000E+00
         0.00000E+00
         0.00000E+00
         0.00000E+00
         0.00000E+00
         0.00000E+00
         0.00000E+00
         0.00000E+00
         0.00000E+00
         0.00000E+00
         0.00000E+00
         0.00000E+00
         0.00000E+00
         0.00000E+00
         0.00000E+00
         0.00000E+00
         0.00000E+00
         0.00000E+00
         0.00000E+00
         0.00000E+00
         0.00000E+00
         0.00000E+00
         0.00000E+00
         0.00000E+00
         0.00000E+00
         0.00000E+00
         0.00000E+00
         0.00000E+00
         0.00000E+00
         0.00000E+00
         0.00000E+00
         0.00000E+00
         0.00000E+00
         0.00000E+00
         0.00000E+00
         0.00000E+00
         0.00000E+00
         0.00000E+00
         0.00000E+00
         0.00000E+00
         0.00000E+00
         0.00000E+00
         0.00000E+00
         0.00000E+00
         0.00000E+00
         0.00000E+00
         0.00000E+00
         0.00000E+00
         0.00000E+00
         0.00000E+00
         0.00000E+00
         0.00000E+00
         0.00000E+00
         0.00000E+00
         0.00000E+00
         0.00000E+00
         0.00000E+00
         0.00000E+00
         0.00000E+00
         0.00000E+00
         0.00000E+00
         0.00000E+00
         0.00000E+00
         0.00000E+00
         0.00000E+00
         0.00000E+00
         0.00000E+00
         0.00000E+00
         0.00000E+00
         0.00000E+00
         0.00000E+00
         0.00000E+00
         0.00000E+00
         0.00000E+00
         0.00000E+00
         0.00000E+00
         0.00000E+00
         0.00000E+00
         0.00000E+00
         0.00000E+00
         0.00000E+00
         0.00000E+00
         0.00000E+00
         0.00000E+00
         0.00000E+00
         0.00000E+00
         0.00000E+00
         0.00000E+00
         0.00000E+00
         0.00000E+00
         0.00000E+00
         0.00000E+00
         0.00000E+00
         0.00000E+00
         0.00000E+00
         0.00000E+00
         0.00000E+00
         0.00000E+00
         0.00000E+00
         0.00000E+00
         0.00000E+00
         0.00000E+00
         0.00000E+00
         0.00000E+00
         0.00000E+00
         0.00000E+00
         0.00000E+00
         0.00000E+00
         0.00000E+00
         0.00000E+00
         0.00000E+00
         0.00000E+00
         0.00000E+00
         0.00000E+00
         0.00000E+00
         0.00000E+00
         0.00000E+00
         0.00000E+00
         0.00000E+00
         0.00000E+00
         0.00000E+00
         0.00000E+00
         0.00000E+00
         0.00000E+00
         0.00000E+00
         0.00000E+00
         0.00000E+00
         0.00000E+00
         0.00000E+00
         0.00000E+00
         0.00000E+00
         0.00000E+00
         0.00000E+00
         0.00000E+00
         0.00000E+00
         0.00000E+00
         0.00000E+00
         0.00000E+00
         0.00000E+00
         0.00000E+00
         0.00000E+00
         0.00000E+00
         0.00000E+00
         0.00000E+00
         0.00000E+00
         0.00000E+00
         0.00000E+00
         0.00000E+00
         0.00000E+00
         0.00000E+00
         0.00000E+00
         0.00000E+00
         0.00000E+00
         0.00000E+00
         0.00000E+00
         0.00000E+00
         0.00000E+00
         0.00000E+00
         0.00000E+00
         0.00000E+00
         0.00000E+00
         0.00000E+00
         0.00000E+00
         0.00000E+00
         0.00000E+00
         0.00000E+00
         0.00000E+00
         0.00000E+00
         0.00000E+00
         0.00000E+00
         0.00000E+00
         0.00000E+00
         0.00000E+00
         0.00000E+00
         0.00000E+00
         0.00000E+00
         0.00000E+00
         0.00000E+00
         0.00000E+00
         0.00000E+00
         0.00000E+00
         0.00000E+00
         0.00000E+00
         0.00000E+00
         0.00000E+00
         0.00000E+00
         0.00000E+00
         0.00000E+00
         0.00000E+00
         0.00000E+00
         0.00000E+00
         0.00000E+00
         0.00000E+00
         0.00000E+00
         0.00000E+00
         0.00000E+00
         0.00000E+00
         0.00000E+00
         0.00000E+00
         0.00000E+00
         0.00000E+00
         0.00000E+00
         0.00000E+00
         0.00000E+00
         0.00000E+00
         0.00000E+00
         0.00000E+00
         0.00000E+00
         0.00000E+00
         0.00000E+00
         0.00000E+00
         0.00000E+00
         0.00000E+00
         0.00000E+00
         0.00000E+00
         0.00000E+00
         0.00000E+00
         0.00000E+00
         0.00000E+00
         0.00000E+00
         0.00000E+00
         0.00000E+00
         0.00000E+00
         0.00000E+00
         0.00000E+00
         0.00000E+00
         0.00000E+00
         0.00000E+00
         0.00000E+00
         0.00000E+00
         0.00000E+00
         0.00000E+00
         0.00000E+00
         0.00000E+00
         0.00000E+00
         0.00000E+00
         0.00000E+00
         0.00000E+00
         0.00000E+00
         0.00000E+00
         0.00000E+00
         0.00000E+00
         0.00000E+00
         0.00000E+00
         0.00000E+00
         0.00000E+00
         0.00000E+00
         0.00000E+00
         0.00000E+00
         0.00000E+00
         0.00000E+00
         0.00000E+00
         0.00000E+00
         0.00000E+00
         0.00000E+00
         0.00000E+00
         0.00000E+00
         0.00000E+00
         0.00000E+00
         0.00000E+00
         0.00000E+00
         0.00000E+00
         0.00000E+00
         0.00000E+00
         0.00000E+00
         0.00000E+00
         0.00000E+00
         0.00000E+00
         0.00000E+00
         0.00000E+00
         0.00000E+00
         0.00000E+00
         0.00000E+00
         0.00000E+00
         0.00000E+00
         0.00000E+00
         0.00000E+00
         0.00000E+00
         0.00000E+00
         0.00000E+00
         0.00000E+00
         0.00000E+00
         0.00000E+00
         0.00000E+00
         0.00000E+00
         0.00000E+00
         0.00000E+00
         0.00000E+00
         0.00000E+00
         0.00000E+00
         0.00000E+00
         0.00000E+00
         0.00000E+00
         0.00000E+00
         0.00000E+00
         0.00000E+00
         0.00000E+00
         0.00000E+00
         0.00000E+00
         0.00000E+00
         0.00000E+00
         0.00000E+00
         0.00000E+00
         0.00000E+00
         0.00000E+00
         0.00000E+00
         0.00000E+00
         0.00000E+00
         0.00000E+00
         0.00000E+00
         0.00000E+00
         0.00000E+00
         0.00000E+00
         0.00000E+00
         0.00000E+00
         0.00000E+00
         0.00000E+00
         0.00000E+00
         0.00000E+00
         0.00000E+00
         0.00000E+00
         0.00000E+00
         0.00000E+00
         0.00000E+00
         0.00000E+00
         0.00000E+00
         0.00000E+00
         0.00000E+00
         0.00000E+00
         0.00000E+00
         0.00000E+00
         0.00000E+00
         0.00000E+00
         0.00000E+00
         0.00000E+00
         0.00000E+00
         0.00000E+00
         0.00000E+00
         0.00000E+00
         0.00000E+00
         0.00000E+00
         0.00000E+00
         0.00000E+00
         0.00000E+00
         0.00000E+00
         0.00000E+00
         0.00000E+00
         0.00000E+00
         0.00000E+00
         0.00000E+00
         0.00000E+00
         0.00000E+00
         0.00000E+00
         0.00000E+00
         0.00000E+00
         0.00000E+00
         0.00000E+00
         0.00000E+00
         0.00000E+00
         0.00000E+00
         0.00000E+00
         0.00000E+00
         0.00000E+00
         0.00000E+00
         0.00000E+00
         0.00000E+00
         0.00000E+00
         0.00000E+00
         0.00000E+00
         0.00000E+00
         0.00000E+00
         0.00000E+00
         0.00000E+00
         0.00000E+00
         0.00000E+00
         0.00000E+00
         0.00000E+00
         0.00000E+00
         0.00000E+00
         0.00000E+00
         0.00000E+00
         0.00000E+00
         0.00000E+00
         0.00000E+00
         0.00000E+00
         0.00000E+00
         0.00000E+00
         0.00000E+00
         0.00000E+00
         0.00000E+00
         0.00000E+00
         0.00000E+00
         0.00000E+00
         0.00000E+00
         0.00000E+00
         0.00000E+00
         0.00000E+00
         0.00000E+00
         0.00000E+00
         0.00000E+00
         0.00000E+00
         0.00000E+00
         0.00000E+00
         0.00000E+00
         0.00000E+00
         0.00000E+00
         0.00000E+00
         0.00000E+00
         0.00000E+00
         0.00000E+00
         0.00000E+00
         0.00000E+00
         0.00000E+00
         0.00000E+00
         0.00000E+00
         0.00000E+00
         0.00000E+00
         0.00000E+00
         0.00000E+00
         0.00000E+00
         0.00000E+00
         0.00000E+00
         0.00000E+00
         0.00000E+00
         0.00000E+00
         0.00000E+00
         0.00000E+00
         0.00000E+00
         0.00000E+00
         0.00000E+00
         0.00000E+00
         0.00000E+00
         0.00000E+00
         0.00000E+00
         0.00000E+00
         0.00000E+00
         0.00000E+00
         0.00000E+00
         0.00000E+00
         0.00000E+00
         0.00000E+00
         0.00000E+00
         0.00000E+00
         0.00000E+00
         0.00000E+00
         0.00000E+00
         0.00000E+00
         0.00000E+00
         0.00000E+00
         0.00000E+00
         0.00000E+00
         0.00000E+00
         0.00000E+00
         0.00000E+00
         0.00000E+00
         0.00000E+00
         0.00000E+00
         0.00000E+00
         0.00000E+00
         0.00000E+00
         0.00000E+00
         0.00000E+00
         0.00000E+00
         0.00000E+00
         0.00000E+00
         0.00000E+00
         0.00000E+00
         0.00000E+00
         0.00000E+00
         0.00000E+00
         0.00000E+00
         0.00000E+00
         0.00000E+00
         0.00000E+00
         0.00000E+00
         0.00000E+00
         0.00000E+00
         0.00000E+00
         0.00000E+00
         0.00000E+00
         0.00000E+00
         0.00000E+00
         0.00000E+00
         0.00000E+00
         0.00000E+00
         0.00000E+00
         0.00000E+00
         0.00000E+00
         0.00000E+00
         0.00000E+00
         0.00000E+00
         0.00000E+00
         0.00000E+00
         0.00000E+00
         0.00000E+00
         0.00000E+00
         0.00000E+00
         0.00000E+00
         0.00000E+00
         0.00000E+00
         0.00000E+00
         0.00000E+00
         0.00000E+00
         0.00000E+00
         0.00000E+00
         0.00000E+00
         0.00000E+00
         0.00000E+00
         0.00000E+00
         0.00000E+00
         0.00000E+00
         0.00000E+00
         0.00000E+00
         0.00000E+00
         0.00000E+00
         0.00000E+00
         0.00000E+00
         0.00000E+00
         0.00000E+00
         0.00000E+00
         0.00000E+00
         0.00000E+00
         0.00000E+00
         0.00000E+00
         0.00000E+00
         0.00000E+00
         0.00000E+00
         0.00000E+00
         0.00000E+00
         0.00000E+00
         0.00000E+00
         0.00000E+00
         0.00000E+00
         0.00000E+00
         0.00000E+00
         0.00000E+00
         0.00000E+00
         0.00000E+00
         0.00000E+00
         0.00000E+00
         0.00000E+00
         0.00000E+00
         0.00000E+00
         0.00000E+00
         0.00000E+00
         0.00000E+00
         0.00000E+00
         0.00000E+00
         0.00000E+00
         0.00000E+00
         0.00000E+00
         0.00000E+00
         0.00000E+00
         0.00000E+00
         0.00000E+00
         0.00000E+00
         0.00000E+00
         0.00000E+00
         0.00000E+00
         0.00000E+00
         0.00000E+00
         0.00000E+00
         0.00000E+00
         0.00000E+00
         0.00000E+00
         0.00000E+00
         0.00000E+00
         0.00000E+00
         0.00000E+00
         0.00000E+00
         0.00000E+00
         0.00000E+00
         0.00000E+00
         0.00000E+00
         0.00000E+00
         0.00000E+00
         0.00000E+00
         0.00000E+00
         0.00000E+00
         0.00000E+00
         0.00000E+00
         0.00000E+00
         0.00000E+00
         0.00000E+00
         0.00000E+00
         0.00000E+00
         0.00000E+00
         0.00000E+00
         0.00000E+00
         0.00000E+00
         0.00000E+00
         0.00000E+00
         0.00000E+00
         0.00000E+00
         0.00000E+00
         0.00000E+00
         0.00000E+00
         0.00000E+00
         0.00000E+00
         0.00000E+00
         0.00000E+00
         0.00000E+00
         0.00000E+00
         0.00000E+00
         0.00000E+00
         0.00000E+00
         0.00000E+00
         0.00000E+00
         0.00000E+00
         0.00000E+00
         0.00000E+00
         0.00000E+00
         0.00000E+00
         0.00000E+00
         0.00000E+00
         0.00000E+00
         0.00000E+00
         0.00000E+00
         0.00000E+00
         0.00000E+00
         0.00000E+00
         0.00000E+00
         0.00000E+00
         0.00000E+00
         0.00000E+00
         0.00000E+00
         0.00000E+00
         0.00000E+00
         0.00000E+00
         0.00000E+00
         0.00000E+00
         0.00000E+00
         0.00000E+00
         0.00000E+00
         0.00000E+00
         0.00000E+00
         0.00000E+00
         0.00000E+00
         0.00000E+00
         0.00000E+00
         0.00000E+00
         0.00000E+00
         0.00000E+00
         0.00000E+00
         0.00000E+00
         0.00000E+00
         0.00000E+00
         0.00000E+00
         0.00000E+00
         0.00000E+00
         0.00000E+00
         0.00000E+00
         0.00000E+00
         0.00000E+00
         0.00000E+00
         0.00000E+00
         0.00000E+00
         0.00000E+00
         0.00000E+00
         0.00000E+00
         0.00000E+00
         0.00000E+00
         0.00000E+00
         0.00000E+00
         0.00000E+00
         0.00000E+00
         0.00000E+00
         0.00000E+00
         0.00000E+00
         0.00000E+00
         0.00000E+00
         0.00000E+00
         0.00000E+00
         0.00000E+00
         0.00000E+00
         0.00000E+00
         0.00000E+00
         0.00000E+00
         0.00000E+00
         0.00000E+00
         0.00000E+00
         0.00000E+00
         0.00000E+00
         0.00000E+00
         0.00000E+00
         0.00000E+00
         0.00000E+00
         0.00000E+00
         0.00000E+00
         0.00000E+00
         0.00000E+00
         0.00000E+00
         0.00000E+00
         0.00000E+00
         0.00000E+00
         0.00000E+00
         0.00000E+00
         0.00000E+00
         0.00000E+00
         0.00000E+00
         0.00000E+00
         0.00000E+00
         0.00000E+00
         0.00000E+00
         0.00000E+00
         0.00000E+00
         0.00000E+00
         0.00000E+00
         0.00000E+00
         0.00000E+00
         0.00000E+00
         0.00000E+00
         0.00000E+00
         0.00000E+00
         0.00000E+00
         0.00000E+00
         0.00000E+00
         0.00000E+00
         0.00000E+00
         0.00000E+00
         0.00000E+00
         0.00000E+00
         0.00000E+00
         0.00000E+00
         0.00000E+00
         0.00000E+00
         0.00000E+00
         0.00000E+00
         0.00000E+00
         0.00000E+00
         0.00000E+00
         0.00000E+00
         0.00000E+00
         0.00000E+00
         0.00000E+00
         0.00000E+00
         0.00000E+00
         0.00000E+00
         0.00000E+00
         0.00000E+00
         0.00000E+00
         0.00000E+00
         0.00000E+00
         0.00000E+00
         0.00000E+00
         0.00000E+00
         0.00000E+00
         0.00000E+00
         0.00000E+00
         0.00000E+00
         0.00000E+00
         0.00000E+00
         0.00000E+00
         0.00000E+00
         0.00000E+00
         0.00000E+00
         0.00000E+00
         0.00000E+00
         0.00000E+00
         0.00000E+00
         0.00000E+00
         0.00000E+00
         0.00000E+00
         0.00000E+00
         0.00000E+00
         0.00000E+00
         0.00000E+00
         0.00000E+00
         0.00000E+00
         0.00000E+00
         0.00000E+00
         0.00000E+00
         0.00000E+00
         0.00000E+00
         0.00000E+00
         0.00000E+00
         0.00000E+00
         0.00000E+00
         0.00000E+00
         0.00000E+00
         0.00000E+00
         0.00000E+00
         0.00000E+00
         0.00000E+00
         0.00000E+00
         0.00000E+00
         0.00000E+00
         0.00000E+00
         0.00000E+00
         0.00000E+00
         0.00000E+00
         0.00000E+00
         0.00000E+00
         0.00000E+00
         0.00000E+00
         0.00000E+00
         0.00000E+00
         0.00000E+00
         0.00000E+00
         0.00000E+00
         0.00000E+00
         0.00000E+00
         0.00000E+00
         0.00000E+00
         0.00000E+00
         0.00000E+00
         0.00000E+00
         0.00000E+00
         0.00000E+00
         0.00000E+00
         0.00000E+00
         0.00000E+00
         0.00000E+00
         0.00000E+00
         0.00000E+00
         0.00000E+00
         0.00000E+00
         0.00000E+00
         0.00000E+00
         0.00000E+00
         0.00000E+00
         0.00000E+00
         0.00000E+00
         0.00000E+00
         0.00000E+00
         0.00000E+00
         0.00000E+00
         0.00000E+00
         0.00000E+00
         0.00000E+00
         0.00000E+00
         0.00000E+00
         0.00000E+00
         0.00000E+00
         0.00000E+00
         0.00000E+00
         0.00000E+00
         0.00000E+00
         0.00000E+00
         0.00000E+00
         0.00000E+00
         0.00000E+00
         0.00000E+00
         0.00000E+00
         0.00000E+00
         0.00000E+00
         0.00000E+00
         0.00000E+00
         0.00000E+00
         0.00000E+00
         0.00000E+00
         0.00000E+00
         0.00000E+00
         0.00000E+00
         0.00000E+00
         0.00000E+00
         0.00000E+00
         0.00000E+00
         0.00000E+00
         0.00000E+00
         0.00000E+00
         0.00000E+00
         0.00000E+00
         0.00000E+00
         0.00000E+00
         0.00000E+00
         0.00000E+00
         0.00000E+00
         0.00000E+00
         0.00000E+00
         0.00000E+00
         0.00000E+00
         0.00000E+00
         0.00000E+00
         0.00000E+00
         0.00000E+00
         0.00000E+00
         0.00000E+00
         0.00000E+00
         0.00000E+00
         0.00000E+00
         0.00000E+00
         0.00000E+00
         0.00000E+00
         0.00000E+00
         0.00000E+00
         0.00000E+00
         0.00000E+00
         0.00000E+00
         0.00000E+00
         0.00000E+00
         0.00000E+00
         0.00000E+00
         0.00000E+00
         0.00000E+00
         0.00000E+00
         0.00000E+00
         0.00000E+00
         0.00000E+00
         0.00000E+00
         0.00000E+00
         0.00000E+00
         0.00000E+00
         0.00000E+00
         0.00000E+00
         0.00000E+00
         0.00000E+00
         0.00000E+00
         0.00000E+00
         0.00000E+00
         0.00000E+00
         0.00000E+00
         0.00000E+00
         0.00000E+00
         0.00000E+00
         0.00000E+00
         0.00000E+00
         0.00000E+00
         0.00000E+00
         0.00000E+00
         0.00000E+00
         0.00000E+00
         0.00000E+00
         0.00000E+00
         0.00000E+00
         0.00000E+00
         0.00000E+00
         0.00000E+00
         0.00000E+00
         0.00000E+00
         0.00000E+00
         0.00000E+00
         0.00000E+00
         0.00000E+00
         0.00000E+00
         0.00000E+00
         0.00000E+00
         0.00000E+00
         0.00000E+00
         0.00000E+00
         0.00000E+00
         0.00000E+00
         0.00000E+00
         0.00000E+00
         0.00000E+00
         0.00000E+00
         0.00000E+00
         0.00000E+00
         0.00000E+00
         0.00000E+00
         0.00000E+00
         0.00000E+00
         0.00000E+00
         0.00000E+00
         0.00000E+00
         0.00000E+00
         0.00000E+00
         0.00000E+00
         0.00000E+00
         0.00000E+00
         0.00000E+00
         0.00000E+00
         0.00000E+00
         0.00000E+00
         0.00000E+00
         0.00000E+00
         0.00000E+00
         0.00000E+00
         0.00000E+00
         0.00000E+00
         0.00000E+00
         0.00000E+00
         0.00000E+00
         0.00000E+00
         0.00000E+00
         0.00000E+00
         0.00000E+00
         0.00000E+00
         0.00000E+00
         0.00000E+00
         0.00000E+00
         0.00000E+00
         0.00000E+00
         0.00000E+00
         0.00000E+00
         0.00000E+00
         0.00000E+00
         0.00000E+00
         0.00000E+00
         0.00000E+00
         0.00000E+00
         0.00000E+00
         0.00000E+00
         0.00000E+00
         0.00000E+00
         0.00000E+00
         0.00000E+00
         0.00000E+00
         0.00000E+00
         0.00000E+00
         0.00000E+00
         0.00000E+00
         0.00000E+00
         0.00000E+00
         0.00000E+00
         0.00000E+00
         0.00000E+00
         0.00000E+00
         0.00000E+00
         0.00000E+00
         0.00000E+00
         0.00000E+00
         0.00000E+00
         0.00000E+00
         0.00000E+00
         0.00000E+00
         0.00000E+00
         0.00000E+00
         0.00000E+00
         0.00000E+00
         0.00000E+00
         0.00000E+00
         0.00000E+00
         0.00000E+00
         0.00000E+00
         0.00000E+00
         0.00000E+00
         0.00000E+00
         0.00000E+00
         0.00000E+00
         0.00000E+00
         0.00000E+00
         0.00000E+00
         0.00000E+00
         0.00000E+00
         0.00000E+00
         0.00000E+00
         0.00000E+00
         0.00000E+00
         0.00000E+00
         0.00000E+00
         0.00000E+00
         0.00000E+00
         0.00000E+00
         0.00000E+00
         0.00000E+00
         0.00000E+00
         0.00000E+00
         0.00000E+00
         0.00000E+00
         0.00000E+00
         0.00000E+00
         0.00000E+00
         0.00000E+00
         0.00000E+00
         0.00000E+00
         0.00000E+00
         0.00000E+00
         0.00000E+00
         0.00000E+00
         0.00000E+00
         0.00000E+00
         0.00000E+00
         0.00000E+00
         0.00000E+00
         0.00000E+00
         0.00000E+00
         0.00000E+00
         0.00000E+00
         0.00000E+00
         0.00000E+00
         0.00000E+00
         0.00000E+00
         0.00000E+00
         0.00000E+00
         0.00000E+00
         0.00000E+00
         0.00000E+00
         0.00000E+00
         0.00000E+00
         0.00000E+00
         0.00000E+00
         0.00000E+00
         0.00000E+00
         0.00000E+00
         0.00000E+00
         0.00000E+00
         0.00000E+00
         0.00000E+00
         0.00000E+00
         0.00000E+00
         0.00000E+00
         0.00000E+00
         0.00000E+00
         0.00000E+00
         0.00000E+00
         0.00000E+00
         0.00000E+00
         0.00000E+00
         0.00000E+00
         0.00000E+00
         0.00000E+00
         0.00000E+00
         0.00000E+00
         0.00000E+00
         0.00000E+00
         0.00000E+00
         0.00000E+00
         0.00000E+00
         0.00000E+00
         0.00000E+00
         0.00000E+00
         0.00000E+00
         0.00000E+00
         0.00000E+00
         0.00000E+00
         0.00000E+00
         0.00000E+00
         0.00000E+00
         0.00000E+00
         0.00000E+00
         0.00000E+00
         0.00000E+00
         0.00000E+00
         0.00000E+00
         0.00000E+00
         0.00000E+00
         0.00000E+00
         0.00000E+00
         0.00000E+00
         0.00000E+00
         0.00000E+00
         0.00000E+00
         0.00000E+00
         0.00000E+00
         0.00000E+00
         0.00000E+00
         0.00000E+00
         0.00000E+00
         0.00000E+00
         0.00000E+00
         0.00000E+00
         0.00000E+00
         0.00000E+00
         0.00000E+00
         0.00000E+00
         0.00000E+00
         0.00000E+00
         0.00000E+00
         0.00000E+00
         0.00000E+00
         0.00000E+00
         0.00000E+00
         0.00000E+00
         0.00000E+00
         0.00000E+00
         0.00000E+00
         0.00000E+00
         0.00000E+00
         0.00000E+00
         0.00000E+00
         0.00000E+00
         0.00000E+00
         0.00000E+00
         0.00000E+00
         0.00000E+00
         0.00000E+00
         0.00000E+00
         0.00000E+00
         0.00000E+00
         0.00000E+00
         0.00000E+00
         0.00000E+00
         0.00000E+00
         0.00000E+00
         0.00000E+00
         0.00000E+00
         0.00000E+00
         0.00000E+00
         0.00000E+00
         0.00000E+00
         0.00000E+00
         0.00000E+00
         0.00000E+00
         0.00000E+00
         0.00000E+00
         0.00000E+00
         0.00000E+00
         0.00000E+00
         0.00000E+00
         0.00000E+00
         0.00000E+00
         0.00000E+00
         0.00000E+00
         0.00000E+00
         0.00000E+00
         0.00000E+00
         0.00000E+00
         0.00000E+00
         0.00000E+00
         0.00000E+00
         0.00000E+00
         0.00000E+00
         0.00000E+00
         0.00000E+00
         0.00000E+00
         0.00000E+00
         0.00000E+00
         0.00000E+00
         0.00000E+00
         0.00000E+00
         0.00000E+00
         0.00000E+00
         0.00000E+00
         0.00000E+00
         0.00000E+00
         0.00000E+00
         0.00000E+00
         0.00000E+00
         0.00000E+00
         0.00000E+00
         0.00000E+00
         0.00000E+00
         0.00000E+00
         0.00000E+00
         0.00000E+00
         0.00000E+00
         0.00000E+00
         0.00000E+00
         0.00000E+00
         0.00000E+00
         0.00000E+00
         0.00000E+00
         0.00000E+00
         0.00000E+00
         0.00000E+00
         0.00000E+00
         0.00000E+00
         0.00000E+00
         0.00000E+00
         0.00000E+00
         0.00000E+00
         0.00000E+00
         0.00000E+00
         0.00000E+00
         0.00000E+00
         0.00000E+00
         0.00000E+00
         0.00000E+00
         0.00000E+00
         0.00000E+00
         0.00000E+00
         0.00000E+00
         0.00000E+00
         0.00000E+00
         0.00000E+00
         0.00000E+00
         0.00000E+00
         0.00000E+00
         0.00000E+00
         0.00000E+00
         0.00000E+00
         0.00000E+00
         0.00000E+00
         0.00000E+00
         0.00000E+00
         0.00000E+00
         0.00000E+00
         0.00000E+00
         0.00000E+00
         0.00000E+00
         0.00000E+00
         0.00000E+00
         0.00000E+00
         0.00000E+00
         0.00000E+00
         0.00000E+00
         0.00000E+00
         0.00000E+00
         0.00000E+00
         0.00000E+00
         0.00000E+00
         0.00000E+00
         0.00000E+00
         0.00000E+00
         0.00000E+00
         0.00000E+00
         0.00000E+00
         0.00000E+00
         0.00000E+00
         0.00000E+00
         0.00000E+00
         0.00000E+00
         0.00000E+00
         0.00000E+00
         0.00000E+00
         0.00000E+00
         0.00000E+00
         0.00000E+00
         0.00000E+00
         0.00000E+00
         0.00000E+00
         0.00000E+00
         0.00000E+00
         0.00000E+00
         0.00000E+00
         0.00000E+00
         0.00000E+00
         0.00000E+00
         0.00000E+00
         0.00000E+00
         0.00000E+00
         0.00000E+00
         0.00000E+00
         0.00000E+00
         0.00000E+00
         0.00000E+00
         0.00000E+00
         0.00000E+00
         0.00000E+00
         0.00000E+00
         0.00000E+00
         0.00000E+00
         0.00000E+00
         0.00000E+00
         0.00000E+00
         0.00000E+00
         0.00000E+00
         0.00000E+00
         0.00000E+00
         0.00000E+00
         0.00000E+00
         0.00000E+00
         0.00000E+00
         0.00000E+00
         0.00000E+00
         0.00000E+00
         0.00000E+00
         0.00000E+00
         0.00000E+00
         0.00000E+00
         0.00000E+00
         0.00000E+00
         0.00000E+00
         0.00000E+00
         0.00000E+00
         0.00000E+00
         0.00000E+00
         0.00000E+00
         0.00000E+00
         0.00000E+00
         0.00000E+00
         0.00000E+00
         0.00000E+00
         0.00000E+00
         0.00000E+00
         0.00000E+00
         0.00000E+00
         0.00000E+00
         0.00000E+00
         0.00000E+00
         0.00000E+00
         0.00000E+00
         0.00000E+00
         0.00000E+00
         0.00000E+00
         0.00000E+00
         0.00000E+00
         0.00000E+00
         0.00000E+00
         0.00000E+00
         0.00000E+00
         0.00000E+00
         0.00000E+00
         0.00000E+00
         0.00000E+00
         0.00000E+00
         0.00000E+00
         0.00000E+00
         0.00000E+00
         0.00000E+00
         0.00000E+00
         0.00000E+00
         0.00000E+00
         0.00000E+00
         0.00000E+00
         0.00000E+00
         0.00000E+00
         0.00000E+00
         0.00000E+00
         0.00000E+00
         0.00000E+00
         0.00000E+00
         0.00000E+00
         0.00000E+00
         0.00000E+00
         0.00000E+00
         0.00000E+00
         0.00000E+00
         0.00000E+00
         0.00000E+00
         0.00000E+00
         0.00000E+00
         0.00000E+00
         0.00000E+00
         0.00000E+00
         0.00000E+00
         0.00000E+00
         0.00000E+00
         0.00000E+00
         0.00000E+00
         0.00000E+00
         0.00000E+00
         0.00000E+00
         0.00000E+00
         0.00000E+00
         0.00000E+00
         0.00000E+00
         0.00000E+00
         0.00000E+00
         0.00000E+00
         0.00000E+00
         0.00000E+00
         0.00000E+00
         0.00000E+00
         0.00000E+00
         0.00000E+00
         0.00000E+00
         0.00000E+00
         0.00000E+00
         0.00000E+00
         0.00000E+00
         0.00000E+00
         0.00000E+00
         0.00000E+00
         0.00000E+00
         0.00000E+00
         0.00000E+00
         0.00000E+00
         0.00000E+00
         0.00000E+00
         0.00000E+00
         0.00000E+00
         0.00000E+00
         0.00000E+00
         0.00000E+00
         0.00000E+00
         0.00000E+00
         0.00000E+00
         0.00000E+00
         0.00000E+00
         0.00000E+00
         0.00000E+00
         0.00000E+00
         0.00000E+00
         0.00000E+00
         0.00000E+00
         0.00000E+00
         0.00000E+00
         0.00000E+00
         0.00000E+00
         0.00000E+00
         0.00000E+00
         0.00000E+00
         0.00000E+00
         0.00000E+00
         0.00000E+00
         0.00000E+00
         0.00000E+00
         0.00000E+00
         0.00000E+00
         0.00000E+00
         0.00000E+00
         0.00000E+00
         0.00000E+00
         0.00000E+00
         0.00000E+00
         0.00000E+00
         0.00000E+00
         0.00000E+00
         0.00000E+00
         0.00000E+00
         0.00000E+00
         0.00000E+00
         0.00000E+00
         0.00000E+00
         0.00000E+00
         0.00000E+00
         0.00000E+00
         0.00000E+00
         0.00000E+00
         0.00000E+00
         0.00000E+00
         0.00000E+00
         0.00000E+00
         0.00000E+00
         0.00000E+00
         0.00000E+00
         0.00000E+00
         0.00000E+00
         0.00000E+00
         0.00000E+00
         0.00000E+00
         0.00000E+00
         0.00000E+00
         0.00000E+00
         0.00000E+00
         0.00000E+00
         0.00000E+00
         0.00000E+00
         0.00000E+00
         0.00000E+00
         0.00000E+00
         0.00000E+00
         0.00000E+00
         0.00000E+00
         0.00000E+00
         0.00000E+00
         0.00000E+00
         0.00000E+00
         0.00000E+00
         0.00000E+00
         0.00000E+00
         0.00000E+00
         0.00000E+00
         0.00000E+00
         0.00000E+00
         0.00000E+00
         0.00000E+00
         0.00000E+00
         0.00000E+00
         0.00000E+00
         0.00000E+00
         0.00000E+00
         0.00000E+00
         0.00000E+00
         0.00000E+00
         0.00000E+00
         0.00000E+00
         0.00000E+00
         0.00000E+00
         0.00000E+00
         0.00000E+00
         0.00000E+00
         0.00000E+00
         0.00000E+00
         0.00000E+00
         0.00000E+00
         0.00000E+00
         0.00000E+00
         0.00000E+00
         0.00000E+00
         0.00000E+00
         0.00000E+00
         0.00000E+00
         0.00000E+00
         0.00000E+00
         0.00000E+00
         0.00000E+00
         0.00000E+00
         0.00000E+00
         0.00000E+00
         0.00000E+00
         0.00000E+00
         0.00000E+00
         0.00000E+00
         0.00000E+00
         0.00000E+00
         0.00000E+00
         0.00000E+00
         0.00000E+00
         0.00000E+00
         0.00000E+00
         0.00000E+00
         0.00000E+00
         0.00000E+00
         0.00000E+00
         0.00000E+00
         0.00000E+00
         0.00000E+00
         0.00000E+00
         0.00000E+00
         0.00000E+00
         0.00000E+00
         0.00000E+00
         0.00000E+00
         0.00000E+00
         0.00000E+00
         0.00000E+00
         0.00000E+00
         0.00000E+00
         0.00000E+00
         0.00000E+00
         0.00000E+00
         0.00000E+00
         0.00000E+00
         0.00000E+00
         0.00000E+00
         0.00000E+00
         0.00000E+00
         0.00000E+00
         0.00000E+00
         0.00000E+00
         0.00000E+00
         0.00000E+00
         0.00000E+00
         0.00000E+00
         0.00000E+00
         0.00000E+00
         0.00000E+00
         0.00000E+00
         0.00000E+00
         0.00000E+00
         0.00000E+00
         0.00000E+00
         0.00000E+00
         0.00000E+00
         0.00000E+00
         0.00000E+00
         0.00000E+00
         0.00000E+00
         0.00000E+00
         0.00000E+00
         0.00000E+00
         0.00000E+00
         0.00000E+00
         0.00000E+00
         0.00000E+00
         0.00000E+00
         0.00000E+00
         0.00000E+00
         0.00000E+00
         0.00000E+00
         0.00000E+00
         0.00000E+00
         0.00000E+00
         0.00000E+00
         0.00000E+00
         0.00000E+00
         0.00000E+00
         0.00000E+00
         0.00000E+00
         0.00000E+00
         0.00000E+00
         0.00000E+00
         0.00000E+00
         0.00000E+00
         0.00000E+00
         0.00000E+00
         0.00000E+00
         0.00000E+00
         0.00000E+00
         0.00000E+00
         0.00000E+00
         0.00000E+00
         0.00000E+00
         0.00000E+00
         0.00000E+00
         0.00000E+00
         0.00000E+00
         0.00000E+00
         0.00000E+00
         0.00000E+00
         0.00000E+00
         0.00000E+00
         0.00000E+00
         0.00000E+00
         0.00000E+00
         0.00000E+00
         0.00000E+00
         0.00000E+00
         0.00000E+00
         0.00000E+00
         0.00000E+00
         0.00000E+00
         0.00000E+00
         0.00000E+00
         0.00000E+00
         0.00000E+00
         0.00000E+00
         0.00000E+00
         0.00000E+00
         0.00000E+00
         0.00000E+00
         0.00000E+00
         0.00000E+00
         0.00000E+00
         0.00000E+00
         0.00000E+00
         0.00000E+00
         0.00000E+00
         0.00000E+00
         0.00000E+00
         0.00000E+00
         0.00000E+00
         0.00000E+00
         0.00000E+00
         0.00000E+00
         0.00000E+00
         0.00000E+00
  
SCALARS                     velocity_y  double 1
LOOKUP_TABLE default
         0.00000E+00
         0.00000E+00
         0.00000E+00
         0.00000E+00
         0.00000E+00
         0.00000E+00
         0.00000E+00
         0.00000E+00
         0.00000E+00
         0.00000E+00
         0.00000E+00
         0.00000E+00
         0.00000E+00
         0.00000E+00
         0.00000E+00
         0.00000E+00
         0.00000E+00
         0.00000E+00
         0.00000E+00
         0.00000E+00
         0.00000E+00
         0.00000E+00
         0.00000E+00
         0.00000E+00
         0.00000E+00
         0.00000E+00
         0.00000E+00
         0.00000E+00
         0.00000E+00
         0.00000E+00
         0.00000E+00
         0.00000E+00
         0.00000E+00
         0.00000E+00
         0.00000E+00
         0.00000E+00
         0.00000E+00
         0.00000E+00
         0.00000E+00
         0.00000E+00
         0.00000E+00
         0.00000E+00
         0.00000E+00
         0.00000E+00
         0.00000E+00
         0.00000E+00
         0.00000E+00
         0.00000E+00
         0.00000E+00
         0.00000E+00
         0.00000E+00
         0.00000E+00
         0.00000E+00
         0.00000E+00
         0.00000E+00
         0.00000E+00
         0.00000E+00
         0.00000E+00
         0.00000E+00
         0.00000E+00
         0.00000E+00
         0.00000E+00
         0.00000E+00
         0.00000E+00
         0.00000E+00
         0.00000E+00
         0.00000E+00
         0.00000E+00
         0.00000E+00
         0.00000E+00
         0.00000E+00
         0.00000E+00
         0.00000E+00
         0.00000E+00
         0.00000E+00
         0.00000E+00
         0.00000E+00
         0.00000E+00
         0.00000E+00
         0.00000E+00
         0.00000E+00
         0.00000E+00
         0.00000E+00
         0.00000E+00
         0.00000E+00
         0.00000E+00
         0.00000E+00
         0.00000E+00
         0.00000E+00
         0.00000E+00
         0.00000E+00
         0.00000E+00
         0.00000E+00
         0.00000E+00
         0.00000E+00
         0.00000E+00
         0.00000E+00
         0.00000E+00
         0.00000E+00
         0.00000E+00
         0.00000E+00
         0.00000E+00
         0.00000E+00
         0.00000E+00
         0.00000E+00
         0.00000E+00
         0.00000E+00
         0.00000E+00
         0.00000E+00
         0.00000E+00
         0.00000E+00
         0.00000E+00
         0.00000E+00
         0.00000E+00
         0.00000E+00
         0.00000E+00
         0.00000E+00
         0.00000E+00
         0.00000E+00
         0.00000E+00
         0.00000E+00
         0.00000E+00
         0.00000E+00
         0.00000E+00
         0.00000E+00
         0.00000E+00
         0.00000E+00
         0.00000E+00
         0.00000E+00
         0.00000E+00
         0.00000E+00
         0.00000E+00
         0.00000E+00
         0.00000E+00
         0.00000E+00
         0.00000E+00
         0.00000E+00
         0.00000E+00
         0.00000E+00
         0.00000E+00
         0.00000E+00
         0.00000E+00
         0.00000E+00
         0.00000E+00
         0.00000E+00
         0.00000E+00
         0.00000E+00
         0.00000E+00
         0.00000E+00
         0.00000E+00
         0.00000E+00
         0.00000E+00
         0.00000E+00
         0.00000E+00
         0.00000E+00
         0.00000E+00
         0.00000E+00
         0.00000E+00
         0.00000E+00
         0.00000E+00
         0.00000E+00
         0.00000E+00
         0.00000E+00
         0.00000E+00
         0.00000E+00
         0.00000E+00
         0.00000E+00
         0.00000E+00
         0.00000E+00
         0.00000E+00
         0.00000E+00
         0.00000E+00
         0.00000E+00
         0.00000E+00
         0.00000E+00
         0.00000E+00
         0.00000E+00
         0.00000E+00
         0.00000E+00
         0.00000E+00
         0.00000E+00
         0.00000E+00
         0.00000E+00
         0.00000E+00
         0.00000E+00
         0.00000E+00
         0.00000E+00
         0.00000E+00
         0.00000E+00
         0.00000E+00
         0.00000E+00
         0.00000E+00
         0.00000E+00
         0.00000E+00
         0.00000E+00
         0.00000E+00
         0.00000E+00
         0.00000E+00
         0.00000E+00
         0.00000E+00
         0.00000E+00
         0.00000E+00
         0.00000E+00
         0.00000E+00
         0.00000E+00
         0.00000E+00
         0.00000E+00
         0.00000E+00
         0.00000E+00
         0.00000E+00
         0.00000E+00
         0.00000E+00
         0.00000E+00
         0.00000E+00
         0.00000E+00
         0.00000E+00
         0.00000E+00
         0.00000E+00
         0.00000E+00
         0.00000E+00
         0.00000E+00
         0.00000E+00
         0.00000E+00
         0.00000E+00
         0.00000E+00
         0.00000E+00
         0.00000E+00
         0.00000E+00
         0.00000E+00
         0.00000E+00
         0.00000E+00
         0.00000E+00
         0.00000E+00
         0.00000E+00
         0.00000E+00
         0.00000E+00
         0.00000E+00
         0.00000E+00
         0.00000E+00
         0.00000E+00
         0.00000E+00
         0.00000E+00
         0.00000E+00
         0.00000E+00
         0.00000E+00
         0.00000E+00
         0.00000E+00
         0.00000E+00
         0.00000E+00
         0.00000E+00
         0.00000E+00
         0.00000E+00
         0.00000E+00
         0.00000E+00
         0.00000E+00
         0.00000E+00
         0.00000E+00
         0.00000E+00
         0.00000E+00
         0.00000E+00
         0.00000E+00
         0.00000E+00
         0.00000E+00
         0.00000E+00
         0.00000E+00
         0.00000E+00
         0.00000E+00
         0.00000E+00
         0.00000E+00
         0.00000E+00
         0.00000E+00
         0.00000E+00
         0.00000E+00
         0.00000E+00
         0.00000E+00
         0.00000E+00
         0.00000E+00
         0.00000E+00
         0.00000E+00
         0.00000E+00
         0.00000E+00
         0.00000E+00
         0.00000E+00
         0.00000E+00
         0.00000E+00
         0.00000E+00
         0.00000E+00
         0.00000E+00
         0.00000E+00
         0.00000E+00
         0.00000E+00
         0.00000E+00
         0.00000E+00
         0.00000E+00
         0.00000E+00
         0.00000E+00
         0.00000E+00
         0.00000E+00
         0.00000E+00
         0.00000E+00
         0.00000E+00
         0.00000E+00
         0.00000E+00
         0.00000E+00
         0.00000E+00
         0.00000E+00
         0.00000E+00
         0.00000E+00
         0.00000E+00
         0.00000E+00
         0.00000E+00
         0.00000E+00
         0.00000E+00
         0.00000E+00
         0.00000E+00
         0.00000E+00
         0.00000E+00
         0.00000E+00
         0.00000E+00
         0.00000E+00
         0.00000E+00
         0.00000E+00
         0.00000E+00
         0.00000E+00
         0.00000E+00
         0.00000E+00
         0.00000E+00
         0.00000E+00
         0.00000E+00
         0.00000E+00
         0.00000E+00
         0.00000E+00
         0.00000E+00
         0.00000E+00
         0.00000E+00
         0.00000E+00
         0.00000E+00
         0.00000E+00
         0.00000E+00
         0.00000E+00
         0.00000E+00
         0.00000E+00
         0.00000E+00
         0.00000E+00
         0.00000E+00
         0.00000E+00
         0.00000E+00
         0.00000E+00
         0.00000E+00
         0.00000E+00
         0.00000E+00
         0.00000E+00
         0.00000E+00
         0.00000E+00
         0.00000E+00
         0.00000E+00
         0.00000E+00
         0.00000E+00
         0.00000E+00
         0.00000E+00
         0.00000E+00
         0.00000E+00
         0.00000E+00
         0.00000E+00
         0.00000E+00
         0.00000E+00
         0.00000E+00
         0.00000E+00
         0.00000E+00
         0.00000E+00
         0.00000E+00
         0.00000E+00
         0.00000E+00
         0.00000E+00
         0.00000E+00
         0.00000E+00
         0.00000E+00
         0.00000E+00
         0.00000E+00
         0.00000E+00
         0.00000E+00
         0.00000E+00
         0.00000E+00
         0.00000E+00
         0.00000E+00
         0.00000E+00
         0.00000E+00
         0.00000E+00
         0.00000E+00
         0.00000E+00
         0.00000E+00
         0.00000E+00
         0.00000E+00
         0.00000E+00
         0.00000E+00
         0.00000E+00
         0.00000E+00
         0.00000E+00
         0.00000E+00
         0.00000E+00
         0.00000E+00
         0.00000E+00
         0.00000E+00
         0.00000E+00
         0.00000E+00
         0.00000E+00
         0.00000E+00
         0.00000E+00
         0.00000E+00
         0.00000E+00
         0.00000E+00
         0.00000E+00
         0.00000E+00
         0.00000E+00
         0.00000E+00
         0.00000E+00
         0.00000E+00
         0.00000E+00
         0.00000E+00
         0.00000E+00
         0.00000E+00
         0.00000E+00
         0.00000E+00
         0.00000E+00
         0.00000E+00
         0.00000E+00
         0.00000E+00
         0.00000E+00
         0.00000E+00
         0.00000E+00
         0.00000E+00
         0.00000E+00
         0.00000E+00
         0.00000E+00
         0.00000E+00
         0.00000E+00
         0.00000E+00
         0.00000E+00
         0.00000E+00
         0.00000E+00
         0.00000E+00
         0.00000E+00
         0.00000E+00
         0.00000E+00
         0.00000E+00
         0.00000E+00
         0.00000E+00
         0.00000E+00
         0.00000E+00
         0.00000E+00
         0.00000E+00
         0.00000E+00
         0.00000E+00
         0.00000E+00
         0.00000E+00
         0.00000E+00
         0.00000E+00
         0.00000E+00
         0.00000E+00
         0.00000E+00
         0.00000E+00
         0.00000E+00
         0.00000E+00
         0.00000E+00
         0.00000E+00
         0.00000E+00
         0.00000E+00
         0.00000E+00
         0.00000E+00
         0.00000E+00
         0.00000E+00
         0.00000E+00
         0.00000E+00
         0.00000E+00
         0.00000E+00
         0.00000E+00
         0.00000E+00
         0.00000E+00
         0.00000E+00
         0.00000E+00
         0.00000E+00
         0.00000E+00
         0.00000E+00
         0.00000E+00
         0.00000E+00
         0.00000E+00
         0.00000E+00
         0.00000E+00
         0.00000E+00
         0.00000E+00
         0.00000E+00
         0.00000E+00
         0.00000E+00
         0.00000E+00
         0.00000E+00
         0.00000E+00
         0.00000E+00
         0.00000E+00
         0.00000E+00
         0.00000E+00
         0.00000E+00
         0.00000E+00
         0.00000E+00
         0.00000E+00
         0.00000E+00
         0.00000E+00
         0.00000E+00
         0.00000E+00
         0.00000E+00
         0.00000E+00
         0.00000E+00
         0.00000E+00
         0.00000E+00
         0.00000E+00
         0.00000E+00
         0.00000E+00
         0.00000E+00
         0.00000E+00
         0.00000E+00
         0.00000E+00
         0.00000E+00
         0.00000E+00
         0.00000E+00
         0.00000E+00
         0.00000E+00
         0.00000E+00
         0.00000E+00
         0.00000E+00
         0.00000E+00
         0.00000E+00
         0.00000E+00
         0.00000E+00
         0.00000E+00
         0.00000E+00
         0.00000E+00
         0.00000E+00
         0.00000E+00
         0.00000E+00
         0.00000E+00
         0.00000E+00
         0.00000E+00
         0.00000E+00
         0.00000E+00
         0.00000E+00
         0.00000E+00
         0.00000E+00
         0.00000E+00
         0.00000E+00
         0.00000E+00
         0.00000E+00
         0.00000E+00
         0.00000E+00
         0.00000E+00
         0.00000E+00
         0.00000E+00
         0.00000E+00
         0.00000E+00
         0.00000E+00
         0.00000E+00
         0.00000E+00
         0.00000E+00
         0.00000E+00
         0.00000E+00
         0.00000E+00
         0.00000E+00
         0.00000E+00
         0.00000E+00
         0.00000E+00
         0.00000E+00
         0.00000E+00
         0.00000E+00
         0.00000E+00
         0.00000E+00
         0.00000E+00
         0.00000E+00
         0.00000E+00
         0.00000E+00
         0.00000E+00
         0.00000E+00
         0.00000E+00
         0.00000E+00
         0.00000E+00
         0.00000E+00
         0.00000E+00
         0.00000E+00
         0.00000E+00
         0.00000E+00
         0.00000E+00
         0.00000E+00
         0.00000E+00
         0.00000E+00
         0.00000E+00
         0.00000E+00
         0.00000E+00
         0.00000E+00
         0.00000E+00
         0.00000E+00
         0.00000E+00
         0.00000E+00
         0.00000E+00
         0.00000E+00
         0.00000E+00
         0.00000E+00
         0.00000E+00
         0.00000E+00
         0.00000E+00
         0.00000E+00
         0.00000E+00
         0.00000E+00
         0.00000E+00
         0.00000E+00
         0.00000E+00
         0.00000E+00
         0.00000E+00
         0.00000E+00
         0.00000E+00
         0.00000E+00
         0.00000E+00
         0.00000E+00
         0.00000E+00
         0.00000E+00
         0.00000E+00
         0.00000E+00
         0.00000E+00
         0.00000E+00
         0.00000E+00
         0.00000E+00
         0.00000E+00
         0.00000E+00
         0.00000E+00
         0.00000E+00
         0.00000E+00
         0.00000E+00
         0.00000E+00
         0.00000E+00
         0.00000E+00
         0.00000E+00
         0.00000E+00
         0.00000E+00
         0.00000E+00
         0.00000E+00
         0.00000E+00
         0.00000E+00
         0.00000E+00
         0.00000E+00
         0.00000E+00
         0.00000E+00
         0.00000E+00
         0.00000E+00
         0.00000E+00
         0.00000E+00
         0.00000E+00
         0.00000E+00
         0.00000E+00
         0.00000E+00
         0.00000E+00
         0.00000E+00
         0.00000E+00
         0.00000E+00
         0.00000E+00
         0.00000E+00
         0.00000E+00
         0.00000E+00
         0.00000E+00
         0.00000E+00
         0.00000E+00
         0.00000E+00
         0.00000E+00
         0.00000E+00
         0.00000E+00
         0.00000E+00
         0.00000E+00
         0.00000E+00
         0.00000E+00
         0.00000E+00
         0.00000E+00
         0.00000E+00
         0.00000E+00
         0.00000E+00
         0.00000E+00
         0.00000E+00
         0.00000E+00
         0.00000E+00
         0.00000E+00
         0.00000E+00
         0.00000E+00
         0.00000E+00
         0.00000E+00
         0.00000E+00
         0.00000E+00
         0.00000E+00
         0.00000E+00
         0.00000E+00
         0.00000E+00
         0.00000E+00
         0.00000E+00
         0.00000E+00
         0.00000E+00
         0.00000E+00
         0.00000E+00
         0.00000E+00
         0.00000E+00
         0.00000E+00
         0.00000E+00
         0.00000E+00
         0.00000E+00
         0.00000E+00
         0.00000E+00
         0.00000E+00
         0.00000E+00
         0.00000E+00
         0.00000E+00
         0.00000E+00
         0.00000E+00
         0.00000E+00
         0.00000E+00
         0.00000E+00
         0.00000E+00
         0.00000E+00
         0.00000E+00
         0.00000E+00
         0.00000E+00
         0.00000E+00
         0.00000E+00
         0.00000E+00
         0.00000E+00
         0.00000E+00
         0.00000E+00
         0.00000E+00
         0.00000E+00
         0.00000E+00
         0.00000E+00
         0.00000E+00
         0.00000E+00
         0.00000E+00
         0.00000E+00
         0.00000E+00
         0.00000E+00
         0.00000E+00
         0.00000E+00
         0.00000E+00
         0.00000E+00
         0.00000E+00
         0.00000E+00
         0.00000E+00
         0.00000E+00
         0.00000E+00
         0.00000E+00
         0.00000E+00
         0.00000E+00
         0.00000E+00
         0.00000E+00
         0.00000E+00
         0.00000E+00
         0.00000E+00
         0.00000E+00
         0.00000E+00
         0.00000E+00
         0.00000E+00
         0.00000E+00
         0.00000E+00
         0.00000E+00
         0.00000E+00
         0.00000E+00
         0.00000E+00
         0.00000E+00
         0.00000E+00
         0.00000E+00
         0.00000E+00
         0.00000E+00
         0.00000E+00
         0.00000E+00
         0.00000E+00
         0.00000E+00
         0.00000E+00
         0.00000E+00
         0.00000E+00
         0.00000E+00
         0.00000E+00
         0.00000E+00
         0.00000E+00
         0.00000E+00
         0.00000E+00
         0.00000E+00
         0.00000E+00
         0.00000E+00
         0.00000E+00
         0.00000E+00
         0.00000E+00
         0.00000E+00
         0.00000E+00
         0.00000E+00
         0.00000E+00
         0.00000E+00
         0.00000E+00
         0.00000E+00
         0.00000E+00
         0.00000E+00
         0.00000E+00
         0.00000E+00
         0.00000E+00
         0.00000E+00
         0.00000E+00
         0.00000E+00
         0.00000E+00
         0.00000E+00
         0.00000E+00
         0.00000E+00
         0.00000E+00
         0.00000E+00
         0.00000E+00
         0.00000E+00
         0.00000E+00
         0.00000E+00
         0.00000E+00
         0.00000E+00
         0.00000E+00
         0.00000E+00
         0.00000E+00
         0.00000E+00
         0.00000E+00
         0.00000E+00
         0.00000E+00
         0.00000E+00
         0.00000E+00
         0.00000E+00
         0.00000E+00
         0.00000E+00
         0.00000E+00
         0.00000E+00
         0.00000E+00
         0.00000E+00
         0.00000E+00
         0.00000E+00
         0.00000E+00
         0.00000E+00
         0.00000E+00
         0.00000E+00
         0.00000E+00
         0.00000E+00
         0.00000E+00
         0.00000E+00
         0.00000E+00
         0.00000E+00
         0.00000E+00
         0.00000E+00
         0.00000E+00
         0.00000E+00
         0.00000E+00
         0.00000E+00
         0.00000E+00
         0.00000E+00
         0.00000E+00
         0.00000E+00
         0.00000E+00
         0.00000E+00
         0.00000E+00
         0.00000E+00
         0.00000E+00
         0.00000E+00
         0.00000E+00
         0.00000E+00
         0.00000E+00
         0.00000E+00
         0.00000E+00
         0.00000E+00
         0.00000E+00
         0.00000E+00
         0.00000E+00
         0.00000E+00
         0.00000E+00
         0.00000E+00
         0.00000E+00
         0.00000E+00
         0.00000E+00
         0.00000E+00
         0.00000E+00
         0.00000E+00
         0.00000E+00
         0.00000E+00
         0.00000E+00
         0.00000E+00
         0.00000E+00
         0.00000E+00
         0.00000E+00
         0.00000E+00
         0.00000E+00
         0.00000E+00
         0.00000E+00
         0.00000E+00
         0.00000E+00
         0.00000E+00
         0.00000E+00
         0.00000E+00
         0.00000E+00
         0.00000E+00
         0.00000E+00
         0.00000E+00
         0.00000E+00
         0.00000E+00
         0.00000E+00
         0.00000E+00
         0.00000E+00
         0.00000E+00
         0.00000E+00
         0.00000E+00
         0.00000E+00
         0.00000E+00
         0.00000E+00
         0.00000E+00
         0.00000E+00
         0.00000E+00
         0.00000E+00
         0.00000E+00
         0.00000E+00
         0.00000E+00
         0.00000E+00
         0.00000E+00
         0.00000E+00
         0.00000E+00
         0.00000E+00
         0.00000E+00
         0.00000E+00
         0.00000E+00
         0.00000E+00
         0.00000E+00
         0.00000E+00
         0.00000E+00
         0.00000E+00
         0.00000E+00
         0.00000E+00
         0.00000E+00
         0.00000E+00
         0.00000E+00
         0.00000E+00
         0.00000E+00
         0.00000E+00
         0.00000E+00
         0.00000E+00
         0.00000E+00
         0.00000E+00
         0.00000E+00
         0.00000E+00
         0.00000E+00
         0.00000E+00
         0.00000E+00
         0.00000E+00
         0.00000E+00
         0.00000E+00
         0.00000E+00
         0.00000E+00
         0.00000E+00
         0.00000E+00
         0.00000E+00
         0.00000E+00
         0.00000E+00
         0.00000E+00
         0.00000E+00
         0.00000E+00
         0.00000E+00
         0.00000E+00
         0.00000E+00
         0.00000E+00
         0.00000E+00
         0.00000E+00
         0.00000E+00
         0.00000E+00
         0.00000E+00
         0.00000E+00
         0.00000E+00
         0.00000E+00
         0.00000E+00
         0.00000E+00
         0.00000E+00
         0.00000E+00
         0.00000E+00
         0.00000E+00
         0.00000E+00
         0.00000E+00
         0.00000E+00
         0.00000E+00
         0.00000E+00
         0.00000E+00
         0.00000E+00
         0.00000E+00
         0.00000E+00
         0.00000E+00
         0.00000E+00
         0.00000E+00
         0.00000E+00
         0.00000E+00
         0.00000E+00
         0.00000E+00
         0.00000E+00
         0.00000E+00
         0.00000E+00
         0.00000E+00
         0.00000E+00
         0.00000E+00
         0.00000E+00
         0.00000E+00
         0.00000E+00
         0.00000E+00
         0.00000E+00
         0.00000E+00
         0.00000E+00
         0.00000E+00
         0.00000E+00
         0.00000E+00
         0.00000E+00
         0.00000E+00
         0.00000E+00
         0.00000E+00
         0.00000E+00
         0.00000E+00
         0.00000E+00
         0.00000E+00
         0.00000E+00
         0.00000E+00
         0.00000E+00
         0.00000E+00
         0.00000E+00
         0.00000E+00
         0.00000E+00
         0.00000E+00
         0.00000E+00
         0.00000E+00
         0.00000E+00
         0.00000E+00
         0.00000E+00
         0.00000E+00
         0.00000E+00
         0.00000E+00
         0.00000E+00
         0.00000E+00
         0.00000E+00
         0.00000E+00
         0.00000E+00
         0.00000E+00
         0.00000E+00
         0.00000E+00
         0.00000E+00
         0.00000E+00
         0.00000E+00
         0.00000E+00
         0.00000E+00
         0.00000E+00
         0.00000E+00
         0.00000E+00
         0.00000E+00
         0.00000E+00
         0.00000E+00
         0.00000E+00
         0.00000E+00
         0.00000E+00
         0.00000E+00
         0.00000E+00
         0.00000E+00
         0.00000E+00
         0.00000E+00
         0.00000E+00
         0.00000E+00
         0.00000E+00
         0.00000E+00
         0.00000E+00
         0.00000E+00
         0.00000E+00
         0.00000E+00
         0.00000E+00
         0.00000E+00
         0.00000E+00
         0.00000E+00
         0.00000E+00
         0.00000E+00
         0.00000E+00
         0.00000E+00
         0.00000E+00
         0.00000E+00
         0.00000E+00
         0.00000E+00
         0.00000E+00
         0.00000E+00
         0.00000E+00
         0.00000E+00
         0.00000E+00
         0.00000E+00
         0.00000E+00
         0.00000E+00
         0.00000E+00
         0.00000E+00
         0.00000E+00
         0.00000E+00
         0.00000E+00
         0.00000E+00
         0.00000E+00
         0.00000E+00
         0.00000E+00
         0.00000E+00
         0.00000E+00
         0.00000E+00
         0.00000E+00
         0.00000E+00
         0.00000E+00
         0.00000E+00
         0.00000E+00
         0.00000E+00
         0.00000E+00
         0.00000E+00
         0.00000E+00
         0.00000E+00
         0.00000E+00
         0.00000E+00
         0.00000E+00
         0.00000E+00
         0.00000E+00
         0.00000E+00
         0.00000E+00
         0.00000E+00
         0.00000E+00
         0.00000E+00
         0.00000E+00
         0.00000E+00
         0.00000E+00
         0.00000E+00
         0.00000E+00
         0.00000E+00
         0.00000E+00
         0.00000E+00
         0.00000E+00
         0.00000E+00
         0.00000E+00
         0.00000E+00
         0.00000E+00
         0.00000E+00
         0.00000E+00
         0.00000E+00
         0.00000E+00
         0.00000E+00
         0.00000E+00
         0.00000E+00
         0.00000E+00
         0.00000E+00
         0.00000E+00
         0.00000E+00
         0.00000E+00
         0.00000E+00
         0.00000E+00
         0.00000E+00
         0.00000E+00
         0.00000E+00
         0.00000E+00
         0.00000E+00
         0.00000E+00
         0.00000E+00
         0.00000E+00
         0.00000E+00
         0.00000E+00
         0.00000E+00
         0.00000E+00
         0.00000E+00
         0.00000E+00
         0.00000E+00
         0.00000E+00
         0.00000E+00
         0.00000E+00
         0.00000E+00
         0.00000E+00
         0.00000E+00
         0.00000E+00
         0.00000E+00
         0.00000E+00
         0.00000E+00
         0.00000E+00
         0.00000E+00
         0.00000E+00
         0.00000E+00
         0.00000E+00
         0.00000E+00
         0.00000E+00
         0.00000E+00
         0.00000E+00
         0.00000E+00
         0.00000E+00
         0.00000E+00
         0.00000E+00
         0.00000E+00
         0.00000E+00
         0.00000E+00
         0.00000E+00
         0.00000E+00
         0.00000E+00
         0.00000E+00
         0.00000E+00
         0.00000E+00
         0.00000E+00
         0.00000E+00
         0.00000E+00
         0.00000E+00
         0.00000E+00
         0.00000E+00
         0.00000E+00
         0.00000E+00
         0.00000E+00
         0.00000E+00
         0.00000E+00
         0.00000E+00
         0.00000E+00
         0.00000E+00
         0.00000E+00
         0.00000E+00
         0.00000E+00
         0.00000E+00
         0.00000E+00
         0.00000E+00
         0.00000E+00
         0.00000E+00
         0.00000E+00
         0.00000E+00
         0.00000E+00
         0.00000E+00
         0.00000E+00
         0.00000E+00
         0.00000E+00
         0.00000E+00
         0.00000E+00
         0.00000E+00
         0.00000E+00
         0.00000E+00
         0.00000E+00
         0.00000E+00
         0.00000E+00
         0.00000E+00
         0.00000E+00
         0.00000E+00
         0.00000E+00
         0.00000E+00
         0.00000E+00
         0.00000E+00
         0.00000E+00
         0.00000E+00
         0.00000E+00
         0.00000E+00
         0.00000E+00
         0.00000E+00
         0.00000E+00
         0.00000E+00
         0.00000E+00
         0.00000E+00
         0.00000E+00
         0.00000E+00
         0.00000E+00
         0.00000E+00
         0.00000E+00
         0.00000E+00
         0.00000E+00
         0.00000E+00
         0.00000E+00
         0.00000E+00
         0.00000E+00
         0.00000E+00
         0.00000E+00
         0.00000E+00
         0.00000E+00
         0.00000E+00
         0.00000E+00
         0.00000E+00
         0.00000E+00
         0.00000E+00
         0.00000E+00
         0.00000E+00
         0.00000E+00
         0.00000E+00
         0.00000E+00
         0.00000E+00
         0.00000E+00
         0.00000E+00
         0.00000E+00
         0.00000E+00
         0.00000E+00
         0.00000E+00
         0.00000E+00
         0.00000E+00
         0.00000E+00
         0.00000E+00
         0.00000E+00
         0.00000E+00
         0.00000E+00
         0.00000E+00
         0.00000E+00
         0.00000E+00
         0.00000E+00
         0.00000E+00
         0.00000E+00
         0.00000E+00
         0.00000E+00
         0.00000E+00
         0.00000E+00
         0.00000E+00
         0.00000E+00
         0.00000E+00
         0.00000E+00
         0.00000E+00
         0.00000E+00
         0.00000E+00
         0.00000E+00
         0.00000E+00
         0.00000E+00
         0.00000E+00
         0.00000E+00
         0.00000E+00
         0.00000E+00
         0.00000E+00
         0.00000E+00
         0.00000E+00
         0.00000E+00
         0.00000E+00
         0.00000E+00
         0.00000E+00
         0.00000E+00
         0.00000E+00
         0.00000E+00
         0.00000E+00
         0.00000E+00
         0.00000E+00
         0.00000E+00
         0.00000E+00
         0.00000E+00
         0.00000E+00
         0.00000E+00
         0.00000E+00
         0.00000E+00
         0.00000E+00
         0.00000E+00
         0.00000E+00
         0.00000E+00
         0.00000E+00
         0.00000E+00
         0.00000E+00
         0.00000E+00
         0.00000E+00
         0.00000E+00
         0.00000E+00
         0.00000E+00
         0.00000E+00
         0.00000E+00
         0.00000E+00
         0.00000E+00
         0.00000E+00
         0.00000E+00
         0.00000E+00
         0.00000E+00
         0.00000E+00
         0.00000E+00
         0.00000E+00
         0.00000E+00
         0.00000E+00
         0.00000E+00
         0.00000E+00
         0.00000E+00
         0.00000E+00
         0.00000E+00
         0.00000E+00
         0.00000E+00
         0.00000E+00
         0.00000E+00
         0.00000E+00
         0.00000E+00
         0.00000E+00
         0.00000E+00
         0.00000E+00
         0.00000E+00
         0.00000E+00
         0.00000E+00
         0.00000E+00
         0.00000E+00
         0.00000E+00
         0.00000E+00
         0.00000E+00
         0.00000E+00
         0.00000E+00
         0.00000E+00
         0.00000E+00
         0.00000E+00
         0.00000E+00
         0.00000E+00
         0.00000E+00
         0.00000E+00
         0.00000E+00
         0.00000E+00
         0.00000E+00
         0.00000E+00
         0.00000E+00
         0.00000E+00
         0.00000E+00
         0.00000E+00
         0.00000E+00
         0.00000E+00
         0.00000E+00
         0.00000E+00
         0.00000E+00
         0.00000E+00
         0.00000E+00
         0.00000E+00
         0.00000E+00
         0.00000E+00
         0.00000E+00
         0.00000E+00
         0.00000E+00
         0.00000E+00
         0.00000E+00
         0.00000E+00
         0.00000E+00
         0.00000E+00
         0.00000E+00
         0.00000E+00
         0.00000E+00
         0.00000E+00
         0.00000E+00
         0.00000E+00
         0.00000E+00
         0.00000E+00
         0.00000E+00
         0.00000E+00
         0.00000E+00
         0.00000E+00
         0.00000E+00
         0.00000E+00
         0.00000E+00
         0.00000E+00
         0.00000E+00
         0.00000E+00
         0.00000E+00
         0.00000E+00
         0.00000E+00
         0.00000E+00
         0.00000E+00
         0.00000E+00
         0.00000E+00
         0.00000E+00
         0.00000E+00
         0.00000E+00
         0.00000E+00
         0.00000E+00
         0.00000E+00
         0.00000E+00
         0.00000E+00
         0.00000E+00
         0.00000E+00
         0.00000E+00
         0.00000E+00
         0.00000E+00
         0.00000E+00
         0.00000E+00
         0.00000E+00
         0.00000E+00
         0.00000E+00
         0.00000E+00
         0.00000E+00
         0.00000E+00
         0.00000E+00
         0.00000E+00
         0.00000E+00
         0.00000E+00
         0.00000E+00
         0.00000E+00
         0.00000E+00
         0.00000E+00
         0.00000E+00
         0.00000E+00
         0.00000E+00
         0.00000E+00
         0.00000E+00
         0.00000E+00
         0.00000E+00
         0.00000E+00
         0.00000E+00
         0.00000E+00
         0.00000E+00
         0.00000E+00
         0.00000E+00
         0.00000E+00
         0.00000E+00
         0.00000E+00
         0.00000E+00
         0.00000E+00
         0.00000E+00
         0.00000E+00
         0.00000E+00
         0.00000E+00
         0.00000E+00
         0.00000E+00
         0.00000E+00
         0.00000E+00
         0.00000E+00
         0.00000E+00
         0.00000E+00
         0.00000E+00
         0.00000E+00
         0.00000E+00
         0.00000E+00
         0.00000E+00
         0.00000E+00
         0.00000E+00
         0.00000E+00
         0.00000E+00
         0.00000E+00
         0.00000E+00
         0.00000E+00
         0.00000E+00
         0.00000E+00
         0.00000E+00
         0.00000E+00
         0.00000E+00
         0.00000E+00
         0.00000E+00
         0.00000E+00
         0.00000E+00
         0.00000E+00
         0.00000E+00
         0.00000E+00
         0.00000E+00
         0.00000E+00
         0.00000E+00
         0.00000E+00
         0.00000E+00
         0.00000E+00
         0.00000E+00
         0.00000E+00
         0.00000E+00
         0.00000E+00
         0.00000E+00
         0.00000E+00
         0.00000E+00
         0.00000E+00
         0.00000E+00
         0.00000E+00
         0.00000E+00
         0.00000E+00
         0.00000E+00
         0.00000E+00
         0.00000E+00
         0.00000E+00
         0.00000E+00
         0.00000E+00
         0.00000E+00
         0.00000E+00
         0.00000E+00
         0.00000E+00
         0.00000E+00
         0.00000E+00
         0.00000E+00
         0.00000E+00
         0.00000E+00
         0.00000E+00
         0.00000E+00
         0.00000E+00
         0.00000E+00
         0.00000E+00
         0.00000E+00
         0.00000E+00
         0.00000E+00
         0.00000E+00
         0.00000E+00
         0.00000E+00
         0.00000E+00
         0.00000E+00
         0.00000E+00
         0.00000E+00
         0.00000E+00
         0.00000E+00
         0.00000E+00
         0.00000E+00
         0.00000E+00
         0.00000E+00
         0.00000E+00
         0.00000E+00
         0.00000E+00
         0.00000E+00
         0.00000E+00
         0.00000E+00
         0.00000E+00
         0.00000E+00
         0.00000E+00
         0.00000E+00
         0.00000E+00
         0.00000E+00
         0.00000E+00
         0.00000E+00
         0.00000E+00
         0.00000E+00
         0.00000E+00
         0.00000E+00
         0.00000E+00
         0.00000E+00
         0.00000E+00
         0.00000E+00
         0.00000E+00
         0.00000E+00
         0.00000E+00
         0.00000E+00
         0.00000E+00
         0.00000E+00
         0.00000E+00
         0.00000E+00
         0.00000E+00
         0.00000E+00
         0.00000E+00
         0.00000E+00
         0.00000E+00
         0.00000E+00
         0.00000E+00
         0.00000E+00
         0.00000E+00
         0.00000E+00
         0.00000E+00
         0.00000E+00
         0.00000E+00
         0.00000E+00
         0.00000E+00
         0.00000E+00
         0.00000E+00
         0.00000E+00
         0.00000E+00
         0.00000E+00
         0.00000E+00
         0.00000E+00
         0.00000E+00
         0.00000E+00
         0.00000E+00
         0.00000E+00
         0.00000E+00
         0.00000E+00
         0.00000E+00
         0.00000E+00
         0.00000E+00
         0.00000E+00
         0.00000E+00
         0.00000E+00
         0.00000E+00
         0.00000E+00
         0.00000E+00
         0.00000E+00
         0.00000E+00
         0.00000E+00
         0.00000E+00
         0.00000E+00
         0.00000E+00
         0.00000E+00
         0.00000E+00
         0.00000E+00
         0.00000E+00
         0.00000E+00
         0.00000E+00
         0.00000E+00
         0.00000E+00
         0.00000E+00
         0.00000E+00
         0.00000E+00
         0.00000E+00
         0.00000E+00
         0.00000E+00
         0.00000E+00
         0.00000E+00
         0.00000E+00
         0.00000E+00
         0.00000E+00
         0.00000E+00
         0.00000E+00
         0.00000E+00
         0.00000E+00
         0.00000E+00
         0.00000E+00
         0.00000E+00
         0.00000E+00
         0.00000E+00
         0.00000E+00
         0.00000E+00
         0.00000E+00
         0.00000E+00
         0.00000E+00
         0.00000E+00
         0.00000E+00
         0.00000E+00
         0.00000E+00
         0.00000E+00
         0.00000E+00
         0.00000E+00
         0.00000E+00
         0.00000E+00
         0.00000E+00
         0.00000E+00
         0.00000E+00
         0.00000E+00
         0.00000E+00
         0.00000E+00
         0.00000E+00
         0.00000E+00
         0.00000E+00
         0.00000E+00
         0.00000E+00
         0.00000E+00
         0.00000E+00
         0.00000E+00
         0.00000E+00
         0.00000E+00
         0.00000E+00
         0.00000E+00
         0.00000E+00
         0.00000E+00
         0.00000E+00
         0.00000E+00
         0.00000E+00
         0.00000E+00
         0.00000E+00
         0.00000E+00
         0.00000E+00
         0.00000E+00
         0.00000E+00
         0.00000E+00
         0.00000E+00
         0.00000E+00
         0.00000E+00
         0.00000E+00
         0.00000E+00
         0.00000E+00
         0.00000E+00
         0.00000E+00
         0.00000E+00
         0.00000E+00
         0.00000E+00
         0.00000E+00
         0.00000E+00
         0.00000E+00
         0.00000E+00
         0.00000E+00
         0.00000E+00
         0.00000E+00
         0.00000E+00
         0.00000E+00
         0.00000E+00
         0.00000E+00
         0.00000E+00
         0.00000E+00
         0.00000E+00
         0.00000E+00
         0.00000E+00
         0.00000E+00
         0.00000E+00
         0.00000E+00
         0.00000E+00
         0.00000E+00
         0.00000E+00
         0.00000E+00
         0.00000E+00
         0.00000E+00
         0.00000E+00
         0.00000E+00
         0.00000E+00
         0.00000E+00
         0.00000E+00
         0.00000E+00
         0.00000E+00
         0.00000E+00
         0.00000E+00
         0.00000E+00
         0.00000E+00
         0.00000E+00
         0.00000E+00
         0.00000E+00
         0.00000E+00
         0.00000E+00
         0.00000E+00
         0.00000E+00
         0.00000E+00
         0.00000E+00
         0.00000E+00
         0.00000E+00
         0.00000E+00
         0.00000E+00
         0.00000E+00
         0.00000E+00
         0.00000E+00
         0.00000E+00
         0.00000E+00
         0.00000E+00
         0.00000E+00
         0.00000E+00
         0.00000E+00
         0.00000E+00
         0.00000E+00
         0.00000E+00
         0.00000E+00
         0.00000E+00
         0.00000E+00
         0.00000E+00
         0.00000E+00
         0.00000E+00
         0.00000E+00
         0.00000E+00
         0.00000E+00
         0.00000E+00
         0.00000E+00
         0.00000E+00
         0.00000E+00
         0.00000E+00
         0.00000E+00
         0.00000E+00
         0.00000E+00
         0.00000E+00
         0.00000E+00
         0.00000E+00
         0.00000E+00
         0.00000E+00
         0.00000E+00
         0.00000E+00
         0.00000E+00
         0.00000E+00
         0.00000E+00
         0.00000E+00
         0.00000E+00
         0.00000E+00
         0.00000E+00
         0.00000E+00
         0.00000E+00
         0.00000E+00
         0.00000E+00
         0.00000E+00
         0.00000E+00
         0.00000E+00
         0.00000E+00
         0.00000E+00
         0.00000E+00
         0.00000E+00
         0.00000E+00
         0.00000E+00
         0.00000E+00
         0.00000E+00
         0.00000E+00
         0.00000E+00
         0.00000E+00
         0.00000E+00
         0.00000E+00
         0.00000E+00
         0.00000E+00
         0.00000E+00
         0.00000E+00
         0.00000E+00
         0.00000E+00
         0.00000E+00
         0.00000E+00
         0.00000E+00
         0.00000E+00
         0.00000E+00
         0.00000E+00
         0.00000E+00
         0.00000E+00
         0.00000E+00
         0.00000E+00
         0.00000E+00
         0.00000E+00
         0.00000E+00
         0.00000E+00
         0.00000E+00
         0.00000E+00
         0.00000E+00
         0.00000E+00
         0.00000E+00
         0.00000E+00
         0.00000E+00
         0.00000E+00
         0.00000E+00
         0.00000E+00
         0.00000E+00
         0.00000E+00
         0.00000E+00
         0.00000E+00
         0.00000E+00
         0.00000E+00
         0.00000E+00
         0.00000E+00
         0.00000E+00
         0.00000E+00
         0.00000E+00
         0.00000E+00
         0.00000E+00
         0.00000E+00
         0.00000E+00
         0.00000E+00
         0.00000E+00
         0.00000E+00
         0.00000E+00
         0.00000E+00
         0.00000E+00
         0.00000E+00
         0.00000E+00
         0.00000E+00
         0.00000E+00
         0.00000E+00
         0.00000E+00
         0.00000E+00
         0.00000E+00
         0.00000E+00
         0.00000E+00
         0.00000E+00
         0.00000E+00
         0.00000E+00
         0.00000E+00
         0.00000E+00
         0.00000E+00
         0.00000E+00
         0.00000E+00
         0.00000E+00
         0.00000E+00
         0.00000E+00
         0.00000E+00
         0.00000E+00
         0.00000E+00
         0.00000E+00
         0.00000E+00
         0.00000E+00
         0.00000E+00
         0.00000E+00
         0.00000E+00
         0.00000E+00
         0.00000E+00
         0.00000E+00
         0.00000E+00
         0.00000E+00
         0.00000E+00
         0.00000E+00
         0.00000E+00
         0.00000E+00
         0.00000E+00
         0.00000E+00
         0.00000E+00
         0.00000E+00
         0.00000E+00
         0.00000E+00
         0.00000E+00
         0.00000E+00
         0.00000E+00
         0.00000E+00
         0.00000E+00
         0.00000E+00
         0.00000E+00
         0.00000E+00
         0.00000E+00
         0.00000E+00
         0.00000E+00
         0.00000E+00
  
SCALARS                     velocity_z  double 1
LOOKUP_TABLE default
        -0.37300E+03
        -0.37300E+03
        -0.37300E+03
        -0.37300E+03
         0.00000E+00
         0.00000E+00
         0.00000E+00
         0.00000E+00
        -0.37300E+03
        -0.37300E+03
         0.00000E+00
         0.00000E+00
        -0.37300E+03
        -0.37300E+03
         0.00000E+00
         0.00000E+00
        -0.37300E+03
        -0.37300E+03
         0.00000E+00
         0.00000E+00
        -0.37300E+03
        -0.37300E+03
        -0.37300E+03
         0.00000E+00
         0.00000E+00
         0.00000E+00
        -0.37300E+03
        -0.37300E+03
         0.00000E+00
         0.00000E+00
        -0.37300E+03
        -0.37300E+03
        -0.37300E+03
         0.00000E+00
         0.00000E+00
         0.00000E+00
        -0.37300E+03
        -0.37300E+03
         0.00000E+00
         0.00000E+00
        -0.37300E+03
        -0.37300E+03
         0.00000E+00
         0.00000E+00
        -0.37300E+03
        -0.37300E+03
         0.00000E+00
         0.00000E+00
        -0.37300E+03
         0.00000E+00
        -0.37300E+03
         0.00000E+00
        -0.37300E+03
         0.00000E+00
        -0.37300E+03
         0.00000E+00
        -0.37300E+03
        -0.37300E+03
         0.00000E+00
         0.00000E+00
        -0.37300E+03
        -0.37300E+03
         0.00000E+00
         0.00000E+00
        -0.37300E+03
         0.00000E+00
        -0.37300E+03
         0.00000E+00
        -0.37300E+03
        -0.37300E+03
         0.00000E+00
         0.00000E+00
        -0.37300E+03
         0.00000E+00
        -0.37300E+03
         0.00000E+00
        -0.37300E+03
         0.00000E+00
        -0.37300E+03
         0.00000E+00
        -0.37300E+03
        -0.37300E+03
         0.00000E+00
         0.00000E+00
        -0.37300E+03
         0.00000E+00
        -0.37300E+03
         0.00000E+00
        -0.37300E+03
         0.00000E+00
        -0.37300E+03
        -0.37300E+03
         0.00000E+00
         0.00000E+00
        -0.37300E+03
         0.00000E+00
        -0.37300E+03
         0.00000E+00
        -0.37300E+03
         0.00000E+00
        -0.37300E+03
        -0.37300E+03
         0.00000E+00
         0.00000E+00
        -0.37300E+03
        -0.37300E+03
         0.00000E+00
         0.00000E+00
        -0.37300E+03
         0.00000E+00
        -0.37300E+03
         0.00000E+00
        -0.37300E+03
         0.00000E+00
        -0.37300E+03
         0.00000E+00
        -0.37300E+03
         0.00000E+00
        -0.37300E+03
         0.00000E+00
        -0.37300E+03
         0.00000E+00
        -0.37300E+03
         0.00000E+00
        -0.37300E+03
         0.00000E+00
        -0.37300E+03
         0.00000E+00
        -0.37300E+03
         0.00000E+00
        -0.37300E+03
         0.00000E+00
        -0.37300E+03
         0.00000E+00
        -0.37300E+03
         0.00000E+00
        -0.37300E+03
         0.00000E+00
        -0.37300E+03
         0.00000E+00
        -0.37300E+03
         0.00000E+00
        -0.37300E+03
         0.00000E+00
        -0.37300E+03
         0.00000E+00
        -0.37300E+03
         0.00000E+00
        -0.37300E+03
         0.00000E+00
        -0.37300E+03
         0.00000E+00
        -0.37300E+03
         0.00000E+00
        -0.37300E+03
         0.00000E+00
        -0.37300E+03
        -0.37300E+03
        -0.37300E+03
        -0.37300E+03
        -0.37300E+03
        -0.37300E+03
        -0.37300E+03
        -0.37300E+03
        -0.37300E+03
        -0.37300E+03
        -0.37300E+03
        -0.37300E+03
        -0.37300E+03
        -0.37300E+03
        -0.37300E+03
        -0.37300E+03
        -0.37300E+03
        -0.37300E+03
        -0.37300E+03
        -0.37300E+03
        -0.37300E+03
        -0.37300E+03
        -0.37300E+03
        -0.37300E+03
        -0.37300E+03
        -0.37300E+03
        -0.37300E+03
        -0.37300E+03
        -0.37300E+03
        -0.37300E+03
        -0.37300E+03
        -0.37300E+03
        -0.37300E+03
        -0.37300E+03
        -0.37300E+03
        -0.37300E+03
        -0.37300E+03
        -0.37300E+03
        -0.37300E+03
        -0.37300E+03
        -0.37300E+03
        -0.37300E+03
        -0.37300E+03
        -0.37300E+03
        -0.37300E+03
        -0.37300E+03
        -0.37300E+03
        -0.37300E+03
        -0.37300E+03
        -0.37300E+03
        -0.37300E+03
        -0.37300E+03
        -0.37300E+03
        -0.37300E+03
        -0.37300E+03
        -0.37300E+03
        -0.37300E+03
        -0.37300E+03
        -0.37300E+03
        -0.37300E+03
        -0.37300E+03
        -0.37300E+03
        -0.37300E+03
        -0.37300E+03
        -0.37300E+03
        -0.37300E+03
        -0.37300E+03
        -0.37300E+03
        -0.37300E+03
        -0.37300E+03
        -0.37300E+03
        -0.37300E+03
        -0.37300E+03
        -0.37300E+03
        -0.37300E+03
        -0.37300E+03
        -0.37300E+03
        -0.37300E+03
        -0.37300E+03
        -0.37300E+03
        -0.37300E+03
        -0.37300E+03
        -0.37300E+03
        -0.37300E+03
        -0.37300E+03
        -0.37300E+03
        -0.37300E+03
        -0.37300E+03
        -0.37300E+03
        -0.37300E+03
        -0.37300E+03
        -0.37300E+03
        -0.37300E+03
        -0.37300E+03
        -0.37300E+03
        -0.37300E+03
        -0.37300E+03
        -0.37300E+03
        -0.37300E+03
        -0.37300E+03
        -0.37300E+03
        -0.37300E+03
        -0.37300E+03
        -0.37300E+03
        -0.37300E+03
        -0.37300E+03
        -0.37300E+03
        -0.37300E+03
        -0.37300E+03
        -0.37300E+03
        -0.37300E+03
        -0.37300E+03
        -0.37300E+03
        -0.37300E+03
        -0.37300E+03
        -0.37300E+03
        -0.37300E+03
        -0.37300E+03
        -0.37300E+03
        -0.37300E+03
        -0.37300E+03
        -0.37300E+03
        -0.37300E+03
        -0.37300E+03
        -0.37300E+03
        -0.37300E+03
        -0.37300E+03
        -0.37300E+03
        -0.37300E+03
        -0.37300E+03
        -0.37300E+03
        -0.37300E+03
        -0.37300E+03
        -0.37300E+03
        -0.37300E+03
        -0.37300E+03
        -0.37300E+03
        -0.37300E+03
        -0.37300E+03
        -0.37300E+03
        -0.37300E+03
        -0.37300E+03
        -0.37300E+03
        -0.37300E+03
        -0.37300E+03
        -0.37300E+03
        -0.37300E+03
        -0.37300E+03
        -0.37300E+03
        -0.37300E+03
        -0.37300E+03
        -0.37300E+03
        -0.37300E+03
        -0.37300E+03
        -0.37300E+03
        -0.37300E+03
        -0.37300E+03
        -0.37300E+03
        -0.37300E+03
        -0.37300E+03
        -0.37300E+03
        -0.37300E+03
        -0.37300E+03
        -0.37300E+03
        -0.37300E+03
        -0.37300E+03
        -0.37300E+03
        -0.37300E+03
        -0.37300E+03
        -0.37300E+03
        -0.37300E+03
        -0.37300E+03
        -0.37300E+03
        -0.37300E+03
        -0.37300E+03
        -0.37300E+03
        -0.37300E+03
        -0.37300E+03
        -0.37300E+03
        -0.37300E+03
        -0.37300E+03
        -0.37300E+03
        -0.37300E+03
        -0.37300E+03
        -0.37300E+03
        -0.37300E+03
        -0.37300E+03
        -0.37300E+03
        -0.37300E+03
        -0.37300E+03
        -0.37300E+03
        -0.37300E+03
        -0.37300E+03
        -0.37300E+03
        -0.37300E+03
        -0.37300E+03
        -0.37300E+03
        -0.37300E+03
        -0.37300E+03
        -0.37300E+03
        -0.37300E+03
        -0.37300E+03
        -0.37300E+03
        -0.37300E+03
        -0.37300E+03
        -0.37300E+03
        -0.37300E+03
        -0.37300E+03
        -0.37300E+03
        -0.37300E+03
        -0.37300E+03
        -0.37300E+03
        -0.37300E+03
        -0.37300E+03
        -0.37300E+03
        -0.37300E+03
        -0.37300E+03
        -0.37300E+03
        -0.37300E+03
        -0.37300E+03
        -0.37300E+03
        -0.37300E+03
        -0.37300E+03
        -0.37300E+03
        -0.37300E+03
        -0.37300E+03
        -0.37300E+03
        -0.37300E+03
        -0.37300E+03
        -0.37300E+03
        -0.37300E+03
        -0.37300E+03
        -0.37300E+03
        -0.37300E+03
        -0.37300E+03
        -0.37300E+03
        -0.37300E+03
        -0.37300E+03
        -0.37300E+03
        -0.37300E+03
        -0.37300E+03
        -0.37300E+03
        -0.37300E+03
        -0.37300E+03
        -0.37300E+03
        -0.37300E+03
        -0.37300E+03
        -0.37300E+03
        -0.37300E+03
        -0.37300E+03
        -0.37300E+03
        -0.37300E+03
        -0.37300E+03
        -0.37300E+03
        -0.37300E+03
        -0.37300E+03
        -0.37300E+03
        -0.37300E+03
        -0.37300E+03
        -0.37300E+03
        -0.37300E+03
        -0.37300E+03
        -0.37300E+03
        -0.37300E+03
        -0.37300E+03
        -0.37300E+03
        -0.37300E+03
        -0.37300E+03
        -0.37300E+03
        -0.37300E+03
        -0.37300E+03
        -0.37300E+03
        -0.37300E+03
        -0.37300E+03
        -0.37300E+03
        -0.37300E+03
        -0.37300E+03
        -0.37300E+03
        -0.37300E+03
        -0.37300E+03
        -0.37300E+03
        -0.37300E+03
        -0.37300E+03
        -0.37300E+03
        -0.37300E+03
        -0.37300E+03
        -0.37300E+03
        -0.37300E+03
        -0.37300E+03
        -0.37300E+03
        -0.37300E+03
        -0.37300E+03
        -0.37300E+03
        -0.37300E+03
        -0.37300E+03
        -0.37300E+03
        -0.37300E+03
        -0.37300E+03
        -0.37300E+03
        -0.37300E+03
        -0.37300E+03
        -0.37300E+03
        -0.37300E+03
        -0.37300E+03
        -0.37300E+03
        -0.37300E+03
        -0.37300E+03
        -0.37300E+03
        -0.37300E+03
        -0.37300E+03
        -0.37300E+03
        -0.37300E+03
        -0.37300E+03
        -0.37300E+03
        -0.37300E+03
        -0.37300E+03
        -0.37300E+03
        -0.37300E+03
        -0.37300E+03
        -0.37300E+03
        -0.37300E+03
        -0.37300E+03
        -0.37300E+03
        -0.37300E+03
        -0.37300E+03
        -0.37300E+03
        -0.37300E+03
        -0.37300E+03
        -0.37300E+03
        -0.37300E+03
        -0.37300E+03
        -0.37300E+03
        -0.37300E+03
        -0.37300E+03
        -0.37300E+03
        -0.37300E+03
        -0.37300E+03
        -0.37300E+03
        -0.37300E+03
        -0.37300E+03
        -0.37300E+03
        -0.37300E+03
        -0.37300E+03
        -0.37300E+03
        -0.37300E+03
        -0.37300E+03
        -0.37300E+03
        -0.37300E+03
        -0.37300E+03
        -0.37300E+03
        -0.37300E+03
        -0.37300E+03
        -0.37300E+03
        -0.37300E+03
        -0.37300E+03
        -0.37300E+03
        -0.37300E+03
        -0.37300E+03
        -0.37300E+03
        -0.37300E+03
        -0.37300E+03
        -0.37300E+03
        -0.37300E+03
        -0.37300E+03
        -0.37300E+03
        -0.37300E+03
        -0.37300E+03
        -0.37300E+03
        -0.37300E+03
        -0.37300E+03
        -0.37300E+03
        -0.37300E+03
        -0.37300E+03
        -0.37300E+03
        -0.37300E+03
        -0.37300E+03
        -0.37300E+03
        -0.37300E+03
        -0.37300E+03
        -0.37300E+03
        -0.37300E+03
        -0.37300E+03
        -0.37300E+03
        -0.37300E+03
        -0.37300E+03
        -0.37300E+03
        -0.37300E+03
        -0.37300E+03
        -0.37300E+03
        -0.37300E+03
        -0.37300E+03
        -0.37300E+03
        -0.37300E+03
        -0.37300E+03
        -0.37300E+03
        -0.37300E+03
        -0.37300E+03
        -0.37300E+03
        -0.37300E+03
        -0.37300E+03
        -0.37300E+03
        -0.37300E+03
        -0.37300E+03
        -0.37300E+03
        -0.37300E+03
        -0.37300E+03
        -0.37300E+03
        -0.37300E+03
        -0.37300E+03
        -0.37300E+03
        -0.37300E+03
        -0.37300E+03
        -0.37300E+03
        -0.37300E+03
        -0.37300E+03
        -0.37300E+03
        -0.37300E+03
        -0.37300E+03
        -0.37300E+03
        -0.37300E+03
        -0.37300E+03
        -0.37300E+03
        -0.37300E+03
        -0.37300E+03
        -0.37300E+03
        -0.37300E+03
        -0.37300E+03
        -0.37300E+03
        -0.37300E+03
        -0.37300E+03
        -0.37300E+03
        -0.37300E+03
        -0.37300E+03
        -0.37300E+03
        -0.37300E+03
        -0.37300E+03
        -0.37300E+03
        -0.37300E+03
        -0.37300E+03
        -0.37300E+03
        -0.37300E+03
        -0.37300E+03
        -0.37300E+03
        -0.37300E+03
        -0.37300E+03
        -0.37300E+03
        -0.37300E+03
        -0.37300E+03
        -0.37300E+03
        -0.37300E+03
        -0.37300E+03
        -0.37300E+03
        -0.37300E+03
        -0.37300E+03
        -0.37300E+03
        -0.37300E+03
        -0.37300E+03
        -0.37300E+03
        -0.37300E+03
        -0.37300E+03
        -0.37300E+03
        -0.37300E+03
        -0.37300E+03
        -0.37300E+03
        -0.37300E+03
        -0.37300E+03
        -0.37300E+03
        -0.37300E+03
        -0.37300E+03
        -0.37300E+03
        -0.37300E+03
        -0.37300E+03
        -0.37300E+03
        -0.37300E+03
        -0.37300E+03
        -0.37300E+03
        -0.37300E+03
        -0.37300E+03
        -0.37300E+03
        -0.37300E+03
        -0.37300E+03
        -0.37300E+03
        -0.37300E+03
        -0.37300E+03
        -0.37300E+03
        -0.37300E+03
        -0.37300E+03
        -0.37300E+03
        -0.37300E+03
        -0.37300E+03
        -0.37300E+03
        -0.37300E+03
        -0.37300E+03
        -0.37300E+03
        -0.37300E+03
        -0.37300E+03
        -0.37300E+03
        -0.37300E+03
        -0.37300E+03
        -0.37300E+03
        -0.37300E+03
        -0.37300E+03
        -0.37300E+03
        -0.37300E+03
        -0.37300E+03
        -0.37300E+03
        -0.37300E+03
        -0.37300E+03
        -0.37300E+03
        -0.37300E+03
        -0.37300E+03
        -0.37300E+03
        -0.37300E+03
        -0.37300E+03
        -0.37300E+03
        -0.37300E+03
        -0.37300E+03
        -0.37300E+03
        -0.37300E+03
        -0.37300E+03
        -0.37300E+03
        -0.37300E+03
        -0.37300E+03
        -0.37300E+03
        -0.37300E+03
        -0.37300E+03
        -0.37300E+03
        -0.37300E+03
        -0.37300E+03
        -0.37300E+03
        -0.37300E+03
        -0.37300E+03
        -0.37300E+03
        -0.37300E+03
        -0.37300E+03
        -0.37300E+03
        -0.37300E+03
        -0.37300E+03
        -0.37300E+03
        -0.37300E+03
        -0.37300E+03
        -0.37300E+03
        -0.37300E+03
        -0.37300E+03
        -0.37300E+03
        -0.37300E+03
        -0.37300E+03
        -0.37300E+03
        -0.37300E+03
        -0.37300E+03
        -0.37300E+03
        -0.37300E+03
        -0.37300E+03
        -0.37300E+03
        -0.37300E+03
        -0.37300E+03
        -0.37300E+03
        -0.37300E+03
        -0.37300E+03
        -0.37300E+03
        -0.37300E+03
        -0.37300E+03
        -0.37300E+03
        -0.37300E+03
        -0.37300E+03
        -0.37300E+03
        -0.37300E+03
        -0.37300E+03
        -0.37300E+03
        -0.37300E+03
        -0.37300E+03
        -0.37300E+03
        -0.37300E+03
        -0.37300E+03
        -0.37300E+03
        -0.37300E+03
        -0.37300E+03
        -0.37300E+03
        -0.37300E+03
        -0.37300E+03
        -0.37300E+03
        -0.37300E+03
        -0.37300E+03
        -0.37300E+03
        -0.37300E+03
        -0.37300E+03
        -0.37300E+03
        -0.37300E+03
        -0.37300E+03
        -0.37300E+03
        -0.37300E+03
        -0.37300E+03
        -0.37300E+03
        -0.37300E+03
        -0.37300E+03
        -0.37300E+03
        -0.37300E+03
        -0.37300E+03
        -0.37300E+03
        -0.37300E+03
        -0.37300E+03
        -0.37300E+03
        -0.37300E+03
        -0.37300E+03
        -0.37300E+03
        -0.37300E+03
        -0.37300E+03
        -0.37300E+03
        -0.37300E+03
        -0.37300E+03
        -0.37300E+03
        -0.37300E+03
        -0.37300E+03
        -0.37300E+03
        -0.37300E+03
        -0.37300E+03
        -0.37300E+03
        -0.37300E+03
        -0.37300E+03
        -0.37300E+03
        -0.37300E+03
        -0.37300E+03
        -0.37300E+03
        -0.37300E+03
        -0.37300E+03
        -0.37300E+03
        -0.37300E+03
        -0.37300E+03
        -0.37300E+03
        -0.37300E+03
        -0.37300E+03
        -0.37300E+03
        -0.37300E+03
        -0.37300E+03
        -0.37300E+03
        -0.37300E+03
        -0.37300E+03
        -0.37300E+03
        -0.37300E+03
        -0.37300E+03
        -0.37300E+03
        -0.37300E+03
        -0.37300E+03
        -0.37300E+03
        -0.37300E+03
        -0.37300E+03
        -0.37300E+03
        -0.37300E+03
        -0.37300E+03
        -0.37300E+03
        -0.37300E+03
        -0.37300E+03
        -0.37300E+03
        -0.37300E+03
        -0.37300E+03
        -0.37300E+03
        -0.37300E+03
        -0.37300E+03
        -0.37300E+03
        -0.37300E+03
        -0.37300E+03
        -0.37300E+03
        -0.37300E+03
        -0.37300E+03
        -0.37300E+03
        -0.37300E+03
        -0.37300E+03
        -0.37300E+03
        -0.37300E+03
        -0.37300E+03
        -0.37300E+03
        -0.37300E+03
        -0.37300E+03
        -0.37300E+03
        -0.37300E+03
        -0.37300E+03
        -0.37300E+03
        -0.37300E+03
        -0.37300E+03
        -0.37300E+03
        -0.37300E+03
        -0.37300E+03
        -0.37300E+03
        -0.37300E+03
        -0.37300E+03
        -0.37300E+03
        -0.37300E+03
        -0.37300E+03
        -0.37300E+03
        -0.37300E+03
        -0.37300E+03
        -0.37300E+03
        -0.37300E+03
        -0.37300E+03
        -0.37300E+03
        -0.37300E+03
        -0.37300E+03
        -0.37300E+03
        -0.37300E+03
        -0.37300E+03
        -0.37300E+03
        -0.37300E+03
        -0.37300E+03
        -0.37300E+03
        -0.37300E+03
        -0.37300E+03
        -0.37300E+03
        -0.37300E+03
        -0.37300E+03
        -0.37300E+03
        -0.37300E+03
        -0.37300E+03
        -0.37300E+03
        -0.37300E+03
        -0.37300E+03
        -0.37300E+03
        -0.37300E+03
        -0.37300E+03
        -0.37300E+03
        -0.37300E+03
        -0.37300E+03
        -0.37300E+03
        -0.37300E+03
        -0.37300E+03
        -0.37300E+03
        -0.37300E+03
        -0.37300E+03
        -0.37300E+03
        -0.37300E+03
        -0.37300E+03
        -0.37300E+03
        -0.37300E+03
        -0.37300E+03
        -0.37300E+03
        -0.37300E+03
        -0.37300E+03
        -0.37300E+03
        -0.37300E+03
        -0.37300E+03
        -0.37300E+03
        -0.37300E+03
        -0.37300E+03
        -0.37300E+03
        -0.37300E+03
        -0.37300E+03
        -0.37300E+03
        -0.37300E+03
        -0.37300E+03
        -0.37300E+03
        -0.37300E+03
        -0.37300E+03
        -0.37300E+03
        -0.37300E+03
        -0.37300E+03
        -0.37300E+03
        -0.37300E+03
        -0.37300E+03
        -0.37300E+03
        -0.37300E+03
        -0.37300E+03
        -0.37300E+03
        -0.37300E+03
        -0.37300E+03
        -0.37300E+03
        -0.37300E+03
        -0.37300E+03
        -0.37300E+03
        -0.37300E+03
        -0.37300E+03
        -0.37300E+03
        -0.37300E+03
        -0.37300E+03
        -0.37300E+03
        -0.37300E+03
        -0.37300E+03
        -0.37300E+03
        -0.37300E+03
        -0.37300E+03
        -0.37300E+03
        -0.37300E+03
        -0.37300E+03
        -0.37300E+03
        -0.37300E+03
        -0.37300E+03
        -0.37300E+03
        -0.37300E+03
        -0.37300E+03
        -0.37300E+03
        -0.37300E+03
        -0.37300E+03
        -0.37300E+03
        -0.37300E+03
        -0.37300E+03
        -0.37300E+03
        -0.37300E+03
        -0.37300E+03
        -0.37300E+03
        -0.37300E+03
        -0.37300E+03
        -0.37300E+03
        -0.37300E+03
        -0.37300E+03
        -0.37300E+03
        -0.37300E+03
        -0.37300E+03
        -0.37300E+03
        -0.37300E+03
        -0.37300E+03
        -0.37300E+03
        -0.37300E+03
        -0.37300E+03
        -0.37300E+03
        -0.37300E+03
        -0.37300E+03
        -0.37300E+03
        -0.37300E+03
        -0.37300E+03
        -0.37300E+03
        -0.37300E+03
        -0.37300E+03
        -0.37300E+03
        -0.37300E+03
        -0.37300E+03
        -0.37300E+03
        -0.37300E+03
        -0.37300E+03
        -0.37300E+03
        -0.37300E+03
        -0.37300E+03
        -0.37300E+03
        -0.37300E+03
        -0.37300E+03
        -0.37300E+03
        -0.37300E+03
        -0.37300E+03
        -0.37300E+03
        -0.37300E+03
        -0.37300E+03
        -0.37300E+03
        -0.37300E+03
        -0.37300E+03
        -0.37300E+03
        -0.37300E+03
        -0.37300E+03
        -0.37300E+03
        -0.37300E+03
        -0.37300E+03
        -0.37300E+03
        -0.37300E+03
        -0.37300E+03
        -0.37300E+03
        -0.37300E+03
        -0.37300E+03
        -0.37300E+03
        -0.37300E+03
        -0.37300E+03
        -0.37300E+03
        -0.37300E+03
        -0.37300E+03
        -0.37300E+03
        -0.37300E+03
        -0.37300E+03
        -0.37300E+03
        -0.37300E+03
        -0.37300E+03
        -0.37300E+03
        -0.37300E+03
        -0.37300E+03
        -0.37300E+03
        -0.37300E+03
        -0.37300E+03
        -0.37300E+03
        -0.37300E+03
        -0.37300E+03
        -0.37300E+03
        -0.37300E+03
        -0.37300E+03
        -0.37300E+03
        -0.37300E+03
        -0.37300E+03
        -0.37300E+03
        -0.37300E+03
        -0.37300E+03
        -0.37300E+03
        -0.37300E+03
        -0.37300E+03
        -0.37300E+03
        -0.37300E+03
        -0.37300E+03
        -0.37300E+03
        -0.37300E+03
        -0.37300E+03
        -0.37300E+03
        -0.37300E+03
        -0.37300E+03
        -0.37300E+03
        -0.37300E+03
        -0.37300E+03
        -0.37300E+03
        -0.37300E+03
        -0.37300E+03
        -0.37300E+03
        -0.37300E+03
        -0.37300E+03
        -0.37300E+03
        -0.37300E+03
        -0.37300E+03
        -0.37300E+03
        -0.37300E+03
        -0.37300E+03
        -0.37300E+03
        -0.37300E+03
        -0.37300E+03
        -0.37300E+03
        -0.37300E+03
        -0.37300E+03
        -0.37300E+03
        -0.37300E+03
        -0.37300E+03
        -0.37300E+03
        -0.37300E+03
        -0.37300E+03
        -0.37300E+03
        -0.37300E+03
        -0.37300E+03
        -0.37300E+03
        -0.37300E+03
        -0.37300E+03
        -0.37300E+03
        -0.37300E+03
        -0.37300E+03
        -0.37300E+03
        -0.37300E+03
        -0.37300E+03
        -0.37300E+03
        -0.37300E+03
        -0.37300E+03
        -0.37300E+03
        -0.37300E+03
        -0.37300E+03
        -0.37300E+03
        -0.37300E+03
        -0.37300E+03
        -0.37300E+03
        -0.37300E+03
        -0.37300E+03
        -0.37300E+03
        -0.37300E+03
        -0.37300E+03
        -0.37300E+03
        -0.37300E+03
        -0.37300E+03
        -0.37300E+03
        -0.37300E+03
        -0.37300E+03
        -0.37300E+03
        -0.37300E+03
        -0.37300E+03
        -0.37300E+03
        -0.37300E+03
        -0.37300E+03
        -0.37300E+03
        -0.37300E+03
        -0.37300E+03
        -0.37300E+03
        -0.37300E+03
        -0.37300E+03
        -0.37300E+03
        -0.37300E+03
        -0.37300E+03
        -0.37300E+03
        -0.37300E+03
        -0.37300E+03
        -0.37300E+03
        -0.37300E+03
        -0.37300E+03
        -0.37300E+03
        -0.37300E+03
        -0.37300E+03
        -0.37300E+03
        -0.37300E+03
        -0.37300E+03
        -0.37300E+03
        -0.37300E+03
        -0.37300E+03
        -0.37300E+03
        -0.37300E+03
        -0.37300E+03
        -0.37300E+03
        -0.37300E+03
        -0.37300E+03
        -0.37300E+03
        -0.37300E+03
        -0.37300E+03
        -0.37300E+03
        -0.37300E+03
        -0.37300E+03
        -0.37300E+03
        -0.37300E+03
        -0.37300E+03
        -0.37300E+03
        -0.37300E+03
        -0.37300E+03
        -0.37300E+03
        -0.37300E+03
        -0.37300E+03
        -0.37300E+03
        -0.37300E+03
        -0.37300E+03
        -0.37300E+03
        -0.37300E+03
        -0.37300E+03
        -0.37300E+03
        -0.37300E+03
        -0.37300E+03
        -0.37300E+03
        -0.37300E+03
        -0.37300E+03
        -0.37300E+03
        -0.37300E+03
        -0.37300E+03
        -0.37300E+03
        -0.37300E+03
        -0.37300E+03
        -0.37300E+03
        -0.37300E+03
        -0.37300E+03
        -0.37300E+03
        -0.37300E+03
        -0.37300E+03
        -0.37300E+03
        -0.37300E+03
        -0.37300E+03
        -0.37300E+03
        -0.37300E+03
        -0.37300E+03
        -0.37300E+03
        -0.37300E+03
        -0.37300E+03
        -0.37300E+03
        -0.37300E+03
        -0.37300E+03
        -0.37300E+03
        -0.37300E+03
        -0.37300E+03
        -0.37300E+03
        -0.37300E+03
        -0.37300E+03
        -0.37300E+03
        -0.37300E+03
        -0.37300E+03
        -0.37300E+03
        -0.37300E+03
        -0.37300E+03
        -0.37300E+03
        -0.37300E+03
        -0.37300E+03
        -0.37300E+03
        -0.37300E+03
        -0.37300E+03
        -0.37300E+03
        -0.37300E+03
        -0.37300E+03
        -0.37300E+03
        -0.37300E+03
        -0.37300E+03
        -0.37300E+03
        -0.37300E+03
        -0.37300E+03
        -0.37300E+03
        -0.37300E+03
        -0.37300E+03
        -0.37300E+03
        -0.37300E+03
        -0.37300E+03
        -0.37300E+03
        -0.37300E+03
        -0.37300E+03
        -0.37300E+03
        -0.37300E+03
        -0.37300E+03
        -0.37300E+03
        -0.37300E+03
        -0.37300E+03
        -0.37300E+03
        -0.37300E+03
        -0.37300E+03
        -0.37300E+03
        -0.37300E+03
        -0.37300E+03
        -0.37300E+03
        -0.37300E+03
        -0.37300E+03
        -0.37300E+03
        -0.37300E+03
        -0.37300E+03
        -0.37300E+03
        -0.37300E+03
        -0.37300E+03
        -0.37300E+03
        -0.37300E+03
        -0.37300E+03
        -0.37300E+03
        -0.37300E+03
        -0.37300E+03
        -0.37300E+03
        -0.37300E+03
        -0.37300E+03
        -0.37300E+03
        -0.37300E+03
        -0.37300E+03
        -0.37300E+03
        -0.37300E+03
        -0.37300E+03
        -0.37300E+03
        -0.37300E+03
        -0.37300E+03
        -0.37300E+03
        -0.37300E+03
        -0.37300E+03
        -0.37300E+03
        -0.37300E+03
        -0.37300E+03
        -0.37300E+03
        -0.37300E+03
        -0.37300E+03
        -0.37300E+03
        -0.37300E+03
        -0.37300E+03
        -0.37300E+03
        -0.37300E+03
        -0.37300E+03
        -0.37300E+03
        -0.37300E+03
        -0.37300E+03
        -0.37300E+03
        -0.37300E+03
        -0.37300E+03
        -0.37300E+03
        -0.37300E+03
        -0.37300E+03
        -0.37300E+03
        -0.37300E+03
        -0.37300E+03
        -0.37300E+03
        -0.37300E+03
        -0.37300E+03
        -0.37300E+03
        -0.37300E+03
        -0.37300E+03
        -0.37300E+03
        -0.37300E+03
        -0.37300E+03
        -0.37300E+03
        -0.37300E+03
        -0.37300E+03
        -0.37300E+03
        -0.37300E+03
        -0.37300E+03
        -0.37300E+03
        -0.37300E+03
        -0.37300E+03
        -0.37300E+03
        -0.37300E+03
        -0.37300E+03
        -0.37300E+03
        -0.37300E+03
        -0.37300E+03
        -0.37300E+03
        -0.37300E+03
        -0.37300E+03
        -0.37300E+03
        -0.37300E+03
        -0.37300E+03
        -0.37300E+03
        -0.37300E+03
        -0.37300E+03
        -0.37300E+03
        -0.37300E+03
        -0.37300E+03
        -0.37300E+03
        -0.37300E+03
        -0.37300E+03
        -0.37300E+03
        -0.37300E+03
        -0.37300E+03
        -0.37300E+03
        -0.37300E+03
        -0.37300E+03
        -0.37300E+03
        -0.37300E+03
        -0.37300E+03
        -0.37300E+03
        -0.37300E+03
        -0.37300E+03
        -0.37300E+03
        -0.37300E+03
        -0.37300E+03
        -0.37300E+03
        -0.37300E+03
        -0.37300E+03
        -0.37300E+03
        -0.37300E+03
        -0.37300E+03
        -0.37300E+03
        -0.37300E+03
        -0.37300E+03
        -0.37300E+03
        -0.37300E+03
        -0.37300E+03
        -0.37300E+03
        -0.37300E+03
        -0.37300E+03
        -0.37300E+03
        -0.37300E+03
        -0.37300E+03
        -0.37300E+03
        -0.37300E+03
        -0.37300E+03
        -0.37300E+03
        -0.37300E+03
        -0.37300E+03
        -0.37300E+03
        -0.37300E+03
        -0.37300E+03
        -0.37300E+03
        -0.37300E+03
        -0.37300E+03
        -0.37300E+03
        -0.37300E+03
        -0.37300E+03
        -0.37300E+03
        -0.37300E+03
        -0.37300E+03
        -0.37300E+03
        -0.37300E+03
        -0.37300E+03
        -0.37300E+03
        -0.37300E+03
        -0.37300E+03
        -0.37300E+03
        -0.37300E+03
        -0.37300E+03
        -0.37300E+03
        -0.37300E+03
        -0.37300E+03
        -0.37300E+03
        -0.37300E+03
        -0.37300E+03
        -0.37300E+03
        -0.37300E+03
        -0.37300E+03
        -0.37300E+03
        -0.37300E+03
        -0.37300E+03
        -0.37300E+03
        -0.37300E+03
        -0.37300E+03
        -0.37300E+03
        -0.37300E+03
        -0.37300E+03
        -0.37300E+03
        -0.37300E+03
        -0.37300E+03
        -0.37300E+03
        -0.37300E+03
        -0.37300E+03
        -0.37300E+03
        -0.37300E+03
        -0.37300E+03
        -0.37300E+03
        -0.37300E+03
        -0.37300E+03
        -0.37300E+03
        -0.37300E+03
        -0.37300E+03
        -0.37300E+03
        -0.37300E+03
        -0.37300E+03
        -0.37300E+03
        -0.37300E+03
        -0.37300E+03
        -0.37300E+03
        -0.37300E+03
        -0.37300E+03
        -0.37300E+03
        -0.37300E+03
        -0.37300E+03
        -0.37300E+03
        -0.37300E+03
        -0.37300E+03
        -0.37300E+03
        -0.37300E+03
        -0.37300E+03
        -0.37300E+03
        -0.37300E+03
        -0.37300E+03
        -0.37300E+03
        -0.37300E+03
        -0.37300E+03
        -0.37300E+03
        -0.37300E+03
        -0.37300E+03
        -0.37300E+03
        -0.37300E+03
        -0.37300E+03
        -0.37300E+03
        -0.37300E+03
        -0.37300E+03
        -0.37300E+03
        -0.37300E+03
        -0.37300E+03
        -0.37300E+03
        -0.37300E+03
        -0.37300E+03
        -0.37300E+03
        -0.37300E+03
        -0.37300E+03
        -0.37300E+03
        -0.37300E+03
        -0.37300E+03
        -0.37300E+03
        -0.37300E+03
        -0.37300E+03
        -0.37300E+03
        -0.37300E+03
        -0.37300E+03
        -0.37300E+03
        -0.37300E+03
        -0.37300E+03
        -0.37300E+03
        -0.37300E+03
        -0.37300E+03
        -0.37300E+03
        -0.37300E+03
        -0.37300E+03
        -0.37300E+03
        -0.37300E+03
        -0.37300E+03
        -0.37300E+03
        -0.37300E+03
        -0.37300E+03
        -0.37300E+03
        -0.37300E+03
        -0.37300E+03
        -0.37300E+03
        -0.37300E+03
        -0.37300E+03
        -0.37300E+03
        -0.37300E+03
        -0.37300E+03
        -0.37300E+03
        -0.37300E+03
        -0.37300E+03
        -0.37300E+03
        -0.37300E+03
        -0.37300E+03
        -0.37300E+03
        -0.37300E+03
        -0.37300E+03
        -0.37300E+03
        -0.37300E+03
        -0.37300E+03
        -0.37300E+03
        -0.37300E+03
        -0.37300E+03
        -0.37300E+03
        -0.37300E+03
        -0.37300E+03
        -0.37300E+03
        -0.37300E+03
        -0.37300E+03
        -0.37300E+03
        -0.37300E+03
        -0.37300E+03
        -0.37300E+03
        -0.37300E+03
        -0.37300E+03
        -0.37300E+03
        -0.37300E+03
        -0.37300E+03
        -0.37300E+03
        -0.37300E+03
        -0.37300E+03
        -0.37300E+03
        -0.37300E+03
        -0.37300E+03
        -0.37300E+03
        -0.37300E+03
        -0.37300E+03
        -0.37300E+03
        -0.37300E+03
        -0.37300E+03
        -0.37300E+03
        -0.37300E+03
        -0.37300E+03
        -0.37300E+03
        -0.37300E+03
        -0.37300E+03
        -0.37300E+03
        -0.37300E+03
        -0.37300E+03
        -0.37300E+03
        -0.37300E+03
        -0.37300E+03
        -0.37300E+03
        -0.37300E+03
        -0.37300E+03
        -0.37300E+03
        -0.37300E+03
        -0.37300E+03
        -0.37300E+03
        -0.37300E+03
        -0.37300E+03
        -0.37300E+03
        -0.37300E+03
        -0.37300E+03
        -0.37300E+03
        -0.37300E+03
        -0.37300E+03
        -0.37300E+03
        -0.37300E+03
        -0.37300E+03
        -0.37300E+03
        -0.37300E+03
        -0.37300E+03
        -0.37300E+03
        -0.37300E+03
        -0.37300E+03
        -0.37300E+03
        -0.37300E+03
        -0.37300E+03
        -0.37300E+03
        -0.37300E+03
        -0.37300E+03
        -0.37300E+03
        -0.37300E+03
        -0.37300E+03
        -0.37300E+03
        -0.37300E+03
        -0.37300E+03
        -0.37300E+03
        -0.37300E+03
        -0.37300E+03
        -0.37300E+03
        -0.37300E+03
        -0.37300E+03
        -0.37300E+03
        -0.37300E+03
        -0.37300E+03
        -0.37300E+03
        -0.37300E+03
        -0.37300E+03
        -0.37300E+03
        -0.37300E+03
        -0.37300E+03
        -0.37300E+03
        -0.37300E+03
        -0.37300E+03
        -0.37300E+03
        -0.37300E+03
        -0.37300E+03
        -0.37300E+03
        -0.37300E+03
        -0.37300E+03
        -0.37300E+03
        -0.37300E+03
        -0.37300E+03
        -0.37300E+03
        -0.37300E+03
        -0.37300E+03
        -0.37300E+03
        -0.37300E+03
        -0.37300E+03
        -0.37300E+03
        -0.37300E+03
        -0.37300E+03
        -0.37300E+03
        -0.37300E+03
        -0.37300E+03
        -0.37300E+03
        -0.37300E+03
        -0.37300E+03
        -0.37300E+03
        -0.37300E+03
        -0.37300E+03
        -0.37300E+03
        -0.37300E+03
        -0.37300E+03
        -0.37300E+03
        -0.37300E+03
        -0.37300E+03
        -0.37300E+03
        -0.37300E+03
        -0.37300E+03
        -0.37300E+03
        -0.37300E+03
        -0.37300E+03
        -0.37300E+03
        -0.37300E+03
        -0.37300E+03
        -0.37300E+03
        -0.37300E+03
        -0.37300E+03
        -0.37300E+03
        -0.37300E+03
        -0.37300E+03
        -0.37300E+03
        -0.37300E+03
        -0.37300E+03
        -0.37300E+03
        -0.37300E+03
        -0.37300E+03
        -0.37300E+03
        -0.37300E+03
        -0.37300E+03
        -0.37300E+03
        -0.37300E+03
        -0.37300E+03
        -0.37300E+03
        -0.37300E+03
        -0.37300E+03
        -0.37300E+03
        -0.37300E+03
        -0.37300E+03
        -0.37300E+03
        -0.37300E+03
        -0.37300E+03
        -0.37300E+03
        -0.37300E+03
        -0.37300E+03
        -0.37300E+03
        -0.37300E+03
        -0.37300E+03
        -0.37300E+03
        -0.37300E+03
        -0.37300E+03
        -0.37300E+03
        -0.37300E+03
        -0.37300E+03
        -0.37300E+03
        -0.37300E+03
        -0.37300E+03
        -0.37300E+03
        -0.37300E+03
        -0.37300E+03
        -0.37300E+03
        -0.37300E+03
        -0.37300E+03
        -0.37300E+03
        -0.37300E+03
        -0.37300E+03
        -0.37300E+03
        -0.37300E+03
        -0.37300E+03
        -0.37300E+03
        -0.37300E+03
        -0.37300E+03
        -0.37300E+03
        -0.37300E+03
        -0.37300E+03
        -0.37300E+03
        -0.37300E+03
        -0.37300E+03
        -0.37300E+03
        -0.37300E+03
        -0.37300E+03
        -0.37300E+03
        -0.37300E+03
        -0.37300E+03
        -0.37300E+03
        -0.37300E+03
        -0.37300E+03
        -0.37300E+03
        -0.37300E+03
        -0.37300E+03
        -0.37300E+03
        -0.37300E+03
        -0.37300E+03
        -0.37300E+03
        -0.37300E+03
        -0.37300E+03
        -0.37300E+03
        -0.37300E+03
        -0.37300E+03
        -0.37300E+03
        -0.37300E+03
        -0.37300E+03
        -0.37300E+03
        -0.37300E+03
        -0.37300E+03
        -0.37300E+03
        -0.37300E+03
        -0.37300E+03
        -0.37300E+03
        -0.37300E+03
        -0.37300E+03
        -0.37300E+03
        -0.37300E+03
        -0.37300E+03
        -0.37300E+03
        -0.37300E+03
        -0.37300E+03
        -0.37300E+03
        -0.37300E+03
        -0.37300E+03
        -0.37300E+03
        -0.37300E+03
        -0.37300E+03
        -0.37300E+03
        -0.37300E+03
        -0.37300E+03
        -0.37300E+03
        -0.37300E+03
        -0.37300E+03
        -0.37300E+03
        -0.37300E+03
        -0.37300E+03
        -0.37300E+03
        -0.37300E+03
        -0.37300E+03
        -0.37300E+03
        -0.37300E+03
        -0.37300E+03
        -0.37300E+03
        -0.37300E+03
        -0.37300E+03
        -0.37300E+03
        -0.37300E+03
        -0.37300E+03
        -0.37300E+03
        -0.37300E+03
        -0.37300E+03
        -0.37300E+03
        -0.37300E+03
        -0.37300E+03
        -0.37300E+03
        -0.37300E+03
        -0.37300E+03
        -0.37300E+03
        -0.37300E+03
        -0.37300E+03
        -0.37300E+03
        -0.37300E+03
        -0.37300E+03
        -0.37300E+03
        -0.37300E+03
        -0.37300E+03
        -0.37300E+03
        -0.37300E+03
        -0.37300E+03
        -0.37300E+03
        -0.37300E+03
        -0.37300E+03
        -0.37300E+03
        -0.37300E+03
        -0.37300E+03
        -0.37300E+03
        -0.37300E+03
        -0.37300E+03
        -0.37300E+03
        -0.37300E+03
        -0.37300E+03
        -0.37300E+03
        -0.37300E+03
        -0.37300E+03
        -0.37300E+03
        -0.37300E+03
        -0.37300E+03
        -0.37300E+03
        -0.37300E+03
        -0.37300E+03
        -0.37300E+03
        -0.37300E+03
        -0.37300E+03
        -0.37300E+03
        -0.37300E+03
        -0.37300E+03
        -0.37300E+03
        -0.37300E+03
        -0.37300E+03
        -0.37300E+03
        -0.37300E+03
        -0.37300E+03
        -0.37300E+03
        -0.37300E+03
        -0.37300E+03
        -0.37300E+03
        -0.37300E+03
        -0.37300E+03
        -0.37300E+03
        -0.37300E+03
        -0.37300E+03
        -0.37300E+03
        -0.37300E+03
        -0.37300E+03
        -0.37300E+03
        -0.37300E+03
        -0.37300E+03
        -0.37300E+03
        -0.37300E+03
        -0.37300E+03
        -0.37300E+03
        -0.37300E+03
        -0.37300E+03
        -0.37300E+03
        -0.37300E+03
        -0.37300E+03
        -0.37300E+03
        -0.37300E+03
        -0.37300E+03
        -0.37300E+03
        -0.37300E+03
        -0.37300E+03
        -0.37300E+03
        -0.37300E+03
        -0.37300E+03
        -0.37300E+03
        -0.37300E+03
        -0.37300E+03
        -0.37300E+03
        -0.37300E+03
        -0.37300E+03
        -0.37300E+03
        -0.37300E+03
        -0.37300E+03
        -0.37300E+03
        -0.37300E+03
        -0.37300E+03
        -0.37300E+03
        -0.37300E+03
        -0.37300E+03
        -0.37300E+03
        -0.37300E+03
        -0.37300E+03
        -0.37300E+03
        -0.37300E+03
        -0.37300E+03
        -0.37300E+03
        -0.37300E+03
        -0.37300E+03
        -0.37300E+03
        -0.37300E+03
        -0.37300E+03
        -0.37300E+03
        -0.37300E+03
        -0.37300E+03
        -0.37300E+03
        -0.37300E+03
        -0.37300E+03
        -0.37300E+03
        -0.37300E+03
        -0.37300E+03
        -0.37300E+03
        -0.37300E+03
        -0.37300E+03
        -0.37300E+03
        -0.37300E+03
        -0.37300E+03
        -0.37300E+03
        -0.37300E+03
        -0.37300E+03
        -0.37300E+03
        -0.37300E+03
        -0.37300E+03
        -0.37300E+03
        -0.37300E+03
        -0.37300E+03
        -0.37300E+03
        -0.37300E+03
        -0.37300E+03
        -0.37300E+03
        -0.37300E+03
        -0.37300E+03
        -0.37300E+03
        -0.37300E+03
        -0.37300E+03
        -0.37300E+03
        -0.37300E+03
        -0.37300E+03
        -0.37300E+03
        -0.37300E+03
        -0.37300E+03
        -0.37300E+03
        -0.37300E+03
        -0.37300E+03
        -0.37300E+03
        -0.37300E+03
        -0.37300E+03
        -0.37300E+03
        -0.37300E+03
        -0.37300E+03
        -0.37300E+03
        -0.37300E+03
  
SCALARS                 acceleration_x  double 1
LOOKUP_TABLE default
         0.00000E+00
         0.00000E+00
         0.00000E+00
         0.00000E+00
         0.00000E+00
         0.00000E+00
         0.00000E+00
         0.00000E+00
         0.00000E+00
         0.00000E+00
         0.00000E+00
         0.00000E+00
         0.00000E+00
         0.00000E+00
         0.00000E+00
         0.00000E+00
         0.00000E+00
         0.00000E+00
         0.00000E+00
         0.00000E+00
         0.00000E+00
         0.00000E+00
         0.00000E+00
         0.00000E+00
         0.00000E+00
         0.00000E+00
         0.00000E+00
         0.00000E+00
         0.00000E+00
         0.00000E+00
         0.00000E+00
         0.00000E+00
         0.00000E+00
         0.00000E+00
         0.00000E+00
         0.00000E+00
         0.00000E+00
         0.00000E+00
         0.00000E+00
         0.00000E+00
         0.00000E+00
         0.00000E+00
         0.00000E+00
         0.00000E+00
         0.00000E+00
         0.00000E+00
         0.00000E+00
         0.00000E+00
         0.00000E+00
         0.00000E+00
         0.00000E+00
         0.00000E+00
         0.00000E+00
         0.00000E+00
         0.00000E+00
         0.00000E+00
         0.00000E+00
         0.00000E+00
         0.00000E+00
         0.00000E+00
         0.00000E+00
         0.00000E+00
         0.00000E+00
         0.00000E+00
         0.00000E+00
         0.00000E+00
         0.00000E+00
         0.00000E+00
         0.00000E+00
         0.00000E+00
         0.00000E+00
         0.00000E+00
         0.00000E+00
         0.00000E+00
         0.00000E+00
         0.00000E+00
         0.00000E+00
         0.00000E+00
         0.00000E+00
         0.00000E+00
         0.00000E+00
         0.00000E+00
         0.00000E+00
         0.00000E+00
         0.00000E+00
         0.00000E+00
         0.00000E+00
         0.00000E+00
         0.00000E+00
         0.00000E+00
         0.00000E+00
         0.00000E+00
         0.00000E+00
         0.00000E+00
         0.00000E+00
         0.00000E+00
         0.00000E+00
         0.00000E+00
         0.00000E+00
         0.00000E+00
         0.00000E+00
         0.00000E+00
         0.00000E+00
         0.00000E+00
         0.00000E+00
         0.00000E+00
         0.00000E+00
         0.00000E+00
         0.00000E+00
         0.00000E+00
         0.00000E+00
         0.00000E+00
         0.00000E+00
         0.00000E+00
         0.00000E+00
         0.00000E+00
         0.00000E+00
         0.00000E+00
         0.00000E+00
         0.00000E+00
         0.00000E+00
         0.00000E+00
         0.00000E+00
         0.00000E+00
         0.00000E+00
         0.00000E+00
         0.00000E+00
         0.00000E+00
         0.00000E+00
         0.00000E+00
         0.00000E+00
         0.00000E+00
         0.00000E+00
         0.00000E+00
         0.00000E+00
         0.00000E+00
         0.00000E+00
         0.00000E+00
         0.00000E+00
         0.00000E+00
         0.00000E+00
         0.00000E+00
         0.00000E+00
         0.00000E+00
         0.00000E+00
         0.00000E+00
         0.00000E+00
         0.00000E+00
         0.00000E+00
         0.00000E+00
         0.00000E+00
         0.00000E+00
         0.00000E+00
         0.00000E+00
         0.00000E+00
         0.00000E+00
         0.00000E+00
         0.00000E+00
         0.00000E+00
         0.00000E+00
         0.00000E+00
         0.00000E+00
         0.00000E+00
         0.00000E+00
         0.00000E+00
         0.00000E+00
         0.00000E+00
         0.00000E+00
         0.00000E+00
         0.00000E+00
         0.00000E+00
         0.00000E+00
         0.00000E+00
         0.00000E+00
         0.00000E+00
         0.00000E+00
         0.00000E+00
         0.00000E+00
         0.00000E+00
         0.00000E+00
         0.00000E+00
         0.00000E+00
         0.00000E+00
         0.00000E+00
         0.00000E+00
         0.00000E+00
         0.00000E+00
         0.00000E+00
         0.00000E+00
         0.00000E+00
         0.00000E+00
         0.00000E+00
         0.00000E+00
         0.00000E+00
         0.00000E+00
         0.00000E+00
         0.00000E+00
         0.00000E+00
         0.00000E+00
         0.00000E+00
         0.00000E+00
         0.00000E+00
         0.00000E+00
         0.00000E+00
         0.00000E+00
         0.00000E+00
         0.00000E+00
         0.00000E+00
         0.00000E+00
         0.00000E+00
         0.00000E+00
         0.00000E+00
         0.00000E+00
         0.00000E+00
         0.00000E+00
         0.00000E+00
         0.00000E+00
         0.00000E+00
         0.00000E+00
         0.00000E+00
         0.00000E+00
         0.00000E+00
         0.00000E+00
         0.00000E+00
         0.00000E+00
         0.00000E+00
         0.00000E+00
         0.00000E+00
         0.00000E+00
         0.00000E+00
         0.00000E+00
         0.00000E+00
         0.00000E+00
         0.00000E+00
         0.00000E+00
         0.00000E+00
         0.00000E+00
         0.00000E+00
         0.00000E+00
         0.00000E+00
         0.00000E+00
         0.00000E+00
         0.00000E+00
         0.00000E+00
         0.00000E+00
         0.00000E+00
         0.00000E+00
         0.00000E+00
         0.00000E+00
         0.00000E+00
         0.00000E+00
         0.00000E+00
         0.00000E+00
         0.00000E+00
         0.00000E+00
         0.00000E+00
         0.00000E+00
         0.00000E+00
         0.00000E+00
         0.00000E+00
         0.00000E+00
         0.00000E+00
         0.00000E+00
         0.00000E+00
         0.00000E+00
         0.00000E+00
         0.00000E+00
         0.00000E+00
         0.00000E+00
         0.00000E+00
         0.00000E+00
         0.00000E+00
         0.00000E+00
         0.00000E+00
         0.00000E+00
         0.00000E+00
         0.00000E+00
         0.00000E+00
         0.00000E+00
         0.00000E+00
         0.00000E+00
         0.00000E+00
         0.00000E+00
         0.00000E+00
         0.00000E+00
         0.00000E+00
         0.00000E+00
         0.00000E+00
         0.00000E+00
         0.00000E+00
         0.00000E+00
         0.00000E+00
         0.00000E+00
         0.00000E+00
         0.00000E+00
         0.00000E+00
         0.00000E+00
         0.00000E+00
         0.00000E+00
         0.00000E+00
         0.00000E+00
         0.00000E+00
         0.00000E+00
         0.00000E+00
         0.00000E+00
         0.00000E+00
         0.00000E+00
         0.00000E+00
         0.00000E+00
         0.00000E+00
         0.00000E+00
         0.00000E+00
         0.00000E+00
         0.00000E+00
         0.00000E+00
         0.00000E+00
         0.00000E+00
         0.00000E+00
         0.00000E+00
         0.00000E+00
         0.00000E+00
         0.00000E+00
         0.00000E+00
         0.00000E+00
         0.00000E+00
         0.00000E+00
         0.00000E+00
         0.00000E+00
         0.00000E+00
         0.00000E+00
         0.00000E+00
         0.00000E+00
         0.00000E+00
         0.00000E+00
         0.00000E+00
         0.00000E+00
         0.00000E+00
         0.00000E+00
         0.00000E+00
         0.00000E+00
         0.00000E+00
         0.00000E+00
         0.00000E+00
         0.00000E+00
         0.00000E+00
         0.00000E+00
         0.00000E+00
         0.00000E+00
         0.00000E+00
         0.00000E+00
         0.00000E+00
         0.00000E+00
         0.00000E+00
         0.00000E+00
         0.00000E+00
         0.00000E+00
         0.00000E+00
         0.00000E+00
         0.00000E+00
         0.00000E+00
         0.00000E+00
         0.00000E+00
         0.00000E+00
         0.00000E+00
         0.00000E+00
         0.00000E+00
         0.00000E+00
         0.00000E+00
         0.00000E+00
         0.00000E+00
         0.00000E+00
         0.00000E+00
         0.00000E+00
         0.00000E+00
         0.00000E+00
         0.00000E+00
         0.00000E+00
         0.00000E+00
         0.00000E+00
         0.00000E+00
         0.00000E+00
         0.00000E+00
         0.00000E+00
         0.00000E+00
         0.00000E+00
         0.00000E+00
         0.00000E+00
         0.00000E+00
         0.00000E+00
         0.00000E+00
         0.00000E+00
         0.00000E+00
         0.00000E+00
         0.00000E+00
         0.00000E+00
         0.00000E+00
         0.00000E+00
         0.00000E+00
         0.00000E+00
         0.00000E+00
         0.00000E+00
         0.00000E+00
         0.00000E+00
         0.00000E+00
         0.00000E+00
         0.00000E+00
         0.00000E+00
         0.00000E+00
         0.00000E+00
         0.00000E+00
         0.00000E+00
         0.00000E+00
         0.00000E+00
         0.00000E+00
         0.00000E+00
         0.00000E+00
         0.00000E+00
         0.00000E+00
         0.00000E+00
         0.00000E+00
         0.00000E+00
         0.00000E+00
         0.00000E+00
         0.00000E+00
         0.00000E+00
         0.00000E+00
         0.00000E+00
         0.00000E+00
         0.00000E+00
         0.00000E+00
         0.00000E+00
         0.00000E+00
         0.00000E+00
         0.00000E+00
         0.00000E+00
         0.00000E+00
         0.00000E+00
         0.00000E+00
         0.00000E+00
         0.00000E+00
         0.00000E+00
         0.00000E+00
         0.00000E+00
         0.00000E+00
         0.00000E+00
         0.00000E+00
         0.00000E+00
         0.00000E+00
         0.00000E+00
         0.00000E+00
         0.00000E+00
         0.00000E+00
         0.00000E+00
         0.00000E+00
         0.00000E+00
         0.00000E+00
         0.00000E+00
         0.00000E+00
         0.00000E+00
         0.00000E+00
         0.00000E+00
         0.00000E+00
         0.00000E+00
         0.00000E+00
         0.00000E+00
         0.00000E+00
         0.00000E+00
         0.00000E+00
         0.00000E+00
         0.00000E+00
         0.00000E+00
         0.00000E+00
         0.00000E+00
         0.00000E+00
         0.00000E+00
         0.00000E+00
         0.00000E+00
         0.00000E+00
         0.00000E+00
         0.00000E+00
         0.00000E+00
         0.00000E+00
         0.00000E+00
         0.00000E+00
         0.00000E+00
         0.00000E+00
         0.00000E+00
         0.00000E+00
         0.00000E+00
         0.00000E+00
         0.00000E+00
         0.00000E+00
         0.00000E+00
         0.00000E+00
         0.00000E+00
         0.00000E+00
         0.00000E+00
         0.00000E+00
         0.00000E+00
         0.00000E+00
         0.00000E+00
         0.00000E+00
         0.00000E+00
         0.00000E+00
         0.00000E+00
         0.00000E+00
         0.00000E+00
         0.00000E+00
         0.00000E+00
         0.00000E+00
         0.00000E+00
         0.00000E+00
         0.00000E+00
         0.00000E+00
         0.00000E+00
         0.00000E+00
         0.00000E+00
         0.00000E+00
         0.00000E+00
         0.00000E+00
         0.00000E+00
         0.00000E+00
         0.00000E+00
         0.00000E+00
         0.00000E+00
         0.00000E+00
         0.00000E+00
         0.00000E+00
         0.00000E+00
         0.00000E+00
         0.00000E+00
         0.00000E+00
         0.00000E+00
         0.00000E+00
         0.00000E+00
         0.00000E+00
         0.00000E+00
         0.00000E+00
         0.00000E+00
         0.00000E+00
         0.00000E+00
         0.00000E+00
         0.00000E+00
         0.00000E+00
         0.00000E+00
         0.00000E+00
         0.00000E+00
         0.00000E+00
         0.00000E+00
         0.00000E+00
         0.00000E+00
         0.00000E+00
         0.00000E+00
         0.00000E+00
         0.00000E+00
         0.00000E+00
         0.00000E+00
         0.00000E+00
         0.00000E+00
         0.00000E+00
         0.00000E+00
         0.00000E+00
         0.00000E+00
         0.00000E+00
         0.00000E+00
         0.00000E+00
         0.00000E+00
         0.00000E+00
         0.00000E+00
         0.00000E+00
         0.00000E+00
         0.00000E+00
         0.00000E+00
         0.00000E+00
         0.00000E+00
         0.00000E+00
         0.00000E+00
         0.00000E+00
         0.00000E+00
         0.00000E+00
         0.00000E+00
         0.00000E+00
         0.00000E+00
         0.00000E+00
         0.00000E+00
         0.00000E+00
         0.00000E+00
         0.00000E+00
         0.00000E+00
         0.00000E+00
         0.00000E+00
         0.00000E+00
         0.00000E+00
         0.00000E+00
         0.00000E+00
         0.00000E+00
         0.00000E+00
         0.00000E+00
         0.00000E+00
         0.00000E+00
         0.00000E+00
         0.00000E+00
         0.00000E+00
         0.00000E+00
         0.00000E+00
         0.00000E+00
         0.00000E+00
         0.00000E+00
         0.00000E+00
         0.00000E+00
         0.00000E+00
         0.00000E+00
         0.00000E+00
         0.00000E+00
         0.00000E+00
         0.00000E+00
         0.00000E+00
         0.00000E+00
         0.00000E+00
         0.00000E+00
         0.00000E+00
         0.00000E+00
         0.00000E+00
         0.00000E+00
         0.00000E+00
         0.00000E+00
         0.00000E+00
         0.00000E+00
         0.00000E+00
         0.00000E+00
         0.00000E+00
         0.00000E+00
         0.00000E+00
         0.00000E+00
         0.00000E+00
         0.00000E+00
         0.00000E+00
         0.00000E+00
         0.00000E+00
         0.00000E+00
         0.00000E+00
         0.00000E+00
         0.00000E+00
         0.00000E+00
         0.00000E+00
         0.00000E+00
         0.00000E+00
         0.00000E+00
         0.00000E+00
         0.00000E+00
         0.00000E+00
         0.00000E+00
         0.00000E+00
         0.00000E+00
         0.00000E+00
         0.00000E+00
         0.00000E+00
         0.00000E+00
         0.00000E+00
         0.00000E+00
         0.00000E+00
         0.00000E+00
         0.00000E+00
         0.00000E+00
         0.00000E+00
         0.00000E+00
         0.00000E+00
         0.00000E+00
         0.00000E+00
         0.00000E+00
         0.00000E+00
         0.00000E+00
         0.00000E+00
         0.00000E+00
         0.00000E+00
         0.00000E+00
         0.00000E+00
         0.00000E+00
         0.00000E+00
         0.00000E+00
         0.00000E+00
         0.00000E+00
         0.00000E+00
         0.00000E+00
         0.00000E+00
         0.00000E+00
         0.00000E+00
         0.00000E+00
         0.00000E+00
         0.00000E+00
         0.00000E+00
         0.00000E+00
         0.00000E+00
         0.00000E+00
         0.00000E+00
         0.00000E+00
         0.00000E+00
         0.00000E+00
         0.00000E+00
         0.00000E+00
         0.00000E+00
         0.00000E+00
         0.00000E+00
         0.00000E+00
         0.00000E+00
         0.00000E+00
         0.00000E+00
         0.00000E+00
         0.00000E+00
         0.00000E+00
         0.00000E+00
         0.00000E+00
         0.00000E+00
         0.00000E+00
         0.00000E+00
         0.00000E+00
         0.00000E+00
         0.00000E+00
         0.00000E+00
         0.00000E+00
         0.00000E+00
         0.00000E+00
         0.00000E+00
         0.00000E+00
         0.00000E+00
         0.00000E+00
         0.00000E+00
         0.00000E+00
         0.00000E+00
         0.00000E+00
         0.00000E+00
         0.00000E+00
         0.00000E+00
         0.00000E+00
         0.00000E+00
         0.00000E+00
         0.00000E+00
         0.00000E+00
         0.00000E+00
         0.00000E+00
         0.00000E+00
         0.00000E+00
         0.00000E+00
         0.00000E+00
         0.00000E+00
         0.00000E+00
         0.00000E+00
         0.00000E+00
         0.00000E+00
         0.00000E+00
         0.00000E+00
         0.00000E+00
         0.00000E+00
         0.00000E+00
         0.00000E+00
         0.00000E+00
         0.00000E+00
         0.00000E+00
         0.00000E+00
         0.00000E+00
         0.00000E+00
         0.00000E+00
         0.00000E+00
         0.00000E+00
         0.00000E+00
         0.00000E+00
         0.00000E+00
         0.00000E+00
         0.00000E+00
         0.00000E+00
         0.00000E+00
         0.00000E+00
         0.00000E+00
         0.00000E+00
         0.00000E+00
         0.00000E+00
         0.00000E+00
         0.00000E+00
         0.00000E+00
         0.00000E+00
         0.00000E+00
         0.00000E+00
         0.00000E+00
         0.00000E+00
         0.00000E+00
         0.00000E+00
         0.00000E+00
         0.00000E+00
         0.00000E+00
         0.00000E+00
         0.00000E+00
         0.00000E+00
         0.00000E+00
         0.00000E+00
         0.00000E+00
         0.00000E+00
         0.00000E+00
         0.00000E+00
         0.00000E+00
         0.00000E+00
         0.00000E+00
         0.00000E+00
         0.00000E+00
         0.00000E+00
         0.00000E+00
         0.00000E+00
         0.00000E+00
         0.00000E+00
         0.00000E+00
         0.00000E+00
         0.00000E+00
         0.00000E+00
         0.00000E+00
         0.00000E+00
         0.00000E+00
         0.00000E+00
         0.00000E+00
         0.00000E+00
         0.00000E+00
         0.00000E+00
         0.00000E+00
         0.00000E+00
         0.00000E+00
         0.00000E+00
         0.00000E+00
         0.00000E+00
         0.00000E+00
         0.00000E+00
         0.00000E+00
         0.00000E+00
         0.00000E+00
         0.00000E+00
         0.00000E+00
         0.00000E+00
         0.00000E+00
         0.00000E+00
         0.00000E+00
         0.00000E+00
         0.00000E+00
         0.00000E+00
         0.00000E+00
         0.00000E+00
         0.00000E+00
         0.00000E+00
         0.00000E+00
         0.00000E+00
         0.00000E+00
         0.00000E+00
         0.00000E+00
         0.00000E+00
         0.00000E+00
         0.00000E+00
         0.00000E+00
         0.00000E+00
         0.00000E+00
         0.00000E+00
         0.00000E+00
         0.00000E+00
         0.00000E+00
         0.00000E+00
         0.00000E+00
         0.00000E+00
         0.00000E+00
         0.00000E+00
         0.00000E+00
         0.00000E+00
         0.00000E+00
         0.00000E+00
         0.00000E+00
         0.00000E+00
         0.00000E+00
         0.00000E+00
         0.00000E+00
         0.00000E+00
         0.00000E+00
         0.00000E+00
         0.00000E+00
         0.00000E+00
         0.00000E+00
         0.00000E+00
         0.00000E+00
         0.00000E+00
         0.00000E+00
         0.00000E+00
         0.00000E+00
         0.00000E+00
         0.00000E+00
         0.00000E+00
         0.00000E+00
         0.00000E+00
         0.00000E+00
         0.00000E+00
         0.00000E+00
         0.00000E+00
         0.00000E+00
         0.00000E+00
         0.00000E+00
         0.00000E+00
         0.00000E+00
         0.00000E+00
         0.00000E+00
         0.00000E+00
         0.00000E+00
         0.00000E+00
         0.00000E+00
         0.00000E+00
         0.00000E+00
         0.00000E+00
         0.00000E+00
         0.00000E+00
         0.00000E+00
         0.00000E+00
         0.00000E+00
         0.00000E+00
         0.00000E+00
         0.00000E+00
         0.00000E+00
         0.00000E+00
         0.00000E+00
         0.00000E+00
         0.00000E+00
         0.00000E+00
         0.00000E+00
         0.00000E+00
         0.00000E+00
         0.00000E+00
         0.00000E+00
         0.00000E+00
         0.00000E+00
         0.00000E+00
         0.00000E+00
         0.00000E+00
         0.00000E+00
         0.00000E+00
         0.00000E+00
         0.00000E+00
         0.00000E+00
         0.00000E+00
         0.00000E+00
         0.00000E+00
         0.00000E+00
         0.00000E+00
         0.00000E+00
         0.00000E+00
         0.00000E+00
         0.00000E+00
         0.00000E+00
         0.00000E+00
         0.00000E+00
         0.00000E+00
         0.00000E+00
         0.00000E+00
         0.00000E+00
         0.00000E+00
         0.00000E+00
         0.00000E+00
         0.00000E+00
         0.00000E+00
         0.00000E+00
         0.00000E+00
         0.00000E+00
         0.00000E+00
         0.00000E+00
         0.00000E+00
         0.00000E+00
         0.00000E+00
         0.00000E+00
         0.00000E+00
         0.00000E+00
         0.00000E+00
         0.00000E+00
         0.00000E+00
         0.00000E+00
         0.00000E+00
         0.00000E+00
         0.00000E+00
         0.00000E+00
         0.00000E+00
         0.00000E+00
         0.00000E+00
         0.00000E+00
         0.00000E+00
         0.00000E+00
         0.00000E+00
         0.00000E+00
         0.00000E+00
         0.00000E+00
         0.00000E+00
         0.00000E+00
         0.00000E+00
         0.00000E+00
         0.00000E+00
         0.00000E+00
         0.00000E+00
         0.00000E+00
         0.00000E+00
         0.00000E+00
         0.00000E+00
         0.00000E+00
         0.00000E+00
         0.00000E+00
         0.00000E+00
         0.00000E+00
         0.00000E+00
         0.00000E+00
         0.00000E+00
         0.00000E+00
         0.00000E+00
         0.00000E+00
         0.00000E+00
         0.00000E+00
         0.00000E+00
         0.00000E+00
         0.00000E+00
         0.00000E+00
         0.00000E+00
         0.00000E+00
         0.00000E+00
         0.00000E+00
         0.00000E+00
         0.00000E+00
         0.00000E+00
         0.00000E+00
         0.00000E+00
         0.00000E+00
         0.00000E+00
         0.00000E+00
         0.00000E+00
         0.00000E+00
         0.00000E+00
         0.00000E+00
         0.00000E+00
         0.00000E+00
         0.00000E+00
         0.00000E+00
         0.00000E+00
         0.00000E+00
         0.00000E+00
         0.00000E+00
         0.00000E+00
         0.00000E+00
         0.00000E+00
         0.00000E+00
         0.00000E+00
         0.00000E+00
         0.00000E+00
         0.00000E+00
         0.00000E+00
         0.00000E+00
         0.00000E+00
         0.00000E+00
         0.00000E+00
         0.00000E+00
         0.00000E+00
         0.00000E+00
         0.00000E+00
         0.00000E+00
         0.00000E+00
         0.00000E+00
         0.00000E+00
         0.00000E+00
         0.00000E+00
         0.00000E+00
         0.00000E+00
         0.00000E+00
         0.00000E+00
         0.00000E+00
         0.00000E+00
         0.00000E+00
         0.00000E+00
         0.00000E+00
         0.00000E+00
         0.00000E+00
         0.00000E+00
         0.00000E+00
         0.00000E+00
         0.00000E+00
         0.00000E+00
         0.00000E+00
         0.00000E+00
         0.00000E+00
         0.00000E+00
         0.00000E+00
         0.00000E+00
         0.00000E+00
         0.00000E+00
         0.00000E+00
         0.00000E+00
         0.00000E+00
         0.00000E+00
         0.00000E+00
         0.00000E+00
         0.00000E+00
         0.00000E+00
         0.00000E+00
         0.00000E+00
         0.00000E+00
         0.00000E+00
         0.00000E+00
         0.00000E+00
         0.00000E+00
         0.00000E+00
         0.00000E+00
         0.00000E+00
         0.00000E+00
         0.00000E+00
         0.00000E+00
         0.00000E+00
         0.00000E+00
         0.00000E+00
         0.00000E+00
         0.00000E+00
         0.00000E+00
         0.00000E+00
         0.00000E+00
         0.00000E+00
         0.00000E+00
         0.00000E+00
         0.00000E+00
         0.00000E+00
         0.00000E+00
         0.00000E+00
         0.00000E+00
         0.00000E+00
         0.00000E+00
         0.00000E+00
         0.00000E+00
         0.00000E+00
         0.00000E+00
         0.00000E+00
         0.00000E+00
         0.00000E+00
         0.00000E+00
         0.00000E+00
         0.00000E+00
         0.00000E+00
         0.00000E+00
         0.00000E+00
         0.00000E+00
         0.00000E+00
         0.00000E+00
         0.00000E+00
         0.00000E+00
         0.00000E+00
         0.00000E+00
         0.00000E+00
         0.00000E+00
         0.00000E+00
         0.00000E+00
         0.00000E+00
         0.00000E+00
         0.00000E+00
         0.00000E+00
         0.00000E+00
         0.00000E+00
         0.00000E+00
         0.00000E+00
         0.00000E+00
         0.00000E+00
         0.00000E+00
         0.00000E+00
         0.00000E+00
         0.00000E+00
         0.00000E+00
         0.00000E+00
         0.00000E+00
         0.00000E+00
         0.00000E+00
         0.00000E+00
         0.00000E+00
         0.00000E+00
         0.00000E+00
         0.00000E+00
         0.00000E+00
         0.00000E+00
         0.00000E+00
         0.00000E+00
         0.00000E+00
         0.00000E+00
         0.00000E+00
         0.00000E+00
         0.00000E+00
         0.00000E+00
         0.00000E+00
         0.00000E+00
         0.00000E+00
         0.00000E+00
         0.00000E+00
         0.00000E+00
         0.00000E+00
         0.00000E+00
         0.00000E+00
         0.00000E+00
         0.00000E+00
         0.00000E+00
         0.00000E+00
         0.00000E+00
         0.00000E+00
         0.00000E+00
         0.00000E+00
         0.00000E+00
         0.00000E+00
         0.00000E+00
         0.00000E+00
         0.00000E+00
         0.00000E+00
         0.00000E+00
         0.00000E+00
         0.00000E+00
         0.00000E+00
         0.00000E+00
         0.00000E+00
         0.00000E+00
         0.00000E+00
         0.00000E+00
         0.00000E+00
         0.00000E+00
         0.00000E+00
         0.00000E+00
         0.00000E+00
         0.00000E+00
         0.00000E+00
         0.00000E+00
         0.00000E+00
         0.00000E+00
         0.00000E+00
         0.00000E+00
         0.00000E+00
         0.00000E+00
         0.00000E+00
         0.00000E+00
         0.00000E+00
         0.00000E+00
         0.00000E+00
         0.00000E+00
         0.00000E+00
         0.00000E+00
         0.00000E+00
         0.00000E+00
         0.00000E+00
         0.00000E+00
         0.00000E+00
         0.00000E+00
         0.00000E+00
         0.00000E+00
         0.00000E+00
         0.00000E+00
         0.00000E+00
         0.00000E+00
         0.00000E+00
         0.00000E+00
         0.00000E+00
         0.00000E+00
         0.00000E+00
         0.00000E+00
         0.00000E+00
         0.00000E+00
         0.00000E+00
         0.00000E+00
         0.00000E+00
         0.00000E+00
         0.00000E+00
         0.00000E+00
         0.00000E+00
         0.00000E+00
         0.00000E+00
         0.00000E+00
         0.00000E+00
         0.00000E+00
         0.00000E+00
         0.00000E+00
         0.00000E+00
         0.00000E+00
         0.00000E+00
         0.00000E+00
         0.00000E+00
         0.00000E+00
         0.00000E+00
         0.00000E+00
         0.00000E+00
         0.00000E+00
         0.00000E+00
         0.00000E+00
         0.00000E+00
         0.00000E+00
         0.00000E+00
         0.00000E+00
         0.00000E+00
         0.00000E+00
         0.00000E+00
         0.00000E+00
         0.00000E+00
         0.00000E+00
         0.00000E+00
         0.00000E+00
         0.00000E+00
         0.00000E+00
         0.00000E+00
         0.00000E+00
         0.00000E+00
         0.00000E+00
         0.00000E+00
         0.00000E+00
         0.00000E+00
         0.00000E+00
         0.00000E+00
         0.00000E+00
         0.00000E+00
         0.00000E+00
         0.00000E+00
         0.00000E+00
         0.00000E+00
         0.00000E+00
         0.00000E+00
         0.00000E+00
         0.00000E+00
         0.00000E+00
         0.00000E+00
         0.00000E+00
         0.00000E+00
         0.00000E+00
         0.00000E+00
         0.00000E+00
         0.00000E+00
         0.00000E+00
         0.00000E+00
         0.00000E+00
         0.00000E+00
         0.00000E+00
         0.00000E+00
         0.00000E+00
         0.00000E+00
         0.00000E+00
         0.00000E+00
         0.00000E+00
         0.00000E+00
         0.00000E+00
         0.00000E+00
         0.00000E+00
         0.00000E+00
         0.00000E+00
         0.00000E+00
         0.00000E+00
         0.00000E+00
         0.00000E+00
         0.00000E+00
         0.00000E+00
         0.00000E+00
         0.00000E+00
         0.00000E+00
         0.00000E+00
         0.00000E+00
         0.00000E+00
         0.00000E+00
         0.00000E+00
         0.00000E+00
         0.00000E+00
         0.00000E+00
         0.00000E+00
         0.00000E+00
         0.00000E+00
         0.00000E+00
         0.00000E+00
         0.00000E+00
         0.00000E+00
         0.00000E+00
         0.00000E+00
         0.00000E+00
         0.00000E+00
         0.00000E+00
         0.00000E+00
         0.00000E+00
         0.00000E+00
         0.00000E+00
         0.00000E+00
         0.00000E+00
         0.00000E+00
         0.00000E+00
         0.00000E+00
         0.00000E+00
         0.00000E+00
         0.00000E+00
         0.00000E+00
         0.00000E+00
         0.00000E+00
         0.00000E+00
         0.00000E+00
         0.00000E+00
         0.00000E+00
         0.00000E+00
         0.00000E+00
         0.00000E+00
         0.00000E+00
         0.00000E+00
         0.00000E+00
         0.00000E+00
         0.00000E+00
         0.00000E+00
         0.00000E+00
         0.00000E+00
         0.00000E+00
         0.00000E+00
         0.00000E+00
         0.00000E+00
         0.00000E+00
         0.00000E+00
         0.00000E+00
         0.00000E+00
         0.00000E+00
         0.00000E+00
         0.00000E+00
         0.00000E+00
         0.00000E+00
         0.00000E+00
         0.00000E+00
         0.00000E+00
         0.00000E+00
         0.00000E+00
         0.00000E+00
         0.00000E+00
         0.00000E+00
         0.00000E+00
         0.00000E+00
         0.00000E+00
         0.00000E+00
         0.00000E+00
         0.00000E+00
         0.00000E+00
         0.00000E+00
         0.00000E+00
         0.00000E+00
         0.00000E+00
         0.00000E+00
         0.00000E+00
         0.00000E+00
         0.00000E+00
         0.00000E+00
         0.00000E+00
         0.00000E+00
         0.00000E+00
         0.00000E+00
         0.00000E+00
         0.00000E+00
         0.00000E+00
         0.00000E+00
         0.00000E+00
         0.00000E+00
         0.00000E+00
         0.00000E+00
         0.00000E+00
         0.00000E+00
         0.00000E+00
         0.00000E+00
         0.00000E+00
         0.00000E+00
         0.00000E+00
         0.00000E+00
         0.00000E+00
         0.00000E+00
         0.00000E+00
         0.00000E+00
         0.00000E+00
         0.00000E+00
         0.00000E+00
         0.00000E+00
         0.00000E+00
         0.00000E+00
         0.00000E+00
         0.00000E+00
         0.00000E+00
         0.00000E+00
         0.00000E+00
         0.00000E+00
         0.00000E+00
         0.00000E+00
         0.00000E+00
         0.00000E+00
         0.00000E+00
         0.00000E+00
         0.00000E+00
         0.00000E+00
         0.00000E+00
         0.00000E+00
         0.00000E+00
         0.00000E+00
         0.00000E+00
         0.00000E+00
         0.00000E+00
         0.00000E+00
         0.00000E+00
         0.00000E+00
         0.00000E+00
         0.00000E+00
         0.00000E+00
         0.00000E+00
         0.00000E+00
         0.00000E+00
         0.00000E+00
         0.00000E+00
         0.00000E+00
         0.00000E+00
         0.00000E+00
         0.00000E+00
         0.00000E+00
         0.00000E+00
         0.00000E+00
         0.00000E+00
         0.00000E+00
         0.00000E+00
         0.00000E+00
         0.00000E+00
         0.00000E+00
         0.00000E+00
         0.00000E+00
         0.00000E+00
         0.00000E+00
         0.00000E+00
         0.00000E+00
         0.00000E+00
         0.00000E+00
         0.00000E+00
         0.00000E+00
         0.00000E+00
         0.00000E+00
         0.00000E+00
         0.00000E+00
         0.00000E+00
         0.00000E+00
         0.00000E+00
         0.00000E+00
         0.00000E+00
         0.00000E+00
         0.00000E+00
         0.00000E+00
         0.00000E+00
         0.00000E+00
         0.00000E+00
         0.00000E+00
         0.00000E+00
         0.00000E+00
         0.00000E+00
         0.00000E+00
         0.00000E+00
         0.00000E+00
         0.00000E+00
         0.00000E+00
         0.00000E+00
         0.00000E+00
         0.00000E+00
         0.00000E+00
         0.00000E+00
         0.00000E+00
         0.00000E+00
         0.00000E+00
         0.00000E+00
         0.00000E+00
         0.00000E+00
         0.00000E+00
         0.00000E+00
         0.00000E+00
         0.00000E+00
         0.00000E+00
         0.00000E+00
         0.00000E+00
         0.00000E+00
         0.00000E+00
         0.00000E+00
         0.00000E+00
         0.00000E+00
         0.00000E+00
         0.00000E+00
         0.00000E+00
         0.00000E+00
         0.00000E+00
         0.00000E+00
         0.00000E+00
         0.00000E+00
         0.00000E+00
         0.00000E+00
         0.00000E+00
         0.00000E+00
         0.00000E+00
         0.00000E+00
         0.00000E+00
         0.00000E+00
         0.00000E+00
         0.00000E+00
         0.00000E+00
         0.00000E+00
         0.00000E+00
         0.00000E+00
         0.00000E+00
         0.00000E+00
         0.00000E+00
         0.00000E+00
         0.00000E+00
         0.00000E+00
         0.00000E+00
         0.00000E+00
         0.00000E+00
         0.00000E+00
         0.00000E+00
         0.00000E+00
         0.00000E+00
         0.00000E+00
         0.00000E+00
         0.00000E+00
         0.00000E+00
         0.00000E+00
         0.00000E+00
         0.00000E+00
         0.00000E+00
         0.00000E+00
         0.00000E+00
         0.00000E+00
         0.00000E+00
         0.00000E+00
         0.00000E+00
         0.00000E+00
         0.00000E+00
         0.00000E+00
         0.00000E+00
         0.00000E+00
         0.00000E+00
         0.00000E+00
         0.00000E+00
         0.00000E+00
         0.00000E+00
         0.00000E+00
         0.00000E+00
         0.00000E+00
         0.00000E+00
         0.00000E+00
         0.00000E+00
         0.00000E+00
         0.00000E+00
         0.00000E+00
         0.00000E+00
         0.00000E+00
         0.00000E+00
         0.00000E+00
         0.00000E+00
         0.00000E+00
         0.00000E+00
         0.00000E+00
         0.00000E+00
         0.00000E+00
         0.00000E+00
         0.00000E+00
         0.00000E+00
         0.00000E+00
         0.00000E+00
         0.00000E+00
         0.00000E+00
         0.00000E+00
         0.00000E+00
         0.00000E+00
         0.00000E+00
         0.00000E+00
         0.00000E+00
         0.00000E+00
         0.00000E+00
         0.00000E+00
         0.00000E+00
         0.00000E+00
         0.00000E+00
         0.00000E+00
         0.00000E+00
         0.00000E+00
         0.00000E+00
         0.00000E+00
         0.00000E+00
         0.00000E+00
         0.00000E+00
         0.00000E+00
         0.00000E+00
         0.00000E+00
         0.00000E+00
         0.00000E+00
         0.00000E+00
         0.00000E+00
         0.00000E+00
         0.00000E+00
         0.00000E+00
         0.00000E+00
         0.00000E+00
         0.00000E+00
         0.00000E+00
         0.00000E+00
         0.00000E+00
         0.00000E+00
         0.00000E+00
         0.00000E+00
         0.00000E+00
         0.00000E+00
         0.00000E+00
         0.00000E+00
         0.00000E+00
         0.00000E+00
         0.00000E+00
         0.00000E+00
         0.00000E+00
         0.00000E+00
         0.00000E+00
         0.00000E+00
         0.00000E+00
         0.00000E+00
         0.00000E+00
         0.00000E+00
         0.00000E+00
         0.00000E+00
         0.00000E+00
         0.00000E+00
         0.00000E+00
         0.00000E+00
         0.00000E+00
         0.00000E+00
         0.00000E+00
         0.00000E+00
         0.00000E+00
         0.00000E+00
         0.00000E+00
         0.00000E+00
         0.00000E+00
         0.00000E+00
         0.00000E+00
         0.00000E+00
         0.00000E+00
         0.00000E+00
         0.00000E+00
         0.00000E+00
         0.00000E+00
         0.00000E+00
         0.00000E+00
         0.00000E+00
         0.00000E+00
         0.00000E+00
         0.00000E+00
         0.00000E+00
         0.00000E+00
         0.00000E+00
         0.00000E+00
         0.00000E+00
         0.00000E+00
         0.00000E+00
         0.00000E+00
         0.00000E+00
         0.00000E+00
         0.00000E+00
         0.00000E+00
         0.00000E+00
         0.00000E+00
         0.00000E+00
         0.00000E+00
         0.00000E+00
         0.00000E+00
         0.00000E+00
         0.00000E+00
         0.00000E+00
         0.00000E+00
         0.00000E+00
         0.00000E+00
         0.00000E+00
         0.00000E+00
         0.00000E+00
         0.00000E+00
         0.00000E+00
         0.00000E+00
         0.00000E+00
         0.00000E+00
         0.00000E+00
         0.00000E+00
         0.00000E+00
         0.00000E+00
         0.00000E+00
         0.00000E+00
         0.00000E+00
         0.00000E+00
         0.00000E+00
         0.00000E+00
         0.00000E+00
         0.00000E+00
         0.00000E+00
         0.00000E+00
         0.00000E+00
         0.00000E+00
         0.00000E+00
         0.00000E+00
         0.00000E+00
         0.00000E+00
         0.00000E+00
         0.00000E+00
         0.00000E+00
         0.00000E+00
         0.00000E+00
         0.00000E+00
         0.00000E+00
         0.00000E+00
         0.00000E+00
         0.00000E+00
         0.00000E+00
         0.00000E+00
         0.00000E+00
         0.00000E+00
         0.00000E+00
         0.00000E+00
         0.00000E+00
         0.00000E+00
         0.00000E+00
         0.00000E+00
         0.00000E+00
         0.00000E+00
         0.00000E+00
         0.00000E+00
         0.00000E+00
         0.00000E+00
         0.00000E+00
         0.00000E+00
         0.00000E+00
         0.00000E+00
         0.00000E+00
         0.00000E+00
         0.00000E+00
         0.00000E+00
         0.00000E+00
         0.00000E+00
         0.00000E+00
         0.00000E+00
         0.00000E+00
         0.00000E+00
         0.00000E+00
         0.00000E+00
         0.00000E+00
         0.00000E+00
         0.00000E+00
         0.00000E+00
         0.00000E+00
         0.00000E+00
         0.00000E+00
         0.00000E+00
         0.00000E+00
         0.00000E+00
         0.00000E+00
         0.00000E+00
         0.00000E+00
         0.00000E+00
         0.00000E+00
         0.00000E+00
         0.00000E+00
         0.00000E+00
         0.00000E+00
         0.00000E+00
         0.00000E+00
         0.00000E+00
         0.00000E+00
         0.00000E+00
         0.00000E+00
         0.00000E+00
         0.00000E+00
         0.00000E+00
         0.00000E+00
         0.00000E+00
         0.00000E+00
         0.00000E+00
         0.00000E+00
         0.00000E+00
         0.00000E+00
         0.00000E+00
         0.00000E+00
         0.00000E+00
         0.00000E+00
         0.00000E+00
         0.00000E+00
         0.00000E+00
         0.00000E+00
         0.00000E+00
         0.00000E+00
         0.00000E+00
         0.00000E+00
         0.00000E+00
         0.00000E+00
         0.00000E+00
         0.00000E+00
         0.00000E+00
         0.00000E+00
         0.00000E+00
         0.00000E+00
         0.00000E+00
         0.00000E+00
         0.00000E+00
         0.00000E+00
         0.00000E+00
         0.00000E+00
         0.00000E+00
         0.00000E+00
         0.00000E+00
         0.00000E+00
         0.00000E+00
         0.00000E+00
         0.00000E+00
         0.00000E+00
         0.00000E+00
         0.00000E+00
         0.00000E+00
         0.00000E+00
         0.00000E+00
         0.00000E+00
         0.00000E+00
         0.00000E+00
         0.00000E+00
         0.00000E+00
         0.00000E+00
         0.00000E+00
         0.00000E+00
         0.00000E+00
         0.00000E+00
         0.00000E+00
         0.00000E+00
         0.00000E+00
         0.00000E+00
         0.00000E+00
         0.00000E+00
         0.00000E+00
         0.00000E+00
         0.00000E+00
         0.00000E+00
         0.00000E+00
         0.00000E+00
         0.00000E+00
         0.00000E+00
         0.00000E+00
         0.00000E+00
         0.00000E+00
         0.00000E+00
         0.00000E+00
         0.00000E+00
         0.00000E+00
         0.00000E+00
         0.00000E+00
         0.00000E+00
         0.00000E+00
         0.00000E+00
         0.00000E+00
         0.00000E+00
         0.00000E+00
         0.00000E+00
         0.00000E+00
         0.00000E+00
         0.00000E+00
         0.00000E+00
  
SCALARS                 acceleration_y  double 1
LOOKUP_TABLE default
         0.00000E+00
         0.00000E+00
         0.00000E+00
         0.00000E+00
         0.00000E+00
         0.00000E+00
         0.00000E+00
         0.00000E+00
         0.00000E+00
         0.00000E+00
         0.00000E+00
         0.00000E+00
         0.00000E+00
         0.00000E+00
         0.00000E+00
         0.00000E+00
         0.00000E+00
         0.00000E+00
         0.00000E+00
         0.00000E+00
         0.00000E+00
         0.00000E+00
         0.00000E+00
         0.00000E+00
         0.00000E+00
         0.00000E+00
         0.00000E+00
         0.00000E+00
         0.00000E+00
         0.00000E+00
         0.00000E+00
         0.00000E+00
         0.00000E+00
         0.00000E+00
         0.00000E+00
         0.00000E+00
         0.00000E+00
         0.00000E+00
         0.00000E+00
         0.00000E+00
         0.00000E+00
         0.00000E+00
         0.00000E+00
         0.00000E+00
         0.00000E+00
         0.00000E+00
         0.00000E+00
         0.00000E+00
         0.00000E+00
         0.00000E+00
         0.00000E+00
         0.00000E+00
         0.00000E+00
         0.00000E+00
         0.00000E+00
         0.00000E+00
         0.00000E+00
         0.00000E+00
         0.00000E+00
         0.00000E+00
         0.00000E+00
         0.00000E+00
         0.00000E+00
         0.00000E+00
         0.00000E+00
         0.00000E+00
         0.00000E+00
         0.00000E+00
         0.00000E+00
         0.00000E+00
         0.00000E+00
         0.00000E+00
         0.00000E+00
         0.00000E+00
         0.00000E+00
         0.00000E+00
         0.00000E+00
         0.00000E+00
         0.00000E+00
         0.00000E+00
         0.00000E+00
         0.00000E+00
         0.00000E+00
         0.00000E+00
         0.00000E+00
         0.00000E+00
         0.00000E+00
         0.00000E+00
         0.00000E+00
         0.00000E+00
         0.00000E+00
         0.00000E+00
         0.00000E+00
         0.00000E+00
         0.00000E+00
         0.00000E+00
         0.00000E+00
         0.00000E+00
         0.00000E+00
         0.00000E+00
         0.00000E+00
         0.00000E+00
         0.00000E+00
         0.00000E+00
         0.00000E+00
         0.00000E+00
         0.00000E+00
         0.00000E+00
         0.00000E+00
         0.00000E+00
         0.00000E+00
         0.00000E+00
         0.00000E+00
         0.00000E+00
         0.00000E+00
         0.00000E+00
         0.00000E+00
         0.00000E+00
         0.00000E+00
         0.00000E+00
         0.00000E+00
         0.00000E+00
         0.00000E+00
         0.00000E+00
         0.00000E+00
         0.00000E+00
         0.00000E+00
         0.00000E+00
         0.00000E+00
         0.00000E+00
         0.00000E+00
         0.00000E+00
         0.00000E+00
         0.00000E+00
         0.00000E+00
         0.00000E+00
         0.00000E+00
         0.00000E+00
         0.00000E+00
         0.00000E+00
         0.00000E+00
         0.00000E+00
         0.00000E+00
         0.00000E+00
         0.00000E+00
         0.00000E+00
         0.00000E+00
         0.00000E+00
         0.00000E+00
         0.00000E+00
         0.00000E+00
         0.00000E+00
         0.00000E+00
         0.00000E+00
         0.00000E+00
         0.00000E+00
         0.00000E+00
         0.00000E+00
         0.00000E+00
         0.00000E+00
         0.00000E+00
         0.00000E+00
         0.00000E+00
         0.00000E+00
         0.00000E+00
         0.00000E+00
         0.00000E+00
         0.00000E+00
         0.00000E+00
         0.00000E+00
         0.00000E+00
         0.00000E+00
         0.00000E+00
         0.00000E+00
         0.00000E+00
         0.00000E+00
         0.00000E+00
         0.00000E+00
         0.00000E+00
         0.00000E+00
         0.00000E+00
         0.00000E+00
         0.00000E+00
         0.00000E+00
         0.00000E+00
         0.00000E+00
         0.00000E+00
         0.00000E+00
         0.00000E+00
         0.00000E+00
         0.00000E+00
         0.00000E+00
         0.00000E+00
         0.00000E+00
         0.00000E+00
         0.00000E+00
         0.00000E+00
         0.00000E+00
         0.00000E+00
         0.00000E+00
         0.00000E+00
         0.00000E+00
         0.00000E+00
         0.00000E+00
         0.00000E+00
         0.00000E+00
         0.00000E+00
         0.00000E+00
         0.00000E+00
         0.00000E+00
         0.00000E+00
         0.00000E+00
         0.00000E+00
         0.00000E+00
         0.00000E+00
         0.00000E+00
         0.00000E+00
         0.00000E+00
         0.00000E+00
         0.00000E+00
         0.00000E+00
         0.00000E+00
         0.00000E+00
         0.00000E+00
         0.00000E+00
         0.00000E+00
         0.00000E+00
         0.00000E+00
         0.00000E+00
         0.00000E+00
         0.00000E+00
         0.00000E+00
         0.00000E+00
         0.00000E+00
         0.00000E+00
         0.00000E+00
         0.00000E+00
         0.00000E+00
         0.00000E+00
         0.00000E+00
         0.00000E+00
         0.00000E+00
         0.00000E+00
         0.00000E+00
         0.00000E+00
         0.00000E+00
         0.00000E+00
         0.00000E+00
         0.00000E+00
         0.00000E+00
         0.00000E+00
         0.00000E+00
         0.00000E+00
         0.00000E+00
         0.00000E+00
         0.00000E+00
         0.00000E+00
         0.00000E+00
         0.00000E+00
         0.00000E+00
         0.00000E+00
         0.00000E+00
         0.00000E+00
         0.00000E+00
         0.00000E+00
         0.00000E+00
         0.00000E+00
         0.00000E+00
         0.00000E+00
         0.00000E+00
         0.00000E+00
         0.00000E+00
         0.00000E+00
         0.00000E+00
         0.00000E+00
         0.00000E+00
         0.00000E+00
         0.00000E+00
         0.00000E+00
         0.00000E+00
         0.00000E+00
         0.00000E+00
         0.00000E+00
         0.00000E+00
         0.00000E+00
         0.00000E+00
         0.00000E+00
         0.00000E+00
         0.00000E+00
         0.00000E+00
         0.00000E+00
         0.00000E+00
         0.00000E+00
         0.00000E+00
         0.00000E+00
         0.00000E+00
         0.00000E+00
         0.00000E+00
         0.00000E+00
         0.00000E+00
         0.00000E+00
         0.00000E+00
         0.00000E+00
         0.00000E+00
         0.00000E+00
         0.00000E+00
         0.00000E+00
         0.00000E+00
         0.00000E+00
         0.00000E+00
         0.00000E+00
         0.00000E+00
         0.00000E+00
         0.00000E+00
         0.00000E+00
         0.00000E+00
         0.00000E+00
         0.00000E+00
         0.00000E+00
         0.00000E+00
         0.00000E+00
         0.00000E+00
         0.00000E+00
         0.00000E+00
         0.00000E+00
         0.00000E+00
         0.00000E+00
         0.00000E+00
         0.00000E+00
         0.00000E+00
         0.00000E+00
         0.00000E+00
         0.00000E+00
         0.00000E+00
         0.00000E+00
         0.00000E+00
         0.00000E+00
         0.00000E+00
         0.00000E+00
         0.00000E+00
         0.00000E+00
         0.00000E+00
         0.00000E+00
         0.00000E+00
         0.00000E+00
         0.00000E+00
         0.00000E+00
         0.00000E+00
         0.00000E+00
         0.00000E+00
         0.00000E+00
         0.00000E+00
         0.00000E+00
         0.00000E+00
         0.00000E+00
         0.00000E+00
         0.00000E+00
         0.00000E+00
         0.00000E+00
         0.00000E+00
         0.00000E+00
         0.00000E+00
         0.00000E+00
         0.00000E+00
         0.00000E+00
         0.00000E+00
         0.00000E+00
         0.00000E+00
         0.00000E+00
         0.00000E+00
         0.00000E+00
         0.00000E+00
         0.00000E+00
         0.00000E+00
         0.00000E+00
         0.00000E+00
         0.00000E+00
         0.00000E+00
         0.00000E+00
         0.00000E+00
         0.00000E+00
         0.00000E+00
         0.00000E+00
         0.00000E+00
         0.00000E+00
         0.00000E+00
         0.00000E+00
         0.00000E+00
         0.00000E+00
         0.00000E+00
         0.00000E+00
         0.00000E+00
         0.00000E+00
         0.00000E+00
         0.00000E+00
         0.00000E+00
         0.00000E+00
         0.00000E+00
         0.00000E+00
         0.00000E+00
         0.00000E+00
         0.00000E+00
         0.00000E+00
         0.00000E+00
         0.00000E+00
         0.00000E+00
         0.00000E+00
         0.00000E+00
         0.00000E+00
         0.00000E+00
         0.00000E+00
         0.00000E+00
         0.00000E+00
         0.00000E+00
         0.00000E+00
         0.00000E+00
         0.00000E+00
         0.00000E+00
         0.00000E+00
         0.00000E+00
         0.00000E+00
         0.00000E+00
         0.00000E+00
         0.00000E+00
         0.00000E+00
         0.00000E+00
         0.00000E+00
         0.00000E+00
         0.00000E+00
         0.00000E+00
         0.00000E+00
         0.00000E+00
         0.00000E+00
         0.00000E+00
         0.00000E+00
         0.00000E+00
         0.00000E+00
         0.00000E+00
         0.00000E+00
         0.00000E+00
         0.00000E+00
         0.00000E+00
         0.00000E+00
         0.00000E+00
         0.00000E+00
         0.00000E+00
         0.00000E+00
         0.00000E+00
         0.00000E+00
         0.00000E+00
         0.00000E+00
         0.00000E+00
         0.00000E+00
         0.00000E+00
         0.00000E+00
         0.00000E+00
         0.00000E+00
         0.00000E+00
         0.00000E+00
         0.00000E+00
         0.00000E+00
         0.00000E+00
         0.00000E+00
         0.00000E+00
         0.00000E+00
         0.00000E+00
         0.00000E+00
         0.00000E+00
         0.00000E+00
         0.00000E+00
         0.00000E+00
         0.00000E+00
         0.00000E+00
         0.00000E+00
         0.00000E+00
         0.00000E+00
         0.00000E+00
         0.00000E+00
         0.00000E+00
         0.00000E+00
         0.00000E+00
         0.00000E+00
         0.00000E+00
         0.00000E+00
         0.00000E+00
         0.00000E+00
         0.00000E+00
         0.00000E+00
         0.00000E+00
         0.00000E+00
         0.00000E+00
         0.00000E+00
         0.00000E+00
         0.00000E+00
         0.00000E+00
         0.00000E+00
         0.00000E+00
         0.00000E+00
         0.00000E+00
         0.00000E+00
         0.00000E+00
         0.00000E+00
         0.00000E+00
         0.00000E+00
         0.00000E+00
         0.00000E+00
         0.00000E+00
         0.00000E+00
         0.00000E+00
         0.00000E+00
         0.00000E+00
         0.00000E+00
         0.00000E+00
         0.00000E+00
         0.00000E+00
         0.00000E+00
         0.00000E+00
         0.00000E+00
         0.00000E+00
         0.00000E+00
         0.00000E+00
         0.00000E+00
         0.00000E+00
         0.00000E+00
         0.00000E+00
         0.00000E+00
         0.00000E+00
         0.00000E+00
         0.00000E+00
         0.00000E+00
         0.00000E+00
         0.00000E+00
         0.00000E+00
         0.00000E+00
         0.00000E+00
         0.00000E+00
         0.00000E+00
         0.00000E+00
         0.00000E+00
         0.00000E+00
         0.00000E+00
         0.00000E+00
         0.00000E+00
         0.00000E+00
         0.00000E+00
         0.00000E+00
         0.00000E+00
         0.00000E+00
         0.00000E+00
         0.00000E+00
         0.00000E+00
         0.00000E+00
         0.00000E+00
         0.00000E+00
         0.00000E+00
         0.00000E+00
         0.00000E+00
         0.00000E+00
         0.00000E+00
         0.00000E+00
         0.00000E+00
         0.00000E+00
         0.00000E+00
         0.00000E+00
         0.00000E+00
         0.00000E+00
         0.00000E+00
         0.00000E+00
         0.00000E+00
         0.00000E+00
         0.00000E+00
         0.00000E+00
         0.00000E+00
         0.00000E+00
         0.00000E+00
         0.00000E+00
         0.00000E+00
         0.00000E+00
         0.00000E+00
         0.00000E+00
         0.00000E+00
         0.00000E+00
         0.00000E+00
         0.00000E+00
         0.00000E+00
         0.00000E+00
         0.00000E+00
         0.00000E+00
         0.00000E+00
         0.00000E+00
         0.00000E+00
         0.00000E+00
         0.00000E+00
         0.00000E+00
         0.00000E+00
         0.00000E+00
         0.00000E+00
         0.00000E+00
         0.00000E+00
         0.00000E+00
         0.00000E+00
         0.00000E+00
         0.00000E+00
         0.00000E+00
         0.00000E+00
         0.00000E+00
         0.00000E+00
         0.00000E+00
         0.00000E+00
         0.00000E+00
         0.00000E+00
         0.00000E+00
         0.00000E+00
         0.00000E+00
         0.00000E+00
         0.00000E+00
         0.00000E+00
         0.00000E+00
         0.00000E+00
         0.00000E+00
         0.00000E+00
         0.00000E+00
         0.00000E+00
         0.00000E+00
         0.00000E+00
         0.00000E+00
         0.00000E+00
         0.00000E+00
         0.00000E+00
         0.00000E+00
         0.00000E+00
         0.00000E+00
         0.00000E+00
         0.00000E+00
         0.00000E+00
         0.00000E+00
         0.00000E+00
         0.00000E+00
         0.00000E+00
         0.00000E+00
         0.00000E+00
         0.00000E+00
         0.00000E+00
         0.00000E+00
         0.00000E+00
         0.00000E+00
         0.00000E+00
         0.00000E+00
         0.00000E+00
         0.00000E+00
         0.00000E+00
         0.00000E+00
         0.00000E+00
         0.00000E+00
         0.00000E+00
         0.00000E+00
         0.00000E+00
         0.00000E+00
         0.00000E+00
         0.00000E+00
         0.00000E+00
         0.00000E+00
         0.00000E+00
         0.00000E+00
         0.00000E+00
         0.00000E+00
         0.00000E+00
         0.00000E+00
         0.00000E+00
         0.00000E+00
         0.00000E+00
         0.00000E+00
         0.00000E+00
         0.00000E+00
         0.00000E+00
         0.00000E+00
         0.00000E+00
         0.00000E+00
         0.00000E+00
         0.00000E+00
         0.00000E+00
         0.00000E+00
         0.00000E+00
         0.00000E+00
         0.00000E+00
         0.00000E+00
         0.00000E+00
         0.00000E+00
         0.00000E+00
         0.00000E+00
         0.00000E+00
         0.00000E+00
         0.00000E+00
         0.00000E+00
         0.00000E+00
         0.00000E+00
         0.00000E+00
         0.00000E+00
         0.00000E+00
         0.00000E+00
         0.00000E+00
         0.00000E+00
         0.00000E+00
         0.00000E+00
         0.00000E+00
         0.00000E+00
         0.00000E+00
         0.00000E+00
         0.00000E+00
         0.00000E+00
         0.00000E+00
         0.00000E+00
         0.00000E+00
         0.00000E+00
         0.00000E+00
         0.00000E+00
         0.00000E+00
         0.00000E+00
         0.00000E+00
         0.00000E+00
         0.00000E+00
         0.00000E+00
         0.00000E+00
         0.00000E+00
         0.00000E+00
         0.00000E+00
         0.00000E+00
         0.00000E+00
         0.00000E+00
         0.00000E+00
         0.00000E+00
         0.00000E+00
         0.00000E+00
         0.00000E+00
         0.00000E+00
         0.00000E+00
         0.00000E+00
         0.00000E+00
         0.00000E+00
         0.00000E+00
         0.00000E+00
         0.00000E+00
         0.00000E+00
         0.00000E+00
         0.00000E+00
         0.00000E+00
         0.00000E+00
         0.00000E+00
         0.00000E+00
         0.00000E+00
         0.00000E+00
         0.00000E+00
         0.00000E+00
         0.00000E+00
         0.00000E+00
         0.00000E+00
         0.00000E+00
         0.00000E+00
         0.00000E+00
         0.00000E+00
         0.00000E+00
         0.00000E+00
         0.00000E+00
         0.00000E+00
         0.00000E+00
         0.00000E+00
         0.00000E+00
         0.00000E+00
         0.00000E+00
         0.00000E+00
         0.00000E+00
         0.00000E+00
         0.00000E+00
         0.00000E+00
         0.00000E+00
         0.00000E+00
         0.00000E+00
         0.00000E+00
         0.00000E+00
         0.00000E+00
         0.00000E+00
         0.00000E+00
         0.00000E+00
         0.00000E+00
         0.00000E+00
         0.00000E+00
         0.00000E+00
         0.00000E+00
         0.00000E+00
         0.00000E+00
         0.00000E+00
         0.00000E+00
         0.00000E+00
         0.00000E+00
         0.00000E+00
         0.00000E+00
         0.00000E+00
         0.00000E+00
         0.00000E+00
         0.00000E+00
         0.00000E+00
         0.00000E+00
         0.00000E+00
         0.00000E+00
         0.00000E+00
         0.00000E+00
         0.00000E+00
         0.00000E+00
         0.00000E+00
         0.00000E+00
         0.00000E+00
         0.00000E+00
         0.00000E+00
         0.00000E+00
         0.00000E+00
         0.00000E+00
         0.00000E+00
         0.00000E+00
         0.00000E+00
         0.00000E+00
         0.00000E+00
         0.00000E+00
         0.00000E+00
         0.00000E+00
         0.00000E+00
         0.00000E+00
         0.00000E+00
         0.00000E+00
         0.00000E+00
         0.00000E+00
         0.00000E+00
         0.00000E+00
         0.00000E+00
         0.00000E+00
         0.00000E+00
         0.00000E+00
         0.00000E+00
         0.00000E+00
         0.00000E+00
         0.00000E+00
         0.00000E+00
         0.00000E+00
         0.00000E+00
         0.00000E+00
         0.00000E+00
         0.00000E+00
         0.00000E+00
         0.00000E+00
         0.00000E+00
         0.00000E+00
         0.00000E+00
         0.00000E+00
         0.00000E+00
         0.00000E+00
         0.00000E+00
         0.00000E+00
         0.00000E+00
         0.00000E+00
         0.00000E+00
         0.00000E+00
         0.00000E+00
         0.00000E+00
         0.00000E+00
         0.00000E+00
         0.00000E+00
         0.00000E+00
         0.00000E+00
         0.00000E+00
         0.00000E+00
         0.00000E+00
         0.00000E+00
         0.00000E+00
         0.00000E+00
         0.00000E+00
         0.00000E+00
         0.00000E+00
         0.00000E+00
         0.00000E+00
         0.00000E+00
         0.00000E+00
         0.00000E+00
         0.00000E+00
         0.00000E+00
         0.00000E+00
         0.00000E+00
         0.00000E+00
         0.00000E+00
         0.00000E+00
         0.00000E+00
         0.00000E+00
         0.00000E+00
         0.00000E+00
         0.00000E+00
         0.00000E+00
         0.00000E+00
         0.00000E+00
         0.00000E+00
         0.00000E+00
         0.00000E+00
         0.00000E+00
         0.00000E+00
         0.00000E+00
         0.00000E+00
         0.00000E+00
         0.00000E+00
         0.00000E+00
         0.00000E+00
         0.00000E+00
         0.00000E+00
         0.00000E+00
         0.00000E+00
         0.00000E+00
         0.00000E+00
         0.00000E+00
         0.00000E+00
         0.00000E+00
         0.00000E+00
         0.00000E+00
         0.00000E+00
         0.00000E+00
         0.00000E+00
         0.00000E+00
         0.00000E+00
         0.00000E+00
         0.00000E+00
         0.00000E+00
         0.00000E+00
         0.00000E+00
         0.00000E+00
         0.00000E+00
         0.00000E+00
         0.00000E+00
         0.00000E+00
         0.00000E+00
         0.00000E+00
         0.00000E+00
         0.00000E+00
         0.00000E+00
         0.00000E+00
         0.00000E+00
         0.00000E+00
         0.00000E+00
         0.00000E+00
         0.00000E+00
         0.00000E+00
         0.00000E+00
         0.00000E+00
         0.00000E+00
         0.00000E+00
         0.00000E+00
         0.00000E+00
         0.00000E+00
         0.00000E+00
         0.00000E+00
         0.00000E+00
         0.00000E+00
         0.00000E+00
         0.00000E+00
         0.00000E+00
         0.00000E+00
         0.00000E+00
         0.00000E+00
         0.00000E+00
         0.00000E+00
         0.00000E+00
         0.00000E+00
         0.00000E+00
         0.00000E+00
         0.00000E+00
         0.00000E+00
         0.00000E+00
         0.00000E+00
         0.00000E+00
         0.00000E+00
         0.00000E+00
         0.00000E+00
         0.00000E+00
         0.00000E+00
         0.00000E+00
         0.00000E+00
         0.00000E+00
         0.00000E+00
         0.00000E+00
         0.00000E+00
         0.00000E+00
         0.00000E+00
         0.00000E+00
         0.00000E+00
         0.00000E+00
         0.00000E+00
         0.00000E+00
         0.00000E+00
         0.00000E+00
         0.00000E+00
         0.00000E+00
         0.00000E+00
         0.00000E+00
         0.00000E+00
         0.00000E+00
         0.00000E+00
         0.00000E+00
         0.00000E+00
         0.00000E+00
         0.00000E+00
         0.00000E+00
         0.00000E+00
         0.00000E+00
         0.00000E+00
         0.00000E+00
         0.00000E+00
         0.00000E+00
         0.00000E+00
         0.00000E+00
         0.00000E+00
         0.00000E+00
         0.00000E+00
         0.00000E+00
         0.00000E+00
         0.00000E+00
         0.00000E+00
         0.00000E+00
         0.00000E+00
         0.00000E+00
         0.00000E+00
         0.00000E+00
         0.00000E+00
         0.00000E+00
         0.00000E+00
         0.00000E+00
         0.00000E+00
         0.00000E+00
         0.00000E+00
         0.00000E+00
         0.00000E+00
         0.00000E+00
         0.00000E+00
         0.00000E+00
         0.00000E+00
         0.00000E+00
         0.00000E+00
         0.00000E+00
         0.00000E+00
         0.00000E+00
         0.00000E+00
         0.00000E+00
         0.00000E+00
         0.00000E+00
         0.00000E+00
         0.00000E+00
         0.00000E+00
         0.00000E+00
         0.00000E+00
         0.00000E+00
         0.00000E+00
         0.00000E+00
         0.00000E+00
         0.00000E+00
         0.00000E+00
         0.00000E+00
         0.00000E+00
         0.00000E+00
         0.00000E+00
         0.00000E+00
         0.00000E+00
         0.00000E+00
         0.00000E+00
         0.00000E+00
         0.00000E+00
         0.00000E+00
         0.00000E+00
         0.00000E+00
         0.00000E+00
         0.00000E+00
         0.00000E+00
         0.00000E+00
         0.00000E+00
         0.00000E+00
         0.00000E+00
         0.00000E+00
         0.00000E+00
         0.00000E+00
         0.00000E+00
         0.00000E+00
         0.00000E+00
         0.00000E+00
         0.00000E+00
         0.00000E+00
         0.00000E+00
         0.00000E+00
         0.00000E+00
         0.00000E+00
         0.00000E+00
         0.00000E+00
         0.00000E+00
         0.00000E+00
         0.00000E+00
         0.00000E+00
         0.00000E+00
         0.00000E+00
         0.00000E+00
         0.00000E+00
         0.00000E+00
         0.00000E+00
         0.00000E+00
         0.00000E+00
         0.00000E+00
         0.00000E+00
         0.00000E+00
         0.00000E+00
         0.00000E+00
         0.00000E+00
         0.00000E+00
         0.00000E+00
         0.00000E+00
         0.00000E+00
         0.00000E+00
         0.00000E+00
         0.00000E+00
         0.00000E+00
         0.00000E+00
         0.00000E+00
         0.00000E+00
         0.00000E+00
         0.00000E+00
         0.00000E+00
         0.00000E+00
         0.00000E+00
         0.00000E+00
         0.00000E+00
         0.00000E+00
         0.00000E+00
         0.00000E+00
         0.00000E+00
         0.00000E+00
         0.00000E+00
         0.00000E+00
         0.00000E+00
         0.00000E+00
         0.00000E+00
         0.00000E+00
         0.00000E+00
         0.00000E+00
         0.00000E+00
         0.00000E+00
         0.00000E+00
         0.00000E+00
         0.00000E+00
         0.00000E+00
         0.00000E+00
         0.00000E+00
         0.00000E+00
         0.00000E+00
         0.00000E+00
         0.00000E+00
         0.00000E+00
         0.00000E+00
         0.00000E+00
         0.00000E+00
         0.00000E+00
         0.00000E+00
         0.00000E+00
         0.00000E+00
         0.00000E+00
         0.00000E+00
         0.00000E+00
         0.00000E+00
         0.00000E+00
         0.00000E+00
         0.00000E+00
         0.00000E+00
         0.00000E+00
         0.00000E+00
         0.00000E+00
         0.00000E+00
         0.00000E+00
         0.00000E+00
         0.00000E+00
         0.00000E+00
         0.00000E+00
         0.00000E+00
         0.00000E+00
         0.00000E+00
         0.00000E+00
         0.00000E+00
         0.00000E+00
         0.00000E+00
         0.00000E+00
         0.00000E+00
         0.00000E+00
         0.00000E+00
         0.00000E+00
         0.00000E+00
         0.00000E+00
         0.00000E+00
         0.00000E+00
         0.00000E+00
         0.00000E+00
         0.00000E+00
         0.00000E+00
         0.00000E+00
         0.00000E+00
         0.00000E+00
         0.00000E+00
         0.00000E+00
         0.00000E+00
         0.00000E+00
         0.00000E+00
         0.00000E+00
         0.00000E+00
         0.00000E+00
         0.00000E+00
         0.00000E+00
         0.00000E+00
         0.00000E+00
         0.00000E+00
         0.00000E+00
         0.00000E+00
         0.00000E+00
         0.00000E+00
         0.00000E+00
         0.00000E+00
         0.00000E+00
         0.00000E+00
         0.00000E+00
         0.00000E+00
         0.00000E+00
         0.00000E+00
         0.00000E+00
         0.00000E+00
         0.00000E+00
         0.00000E+00
         0.00000E+00
         0.00000E+00
         0.00000E+00
         0.00000E+00
         0.00000E+00
         0.00000E+00
         0.00000E+00
         0.00000E+00
         0.00000E+00
         0.00000E+00
         0.00000E+00
         0.00000E+00
         0.00000E+00
         0.00000E+00
         0.00000E+00
         0.00000E+00
         0.00000E+00
         0.00000E+00
         0.00000E+00
         0.00000E+00
         0.00000E+00
         0.00000E+00
         0.00000E+00
         0.00000E+00
         0.00000E+00
         0.00000E+00
         0.00000E+00
         0.00000E+00
         0.00000E+00
         0.00000E+00
         0.00000E+00
         0.00000E+00
         0.00000E+00
         0.00000E+00
         0.00000E+00
         0.00000E+00
         0.00000E+00
         0.00000E+00
         0.00000E+00
         0.00000E+00
         0.00000E+00
         0.00000E+00
         0.00000E+00
         0.00000E+00
         0.00000E+00
         0.00000E+00
         0.00000E+00
         0.00000E+00
         0.00000E+00
         0.00000E+00
         0.00000E+00
         0.00000E+00
         0.00000E+00
         0.00000E+00
         0.00000E+00
         0.00000E+00
         0.00000E+00
         0.00000E+00
         0.00000E+00
         0.00000E+00
         0.00000E+00
         0.00000E+00
         0.00000E+00
         0.00000E+00
         0.00000E+00
         0.00000E+00
         0.00000E+00
         0.00000E+00
         0.00000E+00
         0.00000E+00
         0.00000E+00
         0.00000E+00
         0.00000E+00
         0.00000E+00
         0.00000E+00
         0.00000E+00
         0.00000E+00
         0.00000E+00
         0.00000E+00
         0.00000E+00
         0.00000E+00
         0.00000E+00
         0.00000E+00
         0.00000E+00
         0.00000E+00
         0.00000E+00
         0.00000E+00
         0.00000E+00
         0.00000E+00
         0.00000E+00
         0.00000E+00
         0.00000E+00
         0.00000E+00
         0.00000E+00
         0.00000E+00
         0.00000E+00
         0.00000E+00
         0.00000E+00
         0.00000E+00
         0.00000E+00
         0.00000E+00
         0.00000E+00
         0.00000E+00
         0.00000E+00
         0.00000E+00
         0.00000E+00
         0.00000E+00
         0.00000E+00
         0.00000E+00
         0.00000E+00
         0.00000E+00
         0.00000E+00
         0.00000E+00
         0.00000E+00
         0.00000E+00
         0.00000E+00
         0.00000E+00
         0.00000E+00
         0.00000E+00
         0.00000E+00
         0.00000E+00
         0.00000E+00
         0.00000E+00
         0.00000E+00
         0.00000E+00
         0.00000E+00
         0.00000E+00
         0.00000E+00
         0.00000E+00
         0.00000E+00
         0.00000E+00
         0.00000E+00
         0.00000E+00
         0.00000E+00
         0.00000E+00
         0.00000E+00
         0.00000E+00
         0.00000E+00
         0.00000E+00
         0.00000E+00
         0.00000E+00
         0.00000E+00
         0.00000E+00
         0.00000E+00
         0.00000E+00
         0.00000E+00
         0.00000E+00
         0.00000E+00
         0.00000E+00
         0.00000E+00
         0.00000E+00
         0.00000E+00
         0.00000E+00
         0.00000E+00
         0.00000E+00
         0.00000E+00
         0.00000E+00
         0.00000E+00
         0.00000E+00
         0.00000E+00
         0.00000E+00
         0.00000E+00
         0.00000E+00
         0.00000E+00
         0.00000E+00
         0.00000E+00
         0.00000E+00
         0.00000E+00
         0.00000E+00
         0.00000E+00
         0.00000E+00
         0.00000E+00
         0.00000E+00
         0.00000E+00
         0.00000E+00
         0.00000E+00
         0.00000E+00
         0.00000E+00
         0.00000E+00
         0.00000E+00
         0.00000E+00
         0.00000E+00
         0.00000E+00
         0.00000E+00
         0.00000E+00
         0.00000E+00
         0.00000E+00
         0.00000E+00
         0.00000E+00
         0.00000E+00
         0.00000E+00
         0.00000E+00
         0.00000E+00
         0.00000E+00
         0.00000E+00
         0.00000E+00
         0.00000E+00
         0.00000E+00
         0.00000E+00
         0.00000E+00
         0.00000E+00
         0.00000E+00
         0.00000E+00
         0.00000E+00
         0.00000E+00
         0.00000E+00
         0.00000E+00
         0.00000E+00
         0.00000E+00
         0.00000E+00
         0.00000E+00
         0.00000E+00
         0.00000E+00
         0.00000E+00
         0.00000E+00
         0.00000E+00
         0.00000E+00
         0.00000E+00
         0.00000E+00
         0.00000E+00
         0.00000E+00
         0.00000E+00
         0.00000E+00
         0.00000E+00
         0.00000E+00
         0.00000E+00
         0.00000E+00
         0.00000E+00
         0.00000E+00
         0.00000E+00
         0.00000E+00
         0.00000E+00
         0.00000E+00
         0.00000E+00
         0.00000E+00
         0.00000E+00
         0.00000E+00
         0.00000E+00
         0.00000E+00
         0.00000E+00
         0.00000E+00
         0.00000E+00
         0.00000E+00
         0.00000E+00
         0.00000E+00
         0.00000E+00
         0.00000E+00
         0.00000E+00
         0.00000E+00
         0.00000E+00
         0.00000E+00
         0.00000E+00
         0.00000E+00
         0.00000E+00
         0.00000E+00
         0.00000E+00
         0.00000E+00
         0.00000E+00
         0.00000E+00
         0.00000E+00
         0.00000E+00
         0.00000E+00
         0.00000E+00
         0.00000E+00
         0.00000E+00
         0.00000E+00
         0.00000E+00
         0.00000E+00
         0.00000E+00
         0.00000E+00
         0.00000E+00
         0.00000E+00
         0.00000E+00
         0.00000E+00
         0.00000E+00
         0.00000E+00
         0.00000E+00
         0.00000E+00
         0.00000E+00
         0.00000E+00
         0.00000E+00
         0.00000E+00
         0.00000E+00
         0.00000E+00
         0.00000E+00
         0.00000E+00
         0.00000E+00
         0.00000E+00
         0.00000E+00
         0.00000E+00
         0.00000E+00
         0.00000E+00
         0.00000E+00
         0.00000E+00
         0.00000E+00
         0.00000E+00
         0.00000E+00
         0.00000E+00
         0.00000E+00
         0.00000E+00
         0.00000E+00
         0.00000E+00
         0.00000E+00
         0.00000E+00
         0.00000E+00
         0.00000E+00
         0.00000E+00
         0.00000E+00
         0.00000E+00
         0.00000E+00
         0.00000E+00
         0.00000E+00
         0.00000E+00
         0.00000E+00
         0.00000E+00
         0.00000E+00
         0.00000E+00
         0.00000E+00
         0.00000E+00
         0.00000E+00
         0.00000E+00
         0.00000E+00
         0.00000E+00
         0.00000E+00
         0.00000E+00
         0.00000E+00
         0.00000E+00
         0.00000E+00
         0.00000E+00
         0.00000E+00
         0.00000E+00
         0.00000E+00
         0.00000E+00
         0.00000E+00
         0.00000E+00
         0.00000E+00
         0.00000E+00
         0.00000E+00
         0.00000E+00
         0.00000E+00
         0.00000E+00
         0.00000E+00
         0.00000E+00
         0.00000E+00
         0.00000E+00
         0.00000E+00
         0.00000E+00
         0.00000E+00
         0.00000E+00
         0.00000E+00
         0.00000E+00
         0.00000E+00
         0.00000E+00
         0.00000E+00
         0.00000E+00
         0.00000E+00
         0.00000E+00
         0.00000E+00
         0.00000E+00
         0.00000E+00
         0.00000E+00
         0.00000E+00
         0.00000E+00
         0.00000E+00
         0.00000E+00
         0.00000E+00
         0.00000E+00
         0.00000E+00
         0.00000E+00
         0.00000E+00
         0.00000E+00
         0.00000E+00
         0.00000E+00
         0.00000E+00
         0.00000E+00
         0.00000E+00
         0.00000E+00
         0.00000E+00
         0.00000E+00
         0.00000E+00
         0.00000E+00
         0.00000E+00
         0.00000E+00
         0.00000E+00
         0.00000E+00
         0.00000E+00
         0.00000E+00
         0.00000E+00
         0.00000E+00
         0.00000E+00
         0.00000E+00
         0.00000E+00
         0.00000E+00
         0.00000E+00
         0.00000E+00
         0.00000E+00
         0.00000E+00
         0.00000E+00
         0.00000E+00
         0.00000E+00
         0.00000E+00
         0.00000E+00
         0.00000E+00
         0.00000E+00
         0.00000E+00
         0.00000E+00
         0.00000E+00
         0.00000E+00
         0.00000E+00
         0.00000E+00
         0.00000E+00
         0.00000E+00
         0.00000E+00
         0.00000E+00
         0.00000E+00
         0.00000E+00
         0.00000E+00
         0.00000E+00
         0.00000E+00
         0.00000E+00
         0.00000E+00
         0.00000E+00
         0.00000E+00
         0.00000E+00
         0.00000E+00
         0.00000E+00
         0.00000E+00
         0.00000E+00
         0.00000E+00
         0.00000E+00
         0.00000E+00
         0.00000E+00
         0.00000E+00
         0.00000E+00
         0.00000E+00
         0.00000E+00
         0.00000E+00
         0.00000E+00
         0.00000E+00
         0.00000E+00
         0.00000E+00
         0.00000E+00
         0.00000E+00
         0.00000E+00
         0.00000E+00
         0.00000E+00
         0.00000E+00
         0.00000E+00
         0.00000E+00
         0.00000E+00
         0.00000E+00
         0.00000E+00
         0.00000E+00
         0.00000E+00
         0.00000E+00
         0.00000E+00
         0.00000E+00
         0.00000E+00
         0.00000E+00
         0.00000E+00
         0.00000E+00
         0.00000E+00
         0.00000E+00
         0.00000E+00
         0.00000E+00
         0.00000E+00
         0.00000E+00
         0.00000E+00
         0.00000E+00
         0.00000E+00
         0.00000E+00
         0.00000E+00
         0.00000E+00
         0.00000E+00
         0.00000E+00
         0.00000E+00
         0.00000E+00
         0.00000E+00
         0.00000E+00
         0.00000E+00
         0.00000E+00
         0.00000E+00
         0.00000E+00
         0.00000E+00
         0.00000E+00
         0.00000E+00
         0.00000E+00
         0.00000E+00
         0.00000E+00
         0.00000E+00
         0.00000E+00
         0.00000E+00
         0.00000E+00
         0.00000E+00
         0.00000E+00
         0.00000E+00
         0.00000E+00
         0.00000E+00
         0.00000E+00
         0.00000E+00
         0.00000E+00
         0.00000E+00
         0.00000E+00
         0.00000E+00
         0.00000E+00
         0.00000E+00
         0.00000E+00
         0.00000E+00
         0.00000E+00
         0.00000E+00
         0.00000E+00
         0.00000E+00
         0.00000E+00
         0.00000E+00
         0.00000E+00
         0.00000E+00
         0.00000E+00
         0.00000E+00
         0.00000E+00
         0.00000E+00
         0.00000E+00
         0.00000E+00
         0.00000E+00
         0.00000E+00
         0.00000E+00
         0.00000E+00
         0.00000E+00
         0.00000E+00
         0.00000E+00
         0.00000E+00
         0.00000E+00
         0.00000E+00
         0.00000E+00
         0.00000E+00
         0.00000E+00
         0.00000E+00
         0.00000E+00
         0.00000E+00
         0.00000E+00
         0.00000E+00
         0.00000E+00
         0.00000E+00
         0.00000E+00
         0.00000E+00
         0.00000E+00
         0.00000E+00
         0.00000E+00
         0.00000E+00
         0.00000E+00
         0.00000E+00
         0.00000E+00
         0.00000E+00
         0.00000E+00
         0.00000E+00
         0.00000E+00
         0.00000E+00
         0.00000E+00
         0.00000E+00
         0.00000E+00
         0.00000E+00
         0.00000E+00
         0.00000E+00
         0.00000E+00
         0.00000E+00
         0.00000E+00
         0.00000E+00
         0.00000E+00
         0.00000E+00
         0.00000E+00
         0.00000E+00
         0.00000E+00
         0.00000E+00
         0.00000E+00
         0.00000E+00
         0.00000E+00
         0.00000E+00
         0.00000E+00
         0.00000E+00
         0.00000E+00
         0.00000E+00
         0.00000E+00
         0.00000E+00
         0.00000E+00
         0.00000E+00
         0.00000E+00
         0.00000E+00
         0.00000E+00
         0.00000E+00
         0.00000E+00
         0.00000E+00
         0.00000E+00
         0.00000E+00
         0.00000E+00
         0.00000E+00
         0.00000E+00
         0.00000E+00
         0.00000E+00
         0.00000E+00
         0.00000E+00
         0.00000E+00
         0.00000E+00
         0.00000E+00
         0.00000E+00
         0.00000E+00
         0.00000E+00
         0.00000E+00
         0.00000E+00
         0.00000E+00
         0.00000E+00
         0.00000E+00
         0.00000E+00
         0.00000E+00
         0.00000E+00
         0.00000E+00
         0.00000E+00
         0.00000E+00
         0.00000E+00
         0.00000E+00
         0.00000E+00
         0.00000E+00
         0.00000E+00
         0.00000E+00
         0.00000E+00
         0.00000E+00
         0.00000E+00
         0.00000E+00
         0.00000E+00
         0.00000E+00
         0.00000E+00
         0.00000E+00
         0.00000E+00
         0.00000E+00
         0.00000E+00
         0.00000E+00
         0.00000E+00
         0.00000E+00
         0.00000E+00
         0.00000E+00
         0.00000E+00
         0.00000E+00
         0.00000E+00
         0.00000E+00
         0.00000E+00
         0.00000E+00
         0.00000E+00
         0.00000E+00
         0.00000E+00
         0.00000E+00
         0.00000E+00
         0.00000E+00
         0.00000E+00
         0.00000E+00
         0.00000E+00
         0.00000E+00
         0.00000E+00
         0.00000E+00
         0.00000E+00
         0.00000E+00
         0.00000E+00
         0.00000E+00
         0.00000E+00
         0.00000E+00
         0.00000E+00
         0.00000E+00
         0.00000E+00
         0.00000E+00
         0.00000E+00
         0.00000E+00
         0.00000E+00
         0.00000E+00
         0.00000E+00
         0.00000E+00
         0.00000E+00
         0.00000E+00
         0.00000E+00
         0.00000E+00
         0.00000E+00
         0.00000E+00
         0.00000E+00
         0.00000E+00
         0.00000E+00
         0.00000E+00
         0.00000E+00
         0.00000E+00
         0.00000E+00
         0.00000E+00
         0.00000E+00
         0.00000E+00
         0.00000E+00
         0.00000E+00
         0.00000E+00
         0.00000E+00
         0.00000E+00
         0.00000E+00
         0.00000E+00
         0.00000E+00
         0.00000E+00
         0.00000E+00
         0.00000E+00
         0.00000E+00
         0.00000E+00
         0.00000E+00
         0.00000E+00
         0.00000E+00
         0.00000E+00
         0.00000E+00
         0.00000E+00
         0.00000E+00
         0.00000E+00
         0.00000E+00
         0.00000E+00
         0.00000E+00
         0.00000E+00
         0.00000E+00
         0.00000E+00
         0.00000E+00
         0.00000E+00
         0.00000E+00
         0.00000E+00
  
SCALARS                 acceleration_z  double 1
LOOKUP_TABLE default
         0.00000E+00
         0.00000E+00
         0.00000E+00
         0.00000E+00
         0.00000E+00
         0.00000E+00
         0.00000E+00
         0.00000E+00
         0.00000E+00
         0.00000E+00
         0.00000E+00
         0.00000E+00
         0.00000E+00
         0.00000E+00
         0.00000E+00
         0.00000E+00
         0.00000E+00
         0.00000E+00
         0.00000E+00
         0.00000E+00
         0.00000E+00
         0.00000E+00
         0.00000E+00
         0.00000E+00
         0.00000E+00
         0.00000E+00
         0.00000E+00
         0.00000E+00
         0.00000E+00
         0.00000E+00
         0.00000E+00
         0.00000E+00
         0.00000E+00
         0.00000E+00
         0.00000E+00
         0.00000E+00
         0.00000E+00
         0.00000E+00
         0.00000E+00
         0.00000E+00
         0.00000E+00
         0.00000E+00
         0.00000E+00
         0.00000E+00
         0.00000E+00
         0.00000E+00
         0.00000E+00
         0.00000E+00
         0.00000E+00
         0.00000E+00
         0.00000E+00
         0.00000E+00
         0.00000E+00
         0.00000E+00
         0.00000E+00
         0.00000E+00
         0.00000E+00
         0.00000E+00
         0.00000E+00
         0.00000E+00
         0.00000E+00
         0.00000E+00
         0.00000E+00
         0.00000E+00
         0.00000E+00
         0.00000E+00
         0.00000E+00
         0.00000E+00
         0.00000E+00
         0.00000E+00
         0.00000E+00
         0.00000E+00
         0.00000E+00
         0.00000E+00
         0.00000E+00
         0.00000E+00
         0.00000E+00
         0.00000E+00
         0.00000E+00
         0.00000E+00
         0.00000E+00
         0.00000E+00
         0.00000E+00
         0.00000E+00
         0.00000E+00
         0.00000E+00
         0.00000E+00
         0.00000E+00
         0.00000E+00
         0.00000E+00
         0.00000E+00
         0.00000E+00
         0.00000E+00
         0.00000E+00
         0.00000E+00
         0.00000E+00
         0.00000E+00
         0.00000E+00
         0.00000E+00
         0.00000E+00
         0.00000E+00
         0.00000E+00
         0.00000E+00
         0.00000E+00
         0.00000E+00
         0.00000E+00
         0.00000E+00
         0.00000E+00
         0.00000E+00
         0.00000E+00
         0.00000E+00
         0.00000E+00
         0.00000E+00
         0.00000E+00
         0.00000E+00
         0.00000E+00
         0.00000E+00
         0.00000E+00
         0.00000E+00
         0.00000E+00
         0.00000E+00
         0.00000E+00
         0.00000E+00
         0.00000E+00
         0.00000E+00
         0.00000E+00
         0.00000E+00
         0.00000E+00
         0.00000E+00
         0.00000E+00
         0.00000E+00
         0.00000E+00
         0.00000E+00
         0.00000E+00
         0.00000E+00
         0.00000E+00
         0.00000E+00
         0.00000E+00
         0.00000E+00
         0.00000E+00
         0.00000E+00
         0.00000E+00
         0.00000E+00
         0.00000E+00
         0.00000E+00
         0.00000E+00
         0.00000E+00
         0.00000E+00
         0.00000E+00
         0.00000E+00
         0.00000E+00
         0.00000E+00
         0.00000E+00
         0.00000E+00
         0.00000E+00
         0.00000E+00
         0.00000E+00
         0.00000E+00
         0.00000E+00
         0.00000E+00
         0.00000E+00
         0.00000E+00
         0.00000E+00
         0.00000E+00
         0.00000E+00
         0.00000E+00
         0.00000E+00
         0.00000E+00
         0.00000E+00
         0.00000E+00
         0.00000E+00
         0.00000E+00
         0.00000E+00
         0.00000E+00
         0.00000E+00
         0.00000E+00
         0.00000E+00
         0.00000E+00
         0.00000E+00
         0.00000E+00
         0.00000E+00
         0.00000E+00
         0.00000E+00
         0.00000E+00
         0.00000E+00
         0.00000E+00
         0.00000E+00
         0.00000E+00
         0.00000E+00
         0.00000E+00
         0.00000E+00
         0.00000E+00
         0.00000E+00
         0.00000E+00
         0.00000E+00
         0.00000E+00
         0.00000E+00
         0.00000E+00
         0.00000E+00
         0.00000E+00
         0.00000E+00
         0.00000E+00
         0.00000E+00
         0.00000E+00
         0.00000E+00
         0.00000E+00
         0.00000E+00
         0.00000E+00
         0.00000E+00
         0.00000E+00
         0.00000E+00
         0.00000E+00
         0.00000E+00
         0.00000E+00
         0.00000E+00
         0.00000E+00
         0.00000E+00
         0.00000E+00
         0.00000E+00
         0.00000E+00
         0.00000E+00
         0.00000E+00
         0.00000E+00
         0.00000E+00
         0.00000E+00
         0.00000E+00
         0.00000E+00
         0.00000E+00
         0.00000E+00
         0.00000E+00
         0.00000E+00
         0.00000E+00
         0.00000E+00
         0.00000E+00
         0.00000E+00
         0.00000E+00
         0.00000E+00
         0.00000E+00
         0.00000E+00
         0.00000E+00
         0.00000E+00
         0.00000E+00
         0.00000E+00
         0.00000E+00
         0.00000E+00
         0.00000E+00
         0.00000E+00
         0.00000E+00
         0.00000E+00
         0.00000E+00
         0.00000E+00
         0.00000E+00
         0.00000E+00
         0.00000E+00
         0.00000E+00
         0.00000E+00
         0.00000E+00
         0.00000E+00
         0.00000E+00
         0.00000E+00
         0.00000E+00
         0.00000E+00
         0.00000E+00
         0.00000E+00
         0.00000E+00
         0.00000E+00
         0.00000E+00
         0.00000E+00
         0.00000E+00
         0.00000E+00
         0.00000E+00
         0.00000E+00
         0.00000E+00
         0.00000E+00
         0.00000E+00
         0.00000E+00
         0.00000E+00
         0.00000E+00
         0.00000E+00
         0.00000E+00
         0.00000E+00
         0.00000E+00
         0.00000E+00
         0.00000E+00
         0.00000E+00
         0.00000E+00
         0.00000E+00
         0.00000E+00
         0.00000E+00
         0.00000E+00
         0.00000E+00
         0.00000E+00
         0.00000E+00
         0.00000E+00
         0.00000E+00
         0.00000E+00
         0.00000E+00
         0.00000E+00
         0.00000E+00
         0.00000E+00
         0.00000E+00
         0.00000E+00
         0.00000E+00
         0.00000E+00
         0.00000E+00
         0.00000E+00
         0.00000E+00
         0.00000E+00
         0.00000E+00
         0.00000E+00
         0.00000E+00
         0.00000E+00
         0.00000E+00
         0.00000E+00
         0.00000E+00
         0.00000E+00
         0.00000E+00
         0.00000E+00
         0.00000E+00
         0.00000E+00
         0.00000E+00
         0.00000E+00
         0.00000E+00
         0.00000E+00
         0.00000E+00
         0.00000E+00
         0.00000E+00
         0.00000E+00
         0.00000E+00
         0.00000E+00
         0.00000E+00
         0.00000E+00
         0.00000E+00
         0.00000E+00
         0.00000E+00
         0.00000E+00
         0.00000E+00
         0.00000E+00
         0.00000E+00
         0.00000E+00
         0.00000E+00
         0.00000E+00
         0.00000E+00
         0.00000E+00
         0.00000E+00
         0.00000E+00
         0.00000E+00
         0.00000E+00
         0.00000E+00
         0.00000E+00
         0.00000E+00
         0.00000E+00
         0.00000E+00
         0.00000E+00
         0.00000E+00
         0.00000E+00
         0.00000E+00
         0.00000E+00
         0.00000E+00
         0.00000E+00
         0.00000E+00
         0.00000E+00
         0.00000E+00
         0.00000E+00
         0.00000E+00
         0.00000E+00
         0.00000E+00
         0.00000E+00
         0.00000E+00
         0.00000E+00
         0.00000E+00
         0.00000E+00
         0.00000E+00
         0.00000E+00
         0.00000E+00
         0.00000E+00
         0.00000E+00
         0.00000E+00
         0.00000E+00
         0.00000E+00
         0.00000E+00
         0.00000E+00
         0.00000E+00
         0.00000E+00
         0.00000E+00
         0.00000E+00
         0.00000E+00
         0.00000E+00
         0.00000E+00
         0.00000E+00
         0.00000E+00
         0.00000E+00
         0.00000E+00
         0.00000E+00
         0.00000E+00
         0.00000E+00
         0.00000E+00
         0.00000E+00
         0.00000E+00
         0.00000E+00
         0.00000E+00
         0.00000E+00
         0.00000E+00
         0.00000E+00
         0.00000E+00
         0.00000E+00
         0.00000E+00
         0.00000E+00
         0.00000E+00
         0.00000E+00
         0.00000E+00
         0.00000E+00
         0.00000E+00
         0.00000E+00
         0.00000E+00
         0.00000E+00
         0.00000E+00
         0.00000E+00
         0.00000E+00
         0.00000E+00
         0.00000E+00
         0.00000E+00
         0.00000E+00
         0.00000E+00
         0.00000E+00
         0.00000E+00
         0.00000E+00
         0.00000E+00
         0.00000E+00
         0.00000E+00
         0.00000E+00
         0.00000E+00
         0.00000E+00
         0.00000E+00
         0.00000E+00
         0.00000E+00
         0.00000E+00
         0.00000E+00
         0.00000E+00
         0.00000E+00
         0.00000E+00
         0.00000E+00
         0.00000E+00
         0.00000E+00
         0.00000E+00
         0.00000E+00
         0.00000E+00
         0.00000E+00
         0.00000E+00
         0.00000E+00
         0.00000E+00
         0.00000E+00
         0.00000E+00
         0.00000E+00
         0.00000E+00
         0.00000E+00
         0.00000E+00
         0.00000E+00
         0.00000E+00
         0.00000E+00
         0.00000E+00
         0.00000E+00
         0.00000E+00
         0.00000E+00
         0.00000E+00
         0.00000E+00
         0.00000E+00
         0.00000E+00
         0.00000E+00
         0.00000E+00
         0.00000E+00
         0.00000E+00
         0.00000E+00
         0.00000E+00
         0.00000E+00
         0.00000E+00
         0.00000E+00
         0.00000E+00
         0.00000E+00
         0.00000E+00
         0.00000E+00
         0.00000E+00
         0.00000E+00
         0.00000E+00
         0.00000E+00
         0.00000E+00
         0.00000E+00
         0.00000E+00
         0.00000E+00
         0.00000E+00
         0.00000E+00
         0.00000E+00
         0.00000E+00
         0.00000E+00
         0.00000E+00
         0.00000E+00
         0.00000E+00
         0.00000E+00
         0.00000E+00
         0.00000E+00
         0.00000E+00
         0.00000E+00
         0.00000E+00
         0.00000E+00
         0.00000E+00
         0.00000E+00
         0.00000E+00
         0.00000E+00
         0.00000E+00
         0.00000E+00
         0.00000E+00
         0.00000E+00
         0.00000E+00
         0.00000E+00
         0.00000E+00
         0.00000E+00
         0.00000E+00
         0.00000E+00
         0.00000E+00
         0.00000E+00
         0.00000E+00
         0.00000E+00
         0.00000E+00
         0.00000E+00
         0.00000E+00
         0.00000E+00
         0.00000E+00
         0.00000E+00
         0.00000E+00
         0.00000E+00
         0.00000E+00
         0.00000E+00
         0.00000E+00
         0.00000E+00
         0.00000E+00
         0.00000E+00
         0.00000E+00
         0.00000E+00
         0.00000E+00
         0.00000E+00
         0.00000E+00
         0.00000E+00
         0.00000E+00
         0.00000E+00
         0.00000E+00
         0.00000E+00
         0.00000E+00
         0.00000E+00
         0.00000E+00
         0.00000E+00
         0.00000E+00
         0.00000E+00
         0.00000E+00
         0.00000E+00
         0.00000E+00
         0.00000E+00
         0.00000E+00
         0.00000E+00
         0.00000E+00
         0.00000E+00
         0.00000E+00
         0.00000E+00
         0.00000E+00
         0.00000E+00
         0.00000E+00
         0.00000E+00
         0.00000E+00
         0.00000E+00
         0.00000E+00
         0.00000E+00
         0.00000E+00
         0.00000E+00
         0.00000E+00
         0.00000E+00
         0.00000E+00
         0.00000E+00
         0.00000E+00
         0.00000E+00
         0.00000E+00
         0.00000E+00
         0.00000E+00
         0.00000E+00
         0.00000E+00
         0.00000E+00
         0.00000E+00
         0.00000E+00
         0.00000E+00
         0.00000E+00
         0.00000E+00
         0.00000E+00
         0.00000E+00
         0.00000E+00
         0.00000E+00
         0.00000E+00
         0.00000E+00
         0.00000E+00
         0.00000E+00
         0.00000E+00
         0.00000E+00
         0.00000E+00
         0.00000E+00
         0.00000E+00
         0.00000E+00
         0.00000E+00
         0.00000E+00
         0.00000E+00
         0.00000E+00
         0.00000E+00
         0.00000E+00
         0.00000E+00
         0.00000E+00
         0.00000E+00
         0.00000E+00
         0.00000E+00
         0.00000E+00
         0.00000E+00
         0.00000E+00
         0.00000E+00
         0.00000E+00
         0.00000E+00
         0.00000E+00
         0.00000E+00
         0.00000E+00
         0.00000E+00
         0.00000E+00
         0.00000E+00
         0.00000E+00
         0.00000E+00
         0.00000E+00
         0.00000E+00
         0.00000E+00
         0.00000E+00
         0.00000E+00
         0.00000E+00
         0.00000E+00
         0.00000E+00
         0.00000E+00
         0.00000E+00
         0.00000E+00
         0.00000E+00
         0.00000E+00
         0.00000E+00
         0.00000E+00
         0.00000E+00
         0.00000E+00
         0.00000E+00
         0.00000E+00
         0.00000E+00
         0.00000E+00
         0.00000E+00
         0.00000E+00
         0.00000E+00
         0.00000E+00
         0.00000E+00
         0.00000E+00
         0.00000E+00
         0.00000E+00
         0.00000E+00
         0.00000E+00
         0.00000E+00
         0.00000E+00
         0.00000E+00
         0.00000E+00
         0.00000E+00
         0.00000E+00
         0.00000E+00
         0.00000E+00
         0.00000E+00
         0.00000E+00
         0.00000E+00
         0.00000E+00
         0.00000E+00
         0.00000E+00
         0.00000E+00
         0.00000E+00
         0.00000E+00
         0.00000E+00
         0.00000E+00
         0.00000E+00
         0.00000E+00
         0.00000E+00
         0.00000E+00
         0.00000E+00
         0.00000E+00
         0.00000E+00
         0.00000E+00
         0.00000E+00
         0.00000E+00
         0.00000E+00
         0.00000E+00
         0.00000E+00
         0.00000E+00
         0.00000E+00
         0.00000E+00
         0.00000E+00
         0.00000E+00
         0.00000E+00
         0.00000E+00
         0.00000E+00
         0.00000E+00
         0.00000E+00
         0.00000E+00
         0.00000E+00
         0.00000E+00
         0.00000E+00
         0.00000E+00
         0.00000E+00
         0.00000E+00
         0.00000E+00
         0.00000E+00
         0.00000E+00
         0.00000E+00
         0.00000E+00
         0.00000E+00
         0.00000E+00
         0.00000E+00
         0.00000E+00
         0.00000E+00
         0.00000E+00
         0.00000E+00
         0.00000E+00
         0.00000E+00
         0.00000E+00
         0.00000E+00
         0.00000E+00
         0.00000E+00
         0.00000E+00
         0.00000E+00
         0.00000E+00
         0.00000E+00
         0.00000E+00
         0.00000E+00
         0.00000E+00
         0.00000E+00
         0.00000E+00
         0.00000E+00
         0.00000E+00
         0.00000E+00
         0.00000E+00
         0.00000E+00
         0.00000E+00
         0.00000E+00
         0.00000E+00
         0.00000E+00
         0.00000E+00
         0.00000E+00
         0.00000E+00
         0.00000E+00
         0.00000E+00
         0.00000E+00
         0.00000E+00
         0.00000E+00
         0.00000E+00
         0.00000E+00
         0.00000E+00
         0.00000E+00
         0.00000E+00
         0.00000E+00
         0.00000E+00
         0.00000E+00
         0.00000E+00
         0.00000E+00
         0.00000E+00
         0.00000E+00
         0.00000E+00
         0.00000E+00
         0.00000E+00
         0.00000E+00
         0.00000E+00
         0.00000E+00
         0.00000E+00
         0.00000E+00
         0.00000E+00
         0.00000E+00
         0.00000E+00
         0.00000E+00
         0.00000E+00
         0.00000E+00
         0.00000E+00
         0.00000E+00
         0.00000E+00
         0.00000E+00
         0.00000E+00
         0.00000E+00
         0.00000E+00
         0.00000E+00
         0.00000E+00
         0.00000E+00
         0.00000E+00
         0.00000E+00
         0.00000E+00
         0.00000E+00
         0.00000E+00
         0.00000E+00
         0.00000E+00
         0.00000E+00
         0.00000E+00
         0.00000E+00
         0.00000E+00
         0.00000E+00
         0.00000E+00
         0.00000E+00
         0.00000E+00
         0.00000E+00
         0.00000E+00
         0.00000E+00
         0.00000E+00
         0.00000E+00
         0.00000E+00
         0.00000E+00
         0.00000E+00
         0.00000E+00
         0.00000E+00
         0.00000E+00
         0.00000E+00
         0.00000E+00
         0.00000E+00
         0.00000E+00
         0.00000E+00
         0.00000E+00
         0.00000E+00
         0.00000E+00
         0.00000E+00
         0.00000E+00
         0.00000E+00
         0.00000E+00
         0.00000E+00
         0.00000E+00
         0.00000E+00
         0.00000E+00
         0.00000E+00
         0.00000E+00
         0.00000E+00
         0.00000E+00
         0.00000E+00
         0.00000E+00
         0.00000E+00
         0.00000E+00
         0.00000E+00
         0.00000E+00
         0.00000E+00
         0.00000E+00
         0.00000E+00
         0.00000E+00
         0.00000E+00
         0.00000E+00
         0.00000E+00
         0.00000E+00
         0.00000E+00
         0.00000E+00
         0.00000E+00
         0.00000E+00
         0.00000E+00
         0.00000E+00
         0.00000E+00
         0.00000E+00
         0.00000E+00
         0.00000E+00
         0.00000E+00
         0.00000E+00
         0.00000E+00
         0.00000E+00
         0.00000E+00
         0.00000E+00
         0.00000E+00
         0.00000E+00
         0.00000E+00
         0.00000E+00
         0.00000E+00
         0.00000E+00
         0.00000E+00
         0.00000E+00
         0.00000E+00
         0.00000E+00
         0.00000E+00
         0.00000E+00
         0.00000E+00
         0.00000E+00
         0.00000E+00
         0.00000E+00
         0.00000E+00
         0.00000E+00
         0.00000E+00
         0.00000E+00
         0.00000E+00
         0.00000E+00
         0.00000E+00
         0.00000E+00
         0.00000E+00
         0.00000E+00
         0.00000E+00
         0.00000E+00
         0.00000E+00
         0.00000E+00
         0.00000E+00
         0.00000E+00
         0.00000E+00
         0.00000E+00
         0.00000E+00
         0.00000E+00
         0.00000E+00
         0.00000E+00
         0.00000E+00
         0.00000E+00
         0.00000E+00
         0.00000E+00
         0.00000E+00
         0.00000E+00
         0.00000E+00
         0.00000E+00
         0.00000E+00
         0.00000E+00
         0.00000E+00
         0.00000E+00
         0.00000E+00
         0.00000E+00
         0.00000E+00
         0.00000E+00
         0.00000E+00
         0.00000E+00
         0.00000E+00
         0.00000E+00
         0.00000E+00
         0.00000E+00
         0.00000E+00
         0.00000E+00
         0.00000E+00
         0.00000E+00
         0.00000E+00
         0.00000E+00
         0.00000E+00
         0.00000E+00
         0.00000E+00
         0.00000E+00
         0.00000E+00
         0.00000E+00
         0.00000E+00
         0.00000E+00
         0.00000E+00
         0.00000E+00
         0.00000E+00
         0.00000E+00
         0.00000E+00
         0.00000E+00
         0.00000E+00
         0.00000E+00
         0.00000E+00
         0.00000E+00
         0.00000E+00
         0.00000E+00
         0.00000E+00
         0.00000E+00
         0.00000E+00
         0.00000E+00
         0.00000E+00
         0.00000E+00
         0.00000E+00
         0.00000E+00
         0.00000E+00
         0.00000E+00
         0.00000E+00
         0.00000E+00
         0.00000E+00
         0.00000E+00
         0.00000E+00
         0.00000E+00
         0.00000E+00
         0.00000E+00
         0.00000E+00
         0.00000E+00
         0.00000E+00
         0.00000E+00
         0.00000E+00
         0.00000E+00
         0.00000E+00
         0.00000E+00
         0.00000E+00
         0.00000E+00
         0.00000E+00
         0.00000E+00
         0.00000E+00
         0.00000E+00
         0.00000E+00
         0.00000E+00
         0.00000E+00
         0.00000E+00
         0.00000E+00
         0.00000E+00
         0.00000E+00
         0.00000E+00
         0.00000E+00
         0.00000E+00
         0.00000E+00
         0.00000E+00
         0.00000E+00
         0.00000E+00
         0.00000E+00
         0.00000E+00
         0.00000E+00
         0.00000E+00
         0.00000E+00
         0.00000E+00
         0.00000E+00
         0.00000E+00
         0.00000E+00
         0.00000E+00
         0.00000E+00
         0.00000E+00
         0.00000E+00
         0.00000E+00
         0.00000E+00
         0.00000E+00
         0.00000E+00
         0.00000E+00
         0.00000E+00
         0.00000E+00
         0.00000E+00
         0.00000E+00
         0.00000E+00
         0.00000E+00
         0.00000E+00
         0.00000E+00
         0.00000E+00
         0.00000E+00
         0.00000E+00
         0.00000E+00
         0.00000E+00
         0.00000E+00
         0.00000E+00
         0.00000E+00
         0.00000E+00
         0.00000E+00
         0.00000E+00
         0.00000E+00
         0.00000E+00
         0.00000E+00
         0.00000E+00
         0.00000E+00
         0.00000E+00
         0.00000E+00
         0.00000E+00
         0.00000E+00
         0.00000E+00
         0.00000E+00
         0.00000E+00
         0.00000E+00
         0.00000E+00
         0.00000E+00
         0.00000E+00
         0.00000E+00
         0.00000E+00
         0.00000E+00
         0.00000E+00
         0.00000E+00
         0.00000E+00
         0.00000E+00
         0.00000E+00
         0.00000E+00
         0.00000E+00
         0.00000E+00
         0.00000E+00
         0.00000E+00
         0.00000E+00
         0.00000E+00
         0.00000E+00
         0.00000E+00
         0.00000E+00
         0.00000E+00
         0.00000E+00
         0.00000E+00
         0.00000E+00
         0.00000E+00
         0.00000E+00
         0.00000E+00
         0.00000E+00
         0.00000E+00
         0.00000E+00
         0.00000E+00
         0.00000E+00
         0.00000E+00
         0.00000E+00
         0.00000E+00
         0.00000E+00
         0.00000E+00
         0.00000E+00
         0.00000E+00
         0.00000E+00
         0.00000E+00
         0.00000E+00
         0.00000E+00
         0.00000E+00
         0.00000E+00
         0.00000E+00
         0.00000E+00
         0.00000E+00
         0.00000E+00
         0.00000E+00
         0.00000E+00
         0.00000E+00
         0.00000E+00
         0.00000E+00
         0.00000E+00
         0.00000E+00
         0.00000E+00
         0.00000E+00
         0.00000E+00
         0.00000E+00
         0.00000E+00
         0.00000E+00
         0.00000E+00
         0.00000E+00
         0.00000E+00
         0.00000E+00
         0.00000E+00
         0.00000E+00
         0.00000E+00
         0.00000E+00
         0.00000E+00
         0.00000E+00
         0.00000E+00
         0.00000E+00
         0.00000E+00
         0.00000E+00
         0.00000E+00
         0.00000E+00
         0.00000E+00
         0.00000E+00
         0.00000E+00
         0.00000E+00
         0.00000E+00
         0.00000E+00
         0.00000E+00
         0.00000E+00
         0.00000E+00
         0.00000E+00
         0.00000E+00
         0.00000E+00
         0.00000E+00
         0.00000E+00
         0.00000E+00
         0.00000E+00
         0.00000E+00
         0.00000E+00
         0.00000E+00
         0.00000E+00
         0.00000E+00
         0.00000E+00
         0.00000E+00
         0.00000E+00
         0.00000E+00
         0.00000E+00
         0.00000E+00
         0.00000E+00
         0.00000E+00
         0.00000E+00
         0.00000E+00
         0.00000E+00
         0.00000E+00
         0.00000E+00
         0.00000E+00
         0.00000E+00
         0.00000E+00
         0.00000E+00
         0.00000E+00
         0.00000E+00
         0.00000E+00
         0.00000E+00
         0.00000E+00
         0.00000E+00
         0.00000E+00
         0.00000E+00
         0.00000E+00
         0.00000E+00
         0.00000E+00
         0.00000E+00
         0.00000E+00
         0.00000E+00
         0.00000E+00
         0.00000E+00
         0.00000E+00
         0.00000E+00
         0.00000E+00
         0.00000E+00
         0.00000E+00
         0.00000E+00
         0.00000E+00
         0.00000E+00
         0.00000E+00
         0.00000E+00
         0.00000E+00
         0.00000E+00
         0.00000E+00
         0.00000E+00
         0.00000E+00
         0.00000E+00
         0.00000E+00
         0.00000E+00
         0.00000E+00
         0.00000E+00
         0.00000E+00
         0.00000E+00
         0.00000E+00
         0.00000E+00
         0.00000E+00
         0.00000E+00
         0.00000E+00
         0.00000E+00
         0.00000E+00
         0.00000E+00
         0.00000E+00
         0.00000E+00
         0.00000E+00
         0.00000E+00
         0.00000E+00
         0.00000E+00
         0.00000E+00
         0.00000E+00
         0.00000E+00
         0.00000E+00
         0.00000E+00
         0.00000E+00
         0.00000E+00
         0.00000E+00
         0.00000E+00
         0.00000E+00
         0.00000E+00
         0.00000E+00
         0.00000E+00
         0.00000E+00
         0.00000E+00
         0.00000E+00
         0.00000E+00
         0.00000E+00
         0.00000E+00
         0.00000E+00
         0.00000E+00
         0.00000E+00
         0.00000E+00
         0.00000E+00
         0.00000E+00
         0.00000E+00
         0.00000E+00
         0.00000E+00
         0.00000E+00
         0.00000E+00
         0.00000E+00
         0.00000E+00
         0.00000E+00
         0.00000E+00
         0.00000E+00
         0.00000E+00
         0.00000E+00
         0.00000E+00
         0.00000E+00
         0.00000E+00
         0.00000E+00
         0.00000E+00
         0.00000E+00
         0.00000E+00
         0.00000E+00
         0.00000E+00
         0.00000E+00
         0.00000E+00
         0.00000E+00
         0.00000E+00
         0.00000E+00
         0.00000E+00
         0.00000E+00
         0.00000E+00
         0.00000E+00
         0.00000E+00
         0.00000E+00
         0.00000E+00
         0.00000E+00
         0.00000E+00
         0.00000E+00
         0.00000E+00
         0.00000E+00
         0.00000E+00
         0.00000E+00
         0.00000E+00
         0.00000E+00
         0.00000E+00
         0.00000E+00
         0.00000E+00
         0.00000E+00
         0.00000E+00
         0.00000E+00
         0.00000E+00
         0.00000E+00
         0.00000E+00
         0.00000E+00
         0.00000E+00
         0.00000E+00
         0.00000E+00
         0.00000E+00
         0.00000E+00
         0.00000E+00
         0.00000E+00
         0.00000E+00
         0.00000E+00
         0.00000E+00
         0.00000E+00
         0.00000E+00
         0.00000E+00
         0.00000E+00
         0.00000E+00
         0.00000E+00
         0.00000E+00
         0.00000E+00
         0.00000E+00
         0.00000E+00
         0.00000E+00
         0.00000E+00
         0.00000E+00
         0.00000E+00
         0.00000E+00
         0.00000E+00
         0.00000E+00
         0.00000E+00
         0.00000E+00
         0.00000E+00
         0.00000E+00
         0.00000E+00
         0.00000E+00
         0.00000E+00
         0.00000E+00
         0.00000E+00
         0.00000E+00
         0.00000E+00
         0.00000E+00
         0.00000E+00
         0.00000E+00
         0.00000E+00
         0.00000E+00
         0.00000E+00
         0.00000E+00
         0.00000E+00
         0.00000E+00
         0.00000E+00
         0.00000E+00
         0.00000E+00
         0.00000E+00
         0.00000E+00
         0.00000E+00
         0.00000E+00
         0.00000E+00
         0.00000E+00
         0.00000E+00
         0.00000E+00
         0.00000E+00
         0.00000E+00
         0.00000E+00
         0.00000E+00
         0.00000E+00
         0.00000E+00
         0.00000E+00
         0.00000E+00
         0.00000E+00
         0.00000E+00
         0.00000E+00
         0.00000E+00
         0.00000E+00
         0.00000E+00
         0.00000E+00
         0.00000E+00
         0.00000E+00
         0.00000E+00
         0.00000E+00
         0.00000E+00
         0.00000E+00
         0.00000E+00
         0.00000E+00
         0.00000E+00
         0.00000E+00
         0.00000E+00
         0.00000E+00
         0.00000E+00
         0.00000E+00
         0.00000E+00
         0.00000E+00
         0.00000E+00
         0.00000E+00
         0.00000E+00
         0.00000E+00
         0.00000E+00
         0.00000E+00
         0.00000E+00
         0.00000E+00
         0.00000E+00
         0.00000E+00
         0.00000E+00
         0.00000E+00
         0.00000E+00
         0.00000E+00
         0.00000E+00
         0.00000E+00
         0.00000E+00
         0.00000E+00
         0.00000E+00
         0.00000E+00
         0.00000E+00
         0.00000E+00
         0.00000E+00
         0.00000E+00
         0.00000E+00
         0.00000E+00
         0.00000E+00
         0.00000E+00
         0.00000E+00
         0.00000E+00
         0.00000E+00
         0.00000E+00
         0.00000E+00
         0.00000E+00
         0.00000E+00
         0.00000E+00
         0.00000E+00
         0.00000E+00
         0.00000E+00
         0.00000E+00
         0.00000E+00
         0.00000E+00
         0.00000E+00
         0.00000E+00
         0.00000E+00
         0.00000E+00
         0.00000E+00
         0.00000E+00
         0.00000E+00
         0.00000E+00
         0.00000E+00
         0.00000E+00
         0.00000E+00
         0.00000E+00
         0.00000E+00
         0.00000E+00
         0.00000E+00
         0.00000E+00
         0.00000E+00
         0.00000E+00
         0.00000E+00
         0.00000E+00
         0.00000E+00
         0.00000E+00
         0.00000E+00
         0.00000E+00
         0.00000E+00
         0.00000E+00
         0.00000E+00
         0.00000E+00
         0.00000E+00
         0.00000E+00
         0.00000E+00
         0.00000E+00
         0.00000E+00
         0.00000E+00
         0.00000E+00
         0.00000E+00
         0.00000E+00
         0.00000E+00
         0.00000E+00
         0.00000E+00
         0.00000E+00
         0.00000E+00
         0.00000E+00
         0.00000E+00
         0.00000E+00
         0.00000E+00
         0.00000E+00
         0.00000E+00
         0.00000E+00
         0.00000E+00
         0.00000E+00
         0.00000E+00
         0.00000E+00
         0.00000E+00
         0.00000E+00
         0.00000E+00
         0.00000E+00
         0.00000E+00
         0.00000E+00
         0.00000E+00
         0.00000E+00
         0.00000E+00
         0.00000E+00
         0.00000E+00
         0.00000E+00
         0.00000E+00
         0.00000E+00
         0.00000E+00
         0.00000E+00
         0.00000E+00
         0.00000E+00
         0.00000E+00
         0.00000E+00
         0.00000E+00
         0.00000E+00
         0.00000E+00
         0.00000E+00
         0.00000E+00
         0.00000E+00
         0.00000E+00
         0.00000E+00
         0.00000E+00
         0.00000E+00
         0.00000E+00
         0.00000E+00
         0.00000E+00
         0.00000E+00
         0.00000E+00
         0.00000E+00
         0.00000E+00
         0.00000E+00
         0.00000E+00
         0.00000E+00
         0.00000E+00
         0.00000E+00
         0.00000E+00
         0.00000E+00
         0.00000E+00
         0.00000E+00
         0.00000E+00
         0.00000E+00
         0.00000E+00
         0.00000E+00
         0.00000E+00
         0.00000E+00
         0.00000E+00
         0.00000E+00
         0.00000E+00
         0.00000E+00
         0.00000E+00
         0.00000E+00
         0.00000E+00
         0.00000E+00
         0.00000E+00
         0.00000E+00
         0.00000E+00
         0.00000E+00
         0.00000E+00
         0.00000E+00
         0.00000E+00
         0.00000E+00
         0.00000E+00
         0.00000E+00
         0.00000E+00
         0.00000E+00
         0.00000E+00
         0.00000E+00
         0.00000E+00
         0.00000E+00
         0.00000E+00
         0.00000E+00
         0.00000E+00
         0.00000E+00
         0.00000E+00
         0.00000E+00
         0.00000E+00
         0.00000E+00
         0.00000E+00
         0.00000E+00
         0.00000E+00
         0.00000E+00
         0.00000E+00
         0.00000E+00
         0.00000E+00
         0.00000E+00
         0.00000E+00
         0.00000E+00
         0.00000E+00
         0.00000E+00
         0.00000E+00
         0.00000E+00
         0.00000E+00
         0.00000E+00
         0.00000E+00
         0.00000E+00
         0.00000E+00
         0.00000E+00
         0.00000E+00
         0.00000E+00
         0.00000E+00
         0.00000E+00
         0.00000E+00
         0.00000E+00
         0.00000E+00
         0.00000E+00
         0.00000E+00
         0.00000E+00
         0.00000E+00
         0.00000E+00
         0.00000E+00
         0.00000E+00
         0.00000E+00
         0.00000E+00
         0.00000E+00
         0.00000E+00
         0.00000E+00
         0.00000E+00
         0.00000E+00
         0.00000E+00
         0.00000E+00
         0.00000E+00
         0.00000E+00
         0.00000E+00
         0.00000E+00
         0.00000E+00
         0.00000E+00
         0.00000E+00
         0.00000E+00
         0.00000E+00
         0.00000E+00
         0.00000E+00
         0.00000E+00
         0.00000E+00
         0.00000E+00
         0.00000E+00
         0.00000E+00
         0.00000E+00
         0.00000E+00
         0.00000E+00
         0.00000E+00
         0.00000E+00
         0.00000E+00
         0.00000E+00
         0.00000E+00
         0.00000E+00
         0.00000E+00
         0.00000E+00
         0.00000E+00
         0.00000E+00
         0.00000E+00
         0.00000E+00
         0.00000E+00
         0.00000E+00
         0.00000E+00
         0.00000E+00
         0.00000E+00
         0.00000E+00
         0.00000E+00
         0.00000E+00
         0.00000E+00
         0.00000E+00
         0.00000E+00
         0.00000E+00
         0.00000E+00
         0.00000E+00
         0.00000E+00
         0.00000E+00
         0.00000E+00
         0.00000E+00
         0.00000E+00
         0.00000E+00
         0.00000E+00
         0.00000E+00
         0.00000E+00
         0.00000E+00
         0.00000E+00
         0.00000E+00
         0.00000E+00
         0.00000E+00
         0.00000E+00
         0.00000E+00
         0.00000E+00
         0.00000E+00
         0.00000E+00
         0.00000E+00
         0.00000E+00
         0.00000E+00
         0.00000E+00
         0.00000E+00
         0.00000E+00
         0.00000E+00
         0.00000E+00
         0.00000E+00
         0.00000E+00
         0.00000E+00
         0.00000E+00
         0.00000E+00
         0.00000E+00
         0.00000E+00
         0.00000E+00
         0.00000E+00
         0.00000E+00
         0.00000E+00
         0.00000E+00
         0.00000E+00
         0.00000E+00
         0.00000E+00
         0.00000E+00
         0.00000E+00
         0.00000E+00
         0.00000E+00
         0.00000E+00
         0.00000E+00
         0.00000E+00
         0.00000E+00
         0.00000E+00
         0.00000E+00
         0.00000E+00
         0.00000E+00
         0.00000E+00
         0.00000E+00
         0.00000E+00
         0.00000E+00
         0.00000E+00
         0.00000E+00
         0.00000E+00
         0.00000E+00
         0.00000E+00
         0.00000E+00
         0.00000E+00
         0.00000E+00
         0.00000E+00
         0.00000E+00
         0.00000E+00
         0.00000E+00
         0.00000E+00
         0.00000E+00
         0.00000E+00
         0.00000E+00
         0.00000E+00
         0.00000E+00
         0.00000E+00
         0.00000E+00
         0.00000E+00
         0.00000E+00
         0.00000E+00
         0.00000E+00
         0.00000E+00
         0.00000E+00
         0.00000E+00
         0.00000E+00
         0.00000E+00
         0.00000E+00
         0.00000E+00
         0.00000E+00
         0.00000E+00
         0.00000E+00
         0.00000E+00
         0.00000E+00
         0.00000E+00
         0.00000E+00
         0.00000E+00
         0.00000E+00
         0.00000E+00
         0.00000E+00
         0.00000E+00
         0.00000E+00
         0.00000E+00
         0.00000E+00
         0.00000E+00
         0.00000E+00
         0.00000E+00
         0.00000E+00
         0.00000E+00
         0.00000E+00
         0.00000E+00
         0.00000E+00
         0.00000E+00
         0.00000E+00
         0.00000E+00
         0.00000E+00
         0.00000E+00
         0.00000E+00
         0.00000E+00
         0.00000E+00
         0.00000E+00
         0.00000E+00
         0.00000E+00
         0.00000E+00
         0.00000E+00
         0.00000E+00
         0.00000E+00
         0.00000E+00
         0.00000E+00
         0.00000E+00
         0.00000E+00
         0.00000E+00
         0.00000E+00
         0.00000E+00
         0.00000E+00
         0.00000E+00
         0.00000E+00
         0.00000E+00
         0.00000E+00
         0.00000E+00
         0.00000E+00
         0.00000E+00
         0.00000E+00
         0.00000E+00
         0.00000E+00
         0.00000E+00
         0.00000E+00
         0.00000E+00
         0.00000E+00
         0.00000E+00
         0.00000E+00
         0.00000E+00
         0.00000E+00
         0.00000E+00
         0.00000E+00
         0.00000E+00
         0.00000E+00
         0.00000E+00
         0.00000E+00
         0.00000E+00
         0.00000E+00
         0.00000E+00
         0.00000E+00
         0.00000E+00
         0.00000E+00
         0.00000E+00
         0.00000E+00
         0.00000E+00
         0.00000E+00
         0.00000E+00
         0.00000E+00
         0.00000E+00
         0.00000E+00
         0.00000E+00
         0.00000E+00
         0.00000E+00
         0.00000E+00
         0.00000E+00
         0.00000E+00
         0.00000E+00
         0.00000E+00
         0.00000E+00
         0.00000E+00
         0.00000E+00
         0.00000E+00
         0.00000E+00
         0.00000E+00
         0.00000E+00
         0.00000E+00
         0.00000E+00
         0.00000E+00
         0.00000E+00
         0.00000E+00
         0.00000E+00
         0.00000E+00
         0.00000E+00
         0.00000E+00
         0.00000E+00
         0.00000E+00
         0.00000E+00
         0.00000E+00
         0.00000E+00
         0.00000E+00
         0.00000E+00
         0.00000E+00
         0.00000E+00
         0.00000E+00
         0.00000E+00
         0.00000E+00
         0.00000E+00
         0.00000E+00
         0.00000E+00
         0.00000E+00
         0.00000E+00
         0.00000E+00
         0.00000E+00
         0.00000E+00
         0.00000E+00
         0.00000E+00
         0.00000E+00
         0.00000E+00
         0.00000E+00
         0.00000E+00
         0.00000E+00
         0.00000E+00
         0.00000E+00
         0.00000E+00
         0.00000E+00
         0.00000E+00
         0.00000E+00
         0.00000E+00
         0.00000E+00
         0.00000E+00
         0.00000E+00
         0.00000E+00
         0.00000E+00
         0.00000E+00
         0.00000E+00
         0.00000E+00
         0.00000E+00
         0.00000E+00
         0.00000E+00
         0.00000E+00
         0.00000E+00
         0.00000E+00
         0.00000E+00
         0.00000E+00
         0.00000E+00
         0.00000E+00
         0.00000E+00
         0.00000E+00
         0.00000E+00
         0.00000E+00
         0.00000E+00
         0.00000E+00
         0.00000E+00
         0.00000E+00
         0.00000E+00
         0.00000E+00
         0.00000E+00
         0.00000E+00
         0.00000E+00
         0.00000E+00
         0.00000E+00
         0.00000E+00
         0.00000E+00
         0.00000E+00
         0.00000E+00
         0.00000E+00
         0.00000E+00
         0.00000E+00
         0.00000E+00
         0.00000E+00
         0.00000E+00
         0.00000E+00
         0.00000E+00
         0.00000E+00
         0.00000E+00
         0.00000E+00
         0.00000E+00
         0.00000E+00
         0.00000E+00
         0.00000E+00
         0.00000E+00
         0.00000E+00
         0.00000E+00
         0.00000E+00
         0.00000E+00
         0.00000E+00
         0.00000E+00
         0.00000E+00
         0.00000E+00
         0.00000E+00
         0.00000E+00
         0.00000E+00
         0.00000E+00
         0.00000E+00
         0.00000E+00
         0.00000E+00
         0.00000E+00
         0.00000E+00
         0.00000E+00
  
SCALARS                         fint_x  double 1
LOOKUP_TABLE default
         0.00000E+00
         0.00000E+00
         0.00000E+00
         0.00000E+00
         0.00000E+00
         0.00000E+00
         0.00000E+00
         0.00000E+00
         0.00000E+00
         0.00000E+00
         0.00000E+00
         0.00000E+00
         0.00000E+00
         0.00000E+00
         0.00000E+00
         0.00000E+00
         0.00000E+00
         0.00000E+00
         0.00000E+00
         0.00000E+00
         0.00000E+00
         0.00000E+00
         0.00000E+00
         0.00000E+00
         0.00000E+00
         0.00000E+00
         0.00000E+00
         0.00000E+00
         0.00000E+00
         0.00000E+00
         0.00000E+00
         0.00000E+00
         0.00000E+00
         0.00000E+00
         0.00000E+00
         0.00000E+00
         0.00000E+00
         0.00000E+00
         0.00000E+00
         0.00000E+00
         0.00000E+00
         0.00000E+00
         0.00000E+00
         0.00000E+00
         0.00000E+00
         0.00000E+00
         0.00000E+00
         0.00000E+00
         0.00000E+00
         0.00000E+00
         0.00000E+00
         0.00000E+00
         0.00000E+00
         0.00000E+00
         0.00000E+00
         0.00000E+00
         0.00000E+00
         0.00000E+00
         0.00000E+00
         0.00000E+00
         0.00000E+00
         0.00000E+00
         0.00000E+00
         0.00000E+00
         0.00000E+00
         0.00000E+00
         0.00000E+00
         0.00000E+00
         0.00000E+00
         0.00000E+00
         0.00000E+00
         0.00000E+00
         0.00000E+00
         0.00000E+00
         0.00000E+00
         0.00000E+00
         0.00000E+00
         0.00000E+00
         0.00000E+00
         0.00000E+00
         0.00000E+00
         0.00000E+00
         0.00000E+00
         0.00000E+00
         0.00000E+00
         0.00000E+00
         0.00000E+00
         0.00000E+00
         0.00000E+00
         0.00000E+00
         0.00000E+00
         0.00000E+00
         0.00000E+00
         0.00000E+00
         0.00000E+00
         0.00000E+00
         0.00000E+00
         0.00000E+00
         0.00000E+00
         0.00000E+00
         0.00000E+00
         0.00000E+00
         0.00000E+00
         0.00000E+00
         0.00000E+00
         0.00000E+00
         0.00000E+00
         0.00000E+00
         0.00000E+00
         0.00000E+00
         0.00000E+00
         0.00000E+00
         0.00000E+00
         0.00000E+00
         0.00000E+00
         0.00000E+00
         0.00000E+00
         0.00000E+00
         0.00000E+00
         0.00000E+00
         0.00000E+00
         0.00000E+00
         0.00000E+00
         0.00000E+00
         0.00000E+00
         0.00000E+00
         0.00000E+00
         0.00000E+00
         0.00000E+00
         0.00000E+00
         0.00000E+00
         0.00000E+00
         0.00000E+00
         0.00000E+00
         0.00000E+00
         0.00000E+00
         0.00000E+00
         0.00000E+00
         0.00000E+00
         0.00000E+00
         0.00000E+00
         0.00000E+00
         0.00000E+00
         0.00000E+00
         0.00000E+00
         0.00000E+00
         0.00000E+00
         0.00000E+00
         0.00000E+00
         0.00000E+00
         0.00000E+00
         0.00000E+00
         0.00000E+00
         0.00000E+00
         0.00000E+00
         0.00000E+00
         0.00000E+00
         0.00000E+00
         0.00000E+00
         0.00000E+00
         0.00000E+00
         0.00000E+00
         0.00000E+00
         0.00000E+00
         0.00000E+00
         0.00000E+00
         0.00000E+00
         0.00000E+00
         0.00000E+00
         0.00000E+00
         0.00000E+00
         0.00000E+00
         0.00000E+00
         0.00000E+00
         0.00000E+00
         0.00000E+00
         0.00000E+00
         0.00000E+00
         0.00000E+00
         0.00000E+00
         0.00000E+00
         0.00000E+00
         0.00000E+00
         0.00000E+00
         0.00000E+00
         0.00000E+00
         0.00000E+00
         0.00000E+00
         0.00000E+00
         0.00000E+00
         0.00000E+00
         0.00000E+00
         0.00000E+00
         0.00000E+00
         0.00000E+00
         0.00000E+00
         0.00000E+00
         0.00000E+00
         0.00000E+00
         0.00000E+00
         0.00000E+00
         0.00000E+00
         0.00000E+00
         0.00000E+00
         0.00000E+00
         0.00000E+00
         0.00000E+00
         0.00000E+00
         0.00000E+00
         0.00000E+00
         0.00000E+00
         0.00000E+00
         0.00000E+00
         0.00000E+00
         0.00000E+00
         0.00000E+00
         0.00000E+00
         0.00000E+00
         0.00000E+00
         0.00000E+00
         0.00000E+00
         0.00000E+00
         0.00000E+00
         0.00000E+00
         0.00000E+00
         0.00000E+00
         0.00000E+00
         0.00000E+00
         0.00000E+00
         0.00000E+00
         0.00000E+00
         0.00000E+00
         0.00000E+00
         0.00000E+00
         0.00000E+00
         0.00000E+00
         0.00000E+00
         0.00000E+00
         0.00000E+00
         0.00000E+00
         0.00000E+00
         0.00000E+00
         0.00000E+00
         0.00000E+00
         0.00000E+00
         0.00000E+00
         0.00000E+00
         0.00000E+00
         0.00000E+00
         0.00000E+00
         0.00000E+00
         0.00000E+00
         0.00000E+00
         0.00000E+00
         0.00000E+00
         0.00000E+00
         0.00000E+00
         0.00000E+00
         0.00000E+00
         0.00000E+00
         0.00000E+00
         0.00000E+00
         0.00000E+00
         0.00000E+00
         0.00000E+00
         0.00000E+00
         0.00000E+00
         0.00000E+00
         0.00000E+00
         0.00000E+00
         0.00000E+00
         0.00000E+00
         0.00000E+00
         0.00000E+00
         0.00000E+00
         0.00000E+00
         0.00000E+00
         0.00000E+00
         0.00000E+00
         0.00000E+00
         0.00000E+00
         0.00000E+00
         0.00000E+00
         0.00000E+00
         0.00000E+00
         0.00000E+00
         0.00000E+00
         0.00000E+00
         0.00000E+00
         0.00000E+00
         0.00000E+00
         0.00000E+00
         0.00000E+00
         0.00000E+00
         0.00000E+00
         0.00000E+00
         0.00000E+00
         0.00000E+00
         0.00000E+00
         0.00000E+00
         0.00000E+00
         0.00000E+00
         0.00000E+00
         0.00000E+00
         0.00000E+00
         0.00000E+00
         0.00000E+00
         0.00000E+00
         0.00000E+00
         0.00000E+00
         0.00000E+00
         0.00000E+00
         0.00000E+00
         0.00000E+00
         0.00000E+00
         0.00000E+00
         0.00000E+00
         0.00000E+00
         0.00000E+00
         0.00000E+00
         0.00000E+00
         0.00000E+00
         0.00000E+00
         0.00000E+00
         0.00000E+00
         0.00000E+00
         0.00000E+00
         0.00000E+00
         0.00000E+00
         0.00000E+00
         0.00000E+00
         0.00000E+00
         0.00000E+00
         0.00000E+00
         0.00000E+00
         0.00000E+00
         0.00000E+00
         0.00000E+00
         0.00000E+00
         0.00000E+00
         0.00000E+00
         0.00000E+00
         0.00000E+00
         0.00000E+00
         0.00000E+00
         0.00000E+00
         0.00000E+00
         0.00000E+00
         0.00000E+00
         0.00000E+00
         0.00000E+00
         0.00000E+00
         0.00000E+00
         0.00000E+00
         0.00000E+00
         0.00000E+00
         0.00000E+00
         0.00000E+00
         0.00000E+00
         0.00000E+00
         0.00000E+00
         0.00000E+00
         0.00000E+00
         0.00000E+00
         0.00000E+00
         0.00000E+00
         0.00000E+00
         0.00000E+00
         0.00000E+00
         0.00000E+00
         0.00000E+00
         0.00000E+00
         0.00000E+00
         0.00000E+00
         0.00000E+00
         0.00000E+00
         0.00000E+00
         0.00000E+00
         0.00000E+00
         0.00000E+00
         0.00000E+00
         0.00000E+00
         0.00000E+00
         0.00000E+00
         0.00000E+00
         0.00000E+00
         0.00000E+00
         0.00000E+00
         0.00000E+00
         0.00000E+00
         0.00000E+00
         0.00000E+00
         0.00000E+00
         0.00000E+00
         0.00000E+00
         0.00000E+00
         0.00000E+00
         0.00000E+00
         0.00000E+00
         0.00000E+00
         0.00000E+00
         0.00000E+00
         0.00000E+00
         0.00000E+00
         0.00000E+00
         0.00000E+00
         0.00000E+00
         0.00000E+00
         0.00000E+00
         0.00000E+00
         0.00000E+00
         0.00000E+00
         0.00000E+00
         0.00000E+00
         0.00000E+00
         0.00000E+00
         0.00000E+00
         0.00000E+00
         0.00000E+00
         0.00000E+00
         0.00000E+00
         0.00000E+00
         0.00000E+00
         0.00000E+00
         0.00000E+00
         0.00000E+00
         0.00000E+00
         0.00000E+00
         0.00000E+00
         0.00000E+00
         0.00000E+00
         0.00000E+00
         0.00000E+00
         0.00000E+00
         0.00000E+00
         0.00000E+00
         0.00000E+00
         0.00000E+00
         0.00000E+00
         0.00000E+00
         0.00000E+00
         0.00000E+00
         0.00000E+00
         0.00000E+00
         0.00000E+00
         0.00000E+00
         0.00000E+00
         0.00000E+00
         0.00000E+00
         0.00000E+00
         0.00000E+00
         0.00000E+00
         0.00000E+00
         0.00000E+00
         0.00000E+00
         0.00000E+00
         0.00000E+00
         0.00000E+00
         0.00000E+00
         0.00000E+00
         0.00000E+00
         0.00000E+00
         0.00000E+00
         0.00000E+00
         0.00000E+00
         0.00000E+00
         0.00000E+00
         0.00000E+00
         0.00000E+00
         0.00000E+00
         0.00000E+00
         0.00000E+00
         0.00000E+00
         0.00000E+00
         0.00000E+00
         0.00000E+00
         0.00000E+00
         0.00000E+00
         0.00000E+00
         0.00000E+00
         0.00000E+00
         0.00000E+00
         0.00000E+00
         0.00000E+00
         0.00000E+00
         0.00000E+00
         0.00000E+00
         0.00000E+00
         0.00000E+00
         0.00000E+00
         0.00000E+00
         0.00000E+00
         0.00000E+00
         0.00000E+00
         0.00000E+00
         0.00000E+00
         0.00000E+00
         0.00000E+00
         0.00000E+00
         0.00000E+00
         0.00000E+00
         0.00000E+00
         0.00000E+00
         0.00000E+00
         0.00000E+00
         0.00000E+00
         0.00000E+00
         0.00000E+00
         0.00000E+00
         0.00000E+00
         0.00000E+00
         0.00000E+00
         0.00000E+00
         0.00000E+00
         0.00000E+00
         0.00000E+00
         0.00000E+00
         0.00000E+00
         0.00000E+00
         0.00000E+00
         0.00000E+00
         0.00000E+00
         0.00000E+00
         0.00000E+00
         0.00000E+00
         0.00000E+00
         0.00000E+00
         0.00000E+00
         0.00000E+00
         0.00000E+00
         0.00000E+00
         0.00000E+00
         0.00000E+00
         0.00000E+00
         0.00000E+00
         0.00000E+00
         0.00000E+00
         0.00000E+00
         0.00000E+00
         0.00000E+00
         0.00000E+00
         0.00000E+00
         0.00000E+00
         0.00000E+00
         0.00000E+00
         0.00000E+00
         0.00000E+00
         0.00000E+00
         0.00000E+00
         0.00000E+00
         0.00000E+00
         0.00000E+00
         0.00000E+00
         0.00000E+00
         0.00000E+00
         0.00000E+00
         0.00000E+00
         0.00000E+00
         0.00000E+00
         0.00000E+00
         0.00000E+00
         0.00000E+00
         0.00000E+00
         0.00000E+00
         0.00000E+00
         0.00000E+00
         0.00000E+00
         0.00000E+00
         0.00000E+00
         0.00000E+00
         0.00000E+00
         0.00000E+00
         0.00000E+00
         0.00000E+00
         0.00000E+00
         0.00000E+00
         0.00000E+00
         0.00000E+00
         0.00000E+00
         0.00000E+00
         0.00000E+00
         0.00000E+00
         0.00000E+00
         0.00000E+00
         0.00000E+00
         0.00000E+00
         0.00000E+00
         0.00000E+00
         0.00000E+00
         0.00000E+00
         0.00000E+00
         0.00000E+00
         0.00000E+00
         0.00000E+00
         0.00000E+00
         0.00000E+00
         0.00000E+00
         0.00000E+00
         0.00000E+00
         0.00000E+00
         0.00000E+00
         0.00000E+00
         0.00000E+00
         0.00000E+00
         0.00000E+00
         0.00000E+00
         0.00000E+00
         0.00000E+00
         0.00000E+00
         0.00000E+00
         0.00000E+00
         0.00000E+00
         0.00000E+00
         0.00000E+00
         0.00000E+00
         0.00000E+00
         0.00000E+00
         0.00000E+00
         0.00000E+00
         0.00000E+00
         0.00000E+00
         0.00000E+00
         0.00000E+00
         0.00000E+00
         0.00000E+00
         0.00000E+00
         0.00000E+00
         0.00000E+00
         0.00000E+00
         0.00000E+00
         0.00000E+00
         0.00000E+00
         0.00000E+00
         0.00000E+00
         0.00000E+00
         0.00000E+00
         0.00000E+00
         0.00000E+00
         0.00000E+00
         0.00000E+00
         0.00000E+00
         0.00000E+00
         0.00000E+00
         0.00000E+00
         0.00000E+00
         0.00000E+00
         0.00000E+00
         0.00000E+00
         0.00000E+00
         0.00000E+00
         0.00000E+00
         0.00000E+00
         0.00000E+00
         0.00000E+00
         0.00000E+00
         0.00000E+00
         0.00000E+00
         0.00000E+00
         0.00000E+00
         0.00000E+00
         0.00000E+00
         0.00000E+00
         0.00000E+00
         0.00000E+00
         0.00000E+00
         0.00000E+00
         0.00000E+00
         0.00000E+00
         0.00000E+00
         0.00000E+00
         0.00000E+00
         0.00000E+00
         0.00000E+00
         0.00000E+00
         0.00000E+00
         0.00000E+00
         0.00000E+00
         0.00000E+00
         0.00000E+00
         0.00000E+00
         0.00000E+00
         0.00000E+00
         0.00000E+00
         0.00000E+00
         0.00000E+00
         0.00000E+00
         0.00000E+00
         0.00000E+00
         0.00000E+00
         0.00000E+00
         0.00000E+00
         0.00000E+00
         0.00000E+00
         0.00000E+00
         0.00000E+00
         0.00000E+00
         0.00000E+00
         0.00000E+00
         0.00000E+00
         0.00000E+00
         0.00000E+00
         0.00000E+00
         0.00000E+00
         0.00000E+00
         0.00000E+00
         0.00000E+00
         0.00000E+00
         0.00000E+00
         0.00000E+00
         0.00000E+00
         0.00000E+00
         0.00000E+00
         0.00000E+00
         0.00000E+00
         0.00000E+00
         0.00000E+00
         0.00000E+00
         0.00000E+00
         0.00000E+00
         0.00000E+00
         0.00000E+00
         0.00000E+00
         0.00000E+00
         0.00000E+00
         0.00000E+00
         0.00000E+00
         0.00000E+00
         0.00000E+00
         0.00000E+00
         0.00000E+00
         0.00000E+00
         0.00000E+00
         0.00000E+00
         0.00000E+00
         0.00000E+00
         0.00000E+00
         0.00000E+00
         0.00000E+00
         0.00000E+00
         0.00000E+00
         0.00000E+00
         0.00000E+00
         0.00000E+00
         0.00000E+00
         0.00000E+00
         0.00000E+00
         0.00000E+00
         0.00000E+00
         0.00000E+00
         0.00000E+00
         0.00000E+00
         0.00000E+00
         0.00000E+00
         0.00000E+00
         0.00000E+00
         0.00000E+00
         0.00000E+00
         0.00000E+00
         0.00000E+00
         0.00000E+00
         0.00000E+00
         0.00000E+00
         0.00000E+00
         0.00000E+00
         0.00000E+00
         0.00000E+00
         0.00000E+00
         0.00000E+00
         0.00000E+00
         0.00000E+00
         0.00000E+00
         0.00000E+00
         0.00000E+00
         0.00000E+00
         0.00000E+00
         0.00000E+00
         0.00000E+00
         0.00000E+00
         0.00000E+00
         0.00000E+00
         0.00000E+00
         0.00000E+00
         0.00000E+00
         0.00000E+00
         0.00000E+00
         0.00000E+00
         0.00000E+00
         0.00000E+00
         0.00000E+00
         0.00000E+00
         0.00000E+00
         0.00000E+00
         0.00000E+00
         0.00000E+00
         0.00000E+00
         0.00000E+00
         0.00000E+00
         0.00000E+00
         0.00000E+00
         0.00000E+00
         0.00000E+00
         0.00000E+00
         0.00000E+00
         0.00000E+00
         0.00000E+00
         0.00000E+00
         0.00000E+00
         0.00000E+00
         0.00000E+00
         0.00000E+00
         0.00000E+00
         0.00000E+00
         0.00000E+00
         0.00000E+00
         0.00000E+00
         0.00000E+00
         0.00000E+00
         0.00000E+00
         0.00000E+00
         0.00000E+00
         0.00000E+00
         0.00000E+00
         0.00000E+00
         0.00000E+00
         0.00000E+00
         0.00000E+00
         0.00000E+00
         0.00000E+00
         0.00000E+00
         0.00000E+00
         0.00000E+00
         0.00000E+00
         0.00000E+00
         0.00000E+00
         0.00000E+00
         0.00000E+00
         0.00000E+00
         0.00000E+00
         0.00000E+00
         0.00000E+00
         0.00000E+00
         0.00000E+00
         0.00000E+00
         0.00000E+00
         0.00000E+00
         0.00000E+00
         0.00000E+00
         0.00000E+00
         0.00000E+00
         0.00000E+00
         0.00000E+00
         0.00000E+00
         0.00000E+00
         0.00000E+00
         0.00000E+00
         0.00000E+00
         0.00000E+00
         0.00000E+00
         0.00000E+00
         0.00000E+00
         0.00000E+00
         0.00000E+00
         0.00000E+00
         0.00000E+00
         0.00000E+00
         0.00000E+00
         0.00000E+00
         0.00000E+00
         0.00000E+00
         0.00000E+00
         0.00000E+00
         0.00000E+00
         0.00000E+00
         0.00000E+00
         0.00000E+00
         0.00000E+00
         0.00000E+00
         0.00000E+00
         0.00000E+00
         0.00000E+00
         0.00000E+00
         0.00000E+00
         0.00000E+00
         0.00000E+00
         0.00000E+00
         0.00000E+00
         0.00000E+00
         0.00000E+00
         0.00000E+00
         0.00000E+00
         0.00000E+00
         0.00000E+00
         0.00000E+00
         0.00000E+00
         0.00000E+00
         0.00000E+00
         0.00000E+00
         0.00000E+00
         0.00000E+00
         0.00000E+00
         0.00000E+00
         0.00000E+00
         0.00000E+00
         0.00000E+00
         0.00000E+00
         0.00000E+00
         0.00000E+00
         0.00000E+00
         0.00000E+00
         0.00000E+00
         0.00000E+00
         0.00000E+00
         0.00000E+00
         0.00000E+00
         0.00000E+00
         0.00000E+00
         0.00000E+00
         0.00000E+00
         0.00000E+00
         0.00000E+00
         0.00000E+00
         0.00000E+00
         0.00000E+00
         0.00000E+00
         0.00000E+00
         0.00000E+00
         0.00000E+00
         0.00000E+00
         0.00000E+00
         0.00000E+00
         0.00000E+00
         0.00000E+00
         0.00000E+00
         0.00000E+00
         0.00000E+00
         0.00000E+00
         0.00000E+00
         0.00000E+00
         0.00000E+00
         0.00000E+00
         0.00000E+00
         0.00000E+00
         0.00000E+00
         0.00000E+00
         0.00000E+00
         0.00000E+00
         0.00000E+00
         0.00000E+00
         0.00000E+00
         0.00000E+00
         0.00000E+00
         0.00000E+00
         0.00000E+00
         0.00000E+00
         0.00000E+00
         0.00000E+00
         0.00000E+00
         0.00000E+00
         0.00000E+00
         0.00000E+00
         0.00000E+00
         0.00000E+00
         0.00000E+00
         0.00000E+00
         0.00000E+00
         0.00000E+00
         0.00000E+00
         0.00000E+00
         0.00000E+00
         0.00000E+00
         0.00000E+00
         0.00000E+00
         0.00000E+00
         0.00000E+00
         0.00000E+00
         0.00000E+00
         0.00000E+00
         0.00000E+00
         0.00000E+00
         0.00000E+00
         0.00000E+00
         0.00000E+00
         0.00000E+00
         0.00000E+00
         0.00000E+00
         0.00000E+00
         0.00000E+00
         0.00000E+00
         0.00000E+00
         0.00000E+00
         0.00000E+00
         0.00000E+00
         0.00000E+00
         0.00000E+00
         0.00000E+00
         0.00000E+00
         0.00000E+00
         0.00000E+00
         0.00000E+00
         0.00000E+00
         0.00000E+00
         0.00000E+00
         0.00000E+00
         0.00000E+00
         0.00000E+00
         0.00000E+00
         0.00000E+00
         0.00000E+00
         0.00000E+00
         0.00000E+00
         0.00000E+00
         0.00000E+00
         0.00000E+00
         0.00000E+00
         0.00000E+00
         0.00000E+00
         0.00000E+00
         0.00000E+00
         0.00000E+00
         0.00000E+00
         0.00000E+00
         0.00000E+00
         0.00000E+00
         0.00000E+00
         0.00000E+00
         0.00000E+00
         0.00000E+00
         0.00000E+00
         0.00000E+00
         0.00000E+00
         0.00000E+00
         0.00000E+00
         0.00000E+00
         0.00000E+00
         0.00000E+00
         0.00000E+00
         0.00000E+00
         0.00000E+00
         0.00000E+00
         0.00000E+00
         0.00000E+00
         0.00000E+00
         0.00000E+00
         0.00000E+00
         0.00000E+00
         0.00000E+00
         0.00000E+00
         0.00000E+00
         0.00000E+00
         0.00000E+00
         0.00000E+00
         0.00000E+00
         0.00000E+00
         0.00000E+00
         0.00000E+00
         0.00000E+00
         0.00000E+00
         0.00000E+00
         0.00000E+00
         0.00000E+00
         0.00000E+00
         0.00000E+00
         0.00000E+00
         0.00000E+00
         0.00000E+00
         0.00000E+00
         0.00000E+00
         0.00000E+00
         0.00000E+00
         0.00000E+00
         0.00000E+00
         0.00000E+00
         0.00000E+00
         0.00000E+00
         0.00000E+00
         0.00000E+00
         0.00000E+00
         0.00000E+00
         0.00000E+00
         0.00000E+00
         0.00000E+00
         0.00000E+00
         0.00000E+00
         0.00000E+00
         0.00000E+00
         0.00000E+00
         0.00000E+00
         0.00000E+00
         0.00000E+00
         0.00000E+00
         0.00000E+00
         0.00000E+00
         0.00000E+00
         0.00000E+00
         0.00000E+00
         0.00000E+00
         0.00000E+00
         0.00000E+00
         0.00000E+00
         0.00000E+00
         0.00000E+00
         0.00000E+00
         0.00000E+00
         0.00000E+00
         0.00000E+00
         0.00000E+00
         0.00000E+00
         0.00000E+00
         0.00000E+00
         0.00000E+00
         0.00000E+00
         0.00000E+00
         0.00000E+00
         0.00000E+00
         0.00000E+00
         0.00000E+00
         0.00000E+00
         0.00000E+00
         0.00000E+00
         0.00000E+00
         0.00000E+00
         0.00000E+00
         0.00000E+00
         0.00000E+00
         0.00000E+00
         0.00000E+00
         0.00000E+00
         0.00000E+00
         0.00000E+00
         0.00000E+00
         0.00000E+00
         0.00000E+00
         0.00000E+00
         0.00000E+00
         0.00000E+00
         0.00000E+00
         0.00000E+00
         0.00000E+00
         0.00000E+00
         0.00000E+00
         0.00000E+00
         0.00000E+00
         0.00000E+00
         0.00000E+00
         0.00000E+00
         0.00000E+00
         0.00000E+00
         0.00000E+00
         0.00000E+00
         0.00000E+00
         0.00000E+00
         0.00000E+00
         0.00000E+00
         0.00000E+00
         0.00000E+00
         0.00000E+00
         0.00000E+00
         0.00000E+00
         0.00000E+00
         0.00000E+00
         0.00000E+00
         0.00000E+00
         0.00000E+00
         0.00000E+00
         0.00000E+00
         0.00000E+00
         0.00000E+00
         0.00000E+00
         0.00000E+00
         0.00000E+00
         0.00000E+00
         0.00000E+00
         0.00000E+00
         0.00000E+00
         0.00000E+00
         0.00000E+00
         0.00000E+00
         0.00000E+00
         0.00000E+00
         0.00000E+00
         0.00000E+00
         0.00000E+00
         0.00000E+00
         0.00000E+00
         0.00000E+00
         0.00000E+00
         0.00000E+00
         0.00000E+00
         0.00000E+00
         0.00000E+00
         0.00000E+00
         0.00000E+00
         0.00000E+00
         0.00000E+00
         0.00000E+00
         0.00000E+00
         0.00000E+00
         0.00000E+00
         0.00000E+00
         0.00000E+00
         0.00000E+00
         0.00000E+00
         0.00000E+00
         0.00000E+00
         0.00000E+00
         0.00000E+00
         0.00000E+00
         0.00000E+00
         0.00000E+00
         0.00000E+00
         0.00000E+00
         0.00000E+00
         0.00000E+00
         0.00000E+00
         0.00000E+00
         0.00000E+00
         0.00000E+00
         0.00000E+00
         0.00000E+00
         0.00000E+00
         0.00000E+00
         0.00000E+00
         0.00000E+00
         0.00000E+00
         0.00000E+00
         0.00000E+00
         0.00000E+00
         0.00000E+00
         0.00000E+00
         0.00000E+00
         0.00000E+00
         0.00000E+00
         0.00000E+00
         0.00000E+00
         0.00000E+00
         0.00000E+00
         0.00000E+00
         0.00000E+00
         0.00000E+00
         0.00000E+00
         0.00000E+00
         0.00000E+00
         0.00000E+00
         0.00000E+00
         0.00000E+00
         0.00000E+00
         0.00000E+00
         0.00000E+00
         0.00000E+00
         0.00000E+00
         0.00000E+00
         0.00000E+00
         0.00000E+00
         0.00000E+00
         0.00000E+00
         0.00000E+00
         0.00000E+00
         0.00000E+00
         0.00000E+00
         0.00000E+00
         0.00000E+00
         0.00000E+00
         0.00000E+00
         0.00000E+00
         0.00000E+00
         0.00000E+00
         0.00000E+00
         0.00000E+00
         0.00000E+00
         0.00000E+00
         0.00000E+00
         0.00000E+00
         0.00000E+00
         0.00000E+00
         0.00000E+00
         0.00000E+00
         0.00000E+00
         0.00000E+00
         0.00000E+00
         0.00000E+00
         0.00000E+00
         0.00000E+00
         0.00000E+00
         0.00000E+00
         0.00000E+00
         0.00000E+00
         0.00000E+00
         0.00000E+00
         0.00000E+00
         0.00000E+00
         0.00000E+00
         0.00000E+00
         0.00000E+00
         0.00000E+00
         0.00000E+00
         0.00000E+00
         0.00000E+00
         0.00000E+00
         0.00000E+00
         0.00000E+00
         0.00000E+00
         0.00000E+00
         0.00000E+00
         0.00000E+00
         0.00000E+00
         0.00000E+00
         0.00000E+00
         0.00000E+00
         0.00000E+00
         0.00000E+00
         0.00000E+00
         0.00000E+00
         0.00000E+00
         0.00000E+00
         0.00000E+00
         0.00000E+00
         0.00000E+00
         0.00000E+00
         0.00000E+00
         0.00000E+00
         0.00000E+00
         0.00000E+00
         0.00000E+00
         0.00000E+00
         0.00000E+00
         0.00000E+00
         0.00000E+00
         0.00000E+00
         0.00000E+00
         0.00000E+00
         0.00000E+00
         0.00000E+00
         0.00000E+00
         0.00000E+00
         0.00000E+00
         0.00000E+00
         0.00000E+00
         0.00000E+00
         0.00000E+00
         0.00000E+00
         0.00000E+00
         0.00000E+00
         0.00000E+00
         0.00000E+00
         0.00000E+00
         0.00000E+00
         0.00000E+00
         0.00000E+00
         0.00000E+00
         0.00000E+00
         0.00000E+00
         0.00000E+00
         0.00000E+00
         0.00000E+00
         0.00000E+00
         0.00000E+00
         0.00000E+00
         0.00000E+00
         0.00000E+00
         0.00000E+00
         0.00000E+00
         0.00000E+00
         0.00000E+00
         0.00000E+00
         0.00000E+00
         0.00000E+00
         0.00000E+00
         0.00000E+00
         0.00000E+00
         0.00000E+00
         0.00000E+00
         0.00000E+00
         0.00000E+00
         0.00000E+00
         0.00000E+00
         0.00000E+00
         0.00000E+00
         0.00000E+00
         0.00000E+00
         0.00000E+00
         0.00000E+00
         0.00000E+00
         0.00000E+00
         0.00000E+00
         0.00000E+00
         0.00000E+00
         0.00000E+00
         0.00000E+00
         0.00000E+00
         0.00000E+00
         0.00000E+00
         0.00000E+00
         0.00000E+00
         0.00000E+00
         0.00000E+00
         0.00000E+00
         0.00000E+00
         0.00000E+00
         0.00000E+00
         0.00000E+00
         0.00000E+00
         0.00000E+00
         0.00000E+00
         0.00000E+00
         0.00000E+00
         0.00000E+00
         0.00000E+00
         0.00000E+00
         0.00000E+00
         0.00000E+00
         0.00000E+00
         0.00000E+00
         0.00000E+00
         0.00000E+00
         0.00000E+00
         0.00000E+00
         0.00000E+00
         0.00000E+00
         0.00000E+00
         0.00000E+00
         0.00000E+00
         0.00000E+00
         0.00000E+00
         0.00000E+00
         0.00000E+00
         0.00000E+00
         0.00000E+00
         0.00000E+00
         0.00000E+00
         0.00000E+00
         0.00000E+00
         0.00000E+00
         0.00000E+00
         0.00000E+00
         0.00000E+00
         0.00000E+00
         0.00000E+00
         0.00000E+00
         0.00000E+00
         0.00000E+00
         0.00000E+00
         0.00000E+00
         0.00000E+00
         0.00000E+00
         0.00000E+00
         0.00000E+00
         0.00000E+00
         0.00000E+00
         0.00000E+00
         0.00000E+00
         0.00000E+00
         0.00000E+00
         0.00000E+00
         0.00000E+00
         0.00000E+00
         0.00000E+00
         0.00000E+00
         0.00000E+00
         0.00000E+00
         0.00000E+00
         0.00000E+00
         0.00000E+00
         0.00000E+00
         0.00000E+00
         0.00000E+00
         0.00000E+00
         0.00000E+00
         0.00000E+00
         0.00000E+00
         0.00000E+00
         0.00000E+00
         0.00000E+00
         0.00000E+00
         0.00000E+00
         0.00000E+00
         0.00000E+00
         0.00000E+00
         0.00000E+00
         0.00000E+00
         0.00000E+00
         0.00000E+00
         0.00000E+00
         0.00000E+00
         0.00000E+00
         0.00000E+00
         0.00000E+00
         0.00000E+00
         0.00000E+00
         0.00000E+00
         0.00000E+00
         0.00000E+00
         0.00000E+00
         0.00000E+00
         0.00000E+00
         0.00000E+00
         0.00000E+00
         0.00000E+00
         0.00000E+00
         0.00000E+00
         0.00000E+00
         0.00000E+00
         0.00000E+00
         0.00000E+00
         0.00000E+00
         0.00000E+00
         0.00000E+00
         0.00000E+00
         0.00000E+00
         0.00000E+00
         0.00000E+00
         0.00000E+00
         0.00000E+00
         0.00000E+00
         0.00000E+00
         0.00000E+00
         0.00000E+00
         0.00000E+00
         0.00000E+00
         0.00000E+00
         0.00000E+00
         0.00000E+00
         0.00000E+00
         0.00000E+00
         0.00000E+00
         0.00000E+00
         0.00000E+00
         0.00000E+00
         0.00000E+00
         0.00000E+00
         0.00000E+00
         0.00000E+00
         0.00000E+00
         0.00000E+00
         0.00000E+00
         0.00000E+00
         0.00000E+00
         0.00000E+00
         0.00000E+00
         0.00000E+00
         0.00000E+00
         0.00000E+00
         0.00000E+00
         0.00000E+00
         0.00000E+00
         0.00000E+00
         0.00000E+00
         0.00000E+00
         0.00000E+00
         0.00000E+00
         0.00000E+00
         0.00000E+00
         0.00000E+00
         0.00000E+00
         0.00000E+00
         0.00000E+00
         0.00000E+00
         0.00000E+00
         0.00000E+00
         0.00000E+00
         0.00000E+00
         0.00000E+00
         0.00000E+00
         0.00000E+00
         0.00000E+00
         0.00000E+00
         0.00000E+00
         0.00000E+00
         0.00000E+00
         0.00000E+00
         0.00000E+00
         0.00000E+00
         0.00000E+00
         0.00000E+00
         0.00000E+00
         0.00000E+00
         0.00000E+00
         0.00000E+00
         0.00000E+00
         0.00000E+00
         0.00000E+00
         0.00000E+00
         0.00000E+00
         0.00000E+00
         0.00000E+00
         0.00000E+00
         0.00000E+00
         0.00000E+00
         0.00000E+00
         0.00000E+00
         0.00000E+00
         0.00000E+00
         0.00000E+00
         0.00000E+00
         0.00000E+00
         0.00000E+00
         0.00000E+00
         0.00000E+00
         0.00000E+00
         0.00000E+00
         0.00000E+00
         0.00000E+00
         0.00000E+00
         0.00000E+00
         0.00000E+00
         0.00000E+00
         0.00000E+00
         0.00000E+00
         0.00000E+00
         0.00000E+00
         0.00000E+00
         0.00000E+00
         0.00000E+00
         0.00000E+00
         0.00000E+00
         0.00000E+00
         0.00000E+00
         0.00000E+00
         0.00000E+00
         0.00000E+00
         0.00000E+00
         0.00000E+00
         0.00000E+00
         0.00000E+00
         0.00000E+00
         0.00000E+00
         0.00000E+00
         0.00000E+00
         0.00000E+00
         0.00000E+00
         0.00000E+00
         0.00000E+00
         0.00000E+00
         0.00000E+00
         0.00000E+00
         0.00000E+00
         0.00000E+00
         0.00000E+00
         0.00000E+00
         0.00000E+00
         0.00000E+00
         0.00000E+00
         0.00000E+00
         0.00000E+00
         0.00000E+00
         0.00000E+00
         0.00000E+00
         0.00000E+00
         0.00000E+00
         0.00000E+00
         0.00000E+00
         0.00000E+00
         0.00000E+00
         0.00000E+00
         0.00000E+00
         0.00000E+00
         0.00000E+00
         0.00000E+00
         0.00000E+00
         0.00000E+00
         0.00000E+00
         0.00000E+00
         0.00000E+00
         0.00000E+00
         0.00000E+00
         0.00000E+00
         0.00000E+00
         0.00000E+00
         0.00000E+00
         0.00000E+00
         0.00000E+00
         0.00000E+00
         0.00000E+00
         0.00000E+00
         0.00000E+00
         0.00000E+00
         0.00000E+00
         0.00000E+00
         0.00000E+00
         0.00000E+00
         0.00000E+00
         0.00000E+00
         0.00000E+00
         0.00000E+00
         0.00000E+00
         0.00000E+00
         0.00000E+00
         0.00000E+00
         0.00000E+00
         0.00000E+00
         0.00000E+00
         0.00000E+00
         0.00000E+00
         0.00000E+00
         0.00000E+00
         0.00000E+00
         0.00000E+00
         0.00000E+00
         0.00000E+00
         0.00000E+00
         0.00000E+00
         0.00000E+00
         0.00000E+00
         0.00000E+00
         0.00000E+00
         0.00000E+00
         0.00000E+00
         0.00000E+00
         0.00000E+00
         0.00000E+00
         0.00000E+00
         0.00000E+00
         0.00000E+00
         0.00000E+00
         0.00000E+00
         0.00000E+00
         0.00000E+00
         0.00000E+00
         0.00000E+00
         0.00000E+00
         0.00000E+00
         0.00000E+00
         0.00000E+00
         0.00000E+00
         0.00000E+00
         0.00000E+00
         0.00000E+00
         0.00000E+00
         0.00000E+00
         0.00000E+00
         0.00000E+00
         0.00000E+00
         0.00000E+00
         0.00000E+00
         0.00000E+00
         0.00000E+00
         0.00000E+00
         0.00000E+00
         0.00000E+00
         0.00000E+00
         0.00000E+00
         0.00000E+00
         0.00000E+00
         0.00000E+00
         0.00000E+00
         0.00000E+00
         0.00000E+00
         0.00000E+00
         0.00000E+00
         0.00000E+00
         0.00000E+00
         0.00000E+00
         0.00000E+00
         0.00000E+00
         0.00000E+00
         0.00000E+00
         0.00000E+00
         0.00000E+00
         0.00000E+00
         0.00000E+00
         0.00000E+00
         0.00000E+00
         0.00000E+00
         0.00000E+00
         0.00000E+00
         0.00000E+00
         0.00000E+00
         0.00000E+00
         0.00000E+00
         0.00000E+00
         0.00000E+00
         0.00000E+00
         0.00000E+00
         0.00000E+00
         0.00000E+00
         0.00000E+00
         0.00000E+00
         0.00000E+00
         0.00000E+00
         0.00000E+00
         0.00000E+00
         0.00000E+00
         0.00000E+00
         0.00000E+00
         0.00000E+00
         0.00000E+00
         0.00000E+00
         0.00000E+00
         0.00000E+00
         0.00000E+00
         0.00000E+00
         0.00000E+00
         0.00000E+00
         0.00000E+00
         0.00000E+00
         0.00000E+00
         0.00000E+00
         0.00000E+00
         0.00000E+00
         0.00000E+00
         0.00000E+00
         0.00000E+00
         0.00000E+00
         0.00000E+00
         0.00000E+00
         0.00000E+00
         0.00000E+00
         0.00000E+00
         0.00000E+00
         0.00000E+00
         0.00000E+00
         0.00000E+00
         0.00000E+00
         0.00000E+00
         0.00000E+00
         0.00000E+00
         0.00000E+00
         0.00000E+00
         0.00000E+00
         0.00000E+00
         0.00000E+00
         0.00000E+00
         0.00000E+00
         0.00000E+00
         0.00000E+00
         0.00000E+00
         0.00000E+00
         0.00000E+00
         0.00000E+00
         0.00000E+00
         0.00000E+00
         0.00000E+00
         0.00000E+00
         0.00000E+00
         0.00000E+00
         0.00000E+00
         0.00000E+00
         0.00000E+00
         0.00000E+00
         0.00000E+00
         0.00000E+00
         0.00000E+00
         0.00000E+00
         0.00000E+00
         0.00000E+00
         0.00000E+00
         0.00000E+00
         0.00000E+00
         0.00000E+00
         0.00000E+00
         0.00000E+00
         0.00000E+00
         0.00000E+00
         0.00000E+00
         0.00000E+00
         0.00000E+00
         0.00000E+00
         0.00000E+00
         0.00000E+00
         0.00000E+00
         0.00000E+00
         0.00000E+00
         0.00000E+00
         0.00000E+00
         0.00000E+00
         0.00000E+00
         0.00000E+00
         0.00000E+00
         0.00000E+00
         0.00000E+00
         0.00000E+00
         0.00000E+00
         0.00000E+00
         0.00000E+00
         0.00000E+00
         0.00000E+00
         0.00000E+00
         0.00000E+00
         0.00000E+00
         0.00000E+00
         0.00000E+00
         0.00000E+00
         0.00000E+00
         0.00000E+00
         0.00000E+00
         0.00000E+00
         0.00000E+00
         0.00000E+00
         0.00000E+00
         0.00000E+00
         0.00000E+00
         0.00000E+00
         0.00000E+00
         0.00000E+00
         0.00000E+00
         0.00000E+00
         0.00000E+00
         0.00000E+00
         0.00000E+00
         0.00000E+00
         0.00000E+00
         0.00000E+00
         0.00000E+00
         0.00000E+00
         0.00000E+00
         0.00000E+00
         0.00000E+00
         0.00000E+00
         0.00000E+00
         0.00000E+00
         0.00000E+00
         0.00000E+00
         0.00000E+00
         0.00000E+00
         0.00000E+00
         0.00000E+00
         0.00000E+00
         0.00000E+00
         0.00000E+00
         0.00000E+00
         0.00000E+00
         0.00000E+00
         0.00000E+00
         0.00000E+00
         0.00000E+00
         0.00000E+00
         0.00000E+00
         0.00000E+00
         0.00000E+00
         0.00000E+00
         0.00000E+00
         0.00000E+00
         0.00000E+00
         0.00000E+00
         0.00000E+00
         0.00000E+00
         0.00000E+00
         0.00000E+00
         0.00000E+00
         0.00000E+00
         0.00000E+00
         0.00000E+00
         0.00000E+00
         0.00000E+00
         0.00000E+00
         0.00000E+00
         0.00000E+00
         0.00000E+00
         0.00000E+00
         0.00000E+00
         0.00000E+00
  
SCALARS                         fint_y  double 1
LOOKUP_TABLE default
         0.00000E+00
         0.00000E+00
         0.00000E+00
         0.00000E+00
         0.00000E+00
         0.00000E+00
         0.00000E+00
         0.00000E+00
         0.00000E+00
         0.00000E+00
         0.00000E+00
         0.00000E+00
         0.00000E+00
         0.00000E+00
         0.00000E+00
         0.00000E+00
         0.00000E+00
         0.00000E+00
         0.00000E+00
         0.00000E+00
         0.00000E+00
         0.00000E+00
         0.00000E+00
         0.00000E+00
         0.00000E+00
         0.00000E+00
         0.00000E+00
         0.00000E+00
         0.00000E+00
         0.00000E+00
         0.00000E+00
         0.00000E+00
         0.00000E+00
         0.00000E+00
         0.00000E+00
         0.00000E+00
         0.00000E+00
         0.00000E+00
         0.00000E+00
         0.00000E+00
         0.00000E+00
         0.00000E+00
         0.00000E+00
         0.00000E+00
         0.00000E+00
         0.00000E+00
         0.00000E+00
         0.00000E+00
         0.00000E+00
         0.00000E+00
         0.00000E+00
         0.00000E+00
         0.00000E+00
         0.00000E+00
         0.00000E+00
         0.00000E+00
         0.00000E+00
         0.00000E+00
         0.00000E+00
         0.00000E+00
         0.00000E+00
         0.00000E+00
         0.00000E+00
         0.00000E+00
         0.00000E+00
         0.00000E+00
         0.00000E+00
         0.00000E+00
         0.00000E+00
         0.00000E+00
         0.00000E+00
         0.00000E+00
         0.00000E+00
         0.00000E+00
         0.00000E+00
         0.00000E+00
         0.00000E+00
         0.00000E+00
         0.00000E+00
         0.00000E+00
         0.00000E+00
         0.00000E+00
         0.00000E+00
         0.00000E+00
         0.00000E+00
         0.00000E+00
         0.00000E+00
         0.00000E+00
         0.00000E+00
         0.00000E+00
         0.00000E+00
         0.00000E+00
         0.00000E+00
         0.00000E+00
         0.00000E+00
         0.00000E+00
         0.00000E+00
         0.00000E+00
         0.00000E+00
         0.00000E+00
         0.00000E+00
         0.00000E+00
         0.00000E+00
         0.00000E+00
         0.00000E+00
         0.00000E+00
         0.00000E+00
         0.00000E+00
         0.00000E+00
         0.00000E+00
         0.00000E+00
         0.00000E+00
         0.00000E+00
         0.00000E+00
         0.00000E+00
         0.00000E+00
         0.00000E+00
         0.00000E+00
         0.00000E+00
         0.00000E+00
         0.00000E+00
         0.00000E+00
         0.00000E+00
         0.00000E+00
         0.00000E+00
         0.00000E+00
         0.00000E+00
         0.00000E+00
         0.00000E+00
         0.00000E+00
         0.00000E+00
         0.00000E+00
         0.00000E+00
         0.00000E+00
         0.00000E+00
         0.00000E+00
         0.00000E+00
         0.00000E+00
         0.00000E+00
         0.00000E+00
         0.00000E+00
         0.00000E+00
         0.00000E+00
         0.00000E+00
         0.00000E+00
         0.00000E+00
         0.00000E+00
         0.00000E+00
         0.00000E+00
         0.00000E+00
         0.00000E+00
         0.00000E+00
         0.00000E+00
         0.00000E+00
         0.00000E+00
         0.00000E+00
         0.00000E+00
         0.00000E+00
         0.00000E+00
         0.00000E+00
         0.00000E+00
         0.00000E+00
         0.00000E+00
         0.00000E+00
         0.00000E+00
         0.00000E+00
         0.00000E+00
         0.00000E+00
         0.00000E+00
         0.00000E+00
         0.00000E+00
         0.00000E+00
         0.00000E+00
         0.00000E+00
         0.00000E+00
         0.00000E+00
         0.00000E+00
         0.00000E+00
         0.00000E+00
         0.00000E+00
         0.00000E+00
         0.00000E+00
         0.00000E+00
         0.00000E+00
         0.00000E+00
         0.00000E+00
         0.00000E+00
         0.00000E+00
         0.00000E+00
         0.00000E+00
         0.00000E+00
         0.00000E+00
         0.00000E+00
         0.00000E+00
         0.00000E+00
         0.00000E+00
         0.00000E+00
         0.00000E+00
         0.00000E+00
         0.00000E+00
         0.00000E+00
         0.00000E+00
         0.00000E+00
         0.00000E+00
         0.00000E+00
         0.00000E+00
         0.00000E+00
         0.00000E+00
         0.00000E+00
         0.00000E+00
         0.00000E+00
         0.00000E+00
         0.00000E+00
         0.00000E+00
         0.00000E+00
         0.00000E+00
         0.00000E+00
         0.00000E+00
         0.00000E+00
         0.00000E+00
         0.00000E+00
         0.00000E+00
         0.00000E+00
         0.00000E+00
         0.00000E+00
         0.00000E+00
         0.00000E+00
         0.00000E+00
         0.00000E+00
         0.00000E+00
         0.00000E+00
         0.00000E+00
         0.00000E+00
         0.00000E+00
         0.00000E+00
         0.00000E+00
         0.00000E+00
         0.00000E+00
         0.00000E+00
         0.00000E+00
         0.00000E+00
         0.00000E+00
         0.00000E+00
         0.00000E+00
         0.00000E+00
         0.00000E+00
         0.00000E+00
         0.00000E+00
         0.00000E+00
         0.00000E+00
         0.00000E+00
         0.00000E+00
         0.00000E+00
         0.00000E+00
         0.00000E+00
         0.00000E+00
         0.00000E+00
         0.00000E+00
         0.00000E+00
         0.00000E+00
         0.00000E+00
         0.00000E+00
         0.00000E+00
         0.00000E+00
         0.00000E+00
         0.00000E+00
         0.00000E+00
         0.00000E+00
         0.00000E+00
         0.00000E+00
         0.00000E+00
         0.00000E+00
         0.00000E+00
         0.00000E+00
         0.00000E+00
         0.00000E+00
         0.00000E+00
         0.00000E+00
         0.00000E+00
         0.00000E+00
         0.00000E+00
         0.00000E+00
         0.00000E+00
         0.00000E+00
         0.00000E+00
         0.00000E+00
         0.00000E+00
         0.00000E+00
         0.00000E+00
         0.00000E+00
         0.00000E+00
         0.00000E+00
         0.00000E+00
         0.00000E+00
         0.00000E+00
         0.00000E+00
         0.00000E+00
         0.00000E+00
         0.00000E+00
         0.00000E+00
         0.00000E+00
         0.00000E+00
         0.00000E+00
         0.00000E+00
         0.00000E+00
         0.00000E+00
         0.00000E+00
         0.00000E+00
         0.00000E+00
         0.00000E+00
         0.00000E+00
         0.00000E+00
         0.00000E+00
         0.00000E+00
         0.00000E+00
         0.00000E+00
         0.00000E+00
         0.00000E+00
         0.00000E+00
         0.00000E+00
         0.00000E+00
         0.00000E+00
         0.00000E+00
         0.00000E+00
         0.00000E+00
         0.00000E+00
         0.00000E+00
         0.00000E+00
         0.00000E+00
         0.00000E+00
         0.00000E+00
         0.00000E+00
         0.00000E+00
         0.00000E+00
         0.00000E+00
         0.00000E+00
         0.00000E+00
         0.00000E+00
         0.00000E+00
         0.00000E+00
         0.00000E+00
         0.00000E+00
         0.00000E+00
         0.00000E+00
         0.00000E+00
         0.00000E+00
         0.00000E+00
         0.00000E+00
         0.00000E+00
         0.00000E+00
         0.00000E+00
         0.00000E+00
         0.00000E+00
         0.00000E+00
         0.00000E+00
         0.00000E+00
         0.00000E+00
         0.00000E+00
         0.00000E+00
         0.00000E+00
         0.00000E+00
         0.00000E+00
         0.00000E+00
         0.00000E+00
         0.00000E+00
         0.00000E+00
         0.00000E+00
         0.00000E+00
         0.00000E+00
         0.00000E+00
         0.00000E+00
         0.00000E+00
         0.00000E+00
         0.00000E+00
         0.00000E+00
         0.00000E+00
         0.00000E+00
         0.00000E+00
         0.00000E+00
         0.00000E+00
         0.00000E+00
         0.00000E+00
         0.00000E+00
         0.00000E+00
         0.00000E+00
         0.00000E+00
         0.00000E+00
         0.00000E+00
         0.00000E+00
         0.00000E+00
         0.00000E+00
         0.00000E+00
         0.00000E+00
         0.00000E+00
         0.00000E+00
         0.00000E+00
         0.00000E+00
         0.00000E+00
         0.00000E+00
         0.00000E+00
         0.00000E+00
         0.00000E+00
         0.00000E+00
         0.00000E+00
         0.00000E+00
         0.00000E+00
         0.00000E+00
         0.00000E+00
         0.00000E+00
         0.00000E+00
         0.00000E+00
         0.00000E+00
         0.00000E+00
         0.00000E+00
         0.00000E+00
         0.00000E+00
         0.00000E+00
         0.00000E+00
         0.00000E+00
         0.00000E+00
         0.00000E+00
         0.00000E+00
         0.00000E+00
         0.00000E+00
         0.00000E+00
         0.00000E+00
         0.00000E+00
         0.00000E+00
         0.00000E+00
         0.00000E+00
         0.00000E+00
         0.00000E+00
         0.00000E+00
         0.00000E+00
         0.00000E+00
         0.00000E+00
         0.00000E+00
         0.00000E+00
         0.00000E+00
         0.00000E+00
         0.00000E+00
         0.00000E+00
         0.00000E+00
         0.00000E+00
         0.00000E+00
         0.00000E+00
         0.00000E+00
         0.00000E+00
         0.00000E+00
         0.00000E+00
         0.00000E+00
         0.00000E+00
         0.00000E+00
         0.00000E+00
         0.00000E+00
         0.00000E+00
         0.00000E+00
         0.00000E+00
         0.00000E+00
         0.00000E+00
         0.00000E+00
         0.00000E+00
         0.00000E+00
         0.00000E+00
         0.00000E+00
         0.00000E+00
         0.00000E+00
         0.00000E+00
         0.00000E+00
         0.00000E+00
         0.00000E+00
         0.00000E+00
         0.00000E+00
         0.00000E+00
         0.00000E+00
         0.00000E+00
         0.00000E+00
         0.00000E+00
         0.00000E+00
         0.00000E+00
         0.00000E+00
         0.00000E+00
         0.00000E+00
         0.00000E+00
         0.00000E+00
         0.00000E+00
         0.00000E+00
         0.00000E+00
         0.00000E+00
         0.00000E+00
         0.00000E+00
         0.00000E+00
         0.00000E+00
         0.00000E+00
         0.00000E+00
         0.00000E+00
         0.00000E+00
         0.00000E+00
         0.00000E+00
         0.00000E+00
         0.00000E+00
         0.00000E+00
         0.00000E+00
         0.00000E+00
         0.00000E+00
         0.00000E+00
         0.00000E+00
         0.00000E+00
         0.00000E+00
         0.00000E+00
         0.00000E+00
         0.00000E+00
         0.00000E+00
         0.00000E+00
         0.00000E+00
         0.00000E+00
         0.00000E+00
         0.00000E+00
         0.00000E+00
         0.00000E+00
         0.00000E+00
         0.00000E+00
         0.00000E+00
         0.00000E+00
         0.00000E+00
         0.00000E+00
         0.00000E+00
         0.00000E+00
         0.00000E+00
         0.00000E+00
         0.00000E+00
         0.00000E+00
         0.00000E+00
         0.00000E+00
         0.00000E+00
         0.00000E+00
         0.00000E+00
         0.00000E+00
         0.00000E+00
         0.00000E+00
         0.00000E+00
         0.00000E+00
         0.00000E+00
         0.00000E+00
         0.00000E+00
         0.00000E+00
         0.00000E+00
         0.00000E+00
         0.00000E+00
         0.00000E+00
         0.00000E+00
         0.00000E+00
         0.00000E+00
         0.00000E+00
         0.00000E+00
         0.00000E+00
         0.00000E+00
         0.00000E+00
         0.00000E+00
         0.00000E+00
         0.00000E+00
         0.00000E+00
         0.00000E+00
         0.00000E+00
         0.00000E+00
         0.00000E+00
         0.00000E+00
         0.00000E+00
         0.00000E+00
         0.00000E+00
         0.00000E+00
         0.00000E+00
         0.00000E+00
         0.00000E+00
         0.00000E+00
         0.00000E+00
         0.00000E+00
         0.00000E+00
         0.00000E+00
         0.00000E+00
         0.00000E+00
         0.00000E+00
         0.00000E+00
         0.00000E+00
         0.00000E+00
         0.00000E+00
         0.00000E+00
         0.00000E+00
         0.00000E+00
         0.00000E+00
         0.00000E+00
         0.00000E+00
         0.00000E+00
         0.00000E+00
         0.00000E+00
         0.00000E+00
         0.00000E+00
         0.00000E+00
         0.00000E+00
         0.00000E+00
         0.00000E+00
         0.00000E+00
         0.00000E+00
         0.00000E+00
         0.00000E+00
         0.00000E+00
         0.00000E+00
         0.00000E+00
         0.00000E+00
         0.00000E+00
         0.00000E+00
         0.00000E+00
         0.00000E+00
         0.00000E+00
         0.00000E+00
         0.00000E+00
         0.00000E+00
         0.00000E+00
         0.00000E+00
         0.00000E+00
         0.00000E+00
         0.00000E+00
         0.00000E+00
         0.00000E+00
         0.00000E+00
         0.00000E+00
         0.00000E+00
         0.00000E+00
         0.00000E+00
         0.00000E+00
         0.00000E+00
         0.00000E+00
         0.00000E+00
         0.00000E+00
         0.00000E+00
         0.00000E+00
         0.00000E+00
         0.00000E+00
         0.00000E+00
         0.00000E+00
         0.00000E+00
         0.00000E+00
         0.00000E+00
         0.00000E+00
         0.00000E+00
         0.00000E+00
         0.00000E+00
         0.00000E+00
         0.00000E+00
         0.00000E+00
         0.00000E+00
         0.00000E+00
         0.00000E+00
         0.00000E+00
         0.00000E+00
         0.00000E+00
         0.00000E+00
         0.00000E+00
         0.00000E+00
         0.00000E+00
         0.00000E+00
         0.00000E+00
         0.00000E+00
         0.00000E+00
         0.00000E+00
         0.00000E+00
         0.00000E+00
         0.00000E+00
         0.00000E+00
         0.00000E+00
         0.00000E+00
         0.00000E+00
         0.00000E+00
         0.00000E+00
         0.00000E+00
         0.00000E+00
         0.00000E+00
         0.00000E+00
         0.00000E+00
         0.00000E+00
         0.00000E+00
         0.00000E+00
         0.00000E+00
         0.00000E+00
         0.00000E+00
         0.00000E+00
         0.00000E+00
         0.00000E+00
         0.00000E+00
         0.00000E+00
         0.00000E+00
         0.00000E+00
         0.00000E+00
         0.00000E+00
         0.00000E+00
         0.00000E+00
         0.00000E+00
         0.00000E+00
         0.00000E+00
         0.00000E+00
         0.00000E+00
         0.00000E+00
         0.00000E+00
         0.00000E+00
         0.00000E+00
         0.00000E+00
         0.00000E+00
         0.00000E+00
         0.00000E+00
         0.00000E+00
         0.00000E+00
         0.00000E+00
         0.00000E+00
         0.00000E+00
         0.00000E+00
         0.00000E+00
         0.00000E+00
         0.00000E+00
         0.00000E+00
         0.00000E+00
         0.00000E+00
         0.00000E+00
         0.00000E+00
         0.00000E+00
         0.00000E+00
         0.00000E+00
         0.00000E+00
         0.00000E+00
         0.00000E+00
         0.00000E+00
         0.00000E+00
         0.00000E+00
         0.00000E+00
         0.00000E+00
         0.00000E+00
         0.00000E+00
         0.00000E+00
         0.00000E+00
         0.00000E+00
         0.00000E+00
         0.00000E+00
         0.00000E+00
         0.00000E+00
         0.00000E+00
         0.00000E+00
         0.00000E+00
         0.00000E+00
         0.00000E+00
         0.00000E+00
         0.00000E+00
         0.00000E+00
         0.00000E+00
         0.00000E+00
         0.00000E+00
         0.00000E+00
         0.00000E+00
         0.00000E+00
         0.00000E+00
         0.00000E+00
         0.00000E+00
         0.00000E+00
         0.00000E+00
         0.00000E+00
         0.00000E+00
         0.00000E+00
         0.00000E+00
         0.00000E+00
         0.00000E+00
         0.00000E+00
         0.00000E+00
         0.00000E+00
         0.00000E+00
         0.00000E+00
         0.00000E+00
         0.00000E+00
         0.00000E+00
         0.00000E+00
         0.00000E+00
         0.00000E+00
         0.00000E+00
         0.00000E+00
         0.00000E+00
         0.00000E+00
         0.00000E+00
         0.00000E+00
         0.00000E+00
         0.00000E+00
         0.00000E+00
         0.00000E+00
         0.00000E+00
         0.00000E+00
         0.00000E+00
         0.00000E+00
         0.00000E+00
         0.00000E+00
         0.00000E+00
         0.00000E+00
         0.00000E+00
         0.00000E+00
         0.00000E+00
         0.00000E+00
         0.00000E+00
         0.00000E+00
         0.00000E+00
         0.00000E+00
         0.00000E+00
         0.00000E+00
         0.00000E+00
         0.00000E+00
         0.00000E+00
         0.00000E+00
         0.00000E+00
         0.00000E+00
         0.00000E+00
         0.00000E+00
         0.00000E+00
         0.00000E+00
         0.00000E+00
         0.00000E+00
         0.00000E+00
         0.00000E+00
         0.00000E+00
         0.00000E+00
         0.00000E+00
         0.00000E+00
         0.00000E+00
         0.00000E+00
         0.00000E+00
         0.00000E+00
         0.00000E+00
         0.00000E+00
         0.00000E+00
         0.00000E+00
         0.00000E+00
         0.00000E+00
         0.00000E+00
         0.00000E+00
         0.00000E+00
         0.00000E+00
         0.00000E+00
         0.00000E+00
         0.00000E+00
         0.00000E+00
         0.00000E+00
         0.00000E+00
         0.00000E+00
         0.00000E+00
         0.00000E+00
         0.00000E+00
         0.00000E+00
         0.00000E+00
         0.00000E+00
         0.00000E+00
         0.00000E+00
         0.00000E+00
         0.00000E+00
         0.00000E+00
         0.00000E+00
         0.00000E+00
         0.00000E+00
         0.00000E+00
         0.00000E+00
         0.00000E+00
         0.00000E+00
         0.00000E+00
         0.00000E+00
         0.00000E+00
         0.00000E+00
         0.00000E+00
         0.00000E+00
         0.00000E+00
         0.00000E+00
         0.00000E+00
         0.00000E+00
         0.00000E+00
         0.00000E+00
         0.00000E+00
         0.00000E+00
         0.00000E+00
         0.00000E+00
         0.00000E+00
         0.00000E+00
         0.00000E+00
         0.00000E+00
         0.00000E+00
         0.00000E+00
         0.00000E+00
         0.00000E+00
         0.00000E+00
         0.00000E+00
         0.00000E+00
         0.00000E+00
         0.00000E+00
         0.00000E+00
         0.00000E+00
         0.00000E+00
         0.00000E+00
         0.00000E+00
         0.00000E+00
         0.00000E+00
         0.00000E+00
         0.00000E+00
         0.00000E+00
         0.00000E+00
         0.00000E+00
         0.00000E+00
         0.00000E+00
         0.00000E+00
         0.00000E+00
         0.00000E+00
         0.00000E+00
         0.00000E+00
         0.00000E+00
         0.00000E+00
         0.00000E+00
         0.00000E+00
         0.00000E+00
         0.00000E+00
         0.00000E+00
         0.00000E+00
         0.00000E+00
         0.00000E+00
         0.00000E+00
         0.00000E+00
         0.00000E+00
         0.00000E+00
         0.00000E+00
         0.00000E+00
         0.00000E+00
         0.00000E+00
         0.00000E+00
         0.00000E+00
         0.00000E+00
         0.00000E+00
         0.00000E+00
         0.00000E+00
         0.00000E+00
         0.00000E+00
         0.00000E+00
         0.00000E+00
         0.00000E+00
         0.00000E+00
         0.00000E+00
         0.00000E+00
         0.00000E+00
         0.00000E+00
         0.00000E+00
         0.00000E+00
         0.00000E+00
         0.00000E+00
         0.00000E+00
         0.00000E+00
         0.00000E+00
         0.00000E+00
         0.00000E+00
         0.00000E+00
         0.00000E+00
         0.00000E+00
         0.00000E+00
         0.00000E+00
         0.00000E+00
         0.00000E+00
         0.00000E+00
         0.00000E+00
         0.00000E+00
         0.00000E+00
         0.00000E+00
         0.00000E+00
         0.00000E+00
         0.00000E+00
         0.00000E+00
         0.00000E+00
         0.00000E+00
         0.00000E+00
         0.00000E+00
         0.00000E+00
         0.00000E+00
         0.00000E+00
         0.00000E+00
         0.00000E+00
         0.00000E+00
         0.00000E+00
         0.00000E+00
         0.00000E+00
         0.00000E+00
         0.00000E+00
         0.00000E+00
         0.00000E+00
         0.00000E+00
         0.00000E+00
         0.00000E+00
         0.00000E+00
         0.00000E+00
         0.00000E+00
         0.00000E+00
         0.00000E+00
         0.00000E+00
         0.00000E+00
         0.00000E+00
         0.00000E+00
         0.00000E+00
         0.00000E+00
         0.00000E+00
         0.00000E+00
         0.00000E+00
         0.00000E+00
         0.00000E+00
         0.00000E+00
         0.00000E+00
         0.00000E+00
         0.00000E+00
         0.00000E+00
         0.00000E+00
         0.00000E+00
         0.00000E+00
         0.00000E+00
         0.00000E+00
         0.00000E+00
         0.00000E+00
         0.00000E+00
         0.00000E+00
         0.00000E+00
         0.00000E+00
         0.00000E+00
         0.00000E+00
         0.00000E+00
         0.00000E+00
         0.00000E+00
         0.00000E+00
         0.00000E+00
         0.00000E+00
         0.00000E+00
         0.00000E+00
         0.00000E+00
         0.00000E+00
         0.00000E+00
         0.00000E+00
         0.00000E+00
         0.00000E+00
         0.00000E+00
         0.00000E+00
         0.00000E+00
         0.00000E+00
         0.00000E+00
         0.00000E+00
         0.00000E+00
         0.00000E+00
         0.00000E+00
         0.00000E+00
         0.00000E+00
         0.00000E+00
         0.00000E+00
         0.00000E+00
         0.00000E+00
         0.00000E+00
         0.00000E+00
         0.00000E+00
         0.00000E+00
         0.00000E+00
         0.00000E+00
         0.00000E+00
         0.00000E+00
         0.00000E+00
         0.00000E+00
         0.00000E+00
         0.00000E+00
         0.00000E+00
         0.00000E+00
         0.00000E+00
         0.00000E+00
         0.00000E+00
         0.00000E+00
         0.00000E+00
         0.00000E+00
         0.00000E+00
         0.00000E+00
         0.00000E+00
         0.00000E+00
         0.00000E+00
         0.00000E+00
         0.00000E+00
         0.00000E+00
         0.00000E+00
         0.00000E+00
         0.00000E+00
         0.00000E+00
         0.00000E+00
         0.00000E+00
         0.00000E+00
         0.00000E+00
         0.00000E+00
         0.00000E+00
         0.00000E+00
         0.00000E+00
         0.00000E+00
         0.00000E+00
         0.00000E+00
         0.00000E+00
         0.00000E+00
         0.00000E+00
         0.00000E+00
         0.00000E+00
         0.00000E+00
         0.00000E+00
         0.00000E+00
         0.00000E+00
         0.00000E+00
         0.00000E+00
         0.00000E+00
         0.00000E+00
         0.00000E+00
         0.00000E+00
         0.00000E+00
         0.00000E+00
         0.00000E+00
         0.00000E+00
         0.00000E+00
         0.00000E+00
         0.00000E+00
         0.00000E+00
         0.00000E+00
         0.00000E+00
         0.00000E+00
         0.00000E+00
         0.00000E+00
         0.00000E+00
         0.00000E+00
         0.00000E+00
         0.00000E+00
         0.00000E+00
         0.00000E+00
         0.00000E+00
         0.00000E+00
         0.00000E+00
         0.00000E+00
         0.00000E+00
         0.00000E+00
         0.00000E+00
         0.00000E+00
         0.00000E+00
         0.00000E+00
         0.00000E+00
         0.00000E+00
         0.00000E+00
         0.00000E+00
         0.00000E+00
         0.00000E+00
         0.00000E+00
         0.00000E+00
         0.00000E+00
         0.00000E+00
         0.00000E+00
         0.00000E+00
         0.00000E+00
         0.00000E+00
         0.00000E+00
         0.00000E+00
         0.00000E+00
         0.00000E+00
         0.00000E+00
         0.00000E+00
         0.00000E+00
         0.00000E+00
         0.00000E+00
         0.00000E+00
         0.00000E+00
         0.00000E+00
         0.00000E+00
         0.00000E+00
         0.00000E+00
         0.00000E+00
         0.00000E+00
         0.00000E+00
         0.00000E+00
         0.00000E+00
         0.00000E+00
         0.00000E+00
         0.00000E+00
         0.00000E+00
         0.00000E+00
         0.00000E+00
         0.00000E+00
         0.00000E+00
         0.00000E+00
         0.00000E+00
         0.00000E+00
         0.00000E+00
         0.00000E+00
         0.00000E+00
         0.00000E+00
         0.00000E+00
         0.00000E+00
         0.00000E+00
         0.00000E+00
         0.00000E+00
         0.00000E+00
         0.00000E+00
         0.00000E+00
         0.00000E+00
         0.00000E+00
         0.00000E+00
         0.00000E+00
         0.00000E+00
         0.00000E+00
         0.00000E+00
         0.00000E+00
         0.00000E+00
         0.00000E+00
         0.00000E+00
         0.00000E+00
         0.00000E+00
         0.00000E+00
         0.00000E+00
         0.00000E+00
         0.00000E+00
         0.00000E+00
         0.00000E+00
         0.00000E+00
         0.00000E+00
         0.00000E+00
         0.00000E+00
         0.00000E+00
         0.00000E+00
         0.00000E+00
         0.00000E+00
         0.00000E+00
         0.00000E+00
         0.00000E+00
         0.00000E+00
         0.00000E+00
         0.00000E+00
         0.00000E+00
         0.00000E+00
         0.00000E+00
         0.00000E+00
         0.00000E+00
         0.00000E+00
         0.00000E+00
         0.00000E+00
         0.00000E+00
         0.00000E+00
         0.00000E+00
         0.00000E+00
         0.00000E+00
         0.00000E+00
         0.00000E+00
         0.00000E+00
         0.00000E+00
         0.00000E+00
         0.00000E+00
         0.00000E+00
         0.00000E+00
         0.00000E+00
         0.00000E+00
         0.00000E+00
         0.00000E+00
         0.00000E+00
         0.00000E+00
         0.00000E+00
         0.00000E+00
         0.00000E+00
         0.00000E+00
         0.00000E+00
         0.00000E+00
         0.00000E+00
         0.00000E+00
         0.00000E+00
         0.00000E+00
         0.00000E+00
         0.00000E+00
         0.00000E+00
         0.00000E+00
         0.00000E+00
         0.00000E+00
         0.00000E+00
         0.00000E+00
         0.00000E+00
         0.00000E+00
         0.00000E+00
         0.00000E+00
         0.00000E+00
         0.00000E+00
         0.00000E+00
         0.00000E+00
         0.00000E+00
         0.00000E+00
         0.00000E+00
         0.00000E+00
         0.00000E+00
         0.00000E+00
         0.00000E+00
         0.00000E+00
         0.00000E+00
         0.00000E+00
         0.00000E+00
         0.00000E+00
         0.00000E+00
         0.00000E+00
         0.00000E+00
         0.00000E+00
         0.00000E+00
         0.00000E+00
         0.00000E+00
         0.00000E+00
         0.00000E+00
         0.00000E+00
         0.00000E+00
         0.00000E+00
         0.00000E+00
         0.00000E+00
         0.00000E+00
         0.00000E+00
         0.00000E+00
         0.00000E+00
         0.00000E+00
         0.00000E+00
         0.00000E+00
         0.00000E+00
         0.00000E+00
         0.00000E+00
         0.00000E+00
         0.00000E+00
         0.00000E+00
         0.00000E+00
         0.00000E+00
         0.00000E+00
         0.00000E+00
         0.00000E+00
         0.00000E+00
         0.00000E+00
         0.00000E+00
         0.00000E+00
         0.00000E+00
         0.00000E+00
         0.00000E+00
         0.00000E+00
         0.00000E+00
         0.00000E+00
         0.00000E+00
         0.00000E+00
         0.00000E+00
         0.00000E+00
         0.00000E+00
         0.00000E+00
         0.00000E+00
         0.00000E+00
         0.00000E+00
         0.00000E+00
         0.00000E+00
         0.00000E+00
         0.00000E+00
         0.00000E+00
         0.00000E+00
         0.00000E+00
         0.00000E+00
         0.00000E+00
         0.00000E+00
         0.00000E+00
         0.00000E+00
         0.00000E+00
         0.00000E+00
         0.00000E+00
         0.00000E+00
         0.00000E+00
         0.00000E+00
         0.00000E+00
         0.00000E+00
         0.00000E+00
         0.00000E+00
         0.00000E+00
         0.00000E+00
         0.00000E+00
         0.00000E+00
         0.00000E+00
         0.00000E+00
         0.00000E+00
         0.00000E+00
         0.00000E+00
         0.00000E+00
         0.00000E+00
         0.00000E+00
         0.00000E+00
         0.00000E+00
         0.00000E+00
         0.00000E+00
         0.00000E+00
         0.00000E+00
         0.00000E+00
         0.00000E+00
         0.00000E+00
         0.00000E+00
         0.00000E+00
         0.00000E+00
         0.00000E+00
         0.00000E+00
         0.00000E+00
         0.00000E+00
         0.00000E+00
         0.00000E+00
         0.00000E+00
         0.00000E+00
         0.00000E+00
         0.00000E+00
         0.00000E+00
         0.00000E+00
         0.00000E+00
         0.00000E+00
         0.00000E+00
         0.00000E+00
         0.00000E+00
         0.00000E+00
         0.00000E+00
         0.00000E+00
         0.00000E+00
         0.00000E+00
         0.00000E+00
         0.00000E+00
         0.00000E+00
         0.00000E+00
         0.00000E+00
         0.00000E+00
         0.00000E+00
         0.00000E+00
         0.00000E+00
         0.00000E+00
         0.00000E+00
         0.00000E+00
         0.00000E+00
         0.00000E+00
         0.00000E+00
         0.00000E+00
         0.00000E+00
         0.00000E+00
         0.00000E+00
         0.00000E+00
         0.00000E+00
         0.00000E+00
         0.00000E+00
         0.00000E+00
         0.00000E+00
         0.00000E+00
         0.00000E+00
         0.00000E+00
         0.00000E+00
         0.00000E+00
         0.00000E+00
         0.00000E+00
         0.00000E+00
         0.00000E+00
         0.00000E+00
         0.00000E+00
         0.00000E+00
         0.00000E+00
         0.00000E+00
         0.00000E+00
         0.00000E+00
         0.00000E+00
         0.00000E+00
         0.00000E+00
         0.00000E+00
         0.00000E+00
         0.00000E+00
         0.00000E+00
         0.00000E+00
         0.00000E+00
         0.00000E+00
         0.00000E+00
         0.00000E+00
         0.00000E+00
         0.00000E+00
         0.00000E+00
         0.00000E+00
         0.00000E+00
         0.00000E+00
         0.00000E+00
         0.00000E+00
         0.00000E+00
         0.00000E+00
         0.00000E+00
         0.00000E+00
         0.00000E+00
         0.00000E+00
         0.00000E+00
         0.00000E+00
         0.00000E+00
         0.00000E+00
         0.00000E+00
         0.00000E+00
         0.00000E+00
         0.00000E+00
         0.00000E+00
         0.00000E+00
         0.00000E+00
         0.00000E+00
         0.00000E+00
         0.00000E+00
         0.00000E+00
         0.00000E+00
         0.00000E+00
         0.00000E+00
         0.00000E+00
         0.00000E+00
         0.00000E+00
         0.00000E+00
         0.00000E+00
         0.00000E+00
         0.00000E+00
         0.00000E+00
         0.00000E+00
         0.00000E+00
         0.00000E+00
         0.00000E+00
         0.00000E+00
         0.00000E+00
         0.00000E+00
         0.00000E+00
         0.00000E+00
         0.00000E+00
         0.00000E+00
         0.00000E+00
         0.00000E+00
         0.00000E+00
         0.00000E+00
         0.00000E+00
         0.00000E+00
         0.00000E+00
         0.00000E+00
         0.00000E+00
         0.00000E+00
         0.00000E+00
         0.00000E+00
         0.00000E+00
         0.00000E+00
         0.00000E+00
         0.00000E+00
         0.00000E+00
         0.00000E+00
         0.00000E+00
         0.00000E+00
         0.00000E+00
         0.00000E+00
         0.00000E+00
         0.00000E+00
         0.00000E+00
         0.00000E+00
         0.00000E+00
         0.00000E+00
         0.00000E+00
         0.00000E+00
         0.00000E+00
         0.00000E+00
         0.00000E+00
         0.00000E+00
         0.00000E+00
         0.00000E+00
         0.00000E+00
         0.00000E+00
         0.00000E+00
         0.00000E+00
         0.00000E+00
         0.00000E+00
         0.00000E+00
         0.00000E+00
         0.00000E+00
         0.00000E+00
         0.00000E+00
         0.00000E+00
         0.00000E+00
         0.00000E+00
         0.00000E+00
         0.00000E+00
         0.00000E+00
         0.00000E+00
         0.00000E+00
         0.00000E+00
         0.00000E+00
         0.00000E+00
         0.00000E+00
         0.00000E+00
         0.00000E+00
         0.00000E+00
         0.00000E+00
         0.00000E+00
         0.00000E+00
         0.00000E+00
         0.00000E+00
         0.00000E+00
         0.00000E+00
         0.00000E+00
         0.00000E+00
         0.00000E+00
         0.00000E+00
         0.00000E+00
         0.00000E+00
         0.00000E+00
         0.00000E+00
         0.00000E+00
         0.00000E+00
         0.00000E+00
         0.00000E+00
         0.00000E+00
         0.00000E+00
         0.00000E+00
         0.00000E+00
         0.00000E+00
         0.00000E+00
         0.00000E+00
         0.00000E+00
         0.00000E+00
         0.00000E+00
         0.00000E+00
         0.00000E+00
         0.00000E+00
         0.00000E+00
         0.00000E+00
         0.00000E+00
         0.00000E+00
         0.00000E+00
         0.00000E+00
         0.00000E+00
         0.00000E+00
         0.00000E+00
         0.00000E+00
         0.00000E+00
         0.00000E+00
         0.00000E+00
         0.00000E+00
         0.00000E+00
         0.00000E+00
         0.00000E+00
         0.00000E+00
         0.00000E+00
         0.00000E+00
         0.00000E+00
         0.00000E+00
         0.00000E+00
         0.00000E+00
         0.00000E+00
         0.00000E+00
         0.00000E+00
         0.00000E+00
         0.00000E+00
         0.00000E+00
         0.00000E+00
         0.00000E+00
         0.00000E+00
         0.00000E+00
         0.00000E+00
         0.00000E+00
         0.00000E+00
         0.00000E+00
         0.00000E+00
         0.00000E+00
         0.00000E+00
         0.00000E+00
         0.00000E+00
         0.00000E+00
         0.00000E+00
         0.00000E+00
         0.00000E+00
         0.00000E+00
         0.00000E+00
         0.00000E+00
         0.00000E+00
         0.00000E+00
         0.00000E+00
         0.00000E+00
         0.00000E+00
         0.00000E+00
         0.00000E+00
         0.00000E+00
         0.00000E+00
         0.00000E+00
         0.00000E+00
         0.00000E+00
         0.00000E+00
         0.00000E+00
         0.00000E+00
         0.00000E+00
         0.00000E+00
         0.00000E+00
         0.00000E+00
         0.00000E+00
         0.00000E+00
         0.00000E+00
         0.00000E+00
         0.00000E+00
         0.00000E+00
         0.00000E+00
         0.00000E+00
         0.00000E+00
         0.00000E+00
         0.00000E+00
         0.00000E+00
         0.00000E+00
         0.00000E+00
         0.00000E+00
         0.00000E+00
         0.00000E+00
         0.00000E+00
         0.00000E+00
         0.00000E+00
         0.00000E+00
         0.00000E+00
         0.00000E+00
         0.00000E+00
         0.00000E+00
         0.00000E+00
         0.00000E+00
         0.00000E+00
         0.00000E+00
         0.00000E+00
         0.00000E+00
         0.00000E+00
         0.00000E+00
         0.00000E+00
         0.00000E+00
         0.00000E+00
         0.00000E+00
         0.00000E+00
         0.00000E+00
         0.00000E+00
         0.00000E+00
         0.00000E+00
         0.00000E+00
         0.00000E+00
         0.00000E+00
         0.00000E+00
         0.00000E+00
         0.00000E+00
         0.00000E+00
         0.00000E+00
         0.00000E+00
         0.00000E+00
         0.00000E+00
         0.00000E+00
         0.00000E+00
         0.00000E+00
         0.00000E+00
         0.00000E+00
         0.00000E+00
         0.00000E+00
         0.00000E+00
         0.00000E+00
         0.00000E+00
         0.00000E+00
         0.00000E+00
         0.00000E+00
         0.00000E+00
         0.00000E+00
         0.00000E+00
         0.00000E+00
         0.00000E+00
         0.00000E+00
         0.00000E+00
         0.00000E+00
         0.00000E+00
         0.00000E+00
         0.00000E+00
         0.00000E+00
         0.00000E+00
         0.00000E+00
         0.00000E+00
         0.00000E+00
         0.00000E+00
         0.00000E+00
         0.00000E+00
         0.00000E+00
         0.00000E+00
         0.00000E+00
         0.00000E+00
         0.00000E+00
         0.00000E+00
         0.00000E+00
         0.00000E+00
         0.00000E+00
         0.00000E+00
         0.00000E+00
         0.00000E+00
         0.00000E+00
         0.00000E+00
         0.00000E+00
         0.00000E+00
         0.00000E+00
         0.00000E+00
         0.00000E+00
         0.00000E+00
         0.00000E+00
         0.00000E+00
         0.00000E+00
         0.00000E+00
         0.00000E+00
         0.00000E+00
         0.00000E+00
         0.00000E+00
         0.00000E+00
         0.00000E+00
         0.00000E+00
         0.00000E+00
         0.00000E+00
         0.00000E+00
         0.00000E+00
         0.00000E+00
         0.00000E+00
         0.00000E+00
         0.00000E+00
         0.00000E+00
         0.00000E+00
         0.00000E+00
         0.00000E+00
         0.00000E+00
         0.00000E+00
         0.00000E+00
         0.00000E+00
         0.00000E+00
         0.00000E+00
         0.00000E+00
         0.00000E+00
         0.00000E+00
         0.00000E+00
         0.00000E+00
         0.00000E+00
         0.00000E+00
         0.00000E+00
         0.00000E+00
         0.00000E+00
         0.00000E+00
         0.00000E+00
         0.00000E+00
         0.00000E+00
         0.00000E+00
         0.00000E+00
         0.00000E+00
         0.00000E+00
         0.00000E+00
         0.00000E+00
         0.00000E+00
         0.00000E+00
         0.00000E+00
         0.00000E+00
         0.00000E+00
         0.00000E+00
         0.00000E+00
         0.00000E+00
         0.00000E+00
         0.00000E+00
         0.00000E+00
         0.00000E+00
         0.00000E+00
         0.00000E+00
         0.00000E+00
         0.00000E+00
         0.00000E+00
         0.00000E+00
         0.00000E+00
         0.00000E+00
         0.00000E+00
         0.00000E+00
         0.00000E+00
         0.00000E+00
         0.00000E+00
         0.00000E+00
         0.00000E+00
         0.00000E+00
         0.00000E+00
         0.00000E+00
         0.00000E+00
         0.00000E+00
         0.00000E+00
         0.00000E+00
         0.00000E+00
         0.00000E+00
         0.00000E+00
         0.00000E+00
         0.00000E+00
         0.00000E+00
         0.00000E+00
         0.00000E+00
         0.00000E+00
         0.00000E+00
         0.00000E+00
         0.00000E+00
         0.00000E+00
         0.00000E+00
         0.00000E+00
         0.00000E+00
         0.00000E+00
         0.00000E+00
         0.00000E+00
         0.00000E+00
         0.00000E+00
         0.00000E+00
         0.00000E+00
         0.00000E+00
         0.00000E+00
         0.00000E+00
         0.00000E+00
         0.00000E+00
         0.00000E+00
         0.00000E+00
         0.00000E+00
         0.00000E+00
         0.00000E+00
         0.00000E+00
         0.00000E+00
         0.00000E+00
         0.00000E+00
         0.00000E+00
         0.00000E+00
         0.00000E+00
         0.00000E+00
         0.00000E+00
         0.00000E+00
         0.00000E+00
         0.00000E+00
         0.00000E+00
         0.00000E+00
         0.00000E+00
         0.00000E+00
         0.00000E+00
         0.00000E+00
         0.00000E+00
         0.00000E+00
         0.00000E+00
         0.00000E+00
         0.00000E+00
         0.00000E+00
         0.00000E+00
         0.00000E+00
         0.00000E+00
         0.00000E+00
         0.00000E+00
         0.00000E+00
         0.00000E+00
         0.00000E+00
         0.00000E+00
         0.00000E+00
         0.00000E+00
         0.00000E+00
         0.00000E+00
         0.00000E+00
         0.00000E+00
         0.00000E+00
         0.00000E+00
         0.00000E+00
         0.00000E+00
         0.00000E+00
         0.00000E+00
         0.00000E+00
         0.00000E+00
  
SCALARS                         fint_z  double 1
LOOKUP_TABLE default
         0.00000E+00
         0.00000E+00
         0.00000E+00
         0.00000E+00
         0.00000E+00
         0.00000E+00
         0.00000E+00
         0.00000E+00
         0.00000E+00
         0.00000E+00
         0.00000E+00
         0.00000E+00
         0.00000E+00
         0.00000E+00
         0.00000E+00
         0.00000E+00
         0.00000E+00
         0.00000E+00
         0.00000E+00
         0.00000E+00
         0.00000E+00
         0.00000E+00
         0.00000E+00
         0.00000E+00
         0.00000E+00
         0.00000E+00
         0.00000E+00
         0.00000E+00
         0.00000E+00
         0.00000E+00
         0.00000E+00
         0.00000E+00
         0.00000E+00
         0.00000E+00
         0.00000E+00
         0.00000E+00
         0.00000E+00
         0.00000E+00
         0.00000E+00
         0.00000E+00
         0.00000E+00
         0.00000E+00
         0.00000E+00
         0.00000E+00
         0.00000E+00
         0.00000E+00
         0.00000E+00
         0.00000E+00
         0.00000E+00
         0.00000E+00
         0.00000E+00
         0.00000E+00
         0.00000E+00
         0.00000E+00
         0.00000E+00
         0.00000E+00
         0.00000E+00
         0.00000E+00
         0.00000E+00
         0.00000E+00
         0.00000E+00
         0.00000E+00
         0.00000E+00
         0.00000E+00
         0.00000E+00
         0.00000E+00
         0.00000E+00
         0.00000E+00
         0.00000E+00
         0.00000E+00
         0.00000E+00
         0.00000E+00
         0.00000E+00
         0.00000E+00
         0.00000E+00
         0.00000E+00
         0.00000E+00
         0.00000E+00
         0.00000E+00
         0.00000E+00
         0.00000E+00
         0.00000E+00
         0.00000E+00
         0.00000E+00
         0.00000E+00
         0.00000E+00
         0.00000E+00
         0.00000E+00
         0.00000E+00
         0.00000E+00
         0.00000E+00
         0.00000E+00
         0.00000E+00
         0.00000E+00
         0.00000E+00
         0.00000E+00
         0.00000E+00
         0.00000E+00
         0.00000E+00
         0.00000E+00
         0.00000E+00
         0.00000E+00
         0.00000E+00
         0.00000E+00
         0.00000E+00
         0.00000E+00
         0.00000E+00
         0.00000E+00
         0.00000E+00
         0.00000E+00
         0.00000E+00
         0.00000E+00
         0.00000E+00
         0.00000E+00
         0.00000E+00
         0.00000E+00
         0.00000E+00
         0.00000E+00
         0.00000E+00
         0.00000E+00
         0.00000E+00
         0.00000E+00
         0.00000E+00
         0.00000E+00
         0.00000E+00
         0.00000E+00
         0.00000E+00
         0.00000E+00
         0.00000E+00
         0.00000E+00
         0.00000E+00
         0.00000E+00
         0.00000E+00
         0.00000E+00
         0.00000E+00
         0.00000E+00
         0.00000E+00
         0.00000E+00
         0.00000E+00
         0.00000E+00
         0.00000E+00
         0.00000E+00
         0.00000E+00
         0.00000E+00
         0.00000E+00
         0.00000E+00
         0.00000E+00
         0.00000E+00
         0.00000E+00
         0.00000E+00
         0.00000E+00
         0.00000E+00
         0.00000E+00
         0.00000E+00
         0.00000E+00
         0.00000E+00
         0.00000E+00
         0.00000E+00
         0.00000E+00
         0.00000E+00
         0.00000E+00
         0.00000E+00
         0.00000E+00
         0.00000E+00
         0.00000E+00
         0.00000E+00
         0.00000E+00
         0.00000E+00
         0.00000E+00
         0.00000E+00
         0.00000E+00
         0.00000E+00
         0.00000E+00
         0.00000E+00
         0.00000E+00
         0.00000E+00
         0.00000E+00
         0.00000E+00
         0.00000E+00
         0.00000E+00
         0.00000E+00
         0.00000E+00
         0.00000E+00
         0.00000E+00
         0.00000E+00
         0.00000E+00
         0.00000E+00
         0.00000E+00
         0.00000E+00
         0.00000E+00
         0.00000E+00
         0.00000E+00
         0.00000E+00
         0.00000E+00
         0.00000E+00
         0.00000E+00
         0.00000E+00
         0.00000E+00
         0.00000E+00
         0.00000E+00
         0.00000E+00
         0.00000E+00
         0.00000E+00
         0.00000E+00
         0.00000E+00
         0.00000E+00
         0.00000E+00
         0.00000E+00
         0.00000E+00
         0.00000E+00
         0.00000E+00
         0.00000E+00
         0.00000E+00
         0.00000E+00
         0.00000E+00
         0.00000E+00
         0.00000E+00
         0.00000E+00
         0.00000E+00
         0.00000E+00
         0.00000E+00
         0.00000E+00
         0.00000E+00
         0.00000E+00
         0.00000E+00
         0.00000E+00
         0.00000E+00
         0.00000E+00
         0.00000E+00
         0.00000E+00
         0.00000E+00
         0.00000E+00
         0.00000E+00
         0.00000E+00
         0.00000E+00
         0.00000E+00
         0.00000E+00
         0.00000E+00
         0.00000E+00
         0.00000E+00
         0.00000E+00
         0.00000E+00
         0.00000E+00
         0.00000E+00
         0.00000E+00
         0.00000E+00
         0.00000E+00
         0.00000E+00
         0.00000E+00
         0.00000E+00
         0.00000E+00
         0.00000E+00
         0.00000E+00
         0.00000E+00
         0.00000E+00
         0.00000E+00
         0.00000E+00
         0.00000E+00
         0.00000E+00
         0.00000E+00
         0.00000E+00
         0.00000E+00
         0.00000E+00
         0.00000E+00
         0.00000E+00
         0.00000E+00
         0.00000E+00
         0.00000E+00
         0.00000E+00
         0.00000E+00
         0.00000E+00
         0.00000E+00
         0.00000E+00
         0.00000E+00
         0.00000E+00
         0.00000E+00
         0.00000E+00
         0.00000E+00
         0.00000E+00
         0.00000E+00
         0.00000E+00
         0.00000E+00
         0.00000E+00
         0.00000E+00
         0.00000E+00
         0.00000E+00
         0.00000E+00
         0.00000E+00
         0.00000E+00
         0.00000E+00
         0.00000E+00
         0.00000E+00
         0.00000E+00
         0.00000E+00
         0.00000E+00
         0.00000E+00
         0.00000E+00
         0.00000E+00
         0.00000E+00
         0.00000E+00
         0.00000E+00
         0.00000E+00
         0.00000E+00
         0.00000E+00
         0.00000E+00
         0.00000E+00
         0.00000E+00
         0.00000E+00
         0.00000E+00
         0.00000E+00
         0.00000E+00
         0.00000E+00
         0.00000E+00
         0.00000E+00
         0.00000E+00
         0.00000E+00
         0.00000E+00
         0.00000E+00
         0.00000E+00
         0.00000E+00
         0.00000E+00
         0.00000E+00
         0.00000E+00
         0.00000E+00
         0.00000E+00
         0.00000E+00
         0.00000E+00
         0.00000E+00
         0.00000E+00
         0.00000E+00
         0.00000E+00
         0.00000E+00
         0.00000E+00
         0.00000E+00
         0.00000E+00
         0.00000E+00
         0.00000E+00
         0.00000E+00
         0.00000E+00
         0.00000E+00
         0.00000E+00
         0.00000E+00
         0.00000E+00
         0.00000E+00
         0.00000E+00
         0.00000E+00
         0.00000E+00
         0.00000E+00
         0.00000E+00
         0.00000E+00
         0.00000E+00
         0.00000E+00
         0.00000E+00
         0.00000E+00
         0.00000E+00
         0.00000E+00
         0.00000E+00
         0.00000E+00
         0.00000E+00
         0.00000E+00
         0.00000E+00
         0.00000E+00
         0.00000E+00
         0.00000E+00
         0.00000E+00
         0.00000E+00
         0.00000E+00
         0.00000E+00
         0.00000E+00
         0.00000E+00
         0.00000E+00
         0.00000E+00
         0.00000E+00
         0.00000E+00
         0.00000E+00
         0.00000E+00
         0.00000E+00
         0.00000E+00
         0.00000E+00
         0.00000E+00
         0.00000E+00
         0.00000E+00
         0.00000E+00
         0.00000E+00
         0.00000E+00
         0.00000E+00
         0.00000E+00
         0.00000E+00
         0.00000E+00
         0.00000E+00
         0.00000E+00
         0.00000E+00
         0.00000E+00
         0.00000E+00
         0.00000E+00
         0.00000E+00
         0.00000E+00
         0.00000E+00
         0.00000E+00
         0.00000E+00
         0.00000E+00
         0.00000E+00
         0.00000E+00
         0.00000E+00
         0.00000E+00
         0.00000E+00
         0.00000E+00
         0.00000E+00
         0.00000E+00
         0.00000E+00
         0.00000E+00
         0.00000E+00
         0.00000E+00
         0.00000E+00
         0.00000E+00
         0.00000E+00
         0.00000E+00
         0.00000E+00
         0.00000E+00
         0.00000E+00
         0.00000E+00
         0.00000E+00
         0.00000E+00
         0.00000E+00
         0.00000E+00
         0.00000E+00
         0.00000E+00
         0.00000E+00
         0.00000E+00
         0.00000E+00
         0.00000E+00
         0.00000E+00
         0.00000E+00
         0.00000E+00
         0.00000E+00
         0.00000E+00
         0.00000E+00
         0.00000E+00
         0.00000E+00
         0.00000E+00
         0.00000E+00
         0.00000E+00
         0.00000E+00
         0.00000E+00
         0.00000E+00
         0.00000E+00
         0.00000E+00
         0.00000E+00
         0.00000E+00
         0.00000E+00
         0.00000E+00
         0.00000E+00
         0.00000E+00
         0.00000E+00
         0.00000E+00
         0.00000E+00
         0.00000E+00
         0.00000E+00
         0.00000E+00
         0.00000E+00
         0.00000E+00
         0.00000E+00
         0.00000E+00
         0.00000E+00
         0.00000E+00
         0.00000E+00
         0.00000E+00
         0.00000E+00
         0.00000E+00
         0.00000E+00
         0.00000E+00
         0.00000E+00
         0.00000E+00
         0.00000E+00
         0.00000E+00
         0.00000E+00
         0.00000E+00
         0.00000E+00
         0.00000E+00
         0.00000E+00
         0.00000E+00
         0.00000E+00
         0.00000E+00
         0.00000E+00
         0.00000E+00
         0.00000E+00
         0.00000E+00
         0.00000E+00
         0.00000E+00
         0.00000E+00
         0.00000E+00
         0.00000E+00
         0.00000E+00
         0.00000E+00
         0.00000E+00
         0.00000E+00
         0.00000E+00
         0.00000E+00
         0.00000E+00
         0.00000E+00
         0.00000E+00
         0.00000E+00
         0.00000E+00
         0.00000E+00
         0.00000E+00
         0.00000E+00
         0.00000E+00
         0.00000E+00
         0.00000E+00
         0.00000E+00
         0.00000E+00
         0.00000E+00
         0.00000E+00
         0.00000E+00
         0.00000E+00
         0.00000E+00
         0.00000E+00
         0.00000E+00
         0.00000E+00
         0.00000E+00
         0.00000E+00
         0.00000E+00
         0.00000E+00
         0.00000E+00
         0.00000E+00
         0.00000E+00
         0.00000E+00
         0.00000E+00
         0.00000E+00
         0.00000E+00
         0.00000E+00
         0.00000E+00
         0.00000E+00
         0.00000E+00
         0.00000E+00
         0.00000E+00
         0.00000E+00
         0.00000E+00
         0.00000E+00
         0.00000E+00
         0.00000E+00
         0.00000E+00
         0.00000E+00
         0.00000E+00
         0.00000E+00
         0.00000E+00
         0.00000E+00
         0.00000E+00
         0.00000E+00
         0.00000E+00
         0.00000E+00
         0.00000E+00
         0.00000E+00
         0.00000E+00
         0.00000E+00
         0.00000E+00
         0.00000E+00
         0.00000E+00
         0.00000E+00
         0.00000E+00
         0.00000E+00
         0.00000E+00
         0.00000E+00
         0.00000E+00
         0.00000E+00
         0.00000E+00
         0.00000E+00
         0.00000E+00
         0.00000E+00
         0.00000E+00
         0.00000E+00
         0.00000E+00
         0.00000E+00
         0.00000E+00
         0.00000E+00
         0.00000E+00
         0.00000E+00
         0.00000E+00
         0.00000E+00
         0.00000E+00
         0.00000E+00
         0.00000E+00
         0.00000E+00
         0.00000E+00
         0.00000E+00
         0.00000E+00
         0.00000E+00
         0.00000E+00
         0.00000E+00
         0.00000E+00
         0.00000E+00
         0.00000E+00
         0.00000E+00
         0.00000E+00
         0.00000E+00
         0.00000E+00
         0.00000E+00
         0.00000E+00
         0.00000E+00
         0.00000E+00
         0.00000E+00
         0.00000E+00
         0.00000E+00
         0.00000E+00
         0.00000E+00
         0.00000E+00
         0.00000E+00
         0.00000E+00
         0.00000E+00
         0.00000E+00
         0.00000E+00
         0.00000E+00
         0.00000E+00
         0.00000E+00
         0.00000E+00
         0.00000E+00
         0.00000E+00
         0.00000E+00
         0.00000E+00
         0.00000E+00
         0.00000E+00
         0.00000E+00
         0.00000E+00
         0.00000E+00
         0.00000E+00
         0.00000E+00
         0.00000E+00
         0.00000E+00
         0.00000E+00
         0.00000E+00
         0.00000E+00
         0.00000E+00
         0.00000E+00
         0.00000E+00
         0.00000E+00
         0.00000E+00
         0.00000E+00
         0.00000E+00
         0.00000E+00
         0.00000E+00
         0.00000E+00
         0.00000E+00
         0.00000E+00
         0.00000E+00
         0.00000E+00
         0.00000E+00
         0.00000E+00
         0.00000E+00
         0.00000E+00
         0.00000E+00
         0.00000E+00
         0.00000E+00
         0.00000E+00
         0.00000E+00
         0.00000E+00
         0.00000E+00
         0.00000E+00
         0.00000E+00
         0.00000E+00
         0.00000E+00
         0.00000E+00
         0.00000E+00
         0.00000E+00
         0.00000E+00
         0.00000E+00
         0.00000E+00
         0.00000E+00
         0.00000E+00
         0.00000E+00
         0.00000E+00
         0.00000E+00
         0.00000E+00
         0.00000E+00
         0.00000E+00
         0.00000E+00
         0.00000E+00
         0.00000E+00
         0.00000E+00
         0.00000E+00
         0.00000E+00
         0.00000E+00
         0.00000E+00
         0.00000E+00
         0.00000E+00
         0.00000E+00
         0.00000E+00
         0.00000E+00
         0.00000E+00
         0.00000E+00
         0.00000E+00
         0.00000E+00
         0.00000E+00
         0.00000E+00
         0.00000E+00
         0.00000E+00
         0.00000E+00
         0.00000E+00
         0.00000E+00
         0.00000E+00
         0.00000E+00
         0.00000E+00
         0.00000E+00
         0.00000E+00
         0.00000E+00
         0.00000E+00
         0.00000E+00
         0.00000E+00
         0.00000E+00
         0.00000E+00
         0.00000E+00
         0.00000E+00
         0.00000E+00
         0.00000E+00
         0.00000E+00
         0.00000E+00
         0.00000E+00
         0.00000E+00
         0.00000E+00
         0.00000E+00
         0.00000E+00
         0.00000E+00
         0.00000E+00
         0.00000E+00
         0.00000E+00
         0.00000E+00
         0.00000E+00
         0.00000E+00
         0.00000E+00
         0.00000E+00
         0.00000E+00
         0.00000E+00
         0.00000E+00
         0.00000E+00
         0.00000E+00
         0.00000E+00
         0.00000E+00
         0.00000E+00
         0.00000E+00
         0.00000E+00
         0.00000E+00
         0.00000E+00
         0.00000E+00
         0.00000E+00
         0.00000E+00
         0.00000E+00
         0.00000E+00
         0.00000E+00
         0.00000E+00
         0.00000E+00
         0.00000E+00
         0.00000E+00
         0.00000E+00
         0.00000E+00
         0.00000E+00
         0.00000E+00
         0.00000E+00
         0.00000E+00
         0.00000E+00
         0.00000E+00
         0.00000E+00
         0.00000E+00
         0.00000E+00
         0.00000E+00
         0.00000E+00
         0.00000E+00
         0.00000E+00
         0.00000E+00
         0.00000E+00
         0.00000E+00
         0.00000E+00
         0.00000E+00
         0.00000E+00
         0.00000E+00
         0.00000E+00
         0.00000E+00
         0.00000E+00
         0.00000E+00
         0.00000E+00
         0.00000E+00
         0.00000E+00
         0.00000E+00
         0.00000E+00
         0.00000E+00
         0.00000E+00
         0.00000E+00
         0.00000E+00
         0.00000E+00
         0.00000E+00
         0.00000E+00
         0.00000E+00
         0.00000E+00
         0.00000E+00
         0.00000E+00
         0.00000E+00
         0.00000E+00
         0.00000E+00
         0.00000E+00
         0.00000E+00
         0.00000E+00
         0.00000E+00
         0.00000E+00
         0.00000E+00
         0.00000E+00
         0.00000E+00
         0.00000E+00
         0.00000E+00
         0.00000E+00
         0.00000E+00
         0.00000E+00
         0.00000E+00
         0.00000E+00
         0.00000E+00
         0.00000E+00
         0.00000E+00
         0.00000E+00
         0.00000E+00
         0.00000E+00
         0.00000E+00
         0.00000E+00
         0.00000E+00
         0.00000E+00
         0.00000E+00
         0.00000E+00
         0.00000E+00
         0.00000E+00
         0.00000E+00
         0.00000E+00
         0.00000E+00
         0.00000E+00
         0.00000E+00
         0.00000E+00
         0.00000E+00
         0.00000E+00
         0.00000E+00
         0.00000E+00
         0.00000E+00
         0.00000E+00
         0.00000E+00
         0.00000E+00
         0.00000E+00
         0.00000E+00
         0.00000E+00
         0.00000E+00
         0.00000E+00
         0.00000E+00
         0.00000E+00
         0.00000E+00
         0.00000E+00
         0.00000E+00
         0.00000E+00
         0.00000E+00
         0.00000E+00
         0.00000E+00
         0.00000E+00
         0.00000E+00
         0.00000E+00
         0.00000E+00
         0.00000E+00
         0.00000E+00
         0.00000E+00
         0.00000E+00
         0.00000E+00
         0.00000E+00
         0.00000E+00
         0.00000E+00
         0.00000E+00
         0.00000E+00
         0.00000E+00
         0.00000E+00
         0.00000E+00
         0.00000E+00
         0.00000E+00
         0.00000E+00
         0.00000E+00
         0.00000E+00
         0.00000E+00
         0.00000E+00
         0.00000E+00
         0.00000E+00
         0.00000E+00
         0.00000E+00
         0.00000E+00
         0.00000E+00
         0.00000E+00
         0.00000E+00
         0.00000E+00
         0.00000E+00
         0.00000E+00
         0.00000E+00
         0.00000E+00
         0.00000E+00
         0.00000E+00
         0.00000E+00
         0.00000E+00
         0.00000E+00
         0.00000E+00
         0.00000E+00
         0.00000E+00
         0.00000E+00
         0.00000E+00
         0.00000E+00
         0.00000E+00
         0.00000E+00
         0.00000E+00
         0.00000E+00
         0.00000E+00
         0.00000E+00
         0.00000E+00
         0.00000E+00
         0.00000E+00
         0.00000E+00
         0.00000E+00
         0.00000E+00
         0.00000E+00
         0.00000E+00
         0.00000E+00
         0.00000E+00
         0.00000E+00
         0.00000E+00
         0.00000E+00
         0.00000E+00
         0.00000E+00
         0.00000E+00
         0.00000E+00
         0.00000E+00
         0.00000E+00
         0.00000E+00
         0.00000E+00
         0.00000E+00
         0.00000E+00
         0.00000E+00
         0.00000E+00
         0.00000E+00
         0.00000E+00
         0.00000E+00
         0.00000E+00
         0.00000E+00
         0.00000E+00
         0.00000E+00
         0.00000E+00
         0.00000E+00
         0.00000E+00
         0.00000E+00
         0.00000E+00
         0.00000E+00
         0.00000E+00
         0.00000E+00
         0.00000E+00
         0.00000E+00
         0.00000E+00
         0.00000E+00
         0.00000E+00
         0.00000E+00
         0.00000E+00
         0.00000E+00
         0.00000E+00
         0.00000E+00
         0.00000E+00
         0.00000E+00
         0.00000E+00
         0.00000E+00
         0.00000E+00
         0.00000E+00
         0.00000E+00
         0.00000E+00
         0.00000E+00
         0.00000E+00
         0.00000E+00
         0.00000E+00
         0.00000E+00
         0.00000E+00
         0.00000E+00
         0.00000E+00
         0.00000E+00
         0.00000E+00
         0.00000E+00
         0.00000E+00
         0.00000E+00
         0.00000E+00
         0.00000E+00
         0.00000E+00
         0.00000E+00
         0.00000E+00
         0.00000E+00
         0.00000E+00
         0.00000E+00
         0.00000E+00
         0.00000E+00
         0.00000E+00
         0.00000E+00
         0.00000E+00
         0.00000E+00
         0.00000E+00
         0.00000E+00
         0.00000E+00
         0.00000E+00
         0.00000E+00
         0.00000E+00
         0.00000E+00
         0.00000E+00
         0.00000E+00
         0.00000E+00
         0.00000E+00
         0.00000E+00
         0.00000E+00
         0.00000E+00
         0.00000E+00
         0.00000E+00
         0.00000E+00
         0.00000E+00
         0.00000E+00
         0.00000E+00
         0.00000E+00
         0.00000E+00
         0.00000E+00
         0.00000E+00
         0.00000E+00
         0.00000E+00
         0.00000E+00
         0.00000E+00
         0.00000E+00
         0.00000E+00
         0.00000E+00
         0.00000E+00
         0.00000E+00
         0.00000E+00
         0.00000E+00
         0.00000E+00
         0.00000E+00
         0.00000E+00
         0.00000E+00
         0.00000E+00
         0.00000E+00
         0.00000E+00
         0.00000E+00
         0.00000E+00
         0.00000E+00
         0.00000E+00
         0.00000E+00
         0.00000E+00
         0.00000E+00
         0.00000E+00
         0.00000E+00
         0.00000E+00
         0.00000E+00
         0.00000E+00
         0.00000E+00
         0.00000E+00
         0.00000E+00
         0.00000E+00
         0.00000E+00
         0.00000E+00
         0.00000E+00
         0.00000E+00
         0.00000E+00
         0.00000E+00
         0.00000E+00
         0.00000E+00
         0.00000E+00
         0.00000E+00
         0.00000E+00
         0.00000E+00
         0.00000E+00
         0.00000E+00
         0.00000E+00
         0.00000E+00
         0.00000E+00
         0.00000E+00
         0.00000E+00
         0.00000E+00
         0.00000E+00
         0.00000E+00
         0.00000E+00
         0.00000E+00
         0.00000E+00
         0.00000E+00
         0.00000E+00
         0.00000E+00
         0.00000E+00
         0.00000E+00
         0.00000E+00
         0.00000E+00
         0.00000E+00
         0.00000E+00
         0.00000E+00
         0.00000E+00
         0.00000E+00
         0.00000E+00
         0.00000E+00
         0.00000E+00
         0.00000E+00
         0.00000E+00
         0.00000E+00
         0.00000E+00
         0.00000E+00
         0.00000E+00
         0.00000E+00
         0.00000E+00
         0.00000E+00
         0.00000E+00
         0.00000E+00
         0.00000E+00
         0.00000E+00
         0.00000E+00
         0.00000E+00
         0.00000E+00
         0.00000E+00
         0.00000E+00
         0.00000E+00
         0.00000E+00
         0.00000E+00
         0.00000E+00
         0.00000E+00
         0.00000E+00
         0.00000E+00
         0.00000E+00
         0.00000E+00
         0.00000E+00
         0.00000E+00
         0.00000E+00
         0.00000E+00
         0.00000E+00
         0.00000E+00
         0.00000E+00
         0.00000E+00
         0.00000E+00
         0.00000E+00
         0.00000E+00
         0.00000E+00
         0.00000E+00
         0.00000E+00
         0.00000E+00
         0.00000E+00
         0.00000E+00
         0.00000E+00
         0.00000E+00
         0.00000E+00
         0.00000E+00
         0.00000E+00
         0.00000E+00
         0.00000E+00
         0.00000E+00
         0.00000E+00
         0.00000E+00
         0.00000E+00
         0.00000E+00
         0.00000E+00
         0.00000E+00
         0.00000E+00
         0.00000E+00
         0.00000E+00
         0.00000E+00
         0.00000E+00
         0.00000E+00
         0.00000E+00
         0.00000E+00
         0.00000E+00
         0.00000E+00
         0.00000E+00
         0.00000E+00
         0.00000E+00
         0.00000E+00
         0.00000E+00
         0.00000E+00
         0.00000E+00
         0.00000E+00
         0.00000E+00
         0.00000E+00
         0.00000E+00
         0.00000E+00
         0.00000E+00
         0.00000E+00
         0.00000E+00
         0.00000E+00
         0.00000E+00
         0.00000E+00
         0.00000E+00
         0.00000E+00
         0.00000E+00
         0.00000E+00
         0.00000E+00
         0.00000E+00
         0.00000E+00
         0.00000E+00
         0.00000E+00
         0.00000E+00
         0.00000E+00
         0.00000E+00
         0.00000E+00
         0.00000E+00
         0.00000E+00
         0.00000E+00
         0.00000E+00
         0.00000E+00
         0.00000E+00
         0.00000E+00
         0.00000E+00
         0.00000E+00
         0.00000E+00
         0.00000E+00
         0.00000E+00
         0.00000E+00
         0.00000E+00
         0.00000E+00
         0.00000E+00
         0.00000E+00
         0.00000E+00
         0.00000E+00
         0.00000E+00
         0.00000E+00
         0.00000E+00
         0.00000E+00
         0.00000E+00
         0.00000E+00
         0.00000E+00
         0.00000E+00
         0.00000E+00
         0.00000E+00
         0.00000E+00
         0.00000E+00
         0.00000E+00
         0.00000E+00
         0.00000E+00
         0.00000E+00
         0.00000E+00
         0.00000E+00
         0.00000E+00
         0.00000E+00
         0.00000E+00
         0.00000E+00
         0.00000E+00
         0.00000E+00
         0.00000E+00
         0.00000E+00
         0.00000E+00
         0.00000E+00
         0.00000E+00
         0.00000E+00
         0.00000E+00
         0.00000E+00
         0.00000E+00
         0.00000E+00
         0.00000E+00
         0.00000E+00
         0.00000E+00
         0.00000E+00
         0.00000E+00
         0.00000E+00
         0.00000E+00
         0.00000E+00
         0.00000E+00
         0.00000E+00
         0.00000E+00
         0.00000E+00
         0.00000E+00
         0.00000E+00
         0.00000E+00
         0.00000E+00
         0.00000E+00
         0.00000E+00
         0.00000E+00
         0.00000E+00
         0.00000E+00
         0.00000E+00
         0.00000E+00
         0.00000E+00
         0.00000E+00
         0.00000E+00
         0.00000E+00
         0.00000E+00
         0.00000E+00
         0.00000E+00
         0.00000E+00
         0.00000E+00
         0.00000E+00
         0.00000E+00
         0.00000E+00
         0.00000E+00
         0.00000E+00
         0.00000E+00
         0.00000E+00
         0.00000E+00
         0.00000E+00
         0.00000E+00
         0.00000E+00
         0.00000E+00
         0.00000E+00
         0.00000E+00
         0.00000E+00
         0.00000E+00
         0.00000E+00
         0.00000E+00
         0.00000E+00
         0.00000E+00
         0.00000E+00
         0.00000E+00
         0.00000E+00
         0.00000E+00
         0.00000E+00
         0.00000E+00
         0.00000E+00
         0.00000E+00
         0.00000E+00
         0.00000E+00
         0.00000E+00
         0.00000E+00
         0.00000E+00
         0.00000E+00
         0.00000E+00
         0.00000E+00
         0.00000E+00
         0.00000E+00
         0.00000E+00
         0.00000E+00
         0.00000E+00
         0.00000E+00
         0.00000E+00
         0.00000E+00
         0.00000E+00
         0.00000E+00
         0.00000E+00
         0.00000E+00
         0.00000E+00
         0.00000E+00
         0.00000E+00
         0.00000E+00
         0.00000E+00
         0.00000E+00
         0.00000E+00
         0.00000E+00
         0.00000E+00
         0.00000E+00
         0.00000E+00
         0.00000E+00
         0.00000E+00
         0.00000E+00
         0.00000E+00
         0.00000E+00
         0.00000E+00
         0.00000E+00
         0.00000E+00
         0.00000E+00
         0.00000E+00
         0.00000E+00
         0.00000E+00
         0.00000E+00
         0.00000E+00
         0.00000E+00
         0.00000E+00
         0.00000E+00
         0.00000E+00
         0.00000E+00
         0.00000E+00
         0.00000E+00
         0.00000E+00
         0.00000E+00
         0.00000E+00
         0.00000E+00
         0.00000E+00
         0.00000E+00
         0.00000E+00
         0.00000E+00
         0.00000E+00
         0.00000E+00
         0.00000E+00
         0.00000E+00
         0.00000E+00
         0.00000E+00
         0.00000E+00
         0.00000E+00
         0.00000E+00
         0.00000E+00
         0.00000E+00
         0.00000E+00
         0.00000E+00
         0.00000E+00
         0.00000E+00
         0.00000E+00
         0.00000E+00
         0.00000E+00
         0.00000E+00
         0.00000E+00
         0.00000E+00
         0.00000E+00
         0.00000E+00
         0.00000E+00
         0.00000E+00
         0.00000E+00
         0.00000E+00
         0.00000E+00
         0.00000E+00
         0.00000E+00
         0.00000E+00
         0.00000E+00
         0.00000E+00
         0.00000E+00
         0.00000E+00
         0.00000E+00
         0.00000E+00
         0.00000E+00
         0.00000E+00
         0.00000E+00
         0.00000E+00
         0.00000E+00
         0.00000E+00
         0.00000E+00
         0.00000E+00
         0.00000E+00
         0.00000E+00
         0.00000E+00
         0.00000E+00
         0.00000E+00
         0.00000E+00
         0.00000E+00
         0.00000E+00
         0.00000E+00
         0.00000E+00
         0.00000E+00
         0.00000E+00
         0.00000E+00
         0.00000E+00
         0.00000E+00
         0.00000E+00
         0.00000E+00
         0.00000E+00
         0.00000E+00
         0.00000E+00
         0.00000E+00
         0.00000E+00
         0.00000E+00
         0.00000E+00
         0.00000E+00
         0.00000E+00
         0.00000E+00
         0.00000E+00
         0.00000E+00
         0.00000E+00
         0.00000E+00
         0.00000E+00
         0.00000E+00
         0.00000E+00
         0.00000E+00
         0.00000E+00
         0.00000E+00
         0.00000E+00
         0.00000E+00
         0.00000E+00
         0.00000E+00
         0.00000E+00
         0.00000E+00
         0.00000E+00
         0.00000E+00
         0.00000E+00
         0.00000E+00
         0.00000E+00
         0.00000E+00
         0.00000E+00
         0.00000E+00
         0.00000E+00
         0.00000E+00
         0.00000E+00
         0.00000E+00
         0.00000E+00
         0.00000E+00
         0.00000E+00
         0.00000E+00
         0.00000E+00
         0.00000E+00
         0.00000E+00
         0.00000E+00
         0.00000E+00
         0.00000E+00
         0.00000E+00
         0.00000E+00
         0.00000E+00
         0.00000E+00
         0.00000E+00
         0.00000E+00
         0.00000E+00
         0.00000E+00
         0.00000E+00
         0.00000E+00
         0.00000E+00
         0.00000E+00
         0.00000E+00
         0.00000E+00
         0.00000E+00
         0.00000E+00
         0.00000E+00
         0.00000E+00
         0.00000E+00
         0.00000E+00
         0.00000E+00
         0.00000E+00
         0.00000E+00
         0.00000E+00
         0.00000E+00
         0.00000E+00
         0.00000E+00
         0.00000E+00
         0.00000E+00
         0.00000E+00
         0.00000E+00
         0.00000E+00
         0.00000E+00
         0.00000E+00
         0.00000E+00
         0.00000E+00
         0.00000E+00
         0.00000E+00
         0.00000E+00
         0.00000E+00
         0.00000E+00
         0.00000E+00
         0.00000E+00
         0.00000E+00
         0.00000E+00
         0.00000E+00
         0.00000E+00
         0.00000E+00
         0.00000E+00
         0.00000E+00
         0.00000E+00
         0.00000E+00
         0.00000E+00
         0.00000E+00
         0.00000E+00
         0.00000E+00
         0.00000E+00
         0.00000E+00
         0.00000E+00
         0.00000E+00
         0.00000E+00
         0.00000E+00
         0.00000E+00
         0.00000E+00
         0.00000E+00
         0.00000E+00
         0.00000E+00
         0.00000E+00
         0.00000E+00
         0.00000E+00
         0.00000E+00
         0.00000E+00
         0.00000E+00
         0.00000E+00
         0.00000E+00
         0.00000E+00
         0.00000E+00
         0.00000E+00
         0.00000E+00
         0.00000E+00
         0.00000E+00
         0.00000E+00
         0.00000E+00
         0.00000E+00
         0.00000E+00
         0.00000E+00
         0.00000E+00
         0.00000E+00
         0.00000E+00
         0.00000E+00
         0.00000E+00
         0.00000E+00
         0.00000E+00
         0.00000E+00
         0.00000E+00
         0.00000E+00
         0.00000E+00
         0.00000E+00
         0.00000E+00
         0.00000E+00
         0.00000E+00
         0.00000E+00
         0.00000E+00
         0.00000E+00
         0.00000E+00
         0.00000E+00
         0.00000E+00
         0.00000E+00
         0.00000E+00
         0.00000E+00
         0.00000E+00
         0.00000E+00
         0.00000E+00
         0.00000E+00
         0.00000E+00
         0.00000E+00
         0.00000E+00
         0.00000E+00
         0.00000E+00
         0.00000E+00
         0.00000E+00
         0.00000E+00
         0.00000E+00
         0.00000E+00
         0.00000E+00
         0.00000E+00
         0.00000E+00
         0.00000E+00
         0.00000E+00
         0.00000E+00
         0.00000E+00
         0.00000E+00
         0.00000E+00
         0.00000E+00
         0.00000E+00
         0.00000E+00
         0.00000E+00
         0.00000E+00
         0.00000E+00
         0.00000E+00
         0.00000E+00
         0.00000E+00
         0.00000E+00
         0.00000E+00
         0.00000E+00
         0.00000E+00
         0.00000E+00
         0.00000E+00
         0.00000E+00
         0.00000E+00
         0.00000E+00
         0.00000E+00
         0.00000E+00
         0.00000E+00
         0.00000E+00
         0.00000E+00
         0.00000E+00
         0.00000E+00
         0.00000E+00
         0.00000E+00
         0.00000E+00
         0.00000E+00
         0.00000E+00
         0.00000E+00
         0.00000E+00
         0.00000E+00
         0.00000E+00
         0.00000E+00
         0.00000E+00
         0.00000E+00
         0.00000E+00
         0.00000E+00
         0.00000E+00
         0.00000E+00
         0.00000E+00
         0.00000E+00
         0.00000E+00
         0.00000E+00
         0.00000E+00
         0.00000E+00
         0.00000E+00
         0.00000E+00
         0.00000E+00
         0.00000E+00
         0.00000E+00
         0.00000E+00
         0.00000E+00
         0.00000E+00
         0.00000E+00
         0.00000E+00
         0.00000E+00
         0.00000E+00
         0.00000E+00
         0.00000E+00
         0.00000E+00
         0.00000E+00
         0.00000E+00
         0.00000E+00
         0.00000E+00
         0.00000E+00
         0.00000E+00
         0.00000E+00
         0.00000E+00
         0.00000E+00
         0.00000E+00
         0.00000E+00
         0.00000E+00
         0.00000E+00
         0.00000E+00
         0.00000E+00
         0.00000E+00
         0.00000E+00
         0.00000E+00
         0.00000E+00
         0.00000E+00
         0.00000E+00
         0.00000E+00
         0.00000E+00
         0.00000E+00
         0.00000E+00
         0.00000E+00
         0.00000E+00
         0.00000E+00
         0.00000E+00
         0.00000E+00
         0.00000E+00
         0.00000E+00
         0.00000E+00
         0.00000E+00
         0.00000E+00
         0.00000E+00
         0.00000E+00
         0.00000E+00
         0.00000E+00
         0.00000E+00
         0.00000E+00
         0.00000E+00
         0.00000E+00
         0.00000E+00
         0.00000E+00
         0.00000E+00
         0.00000E+00
         0.00000E+00
         0.00000E+00
         0.00000E+00
         0.00000E+00
         0.00000E+00
         0.00000E+00
         0.00000E+00
         0.00000E+00
         0.00000E+00
         0.00000E+00
         0.00000E+00
         0.00000E+00
         0.00000E+00
         0.00000E+00
         0.00000E+00
         0.00000E+00
         0.00000E+00
         0.00000E+00
         0.00000E+00
         0.00000E+00
         0.00000E+00
         0.00000E+00
         0.00000E+00
         0.00000E+00
         0.00000E+00
         0.00000E+00
         0.00000E+00
         0.00000E+00
         0.00000E+00
         0.00000E+00
         0.00000E+00
         0.00000E+00
         0.00000E+00
         0.00000E+00
         0.00000E+00
         0.00000E+00
         0.00000E+00
         0.00000E+00
         0.00000E+00
         0.00000E+00
         0.00000E+00
         0.00000E+00
         0.00000E+00
         0.00000E+00
         0.00000E+00
         0.00000E+00
         0.00000E+00
         0.00000E+00
         0.00000E+00
         0.00000E+00
         0.00000E+00
         0.00000E+00
         0.00000E+00
         0.00000E+00
         0.00000E+00
         0.00000E+00
         0.00000E+00
         0.00000E+00
         0.00000E+00
         0.00000E+00
         0.00000E+00
         0.00000E+00
         0.00000E+00
         0.00000E+00
         0.00000E+00
         0.00000E+00
         0.00000E+00
         0.00000E+00
         0.00000E+00
         0.00000E+00
         0.00000E+00
         0.00000E+00
         0.00000E+00
         0.00000E+00
         0.00000E+00
         0.00000E+00
         0.00000E+00
         0.00000E+00
         0.00000E+00
         0.00000E+00
         0.00000E+00
         0.00000E+00
         0.00000E+00
         0.00000E+00
         0.00000E+00
         0.00000E+00
         0.00000E+00
         0.00000E+00
         0.00000E+00
         0.00000E+00
         0.00000E+00
         0.00000E+00
         0.00000E+00
         0.00000E+00
         0.00000E+00
         0.00000E+00
         0.00000E+00
         0.00000E+00
         0.00000E+00
         0.00000E+00
         0.00000E+00
         0.00000E+00
         0.00000E+00
         0.00000E+00
         0.00000E+00
         0.00000E+00
         0.00000E+00
         0.00000E+00
         0.00000E+00
         0.00000E+00
         0.00000E+00
         0.00000E+00
         0.00000E+00
         0.00000E+00
         0.00000E+00
         0.00000E+00
         0.00000E+00
         0.00000E+00
         0.00000E+00
         0.00000E+00
         0.00000E+00
         0.00000E+00
         0.00000E+00
         0.00000E+00
         0.00000E+00
         0.00000E+00
         0.00000E+00
         0.00000E+00
         0.00000E+00
         0.00000E+00
         0.00000E+00
         0.00000E+00
         0.00000E+00
         0.00000E+00
         0.00000E+00
         0.00000E+00
         0.00000E+00
         0.00000E+00
         0.00000E+00
         0.00000E+00
         0.00000E+00
         0.00000E+00
         0.00000E+00
         0.00000E+00
         0.00000E+00
         0.00000E+00
         0.00000E+00
         0.00000E+00
         0.00000E+00
         0.00000E+00
         0.00000E+00
         0.00000E+00
         0.00000E+00
         0.00000E+00
         0.00000E+00
         0.00000E+00
         0.00000E+00
         0.00000E+00
         0.00000E+00
         0.00000E+00
         0.00000E+00
         0.00000E+00
         0.00000E+00
         0.00000E+00
         0.00000E+00
         0.00000E+00
         0.00000E+00
         0.00000E+00
         0.00000E+00
         0.00000E+00
         0.00000E+00
         0.00000E+00
         0.00000E+00
         0.00000E+00
         0.00000E+00
         0.00000E+00
         0.00000E+00
         0.00000E+00
         0.00000E+00
         0.00000E+00
         0.00000E+00
         0.00000E+00
         0.00000E+00
         0.00000E+00
         0.00000E+00
         0.00000E+00
         0.00000E+00
         0.00000E+00
         0.00000E+00
         0.00000E+00
         0.00000E+00
         0.00000E+00
         0.00000E+00
         0.00000E+00
         0.00000E+00
         0.00000E+00
         0.00000E+00
         0.00000E+00
         0.00000E+00
         0.00000E+00
         0.00000E+00
         0.00000E+00
         0.00000E+00
         0.00000E+00
         0.00000E+00
         0.00000E+00
         0.00000E+00
         0.00000E+00
         0.00000E+00
         0.00000E+00
         0.00000E+00
         0.00000E+00
         0.00000E+00
         0.00000E+00
         0.00000E+00
         0.00000E+00
         0.00000E+00
         0.00000E+00
         0.00000E+00
         0.00000E+00
         0.00000E+00
         0.00000E+00
         0.00000E+00
         0.00000E+00
         0.00000E+00
         0.00000E+00
         0.00000E+00
         0.00000E+00
         0.00000E+00
         0.00000E+00
         0.00000E+00
         0.00000E+00
         0.00000E+00
         0.00000E+00
         0.00000E+00
         0.00000E+00
  
SCALARS        characteristic_distance  double 1
LOOKUP_TABLE default
         0.00000E+00
         0.00000E+00
         0.00000E+00
         0.00000E+00
         0.00000E+00
         0.00000E+00
         0.00000E+00
         0.00000E+00
         0.00000E+00
         0.00000E+00
         0.00000E+00
         0.00000E+00
         0.00000E+00
         0.00000E+00
         0.00000E+00
         0.00000E+00
         0.00000E+00
         0.00000E+00
         0.00000E+00
         0.00000E+00
         0.00000E+00
         0.00000E+00
         0.00000E+00
         0.00000E+00
         0.00000E+00
         0.00000E+00
         0.00000E+00
         0.00000E+00
         0.00000E+00
         0.00000E+00
         0.00000E+00
         0.00000E+00
         0.00000E+00
         0.00000E+00
         0.00000E+00
         0.00000E+00
         0.00000E+00
         0.00000E+00
         0.00000E+00
         0.00000E+00
         0.00000E+00
         0.00000E+00
         0.00000E+00
         0.00000E+00
         0.00000E+00
         0.00000E+00
         0.00000E+00
         0.00000E+00
         0.00000E+00
         0.00000E+00
         0.00000E+00
         0.00000E+00
         0.00000E+00
         0.00000E+00
         0.00000E+00
         0.00000E+00
         0.00000E+00
         0.00000E+00
         0.00000E+00
         0.00000E+00
         0.00000E+00
         0.00000E+00
         0.00000E+00
         0.00000E+00
         0.00000E+00
         0.00000E+00
         0.00000E+00
         0.00000E+00
         0.00000E+00
         0.00000E+00
         0.00000E+00
         0.00000E+00
         0.00000E+00
         0.00000E+00
         0.00000E+00
         0.00000E+00
         0.00000E+00
         0.00000E+00
         0.00000E+00
         0.00000E+00
         0.00000E+00
         0.00000E+00
         0.00000E+00
         0.00000E+00
         0.00000E+00
         0.00000E+00
         0.00000E+00
         0.00000E+00
         0.00000E+00
         0.00000E+00
         0.00000E+00
         0.00000E+00
         0.00000E+00
         0.00000E+00
         0.00000E+00
         0.00000E+00
         0.00000E+00
         0.00000E+00
         0.00000E+00
         0.00000E+00
         0.00000E+00
         0.00000E+00
         0.00000E+00
         0.00000E+00
         0.00000E+00
         0.00000E+00
         0.00000E+00
         0.00000E+00
         0.00000E+00
         0.00000E+00
         0.00000E+00
         0.00000E+00
         0.00000E+00
         0.00000E+00
         0.00000E+00
         0.00000E+00
         0.00000E+00
         0.00000E+00
         0.00000E+00
         0.00000E+00
         0.00000E+00
         0.00000E+00
         0.00000E+00
         0.00000E+00
         0.00000E+00
         0.00000E+00
         0.00000E+00
         0.00000E+00
         0.00000E+00
         0.00000E+00
         0.00000E+00
         0.00000E+00
         0.00000E+00
         0.00000E+00
         0.00000E+00
         0.00000E+00
         0.00000E+00
         0.00000E+00
         0.00000E+00
         0.00000E+00
         0.00000E+00
         0.00000E+00
         0.00000E+00
         0.00000E+00
         0.00000E+00
         0.00000E+00
         0.00000E+00
         0.00000E+00
         0.00000E+00
         0.00000E+00
         0.00000E+00
         0.00000E+00
         0.00000E+00
         0.00000E+00
         0.00000E+00
         0.00000E+00
         0.00000E+00
         0.00000E+00
         0.00000E+00
         0.00000E+00
         0.00000E+00
         0.00000E+00
         0.00000E+00
         0.00000E+00
         0.00000E+00
         0.00000E+00
         0.00000E+00
         0.00000E+00
         0.00000E+00
         0.00000E+00
         0.00000E+00
         0.00000E+00
         0.00000E+00
         0.00000E+00
         0.00000E+00
         0.00000E+00
         0.00000E+00
         0.00000E+00
         0.00000E+00
         0.00000E+00
         0.00000E+00
         0.00000E+00
         0.00000E+00
         0.00000E+00
         0.00000E+00
         0.00000E+00
         0.00000E+00
         0.00000E+00
         0.00000E+00
         0.00000E+00
         0.00000E+00
         0.00000E+00
         0.00000E+00
         0.00000E+00
         0.00000E+00
         0.00000E+00
         0.00000E+00
         0.00000E+00
         0.00000E+00
         0.00000E+00
         0.00000E+00
         0.00000E+00
         0.00000E+00
         0.00000E+00
         0.00000E+00
         0.00000E+00
         0.00000E+00
         0.00000E+00
         0.00000E+00
         0.00000E+00
         0.00000E+00
         0.00000E+00
         0.00000E+00
         0.00000E+00
         0.00000E+00
         0.00000E+00
         0.00000E+00
         0.00000E+00
         0.00000E+00
         0.00000E+00
         0.00000E+00
         0.00000E+00
         0.00000E+00
         0.00000E+00
         0.00000E+00
         0.00000E+00
         0.00000E+00
         0.00000E+00
         0.00000E+00
         0.00000E+00
         0.00000E+00
         0.00000E+00
         0.00000E+00
         0.00000E+00
         0.00000E+00
         0.00000E+00
         0.00000E+00
         0.00000E+00
         0.00000E+00
         0.00000E+00
         0.00000E+00
         0.00000E+00
         0.00000E+00
         0.00000E+00
         0.00000E+00
         0.00000E+00
         0.00000E+00
         0.00000E+00
         0.00000E+00
         0.00000E+00
         0.00000E+00
         0.00000E+00
         0.00000E+00
         0.00000E+00
         0.00000E+00
         0.00000E+00
         0.00000E+00
         0.00000E+00
         0.00000E+00
         0.00000E+00
         0.00000E+00
         0.00000E+00
         0.00000E+00
         0.00000E+00
         0.00000E+00
         0.00000E+00
         0.00000E+00
         0.00000E+00
         0.00000E+00
         0.00000E+00
         0.00000E+00
         0.00000E+00
         0.00000E+00
         0.00000E+00
         0.00000E+00
         0.00000E+00
         0.00000E+00
         0.00000E+00
         0.00000E+00
         0.00000E+00
         0.00000E+00
         0.00000E+00
         0.00000E+00
         0.00000E+00
         0.00000E+00
         0.00000E+00
         0.00000E+00
         0.00000E+00
         0.00000E+00
         0.00000E+00
         0.00000E+00
         0.00000E+00
         0.00000E+00
         0.00000E+00
         0.00000E+00
         0.00000E+00
         0.00000E+00
         0.00000E+00
         0.00000E+00
         0.00000E+00
         0.00000E+00
         0.00000E+00
         0.00000E+00
         0.00000E+00
         0.00000E+00
         0.00000E+00
         0.00000E+00
         0.00000E+00
         0.00000E+00
         0.00000E+00
         0.00000E+00
         0.00000E+00
         0.00000E+00
         0.00000E+00
         0.00000E+00
         0.00000E+00
         0.00000E+00
         0.00000E+00
         0.00000E+00
         0.00000E+00
         0.00000E+00
         0.00000E+00
         0.00000E+00
         0.00000E+00
         0.00000E+00
         0.00000E+00
         0.00000E+00
         0.00000E+00
         0.00000E+00
         0.00000E+00
         0.00000E+00
         0.00000E+00
         0.00000E+00
         0.00000E+00
         0.00000E+00
         0.00000E+00
         0.00000E+00
         0.00000E+00
         0.00000E+00
         0.00000E+00
         0.00000E+00
         0.00000E+00
         0.00000E+00
         0.00000E+00
         0.00000E+00
         0.00000E+00
         0.00000E+00
         0.00000E+00
         0.00000E+00
         0.00000E+00
         0.00000E+00
         0.00000E+00
         0.00000E+00
         0.00000E+00
         0.00000E+00
         0.00000E+00
         0.00000E+00
         0.00000E+00
         0.00000E+00
         0.00000E+00
         0.00000E+00
         0.00000E+00
         0.00000E+00
         0.00000E+00
         0.00000E+00
         0.00000E+00
         0.00000E+00
         0.00000E+00
         0.00000E+00
         0.00000E+00
         0.00000E+00
         0.00000E+00
         0.00000E+00
         0.00000E+00
         0.00000E+00
         0.00000E+00
         0.00000E+00
         0.00000E+00
         0.00000E+00
         0.00000E+00
         0.00000E+00
         0.00000E+00
         0.00000E+00
         0.00000E+00
         0.00000E+00
         0.00000E+00
         0.00000E+00
         0.00000E+00
         0.00000E+00
         0.00000E+00
         0.00000E+00
         0.00000E+00
         0.00000E+00
         0.00000E+00
         0.00000E+00
         0.00000E+00
         0.00000E+00
         0.00000E+00
         0.00000E+00
         0.00000E+00
         0.00000E+00
         0.00000E+00
         0.00000E+00
         0.00000E+00
         0.00000E+00
         0.00000E+00
         0.00000E+00
         0.00000E+00
         0.00000E+00
         0.00000E+00
         0.00000E+00
         0.00000E+00
         0.00000E+00
         0.00000E+00
         0.00000E+00
         0.00000E+00
         0.00000E+00
         0.00000E+00
         0.00000E+00
         0.00000E+00
         0.00000E+00
         0.00000E+00
         0.00000E+00
         0.00000E+00
         0.00000E+00
         0.00000E+00
         0.00000E+00
         0.00000E+00
         0.00000E+00
         0.00000E+00
         0.00000E+00
         0.00000E+00
         0.00000E+00
         0.00000E+00
         0.00000E+00
         0.00000E+00
         0.00000E+00
         0.00000E+00
         0.00000E+00
         0.00000E+00
         0.00000E+00
         0.00000E+00
         0.00000E+00
         0.00000E+00
         0.00000E+00
         0.00000E+00
         0.00000E+00
         0.00000E+00
         0.00000E+00
         0.00000E+00
         0.00000E+00
         0.00000E+00
         0.00000E+00
         0.00000E+00
         0.00000E+00
         0.00000E+00
         0.00000E+00
         0.00000E+00
         0.00000E+00
         0.00000E+00
         0.00000E+00
         0.00000E+00
         0.00000E+00
         0.00000E+00
         0.00000E+00
         0.00000E+00
         0.00000E+00
         0.00000E+00
         0.00000E+00
         0.00000E+00
         0.00000E+00
         0.00000E+00
         0.00000E+00
         0.00000E+00
         0.00000E+00
         0.00000E+00
         0.00000E+00
         0.00000E+00
         0.00000E+00
         0.00000E+00
         0.00000E+00
         0.00000E+00
         0.00000E+00
         0.00000E+00
         0.00000E+00
         0.00000E+00
         0.00000E+00
         0.00000E+00
         0.00000E+00
         0.00000E+00
         0.00000E+00
         0.00000E+00
         0.00000E+00
         0.00000E+00
         0.00000E+00
         0.00000E+00
         0.00000E+00
         0.00000E+00
         0.00000E+00
         0.00000E+00
         0.00000E+00
         0.00000E+00
         0.00000E+00
         0.00000E+00
         0.00000E+00
         0.00000E+00
         0.00000E+00
         0.00000E+00
         0.00000E+00
         0.00000E+00
         0.00000E+00
         0.00000E+00
         0.00000E+00
         0.00000E+00
         0.00000E+00
         0.00000E+00
         0.00000E+00
         0.00000E+00
         0.00000E+00
         0.00000E+00
         0.00000E+00
         0.00000E+00
         0.00000E+00
         0.00000E+00
         0.00000E+00
         0.00000E+00
         0.00000E+00
         0.00000E+00
         0.00000E+00
         0.00000E+00
         0.00000E+00
         0.00000E+00
         0.00000E+00
         0.00000E+00
         0.00000E+00
         0.00000E+00
         0.00000E+00
         0.00000E+00
         0.00000E+00
         0.00000E+00
         0.00000E+00
         0.00000E+00
         0.00000E+00
         0.00000E+00
         0.00000E+00
         0.00000E+00
         0.00000E+00
         0.00000E+00
         0.00000E+00
         0.00000E+00
         0.00000E+00
         0.00000E+00
         0.00000E+00
         0.00000E+00
         0.00000E+00
         0.00000E+00
         0.00000E+00
         0.00000E+00
         0.00000E+00
         0.00000E+00
         0.00000E+00
         0.00000E+00
         0.00000E+00
         0.00000E+00
         0.00000E+00
         0.00000E+00
         0.00000E+00
         0.00000E+00
         0.00000E+00
         0.00000E+00
         0.00000E+00
         0.00000E+00
         0.00000E+00
         0.00000E+00
         0.00000E+00
         0.00000E+00
         0.00000E+00
         0.00000E+00
         0.00000E+00
         0.00000E+00
         0.00000E+00
         0.00000E+00
         0.00000E+00
         0.00000E+00
         0.00000E+00
         0.00000E+00
         0.00000E+00
         0.00000E+00
         0.00000E+00
         0.00000E+00
         0.00000E+00
         0.00000E+00
         0.00000E+00
         0.00000E+00
         0.00000E+00
         0.00000E+00
         0.00000E+00
         0.00000E+00
         0.00000E+00
         0.00000E+00
         0.00000E+00
         0.00000E+00
         0.00000E+00
         0.00000E+00
         0.00000E+00
         0.00000E+00
         0.00000E+00
         0.00000E+00
         0.00000E+00
         0.00000E+00
         0.00000E+00
         0.00000E+00
         0.00000E+00
         0.00000E+00
         0.00000E+00
         0.00000E+00
         0.00000E+00
         0.00000E+00
         0.00000E+00
         0.00000E+00
         0.00000E+00
         0.00000E+00
         0.00000E+00
         0.00000E+00
         0.00000E+00
         0.00000E+00
         0.00000E+00
         0.00000E+00
         0.00000E+00
         0.00000E+00
         0.00000E+00
         0.00000E+00
         0.00000E+00
         0.00000E+00
         0.00000E+00
         0.00000E+00
         0.00000E+00
         0.00000E+00
         0.00000E+00
         0.00000E+00
         0.00000E+00
         0.00000E+00
         0.00000E+00
         0.00000E+00
         0.00000E+00
         0.00000E+00
         0.00000E+00
         0.00000E+00
         0.00000E+00
         0.00000E+00
         0.00000E+00
         0.00000E+00
         0.00000E+00
         0.00000E+00
         0.00000E+00
         0.00000E+00
         0.00000E+00
         0.00000E+00
         0.00000E+00
         0.00000E+00
         0.00000E+00
         0.00000E+00
         0.00000E+00
         0.00000E+00
         0.00000E+00
         0.00000E+00
         0.00000E+00
         0.00000E+00
         0.00000E+00
         0.00000E+00
         0.00000E+00
         0.00000E+00
         0.00000E+00
         0.00000E+00
         0.00000E+00
         0.00000E+00
         0.00000E+00
         0.00000E+00
         0.00000E+00
         0.00000E+00
         0.00000E+00
         0.00000E+00
         0.00000E+00
         0.00000E+00
         0.00000E+00
         0.00000E+00
         0.00000E+00
         0.00000E+00
         0.00000E+00
         0.00000E+00
         0.00000E+00
         0.00000E+00
         0.00000E+00
         0.00000E+00
         0.00000E+00
         0.00000E+00
         0.00000E+00
         0.00000E+00
         0.00000E+00
         0.00000E+00
         0.00000E+00
         0.00000E+00
         0.00000E+00
         0.00000E+00
         0.00000E+00
         0.00000E+00
         0.00000E+00
         0.00000E+00
         0.00000E+00
         0.00000E+00
         0.00000E+00
         0.00000E+00
         0.00000E+00
         0.00000E+00
         0.00000E+00
         0.00000E+00
         0.00000E+00
         0.00000E+00
         0.00000E+00
         0.00000E+00
         0.00000E+00
         0.00000E+00
         0.00000E+00
         0.00000E+00
         0.00000E+00
         0.00000E+00
         0.00000E+00
         0.00000E+00
         0.00000E+00
         0.00000E+00
         0.00000E+00
         0.00000E+00
         0.00000E+00
         0.00000E+00
         0.00000E+00
         0.00000E+00
         0.00000E+00
         0.00000E+00
         0.00000E+00
         0.00000E+00
         0.00000E+00
         0.00000E+00
         0.00000E+00
         0.00000E+00
         0.00000E+00
         0.00000E+00
         0.00000E+00
         0.00000E+00
         0.00000E+00
         0.00000E+00
         0.00000E+00
         0.00000E+00
         0.00000E+00
         0.00000E+00
         0.00000E+00
         0.00000E+00
         0.00000E+00
         0.00000E+00
         0.00000E+00
         0.00000E+00
         0.00000E+00
         0.00000E+00
         0.00000E+00
         0.00000E+00
         0.00000E+00
         0.00000E+00
         0.00000E+00
         0.00000E+00
         0.00000E+00
         0.00000E+00
         0.00000E+00
         0.00000E+00
         0.00000E+00
         0.00000E+00
         0.00000E+00
         0.00000E+00
         0.00000E+00
         0.00000E+00
         0.00000E+00
         0.00000E+00
         0.00000E+00
         0.00000E+00
         0.00000E+00
         0.00000E+00
         0.00000E+00
         0.00000E+00
         0.00000E+00
         0.00000E+00
         0.00000E+00
         0.00000E+00
         0.00000E+00
         0.00000E+00
         0.00000E+00
         0.00000E+00
         0.00000E+00
         0.00000E+00
         0.00000E+00
         0.00000E+00
         0.00000E+00
         0.00000E+00
         0.00000E+00
         0.00000E+00
         0.00000E+00
         0.00000E+00
         0.00000E+00
         0.00000E+00
         0.00000E+00
         0.00000E+00
         0.00000E+00
         0.00000E+00
         0.00000E+00
         0.00000E+00
         0.00000E+00
         0.00000E+00
         0.00000E+00
         0.00000E+00
         0.00000E+00
         0.00000E+00
         0.00000E+00
         0.00000E+00
         0.00000E+00
         0.00000E+00
         0.00000E+00
         0.00000E+00
         0.00000E+00
         0.00000E+00
         0.00000E+00
         0.00000E+00
         0.00000E+00
         0.00000E+00
         0.00000E+00
         0.00000E+00
         0.00000E+00
         0.00000E+00
         0.00000E+00
         0.00000E+00
         0.00000E+00
         0.00000E+00
         0.00000E+00
         0.00000E+00
         0.00000E+00
         0.00000E+00
         0.00000E+00
         0.00000E+00
         0.00000E+00
         0.00000E+00
         0.00000E+00
         0.00000E+00
         0.00000E+00
         0.00000E+00
         0.00000E+00
         0.00000E+00
         0.00000E+00
         0.00000E+00
         0.00000E+00
         0.00000E+00
         0.00000E+00
         0.00000E+00
         0.00000E+00
         0.00000E+00
         0.00000E+00
         0.00000E+00
         0.00000E+00
         0.00000E+00
         0.00000E+00
         0.00000E+00
         0.00000E+00
         0.00000E+00
         0.00000E+00
         0.00000E+00
         0.00000E+00
         0.00000E+00
         0.00000E+00
         0.00000E+00
         0.00000E+00
         0.00000E+00
         0.00000E+00
         0.00000E+00
         0.00000E+00
         0.00000E+00
         0.00000E+00
         0.00000E+00
         0.00000E+00
         0.00000E+00
         0.00000E+00
         0.00000E+00
         0.00000E+00
         0.00000E+00
         0.00000E+00
         0.00000E+00
         0.00000E+00
         0.00000E+00
         0.00000E+00
         0.00000E+00
         0.00000E+00
         0.00000E+00
         0.00000E+00
         0.00000E+00
         0.00000E+00
         0.00000E+00
         0.00000E+00
         0.00000E+00
         0.00000E+00
         0.00000E+00
         0.00000E+00
         0.00000E+00
         0.00000E+00
         0.00000E+00
         0.00000E+00
         0.00000E+00
         0.00000E+00
         0.00000E+00
         0.00000E+00
         0.00000E+00
         0.00000E+00
         0.00000E+00
         0.00000E+00
         0.00000E+00
         0.00000E+00
         0.00000E+00
         0.00000E+00
         0.00000E+00
         0.00000E+00
         0.00000E+00
         0.00000E+00
         0.00000E+00
         0.00000E+00
         0.00000E+00
         0.00000E+00
         0.00000E+00
         0.00000E+00
         0.00000E+00
         0.00000E+00
         0.00000E+00
         0.00000E+00
         0.00000E+00
         0.00000E+00
         0.00000E+00
         0.00000E+00
         0.00000E+00
         0.00000E+00
         0.00000E+00
         0.00000E+00
         0.00000E+00
         0.00000E+00
         0.00000E+00
         0.00000E+00
         0.00000E+00
         0.00000E+00
         0.00000E+00
         0.00000E+00
         0.00000E+00
         0.00000E+00
         0.00000E+00
         0.00000E+00
         0.00000E+00
         0.00000E+00
         0.00000E+00
         0.00000E+00
         0.00000E+00
         0.00000E+00
         0.00000E+00
         0.00000E+00
         0.00000E+00
         0.00000E+00
         0.00000E+00
         0.00000E+00
         0.00000E+00
         0.00000E+00
         0.00000E+00
         0.00000E+00
         0.00000E+00
         0.00000E+00
         0.00000E+00
         0.00000E+00
         0.00000E+00
         0.00000E+00
         0.00000E+00
         0.00000E+00
         0.00000E+00
         0.00000E+00
         0.00000E+00
         0.00000E+00
         0.00000E+00
         0.00000E+00
         0.00000E+00
         0.00000E+00
         0.00000E+00
         0.00000E+00
         0.00000E+00
         0.00000E+00
         0.00000E+00
         0.00000E+00
         0.00000E+00
         0.00000E+00
         0.00000E+00
         0.00000E+00
         0.00000E+00
         0.00000E+00
         0.00000E+00
         0.00000E+00
         0.00000E+00
         0.00000E+00
         0.00000E+00
         0.00000E+00
         0.00000E+00
         0.00000E+00
         0.00000E+00
         0.00000E+00
         0.00000E+00
         0.00000E+00
         0.00000E+00
         0.00000E+00
         0.00000E+00
         0.00000E+00
         0.00000E+00
         0.00000E+00
         0.00000E+00
         0.00000E+00
         0.00000E+00
         0.00000E+00
         0.00000E+00
         0.00000E+00
         0.00000E+00
         0.00000E+00
         0.00000E+00
         0.00000E+00
         0.00000E+00
         0.00000E+00
         0.00000E+00
         0.00000E+00
         0.00000E+00
         0.00000E+00
         0.00000E+00
         0.00000E+00
         0.00000E+00
         0.00000E+00
         0.00000E+00
         0.00000E+00
         0.00000E+00
         0.00000E+00
         0.00000E+00
         0.00000E+00
         0.00000E+00
         0.00000E+00
         0.00000E+00
         0.00000E+00
         0.00000E+00
         0.00000E+00
         0.00000E+00
         0.00000E+00
         0.00000E+00
         0.00000E+00
         0.00000E+00
         0.00000E+00
         0.00000E+00
         0.00000E+00
         0.00000E+00
         0.00000E+00
         0.00000E+00
         0.00000E+00
         0.00000E+00
         0.00000E+00
         0.00000E+00
         0.00000E+00
         0.00000E+00
         0.00000E+00
         0.00000E+00
         0.00000E+00
         0.00000E+00
         0.00000E+00
         0.00000E+00
         0.00000E+00
         0.00000E+00
         0.00000E+00
         0.00000E+00
         0.00000E+00
         0.00000E+00
         0.00000E+00
         0.00000E+00
         0.00000E+00
         0.00000E+00
         0.00000E+00
         0.00000E+00
         0.00000E+00
         0.00000E+00
         0.00000E+00
         0.00000E+00
         0.00000E+00
         0.00000E+00
         0.00000E+00
         0.00000E+00
         0.00000E+00
         0.00000E+00
         0.00000E+00
         0.00000E+00
         0.00000E+00
         0.00000E+00
         0.00000E+00
         0.00000E+00
         0.00000E+00
         0.00000E+00
         0.00000E+00
         0.00000E+00
         0.00000E+00
         0.00000E+00
         0.00000E+00
         0.00000E+00
         0.00000E+00
         0.00000E+00
         0.00000E+00
         0.00000E+00
         0.00000E+00
         0.00000E+00
         0.00000E+00
         0.00000E+00
         0.00000E+00
         0.00000E+00
         0.00000E+00
         0.00000E+00
         0.00000E+00
         0.00000E+00
         0.00000E+00
         0.00000E+00
         0.00000E+00
         0.00000E+00
         0.00000E+00
         0.00000E+00
         0.00000E+00
         0.00000E+00
         0.00000E+00
         0.00000E+00
         0.00000E+00
         0.00000E+00
         0.00000E+00
         0.00000E+00
         0.00000E+00
         0.00000E+00
         0.00000E+00
         0.00000E+00
         0.00000E+00
         0.00000E+00
         0.00000E+00
         0.00000E+00
         0.00000E+00
         0.00000E+00
         0.00000E+00
         0.00000E+00
         0.00000E+00
         0.00000E+00
         0.00000E+00
         0.00000E+00
         0.00000E+00
         0.00000E+00
         0.00000E+00
         0.00000E+00
         0.00000E+00
         0.00000E+00
         0.00000E+00
         0.00000E+00
         0.00000E+00
         0.00000E+00
         0.00000E+00
         0.00000E+00
         0.00000E+00
         0.00000E+00
         0.00000E+00
         0.00000E+00
         0.00000E+00
         0.00000E+00
         0.00000E+00
         0.00000E+00
         0.00000E+00
         0.00000E+00
         0.00000E+00
         0.00000E+00
         0.00000E+00
         0.00000E+00
         0.00000E+00
         0.00000E+00
         0.00000E+00
         0.00000E+00
         0.00000E+00
         0.00000E+00
         0.00000E+00
         0.00000E+00
         0.00000E+00
         0.00000E+00
         0.00000E+00
         0.00000E+00
         0.00000E+00
         0.00000E+00
         0.00000E+00
         0.00000E+00
         0.00000E+00
         0.00000E+00
         0.00000E+00
         0.00000E+00
         0.00000E+00
         0.00000E+00
         0.00000E+00
         0.00000E+00
         0.00000E+00
         0.00000E+00
         0.00000E+00
         0.00000E+00
         0.00000E+00
         0.00000E+00
         0.00000E+00
         0.00000E+00
         0.00000E+00
         0.00000E+00
         0.00000E+00
         0.00000E+00
         0.00000E+00
         0.00000E+00
         0.00000E+00
         0.00000E+00
         0.00000E+00
         0.00000E+00
         0.00000E+00
         0.00000E+00
         0.00000E+00
         0.00000E+00
         0.00000E+00
         0.00000E+00
         0.00000E+00
         0.00000E+00
         0.00000E+00
         0.00000E+00
         0.00000E+00
         0.00000E+00
         0.00000E+00
         0.00000E+00
         0.00000E+00
         0.00000E+00
         0.00000E+00
         0.00000E+00
         0.00000E+00
         0.00000E+00
         0.00000E+00
         0.00000E+00
         0.00000E+00
         0.00000E+00
         0.00000E+00
         0.00000E+00
         0.00000E+00
         0.00000E+00
         0.00000E+00
         0.00000E+00
         0.00000E+00
         0.00000E+00
         0.00000E+00
         0.00000E+00
         0.00000E+00
         0.00000E+00
         0.00000E+00
         0.00000E+00
         0.00000E+00
         0.00000E+00
         0.00000E+00
         0.00000E+00
         0.00000E+00
         0.00000E+00
         0.00000E+00
         0.00000E+00
         0.00000E+00
         0.00000E+00
         0.00000E+00
         0.00000E+00
         0.00000E+00
         0.00000E+00
         0.00000E+00
         0.00000E+00
         0.00000E+00
         0.00000E+00
         0.00000E+00
         0.00000E+00
         0.00000E+00
         0.00000E+00
         0.00000E+00
         0.00000E+00
         0.00000E+00
         0.00000E+00
         0.00000E+00
         0.00000E+00
         0.00000E+00
         0.00000E+00
         0.00000E+00
         0.00000E+00
         0.00000E+00
         0.00000E+00
         0.00000E+00
         0.00000E+00
         0.00000E+00
         0.00000E+00
         0.00000E+00
         0.00000E+00
         0.00000E+00
         0.00000E+00
         0.00000E+00
         0.00000E+00
         0.00000E+00
         0.00000E+00
         0.00000E+00
         0.00000E+00
         0.00000E+00
         0.00000E+00
         0.00000E+00
         0.00000E+00
         0.00000E+00
         0.00000E+00
         0.00000E+00
         0.00000E+00
         0.00000E+00
         0.00000E+00
         0.00000E+00
         0.00000E+00
         0.00000E+00
         0.00000E+00
         0.00000E+00
         0.00000E+00
         0.00000E+00
         0.00000E+00
         0.00000E+00
         0.00000E+00
         0.00000E+00
         0.00000E+00
         0.00000E+00
         0.00000E+00
         0.00000E+00
         0.00000E+00
         0.00000E+00
         0.00000E+00
         0.00000E+00
         0.00000E+00
         0.00000E+00
         0.00000E+00
         0.00000E+00
         0.00000E+00
         0.00000E+00
         0.00000E+00
         0.00000E+00
         0.00000E+00
         0.00000E+00
         0.00000E+00
         0.00000E+00
         0.00000E+00
         0.00000E+00
         0.00000E+00
         0.00000E+00
         0.00000E+00
         0.00000E+00
         0.00000E+00
         0.00000E+00
         0.00000E+00
         0.00000E+00
         0.00000E+00
         0.00000E+00
         0.00000E+00
         0.00000E+00
         0.00000E+00
         0.00000E+00
         0.00000E+00
         0.00000E+00
         0.00000E+00
         0.00000E+00
         0.00000E+00
         0.00000E+00
         0.00000E+00
         0.00000E+00
         0.00000E+00
         0.00000E+00
         0.00000E+00
         0.00000E+00
         0.00000E+00
         0.00000E+00
         0.00000E+00
         0.00000E+00
         0.00000E+00
         0.00000E+00
         0.00000E+00
         0.00000E+00
         0.00000E+00
         0.00000E+00
         0.00000E+00
         0.00000E+00
         0.00000E+00
         0.00000E+00
         0.00000E+00
         0.00000E+00
         0.00000E+00
         0.00000E+00
         0.00000E+00
         0.00000E+00
         0.00000E+00
         0.00000E+00
         0.00000E+00
         0.00000E+00
         0.00000E+00
         0.00000E+00
         0.00000E+00
         0.00000E+00
         0.00000E+00
         0.00000E+00
         0.00000E+00
         0.00000E+00
         0.00000E+00
         0.00000E+00
         0.00000E+00
         0.00000E+00
         0.00000E+00
         0.00000E+00
         0.00000E+00
         0.00000E+00
         0.00000E+00
         0.00000E+00
         0.00000E+00
         0.00000E+00
         0.00000E+00
         0.00000E+00
         0.00000E+00
         0.00000E+00
         0.00000E+00
         0.00000E+00
         0.00000E+00
         0.00000E+00
         0.00000E+00
         0.00000E+00
         0.00000E+00
         0.00000E+00
         0.00000E+00
         0.00000E+00
         0.00000E+00
         0.00000E+00
         0.00000E+00
         0.00000E+00
         0.00000E+00
         0.00000E+00
         0.00000E+00
         0.00000E+00
         0.00000E+00
         0.00000E+00
         0.00000E+00
         0.00000E+00
         0.00000E+00
         0.00000E+00
         0.00000E+00
         0.00000E+00
         0.00000E+00
         0.00000E+00
         0.00000E+00
         0.00000E+00
         0.00000E+00
         0.00000E+00
         0.00000E+00
         0.00000E+00
         0.00000E+00
         0.00000E+00
         0.00000E+00
         0.00000E+00
         0.00000E+00
         0.00000E+00
         0.00000E+00
         0.00000E+00
         0.00000E+00
         0.00000E+00
         0.00000E+00
         0.00000E+00
         0.00000E+00
         0.00000E+00
         0.00000E+00
         0.00000E+00
         0.00000E+00
         0.00000E+00
         0.00000E+00
         0.00000E+00
         0.00000E+00
         0.00000E+00
         0.00000E+00
         0.00000E+00
         0.00000E+00
         0.00000E+00
         0.00000E+00
         0.00000E+00
         0.00000E+00
         0.00000E+00
         0.00000E+00
         0.00000E+00
         0.00000E+00
         0.00000E+00
         0.00000E+00
         0.00000E+00
         0.00000E+00
         0.00000E+00
         0.00000E+00
         0.00000E+00
         0.00000E+00
         0.00000E+00
         0.00000E+00
         0.00000E+00
         0.00000E+00
         0.00000E+00
         0.00000E+00
         0.00000E+00
         0.00000E+00
         0.00000E+00
         0.00000E+00
         0.00000E+00
         0.00000E+00
         0.00000E+00
         0.00000E+00
         0.00000E+00
         0.00000E+00
         0.00000E+00
         0.00000E+00
         0.00000E+00
         0.00000E+00
         0.00000E+00
         0.00000E+00
         0.00000E+00
         0.00000E+00
         0.00000E+00
         0.00000E+00
         0.00000E+00
         0.00000E+00
         0.00000E+00
         0.00000E+00
         0.00000E+00
         0.00000E+00
         0.00000E+00
         0.00000E+00
         0.00000E+00
         0.00000E+00
         0.00000E+00
         0.00000E+00
         0.00000E+00
         0.00000E+00
         0.00000E+00
         0.00000E+00
         0.00000E+00
         0.00000E+00
         0.00000E+00
         0.00000E+00
         0.00000E+00
         0.00000E+00
         0.00000E+00
         0.00000E+00
         0.00000E+00
         0.00000E+00
         0.00000E+00
         0.00000E+00
         0.00000E+00
         0.00000E+00
         0.00000E+00
         0.00000E+00
         0.00000E+00
         0.00000E+00
         0.00000E+00
         0.00000E+00
         0.00000E+00
         0.00000E+00
         0.00000E+00
         0.00000E+00
         0.00000E+00
         0.00000E+00
         0.00000E+00
         0.00000E+00
         0.00000E+00
         0.00000E+00
         0.00000E+00
         0.00000E+00
         0.00000E+00
         0.00000E+00
         0.00000E+00
         0.00000E+00
         0.00000E+00
         0.00000E+00
         0.00000E+00
         0.00000E+00
         0.00000E+00
         0.00000E+00
         0.00000E+00
         0.00000E+00
         0.00000E+00
         0.00000E+00
         0.00000E+00
         0.00000E+00
         0.00000E+00
         0.00000E+00
         0.00000E+00
         0.00000E+00
         0.00000E+00
         0.00000E+00
         0.00000E+00
         0.00000E+00
         0.00000E+00
         0.00000E+00
         0.00000E+00
         0.00000E+00
         0.00000E+00
         0.00000E+00
         0.00000E+00
         0.00000E+00
         0.00000E+00
         0.00000E+00
         0.00000E+00
         0.00000E+00
         0.00000E+00
         0.00000E+00
         0.00000E+00
         0.00000E+00
         0.00000E+00
         0.00000E+00
         0.00000E+00
         0.00000E+00
         0.00000E+00
         0.00000E+00
         0.00000E+00
         0.00000E+00
         0.00000E+00
         0.00000E+00
         0.00000E+00
         0.00000E+00
         0.00000E+00
         0.00000E+00
         0.00000E+00
         0.00000E+00
         0.00000E+00
         0.00000E+00
         0.00000E+00
         0.00000E+00
         0.00000E+00
         0.00000E+00
         0.00000E+00
         0.00000E+00
         0.00000E+00
         0.00000E+00
         0.00000E+00
         0.00000E+00
         0.00000E+00
         0.00000E+00
         0.00000E+00
         0.00000E+00
         0.00000E+00
         0.00000E+00
         0.00000E+00
         0.00000E+00
         0.00000E+00
         0.00000E+00
         0.00000E+00
         0.00000E+00
         0.00000E+00
         0.00000E+00
         0.00000E+00
         0.00000E+00
         0.00000E+00
         0.00000E+00
         0.00000E+00
         0.00000E+00
         0.00000E+00
         0.00000E+00
         0.00000E+00
         0.00000E+00
         0.00000E+00
         0.00000E+00
         0.00000E+00
         0.00000E+00
         0.00000E+00
         0.00000E+00
         0.00000E+00
         0.00000E+00
         0.00000E+00
         0.00000E+00
         0.00000E+00
         0.00000E+00
         0.00000E+00
         0.00000E+00
         0.00000E+00
         0.00000E+00
         0.00000E+00
         0.00000E+00
         0.00000E+00
         0.00000E+00
         0.00000E+00
         0.00000E+00
         0.00000E+00
         0.00000E+00
         0.00000E+00
         0.00000E+00
         0.00000E+00
         0.00000E+00
         0.00000E+00
         0.00000E+00
         0.00000E+00
         0.00000E+00
         0.00000E+00
         0.00000E+00
         0.00000E+00
         0.00000E+00
         0.00000E+00
         0.00000E+00
         0.00000E+00
         0.00000E+00
         0.00000E+00
         0.00000E+00
         0.00000E+00
         0.00000E+00
         0.00000E+00
         0.00000E+00
         0.00000E+00
         0.00000E+00
         0.00000E+00
         0.00000E+00
         0.00000E+00
         0.00000E+00
         0.00000E+00
         0.00000E+00
         0.00000E+00
         0.00000E+00
         0.00000E+00
         0.00000E+00
         0.00000E+00
         0.00000E+00
         0.00000E+00
         0.00000E+00
         0.00000E+00
         0.00000E+00
         0.00000E+00
         0.00000E+00
         0.00000E+00
         0.00000E+00
         0.00000E+00
         0.00000E+00
         0.00000E+00
         0.00000E+00
         0.00000E+00
         0.00000E+00
         0.00000E+00
         0.00000E+00
         0.00000E+00
         0.00000E+00
         0.00000E+00
         0.00000E+00
         0.00000E+00
         0.00000E+00
         0.00000E+00
         0.00000E+00
         0.00000E+00
         0.00000E+00
         0.00000E+00
         0.00000E+00
         0.00000E+00
         0.00000E+00
         0.00000E+00
         0.00000E+00
         0.00000E+00
         0.00000E+00
         0.00000E+00
         0.00000E+00
         0.00000E+00
         0.00000E+00
         0.00000E+00
         0.00000E+00
         0.00000E+00
         0.00000E+00
         0.00000E+00
         0.00000E+00
         0.00000E+00
         0.00000E+00
         0.00000E+00
         0.00000E+00
         0.00000E+00
         0.00000E+00
         0.00000E+00
         0.00000E+00
         0.00000E+00
         0.00000E+00
         0.00000E+00
         0.00000E+00
         0.00000E+00
         0.00000E+00
         0.00000E+00
         0.00000E+00
         0.00000E+00
         0.00000E+00
         0.00000E+00
         0.00000E+00
         0.00000E+00
         0.00000E+00
         0.00000E+00
         0.00000E+00
         0.00000E+00
         0.00000E+00
         0.00000E+00
         0.00000E+00
         0.00000E+00
         0.00000E+00
         0.00000E+00
         0.00000E+00
         0.00000E+00
         0.00000E+00
         0.00000E+00
         0.00000E+00
         0.00000E+00
         0.00000E+00
         0.00000E+00
         0.00000E+00
         0.00000E+00
         0.00000E+00
         0.00000E+00
         0.00000E+00
         0.00000E+00
         0.00000E+00
         0.00000E+00
         0.00000E+00
         0.00000E+00
         0.00000E+00
         0.00000E+00
         0.00000E+00
         0.00000E+00
         0.00000E+00
         0.00000E+00
         0.00000E+00
         0.00000E+00
         0.00000E+00
         0.00000E+00
         0.00000E+00
         0.00000E+00
         0.00000E+00
         0.00000E+00
         0.00000E+00
         0.00000E+00
         0.00000E+00
         0.00000E+00
         0.00000E+00
         0.00000E+00
         0.00000E+00
         0.00000E+00
         0.00000E+00
         0.00000E+00
         0.00000E+00
         0.00000E+00
         0.00000E+00
         0.00000E+00
         0.00000E+00
         0.00000E+00
         0.00000E+00
         0.00000E+00
         0.00000E+00
         0.00000E+00
         0.00000E+00
         0.00000E+00
         0.00000E+00
         0.00000E+00
         0.00000E+00
         0.00000E+00
         0.00000E+00
         0.00000E+00
         0.00000E+00
         0.00000E+00
         0.00000E+00
         0.00000E+00
         0.00000E+00
         0.00000E+00
         0.00000E+00
         0.00000E+00
         0.00000E+00
         0.00000E+00
         0.00000E+00
         0.00000E+00
         0.00000E+00
         0.00000E+00
         0.00000E+00
         0.00000E+00
         0.00000E+00
         0.00000E+00
         0.00000E+00
         0.00000E+00
         0.00000E+00
         0.00000E+00
         0.00000E+00
         0.00000E+00
         0.00000E+00
         0.00000E+00
         0.00000E+00
         0.00000E+00
         0.00000E+00
         0.00000E+00
         0.00000E+00
         0.00000E+00
         0.00000E+00
         0.00000E+00
         0.00000E+00
         0.00000E+00
         0.00000E+00
         0.00000E+00
         0.00000E+00
         0.00000E+00
         0.00000E+00
         0.00000E+00
         0.00000E+00
         0.00000E+00
         0.00000E+00
         0.00000E+00
         0.00000E+00
         0.00000E+00
         0.00000E+00
         0.00000E+00
         0.00000E+00
         0.00000E+00
         0.00000E+00
         0.00000E+00
         0.00000E+00
         0.00000E+00
         0.00000E+00
         0.00000E+00
         0.00000E+00
         0.00000E+00
         0.00000E+00
         0.00000E+00
         0.00000E+00
         0.00000E+00
         0.00000E+00
         0.00000E+00
         0.00000E+00
         0.00000E+00
         0.00000E+00
         0.00000E+00
         0.00000E+00
         0.00000E+00
         0.00000E+00
         0.00000E+00
         0.00000E+00
         0.00000E+00
         0.00000E+00
         0.00000E+00
         0.00000E+00
         0.00000E+00
         0.00000E+00
         0.00000E+00
         0.00000E+00
         0.00000E+00
         0.00000E+00
         0.00000E+00
         0.00000E+00
         0.00000E+00
         0.00000E+00
         0.00000E+00
         0.00000E+00
  
SCALARS                   max_wave_vel  double 1
LOOKUP_TABLE default
         0.00000E+00
         0.00000E+00
         0.00000E+00
         0.00000E+00
         0.00000E+00
         0.00000E+00
         0.00000E+00
         0.00000E+00
         0.00000E+00
         0.00000E+00
         0.00000E+00
         0.00000E+00
         0.00000E+00
         0.00000E+00
         0.00000E+00
         0.00000E+00
         0.00000E+00
         0.00000E+00
         0.00000E+00
         0.00000E+00
         0.00000E+00
         0.00000E+00
         0.00000E+00
         0.00000E+00
         0.00000E+00
         0.00000E+00
         0.00000E+00
         0.00000E+00
         0.00000E+00
         0.00000E+00
         0.00000E+00
         0.00000E+00
         0.00000E+00
         0.00000E+00
         0.00000E+00
         0.00000E+00
         0.00000E+00
         0.00000E+00
         0.00000E+00
         0.00000E+00
         0.00000E+00
         0.00000E+00
         0.00000E+00
         0.00000E+00
         0.00000E+00
         0.00000E+00
         0.00000E+00
         0.00000E+00
         0.00000E+00
         0.00000E+00
         0.00000E+00
         0.00000E+00
         0.00000E+00
         0.00000E+00
         0.00000E+00
         0.00000E+00
         0.00000E+00
         0.00000E+00
         0.00000E+00
         0.00000E+00
         0.00000E+00
         0.00000E+00
         0.00000E+00
         0.00000E+00
         0.00000E+00
         0.00000E+00
         0.00000E+00
         0.00000E+00
         0.00000E+00
         0.00000E+00
         0.00000E+00
         0.00000E+00
         0.00000E+00
         0.00000E+00
         0.00000E+00
         0.00000E+00
         0.00000E+00
         0.00000E+00
         0.00000E+00
         0.00000E+00
         0.00000E+00
         0.00000E+00
         0.00000E+00
         0.00000E+00
         0.00000E+00
         0.00000E+00
         0.00000E+00
         0.00000E+00
         0.00000E+00
         0.00000E+00
         0.00000E+00
         0.00000E+00
         0.00000E+00
         0.00000E+00
         0.00000E+00
         0.00000E+00
         0.00000E+00
         0.00000E+00
         0.00000E+00
         0.00000E+00
         0.00000E+00
         0.00000E+00
         0.00000E+00
         0.00000E+00
         0.00000E+00
         0.00000E+00
         0.00000E+00
         0.00000E+00
         0.00000E+00
         0.00000E+00
         0.00000E+00
         0.00000E+00
         0.00000E+00
         0.00000E+00
         0.00000E+00
         0.00000E+00
         0.00000E+00
         0.00000E+00
         0.00000E+00
         0.00000E+00
         0.00000E+00
         0.00000E+00
         0.00000E+00
         0.00000E+00
         0.00000E+00
         0.00000E+00
         0.00000E+00
         0.00000E+00
         0.00000E+00
         0.00000E+00
         0.00000E+00
         0.00000E+00
         0.00000E+00
         0.00000E+00
         0.00000E+00
         0.00000E+00
         0.00000E+00
         0.00000E+00
         0.00000E+00
         0.00000E+00
         0.00000E+00
         0.00000E+00
         0.00000E+00
         0.00000E+00
         0.00000E+00
         0.00000E+00
         0.00000E+00
         0.00000E+00
         0.00000E+00
         0.00000E+00
         0.00000E+00
         0.00000E+00
         0.00000E+00
         0.00000E+00
         0.00000E+00
         0.00000E+00
         0.00000E+00
         0.00000E+00
         0.00000E+00
         0.00000E+00
         0.00000E+00
         0.00000E+00
         0.00000E+00
         0.00000E+00
         0.00000E+00
         0.00000E+00
         0.00000E+00
         0.00000E+00
         0.00000E+00
         0.00000E+00
         0.00000E+00
         0.00000E+00
         0.00000E+00
         0.00000E+00
         0.00000E+00
         0.00000E+00
         0.00000E+00
         0.00000E+00
         0.00000E+00
         0.00000E+00
         0.00000E+00
         0.00000E+00
         0.00000E+00
         0.00000E+00
         0.00000E+00
         0.00000E+00
         0.00000E+00
         0.00000E+00
         0.00000E+00
         0.00000E+00
         0.00000E+00
         0.00000E+00
         0.00000E+00
         0.00000E+00
         0.00000E+00
         0.00000E+00
         0.00000E+00
         0.00000E+00
         0.00000E+00
         0.00000E+00
         0.00000E+00
         0.00000E+00
         0.00000E+00
         0.00000E+00
         0.00000E+00
         0.00000E+00
         0.00000E+00
         0.00000E+00
         0.00000E+00
         0.00000E+00
         0.00000E+00
         0.00000E+00
         0.00000E+00
         0.00000E+00
         0.00000E+00
         0.00000E+00
         0.00000E+00
         0.00000E+00
         0.00000E+00
         0.00000E+00
         0.00000E+00
         0.00000E+00
         0.00000E+00
         0.00000E+00
         0.00000E+00
         0.00000E+00
         0.00000E+00
         0.00000E+00
         0.00000E+00
         0.00000E+00
         0.00000E+00
         0.00000E+00
         0.00000E+00
         0.00000E+00
         0.00000E+00
         0.00000E+00
         0.00000E+00
         0.00000E+00
         0.00000E+00
         0.00000E+00
         0.00000E+00
         0.00000E+00
         0.00000E+00
         0.00000E+00
         0.00000E+00
         0.00000E+00
         0.00000E+00
         0.00000E+00
         0.00000E+00
         0.00000E+00
         0.00000E+00
         0.00000E+00
         0.00000E+00
         0.00000E+00
         0.00000E+00
         0.00000E+00
         0.00000E+00
         0.00000E+00
         0.00000E+00
         0.00000E+00
         0.00000E+00
         0.00000E+00
         0.00000E+00
         0.00000E+00
         0.00000E+00
         0.00000E+00
         0.00000E+00
         0.00000E+00
         0.00000E+00
         0.00000E+00
         0.00000E+00
         0.00000E+00
         0.00000E+00
         0.00000E+00
         0.00000E+00
         0.00000E+00
         0.00000E+00
         0.00000E+00
         0.00000E+00
         0.00000E+00
         0.00000E+00
         0.00000E+00
         0.00000E+00
         0.00000E+00
         0.00000E+00
         0.00000E+00
         0.00000E+00
         0.00000E+00
         0.00000E+00
         0.00000E+00
         0.00000E+00
         0.00000E+00
         0.00000E+00
         0.00000E+00
         0.00000E+00
         0.00000E+00
         0.00000E+00
         0.00000E+00
         0.00000E+00
         0.00000E+00
         0.00000E+00
         0.00000E+00
         0.00000E+00
         0.00000E+00
         0.00000E+00
         0.00000E+00
         0.00000E+00
         0.00000E+00
         0.00000E+00
         0.00000E+00
         0.00000E+00
         0.00000E+00
         0.00000E+00
         0.00000E+00
         0.00000E+00
         0.00000E+00
         0.00000E+00
         0.00000E+00
         0.00000E+00
         0.00000E+00
         0.00000E+00
         0.00000E+00
         0.00000E+00
         0.00000E+00
         0.00000E+00
         0.00000E+00
         0.00000E+00
         0.00000E+00
         0.00000E+00
         0.00000E+00
         0.00000E+00
         0.00000E+00
         0.00000E+00
         0.00000E+00
         0.00000E+00
         0.00000E+00
         0.00000E+00
         0.00000E+00
         0.00000E+00
         0.00000E+00
         0.00000E+00
         0.00000E+00
         0.00000E+00
         0.00000E+00
         0.00000E+00
         0.00000E+00
         0.00000E+00
         0.00000E+00
         0.00000E+00
         0.00000E+00
         0.00000E+00
         0.00000E+00
         0.00000E+00
         0.00000E+00
         0.00000E+00
         0.00000E+00
         0.00000E+00
         0.00000E+00
         0.00000E+00
         0.00000E+00
         0.00000E+00
         0.00000E+00
         0.00000E+00
         0.00000E+00
         0.00000E+00
         0.00000E+00
         0.00000E+00
         0.00000E+00
         0.00000E+00
         0.00000E+00
         0.00000E+00
         0.00000E+00
         0.00000E+00
         0.00000E+00
         0.00000E+00
         0.00000E+00
         0.00000E+00
         0.00000E+00
         0.00000E+00
         0.00000E+00
         0.00000E+00
         0.00000E+00
         0.00000E+00
         0.00000E+00
         0.00000E+00
         0.00000E+00
         0.00000E+00
         0.00000E+00
         0.00000E+00
         0.00000E+00
         0.00000E+00
         0.00000E+00
         0.00000E+00
         0.00000E+00
         0.00000E+00
         0.00000E+00
         0.00000E+00
         0.00000E+00
         0.00000E+00
         0.00000E+00
         0.00000E+00
         0.00000E+00
         0.00000E+00
         0.00000E+00
         0.00000E+00
         0.00000E+00
         0.00000E+00
         0.00000E+00
         0.00000E+00
         0.00000E+00
         0.00000E+00
         0.00000E+00
         0.00000E+00
         0.00000E+00
         0.00000E+00
         0.00000E+00
         0.00000E+00
         0.00000E+00
         0.00000E+00
         0.00000E+00
         0.00000E+00
         0.00000E+00
         0.00000E+00
         0.00000E+00
         0.00000E+00
         0.00000E+00
         0.00000E+00
         0.00000E+00
         0.00000E+00
         0.00000E+00
         0.00000E+00
         0.00000E+00
         0.00000E+00
         0.00000E+00
         0.00000E+00
         0.00000E+00
         0.00000E+00
         0.00000E+00
         0.00000E+00
         0.00000E+00
         0.00000E+00
         0.00000E+00
         0.00000E+00
         0.00000E+00
         0.00000E+00
         0.00000E+00
         0.00000E+00
         0.00000E+00
         0.00000E+00
         0.00000E+00
         0.00000E+00
         0.00000E+00
         0.00000E+00
         0.00000E+00
         0.00000E+00
         0.00000E+00
         0.00000E+00
         0.00000E+00
         0.00000E+00
         0.00000E+00
         0.00000E+00
         0.00000E+00
         0.00000E+00
         0.00000E+00
         0.00000E+00
         0.00000E+00
         0.00000E+00
         0.00000E+00
         0.00000E+00
         0.00000E+00
         0.00000E+00
         0.00000E+00
         0.00000E+00
         0.00000E+00
         0.00000E+00
         0.00000E+00
         0.00000E+00
         0.00000E+00
         0.00000E+00
         0.00000E+00
         0.00000E+00
         0.00000E+00
         0.00000E+00
         0.00000E+00
         0.00000E+00
         0.00000E+00
         0.00000E+00
         0.00000E+00
         0.00000E+00
         0.00000E+00
         0.00000E+00
         0.00000E+00
         0.00000E+00
         0.00000E+00
         0.00000E+00
         0.00000E+00
         0.00000E+00
         0.00000E+00
         0.00000E+00
         0.00000E+00
         0.00000E+00
         0.00000E+00
         0.00000E+00
         0.00000E+00
         0.00000E+00
         0.00000E+00
         0.00000E+00
         0.00000E+00
         0.00000E+00
         0.00000E+00
         0.00000E+00
         0.00000E+00
         0.00000E+00
         0.00000E+00
         0.00000E+00
         0.00000E+00
         0.00000E+00
         0.00000E+00
         0.00000E+00
         0.00000E+00
         0.00000E+00
         0.00000E+00
         0.00000E+00
         0.00000E+00
         0.00000E+00
         0.00000E+00
         0.00000E+00
         0.00000E+00
         0.00000E+00
         0.00000E+00
         0.00000E+00
         0.00000E+00
         0.00000E+00
         0.00000E+00
         0.00000E+00
         0.00000E+00
         0.00000E+00
         0.00000E+00
         0.00000E+00
         0.00000E+00
         0.00000E+00
         0.00000E+00
         0.00000E+00
         0.00000E+00
         0.00000E+00
         0.00000E+00
         0.00000E+00
         0.00000E+00
         0.00000E+00
         0.00000E+00
         0.00000E+00
         0.00000E+00
         0.00000E+00
         0.00000E+00
         0.00000E+00
         0.00000E+00
         0.00000E+00
         0.00000E+00
         0.00000E+00
         0.00000E+00
         0.00000E+00
         0.00000E+00
         0.00000E+00
         0.00000E+00
         0.00000E+00
         0.00000E+00
         0.00000E+00
         0.00000E+00
         0.00000E+00
         0.00000E+00
         0.00000E+00
         0.00000E+00
         0.00000E+00
         0.00000E+00
         0.00000E+00
         0.00000E+00
         0.00000E+00
         0.00000E+00
         0.00000E+00
         0.00000E+00
         0.00000E+00
         0.00000E+00
         0.00000E+00
         0.00000E+00
         0.00000E+00
         0.00000E+00
         0.00000E+00
         0.00000E+00
         0.00000E+00
         0.00000E+00
         0.00000E+00
         0.00000E+00
         0.00000E+00
         0.00000E+00
         0.00000E+00
         0.00000E+00
         0.00000E+00
         0.00000E+00
         0.00000E+00
         0.00000E+00
         0.00000E+00
         0.00000E+00
         0.00000E+00
         0.00000E+00
         0.00000E+00
         0.00000E+00
         0.00000E+00
         0.00000E+00
         0.00000E+00
         0.00000E+00
         0.00000E+00
         0.00000E+00
         0.00000E+00
         0.00000E+00
         0.00000E+00
         0.00000E+00
         0.00000E+00
         0.00000E+00
         0.00000E+00
         0.00000E+00
         0.00000E+00
         0.00000E+00
         0.00000E+00
         0.00000E+00
         0.00000E+00
         0.00000E+00
         0.00000E+00
         0.00000E+00
         0.00000E+00
         0.00000E+00
         0.00000E+00
         0.00000E+00
         0.00000E+00
         0.00000E+00
         0.00000E+00
         0.00000E+00
         0.00000E+00
         0.00000E+00
         0.00000E+00
         0.00000E+00
         0.00000E+00
         0.00000E+00
         0.00000E+00
         0.00000E+00
         0.00000E+00
         0.00000E+00
         0.00000E+00
         0.00000E+00
         0.00000E+00
         0.00000E+00
         0.00000E+00
         0.00000E+00
         0.00000E+00
         0.00000E+00
         0.00000E+00
         0.00000E+00
         0.00000E+00
         0.00000E+00
         0.00000E+00
         0.00000E+00
         0.00000E+00
         0.00000E+00
         0.00000E+00
         0.00000E+00
         0.00000E+00
         0.00000E+00
         0.00000E+00
         0.00000E+00
         0.00000E+00
         0.00000E+00
         0.00000E+00
         0.00000E+00
         0.00000E+00
         0.00000E+00
         0.00000E+00
         0.00000E+00
         0.00000E+00
         0.00000E+00
         0.00000E+00
         0.00000E+00
         0.00000E+00
         0.00000E+00
         0.00000E+00
         0.00000E+00
         0.00000E+00
         0.00000E+00
         0.00000E+00
         0.00000E+00
         0.00000E+00
         0.00000E+00
         0.00000E+00
         0.00000E+00
         0.00000E+00
         0.00000E+00
         0.00000E+00
         0.00000E+00
         0.00000E+00
         0.00000E+00
         0.00000E+00
         0.00000E+00
         0.00000E+00
         0.00000E+00
         0.00000E+00
         0.00000E+00
         0.00000E+00
         0.00000E+00
         0.00000E+00
         0.00000E+00
         0.00000E+00
         0.00000E+00
         0.00000E+00
         0.00000E+00
         0.00000E+00
         0.00000E+00
         0.00000E+00
         0.00000E+00
         0.00000E+00
         0.00000E+00
         0.00000E+00
         0.00000E+00
         0.00000E+00
         0.00000E+00
         0.00000E+00
         0.00000E+00
         0.00000E+00
         0.00000E+00
         0.00000E+00
         0.00000E+00
         0.00000E+00
         0.00000E+00
         0.00000E+00
         0.00000E+00
         0.00000E+00
         0.00000E+00
         0.00000E+00
         0.00000E+00
         0.00000E+00
         0.00000E+00
         0.00000E+00
         0.00000E+00
         0.00000E+00
         0.00000E+00
         0.00000E+00
         0.00000E+00
         0.00000E+00
         0.00000E+00
         0.00000E+00
         0.00000E+00
         0.00000E+00
         0.00000E+00
         0.00000E+00
         0.00000E+00
         0.00000E+00
         0.00000E+00
         0.00000E+00
         0.00000E+00
         0.00000E+00
         0.00000E+00
         0.00000E+00
         0.00000E+00
         0.00000E+00
         0.00000E+00
         0.00000E+00
         0.00000E+00
         0.00000E+00
         0.00000E+00
         0.00000E+00
         0.00000E+00
         0.00000E+00
         0.00000E+00
         0.00000E+00
         0.00000E+00
         0.00000E+00
         0.00000E+00
         0.00000E+00
         0.00000E+00
         0.00000E+00
         0.00000E+00
         0.00000E+00
         0.00000E+00
         0.00000E+00
         0.00000E+00
         0.00000E+00
         0.00000E+00
         0.00000E+00
         0.00000E+00
         0.00000E+00
         0.00000E+00
         0.00000E+00
         0.00000E+00
         0.00000E+00
         0.00000E+00
         0.00000E+00
         0.00000E+00
         0.00000E+00
         0.00000E+00
         0.00000E+00
         0.00000E+00
         0.00000E+00
         0.00000E+00
         0.00000E+00
         0.00000E+00
         0.00000E+00
         0.00000E+00
         0.00000E+00
         0.00000E+00
         0.00000E+00
         0.00000E+00
         0.00000E+00
         0.00000E+00
         0.00000E+00
         0.00000E+00
         0.00000E+00
         0.00000E+00
         0.00000E+00
         0.00000E+00
         0.00000E+00
         0.00000E+00
         0.00000E+00
         0.00000E+00
         0.00000E+00
         0.00000E+00
         0.00000E+00
         0.00000E+00
         0.00000E+00
         0.00000E+00
         0.00000E+00
         0.00000E+00
         0.00000E+00
         0.00000E+00
         0.00000E+00
         0.00000E+00
         0.00000E+00
         0.00000E+00
         0.00000E+00
         0.00000E+00
         0.00000E+00
         0.00000E+00
         0.00000E+00
         0.00000E+00
         0.00000E+00
         0.00000E+00
         0.00000E+00
         0.00000E+00
         0.00000E+00
         0.00000E+00
         0.00000E+00
         0.00000E+00
         0.00000E+00
         0.00000E+00
         0.00000E+00
         0.00000E+00
         0.00000E+00
         0.00000E+00
         0.00000E+00
         0.00000E+00
         0.00000E+00
         0.00000E+00
         0.00000E+00
         0.00000E+00
         0.00000E+00
         0.00000E+00
         0.00000E+00
         0.00000E+00
         0.00000E+00
         0.00000E+00
         0.00000E+00
         0.00000E+00
         0.00000E+00
         0.00000E+00
         0.00000E+00
         0.00000E+00
         0.00000E+00
         0.00000E+00
         0.00000E+00
         0.00000E+00
         0.00000E+00
         0.00000E+00
         0.00000E+00
         0.00000E+00
         0.00000E+00
         0.00000E+00
         0.00000E+00
         0.00000E+00
         0.00000E+00
         0.00000E+00
         0.00000E+00
         0.00000E+00
         0.00000E+00
         0.00000E+00
         0.00000E+00
         0.00000E+00
         0.00000E+00
         0.00000E+00
         0.00000E+00
         0.00000E+00
         0.00000E+00
         0.00000E+00
         0.00000E+00
         0.00000E+00
         0.00000E+00
         0.00000E+00
         0.00000E+00
         0.00000E+00
         0.00000E+00
         0.00000E+00
         0.00000E+00
         0.00000E+00
         0.00000E+00
         0.00000E+00
         0.00000E+00
         0.00000E+00
         0.00000E+00
         0.00000E+00
         0.00000E+00
         0.00000E+00
         0.00000E+00
         0.00000E+00
         0.00000E+00
         0.00000E+00
         0.00000E+00
         0.00000E+00
         0.00000E+00
         0.00000E+00
         0.00000E+00
         0.00000E+00
         0.00000E+00
         0.00000E+00
         0.00000E+00
         0.00000E+00
         0.00000E+00
         0.00000E+00
         0.00000E+00
         0.00000E+00
         0.00000E+00
         0.00000E+00
         0.00000E+00
         0.00000E+00
         0.00000E+00
         0.00000E+00
         0.00000E+00
         0.00000E+00
         0.00000E+00
         0.00000E+00
         0.00000E+00
         0.00000E+00
         0.00000E+00
         0.00000E+00
         0.00000E+00
         0.00000E+00
         0.00000E+00
         0.00000E+00
         0.00000E+00
         0.00000E+00
         0.00000E+00
         0.00000E+00
         0.00000E+00
         0.00000E+00
         0.00000E+00
         0.00000E+00
         0.00000E+00
         0.00000E+00
         0.00000E+00
         0.00000E+00
         0.00000E+00
         0.00000E+00
         0.00000E+00
         0.00000E+00
         0.00000E+00
         0.00000E+00
         0.00000E+00
         0.00000E+00
         0.00000E+00
         0.00000E+00
         0.00000E+00
         0.00000E+00
         0.00000E+00
         0.00000E+00
         0.00000E+00
         0.00000E+00
         0.00000E+00
         0.00000E+00
         0.00000E+00
         0.00000E+00
         0.00000E+00
         0.00000E+00
         0.00000E+00
         0.00000E+00
         0.00000E+00
         0.00000E+00
         0.00000E+00
         0.00000E+00
         0.00000E+00
         0.00000E+00
         0.00000E+00
         0.00000E+00
         0.00000E+00
         0.00000E+00
         0.00000E+00
         0.00000E+00
         0.00000E+00
         0.00000E+00
         0.00000E+00
         0.00000E+00
         0.00000E+00
         0.00000E+00
         0.00000E+00
         0.00000E+00
         0.00000E+00
         0.00000E+00
         0.00000E+00
         0.00000E+00
         0.00000E+00
         0.00000E+00
         0.00000E+00
         0.00000E+00
         0.00000E+00
         0.00000E+00
         0.00000E+00
         0.00000E+00
         0.00000E+00
         0.00000E+00
         0.00000E+00
         0.00000E+00
         0.00000E+00
         0.00000E+00
         0.00000E+00
         0.00000E+00
         0.00000E+00
         0.00000E+00
         0.00000E+00
         0.00000E+00
         0.00000E+00
         0.00000E+00
         0.00000E+00
         0.00000E+00
         0.00000E+00
         0.00000E+00
         0.00000E+00
         0.00000E+00
         0.00000E+00
         0.00000E+00
         0.00000E+00
         0.00000E+00
         0.00000E+00
         0.00000E+00
         0.00000E+00
         0.00000E+00
         0.00000E+00
         0.00000E+00
         0.00000E+00
         0.00000E+00
         0.00000E+00
         0.00000E+00
         0.00000E+00
         0.00000E+00
         0.00000E+00
         0.00000E+00
         0.00000E+00
         0.00000E+00
         0.00000E+00
         0.00000E+00
         0.00000E+00
         0.00000E+00
         0.00000E+00
         0.00000E+00
         0.00000E+00
         0.00000E+00
         0.00000E+00
         0.00000E+00
         0.00000E+00
         0.00000E+00
         0.00000E+00
         0.00000E+00
         0.00000E+00
         0.00000E+00
         0.00000E+00
         0.00000E+00
         0.00000E+00
         0.00000E+00
         0.00000E+00
         0.00000E+00
         0.00000E+00
         0.00000E+00
         0.00000E+00
         0.00000E+00
         0.00000E+00
         0.00000E+00
         0.00000E+00
         0.00000E+00
         0.00000E+00
         0.00000E+00
         0.00000E+00
         0.00000E+00
         0.00000E+00
         0.00000E+00
         0.00000E+00
         0.00000E+00
         0.00000E+00
         0.00000E+00
         0.00000E+00
         0.00000E+00
         0.00000E+00
         0.00000E+00
         0.00000E+00
         0.00000E+00
         0.00000E+00
         0.00000E+00
         0.00000E+00
         0.00000E+00
         0.00000E+00
         0.00000E+00
         0.00000E+00
         0.00000E+00
         0.00000E+00
         0.00000E+00
         0.00000E+00
         0.00000E+00
         0.00000E+00
         0.00000E+00
         0.00000E+00
         0.00000E+00
         0.00000E+00
         0.00000E+00
         0.00000E+00
         0.00000E+00
         0.00000E+00
         0.00000E+00
         0.00000E+00
         0.00000E+00
         0.00000E+00
         0.00000E+00
         0.00000E+00
         0.00000E+00
         0.00000E+00
         0.00000E+00
         0.00000E+00
         0.00000E+00
         0.00000E+00
         0.00000E+00
         0.00000E+00
         0.00000E+00
         0.00000E+00
         0.00000E+00
         0.00000E+00
         0.00000E+00
         0.00000E+00
         0.00000E+00
         0.00000E+00
         0.00000E+00
         0.00000E+00
         0.00000E+00
         0.00000E+00
         0.00000E+00
         0.00000E+00
         0.00000E+00
         0.00000E+00
         0.00000E+00
         0.00000E+00
         0.00000E+00
         0.00000E+00
         0.00000E+00
         0.00000E+00
         0.00000E+00
         0.00000E+00
         0.00000E+00
         0.00000E+00
         0.00000E+00
         0.00000E+00
         0.00000E+00
         0.00000E+00
         0.00000E+00
         0.00000E+00
         0.00000E+00
         0.00000E+00
         0.00000E+00
         0.00000E+00
         0.00000E+00
         0.00000E+00
         0.00000E+00
         0.00000E+00
         0.00000E+00
         0.00000E+00
         0.00000E+00
         0.00000E+00
         0.00000E+00
         0.00000E+00
         0.00000E+00
         0.00000E+00
         0.00000E+00
         0.00000E+00
         0.00000E+00
         0.00000E+00
         0.00000E+00
         0.00000E+00
         0.00000E+00
         0.00000E+00
         0.00000E+00
         0.00000E+00
         0.00000E+00
         0.00000E+00
         0.00000E+00
         0.00000E+00
         0.00000E+00
         0.00000E+00
         0.00000E+00
         0.00000E+00
         0.00000E+00
         0.00000E+00
         0.00000E+00
         0.00000E+00
         0.00000E+00
         0.00000E+00
         0.00000E+00
         0.00000E+00
         0.00000E+00
         0.00000E+00
         0.00000E+00
         0.00000E+00
         0.00000E+00
         0.00000E+00
         0.00000E+00
         0.00000E+00
         0.00000E+00
         0.00000E+00
         0.00000E+00
         0.00000E+00
         0.00000E+00
         0.00000E+00
         0.00000E+00
         0.00000E+00
         0.00000E+00
         0.00000E+00
         0.00000E+00
         0.00000E+00
         0.00000E+00
         0.00000E+00
         0.00000E+00
         0.00000E+00
         0.00000E+00
         0.00000E+00
         0.00000E+00
         0.00000E+00
         0.00000E+00
         0.00000E+00
         0.00000E+00
         0.00000E+00
         0.00000E+00
         0.00000E+00
         0.00000E+00
         0.00000E+00
         0.00000E+00
         0.00000E+00
         0.00000E+00
         0.00000E+00
         0.00000E+00
         0.00000E+00
         0.00000E+00
         0.00000E+00
         0.00000E+00
         0.00000E+00
         0.00000E+00
         0.00000E+00
         0.00000E+00
         0.00000E+00
         0.00000E+00
         0.00000E+00
         0.00000E+00
         0.00000E+00
         0.00000E+00
         0.00000E+00
         0.00000E+00
         0.00000E+00
         0.00000E+00
         0.00000E+00
         0.00000E+00
         0.00000E+00
         0.00000E+00
         0.00000E+00
         0.00000E+00
         0.00000E+00
         0.00000E+00
         0.00000E+00
         0.00000E+00
         0.00000E+00
         0.00000E+00
         0.00000E+00
         0.00000E+00
         0.00000E+00
         0.00000E+00
         0.00000E+00
         0.00000E+00
         0.00000E+00
         0.00000E+00
         0.00000E+00
         0.00000E+00
         0.00000E+00
         0.00000E+00
         0.00000E+00
         0.00000E+00
         0.00000E+00
         0.00000E+00
         0.00000E+00
         0.00000E+00
         0.00000E+00
         0.00000E+00
         0.00000E+00
         0.00000E+00
         0.00000E+00
         0.00000E+00
         0.00000E+00
         0.00000E+00
         0.00000E+00
         0.00000E+00
         0.00000E+00
         0.00000E+00
         0.00000E+00
         0.00000E+00
         0.00000E+00
         0.00000E+00
         0.00000E+00
         0.00000E+00
         0.00000E+00
         0.00000E+00
         0.00000E+00
         0.00000E+00
         0.00000E+00
         0.00000E+00
         0.00000E+00
         0.00000E+00
         0.00000E+00
         0.00000E+00
         0.00000E+00
         0.00000E+00
         0.00000E+00
         0.00000E+00
         0.00000E+00
         0.00000E+00
         0.00000E+00
         0.00000E+00
         0.00000E+00
         0.00000E+00
         0.00000E+00
         0.00000E+00
         0.00000E+00
         0.00000E+00
         0.00000E+00
         0.00000E+00
         0.00000E+00
         0.00000E+00
         0.00000E+00
         0.00000E+00
         0.00000E+00
         0.00000E+00
         0.00000E+00
         0.00000E+00
         0.00000E+00
         0.00000E+00
         0.00000E+00
         0.00000E+00
         0.00000E+00
         0.00000E+00
         0.00000E+00
         0.00000E+00
         0.00000E+00
         0.00000E+00
         0.00000E+00
         0.00000E+00
         0.00000E+00
         0.00000E+00
         0.00000E+00
         0.00000E+00
         0.00000E+00
         0.00000E+00
         0.00000E+00
         0.00000E+00
         0.00000E+00
         0.00000E+00
         0.00000E+00
         0.00000E+00
         0.00000E+00
         0.00000E+00
         0.00000E+00
         0.00000E+00
         0.00000E+00
         0.00000E+00
         0.00000E+00
         0.00000E+00
         0.00000E+00
         0.00000E+00
         0.00000E+00
         0.00000E+00
         0.00000E+00
         0.00000E+00
         0.00000E+00
         0.00000E+00
         0.00000E+00
         0.00000E+00
         0.00000E+00
         0.00000E+00
         0.00000E+00
         0.00000E+00
         0.00000E+00
         0.00000E+00
         0.00000E+00
         0.00000E+00
         0.00000E+00
         0.00000E+00
         0.00000E+00
         0.00000E+00
         0.00000E+00
         0.00000E+00
         0.00000E+00
         0.00000E+00
         0.00000E+00
         0.00000E+00
         0.00000E+00
         0.00000E+00
         0.00000E+00
         0.00000E+00
         0.00000E+00
         0.00000E+00
         0.00000E+00
         0.00000E+00
         0.00000E+00
         0.00000E+00
         0.00000E+00
         0.00000E+00
         0.00000E+00
         0.00000E+00
         0.00000E+00
         0.00000E+00
         0.00000E+00
         0.00000E+00
         0.00000E+00
         0.00000E+00
         0.00000E+00
         0.00000E+00
         0.00000E+00
         0.00000E+00
         0.00000E+00
         0.00000E+00
         0.00000E+00
         0.00000E+00
         0.00000E+00
         0.00000E+00
         0.00000E+00
         0.00000E+00
         0.00000E+00
         0.00000E+00
         0.00000E+00
         0.00000E+00
         0.00000E+00
         0.00000E+00
         0.00000E+00
         0.00000E+00
         0.00000E+00
         0.00000E+00
         0.00000E+00
         0.00000E+00
         0.00000E+00
         0.00000E+00
         0.00000E+00
         0.00000E+00
         0.00000E+00
         0.00000E+00
         0.00000E+00
         0.00000E+00
         0.00000E+00
         0.00000E+00
         0.00000E+00
         0.00000E+00
         0.00000E+00
         0.00000E+00
         0.00000E+00
         0.00000E+00
         0.00000E+00
         0.00000E+00
         0.00000E+00
         0.00000E+00
         0.00000E+00
         0.00000E+00
         0.00000E+00
         0.00000E+00
         0.00000E+00
         0.00000E+00
         0.00000E+00
         0.00000E+00
         0.00000E+00
         0.00000E+00
         0.00000E+00
         0.00000E+00
         0.00000E+00
         0.00000E+00
         0.00000E+00
         0.00000E+00
         0.00000E+00
         0.00000E+00
         0.00000E+00
         0.00000E+00
         0.00000E+00
         0.00000E+00
         0.00000E+00
         0.00000E+00
         0.00000E+00
         0.00000E+00
         0.00000E+00
         0.00000E+00
         0.00000E+00
         0.00000E+00
         0.00000E+00
         0.00000E+00
         0.00000E+00
         0.00000E+00
         0.00000E+00
         0.00000E+00
         0.00000E+00
         0.00000E+00
         0.00000E+00
         0.00000E+00
         0.00000E+00
         0.00000E+00
         0.00000E+00
         0.00000E+00
         0.00000E+00
         0.00000E+00
         0.00000E+00
         0.00000E+00
         0.00000E+00
         0.00000E+00
         0.00000E+00
         0.00000E+00
         0.00000E+00
         0.00000E+00
         0.00000E+00
         0.00000E+00
         0.00000E+00
         0.00000E+00
         0.00000E+00
         0.00000E+00
         0.00000E+00
         0.00000E+00
         0.00000E+00
         0.00000E+00
         0.00000E+00
         0.00000E+00
         0.00000E+00
         0.00000E+00
         0.00000E+00
         0.00000E+00
         0.00000E+00
         0.00000E+00
         0.00000E+00
         0.00000E+00
         0.00000E+00
         0.00000E+00
         0.00000E+00
         0.00000E+00
         0.00000E+00
         0.00000E+00
         0.00000E+00
         0.00000E+00
         0.00000E+00
         0.00000E+00
         0.00000E+00
         0.00000E+00
         0.00000E+00
         0.00000E+00
         0.00000E+00
         0.00000E+00
         0.00000E+00
         0.00000E+00
         0.00000E+00
         0.00000E+00
         0.00000E+00
         0.00000E+00
         0.00000E+00
         0.00000E+00
         0.00000E+00
         0.00000E+00
         0.00000E+00
         0.00000E+00
         0.00000E+00
         0.00000E+00
         0.00000E+00
         0.00000E+00
         0.00000E+00
         0.00000E+00
         0.00000E+00
         0.00000E+00
         0.00000E+00
         0.00000E+00
         0.00000E+00
         0.00000E+00
         0.00000E+00
         0.00000E+00
         0.00000E+00
         0.00000E+00
         0.00000E+00
         0.00000E+00
         0.00000E+00
         0.00000E+00
         0.00000E+00
         0.00000E+00
         0.00000E+00
         0.00000E+00
         0.00000E+00
         0.00000E+00
         0.00000E+00
         0.00000E+00
         0.00000E+00
         0.00000E+00
         0.00000E+00
         0.00000E+00
         0.00000E+00
         0.00000E+00
         0.00000E+00
         0.00000E+00
         0.00000E+00
         0.00000E+00
         0.00000E+00
         0.00000E+00
         0.00000E+00
         0.00000E+00
         0.00000E+00
         0.00000E+00
         0.00000E+00
         0.00000E+00
         0.00000E+00
         0.00000E+00
         0.00000E+00
         0.00000E+00
         0.00000E+00
         0.00000E+00
         0.00000E+00
         0.00000E+00
         0.00000E+00
         0.00000E+00
         0.00000E+00
         0.00000E+00
         0.00000E+00
         0.00000E+00
         0.00000E+00
         0.00000E+00
         0.00000E+00
         0.00000E+00
         0.00000E+00
         0.00000E+00
         0.00000E+00
         0.00000E+00
         0.00000E+00
         0.00000E+00
         0.00000E+00
         0.00000E+00
         0.00000E+00
         0.00000E+00
         0.00000E+00
         0.00000E+00
         0.00000E+00
         0.00000E+00
         0.00000E+00
         0.00000E+00
         0.00000E+00
         0.00000E+00
         0.00000E+00
         0.00000E+00
         0.00000E+00
         0.00000E+00
         0.00000E+00
         0.00000E+00
         0.00000E+00
         0.00000E+00
         0.00000E+00
         0.00000E+00
         0.00000E+00
         0.00000E+00
         0.00000E+00
         0.00000E+00
         0.00000E+00
         0.00000E+00
         0.00000E+00
         0.00000E+00
         0.00000E+00
         0.00000E+00
         0.00000E+00
         0.00000E+00
         0.00000E+00
         0.00000E+00
         0.00000E+00
         0.00000E+00
         0.00000E+00
         0.00000E+00
         0.00000E+00
         0.00000E+00
         0.00000E+00
         0.00000E+00
         0.00000E+00
         0.00000E+00
         0.00000E+00
         0.00000E+00
         0.00000E+00
         0.00000E+00
         0.00000E+00
         0.00000E+00
         0.00000E+00
         0.00000E+00
         0.00000E+00
         0.00000E+00
         0.00000E+00
         0.00000E+00
         0.00000E+00
         0.00000E+00
         0.00000E+00
         0.00000E+00
         0.00000E+00
         0.00000E+00
         0.00000E+00
         0.00000E+00
         0.00000E+00
         0.00000E+00
         0.00000E+00
         0.00000E+00
         0.00000E+00
         0.00000E+00
         0.00000E+00
         0.00000E+00
         0.00000E+00
         0.00000E+00
         0.00000E+00
         0.00000E+00
         0.00000E+00
         0.00000E+00
         0.00000E+00
         0.00000E+00
         0.00000E+00
         0.00000E+00
         0.00000E+00
         0.00000E+00
         0.00000E+00
         0.00000E+00
         0.00000E+00
         0.00000E+00
         0.00000E+00
         0.00000E+00
         0.00000E+00
         0.00000E+00
         0.00000E+00
         0.00000E+00
         0.00000E+00
         0.00000E+00
         0.00000E+00
         0.00000E+00
         0.00000E+00
         0.00000E+00
         0.00000E+00
         0.00000E+00
         0.00000E+00
         0.00000E+00
         0.00000E+00
         0.00000E+00
         0.00000E+00
         0.00000E+00
         0.00000E+00
         0.00000E+00
         0.00000E+00
         0.00000E+00
         0.00000E+00
         0.00000E+00
         0.00000E+00
         0.00000E+00
         0.00000E+00
         0.00000E+00
         0.00000E+00
         0.00000E+00
         0.00000E+00
         0.00000E+00
         0.00000E+00
         0.00000E+00
         0.00000E+00
         0.00000E+00
         0.00000E+00
         0.00000E+00
         0.00000E+00
         0.00000E+00
         0.00000E+00
         0.00000E+00
         0.00000E+00
         0.00000E+00
         0.00000E+00
         0.00000E+00
         0.00000E+00
         0.00000E+00
         0.00000E+00
         0.00000E+00
         0.00000E+00
         0.00000E+00
         0.00000E+00
         0.00000E+00
         0.00000E+00
         0.00000E+00
         0.00000E+00
         0.00000E+00
         0.00000E+00
         0.00000E+00
         0.00000E+00
         0.00000E+00
         0.00000E+00
         0.00000E+00
         0.00000E+00
         0.00000E+00
         0.00000E+00
         0.00000E+00
         0.00000E+00
         0.00000E+00
         0.00000E+00
         0.00000E+00
         0.00000E+00
         0.00000E+00
         0.00000E+00
         0.00000E+00
         0.00000E+00
         0.00000E+00
         0.00000E+00
         0.00000E+00
         0.00000E+00
         0.00000E+00
         0.00000E+00
         0.00000E+00
         0.00000E+00
         0.00000E+00
         0.00000E+00
         0.00000E+00
         0.00000E+00
         0.00000E+00
         0.00000E+00
         0.00000E+00
         0.00000E+00
         0.00000E+00
         0.00000E+00
         0.00000E+00
         0.00000E+00
         0.00000E+00
         0.00000E+00
         0.00000E+00
         0.00000E+00
         0.00000E+00
         0.00000E+00
         0.00000E+00
         0.00000E+00
         0.00000E+00
         0.00000E+00
         0.00000E+00
         0.00000E+00
         0.00000E+00
         0.00000E+00
         0.00000E+00
         0.00000E+00
         0.00000E+00
         0.00000E+00
         0.00000E+00
         0.00000E+00
         0.00000E+00
         0.00000E+00
         0.00000E+00
         0.00000E+00
         0.00000E+00
         0.00000E+00
         0.00000E+00
         0.00000E+00
         0.00000E+00
         0.00000E+00
         0.00000E+00
         0.00000E+00
         0.00000E+00
         0.00000E+00
         0.00000E+00
         0.00000E+00
         0.00000E+00
         0.00000E+00
         0.00000E+00
         0.00000E+00
         0.00000E+00
         0.00000E+00
         0.00000E+00
         0.00000E+00
         0.00000E+00
         0.00000E+00
         0.00000E+00
         0.00000E+00
         0.00000E+00
         0.00000E+00
         0.00000E+00
         0.00000E+00
         0.00000E+00
         0.00000E+00
         0.00000E+00
         0.00000E+00
         0.00000E+00
         0.00000E+00
         0.00000E+00
         0.00000E+00
         0.00000E+00
         0.00000E+00
         0.00000E+00
         0.00000E+00
         0.00000E+00
         0.00000E+00
         0.00000E+00
         0.00000E+00
         0.00000E+00
         0.00000E+00
         0.00000E+00
         0.00000E+00
         0.00000E+00
         0.00000E+00
         0.00000E+00
         0.00000E+00
         0.00000E+00
         0.00000E+00
         0.00000E+00
         0.00000E+00
         0.00000E+00
         0.00000E+00
         0.00000E+00
         0.00000E+00
         0.00000E+00
         0.00000E+00
         0.00000E+00
         0.00000E+00
         0.00000E+00
         0.00000E+00
         0.00000E+00
         0.00000E+00
         0.00000E+00
         0.00000E+00
         0.00000E+00
         0.00000E+00
         0.00000E+00
         0.00000E+00
         0.00000E+00
         0.00000E+00
         0.00000E+00
         0.00000E+00
         0.00000E+00
         0.00000E+00
         0.00000E+00
         0.00000E+00
         0.00000E+00
         0.00000E+00
         0.00000E+00
  
SCALARS                      eps_shear  double 1
LOOKUP_TABLE default
         0.00000E+00
         0.00000E+00
         0.00000E+00
         0.00000E+00
         0.00000E+00
         0.00000E+00
         0.00000E+00
         0.00000E+00
         0.00000E+00
         0.00000E+00
         0.00000E+00
         0.00000E+00
         0.00000E+00
         0.00000E+00
         0.00000E+00
         0.00000E+00
         0.00000E+00
         0.00000E+00
         0.00000E+00
         0.00000E+00
         0.00000E+00
         0.00000E+00
         0.00000E+00
         0.00000E+00
         0.00000E+00
         0.00000E+00
         0.00000E+00
         0.00000E+00
         0.00000E+00
         0.00000E+00
         0.00000E+00
         0.00000E+00
         0.00000E+00
         0.00000E+00
         0.00000E+00
         0.00000E+00
         0.00000E+00
         0.00000E+00
         0.00000E+00
         0.00000E+00
         0.00000E+00
         0.00000E+00
         0.00000E+00
         0.00000E+00
         0.00000E+00
         0.00000E+00
         0.00000E+00
         0.00000E+00
         0.00000E+00
         0.00000E+00
         0.00000E+00
         0.00000E+00
         0.00000E+00
         0.00000E+00
         0.00000E+00
         0.00000E+00
         0.00000E+00
         0.00000E+00
         0.00000E+00
         0.00000E+00
         0.00000E+00
         0.00000E+00
         0.00000E+00
         0.00000E+00
         0.00000E+00
         0.00000E+00
         0.00000E+00
         0.00000E+00
         0.00000E+00
         0.00000E+00
         0.00000E+00
         0.00000E+00
         0.00000E+00
         0.00000E+00
         0.00000E+00
         0.00000E+00
         0.00000E+00
         0.00000E+00
         0.00000E+00
         0.00000E+00
         0.00000E+00
         0.00000E+00
         0.00000E+00
         0.00000E+00
         0.00000E+00
         0.00000E+00
         0.00000E+00
         0.00000E+00
         0.00000E+00
         0.00000E+00
         0.00000E+00
         0.00000E+00
         0.00000E+00
         0.00000E+00
         0.00000E+00
         0.00000E+00
         0.00000E+00
         0.00000E+00
         0.00000E+00
         0.00000E+00
         0.00000E+00
         0.00000E+00
         0.00000E+00
         0.00000E+00
         0.00000E+00
         0.00000E+00
         0.00000E+00
         0.00000E+00
         0.00000E+00
         0.00000E+00
         0.00000E+00
         0.00000E+00
         0.00000E+00
         0.00000E+00
         0.00000E+00
         0.00000E+00
         0.00000E+00
         0.00000E+00
         0.00000E+00
         0.00000E+00
         0.00000E+00
         0.00000E+00
         0.00000E+00
         0.00000E+00
         0.00000E+00
         0.00000E+00
         0.00000E+00
         0.00000E+00
         0.00000E+00
         0.00000E+00
         0.00000E+00
         0.00000E+00
         0.00000E+00
         0.00000E+00
         0.00000E+00
         0.00000E+00
         0.00000E+00
         0.00000E+00
         0.00000E+00
         0.00000E+00
         0.00000E+00
         0.00000E+00
         0.00000E+00
         0.00000E+00
         0.00000E+00
         0.00000E+00
         0.00000E+00
         0.00000E+00
         0.00000E+00
         0.00000E+00
         0.00000E+00
         0.00000E+00
         0.00000E+00
         0.00000E+00
         0.00000E+00
         0.00000E+00
         0.00000E+00
         0.00000E+00
         0.00000E+00
         0.00000E+00
         0.00000E+00
         0.00000E+00
         0.00000E+00
         0.00000E+00
         0.00000E+00
         0.00000E+00
         0.00000E+00
         0.00000E+00
         0.00000E+00
         0.00000E+00
         0.00000E+00
         0.00000E+00
         0.00000E+00
         0.00000E+00
         0.00000E+00
         0.00000E+00
         0.00000E+00
         0.00000E+00
         0.00000E+00
         0.00000E+00
         0.00000E+00
         0.00000E+00
         0.00000E+00
         0.00000E+00
         0.00000E+00
         0.00000E+00
         0.00000E+00
         0.00000E+00
         0.00000E+00
         0.00000E+00
         0.00000E+00
         0.00000E+00
         0.00000E+00
         0.00000E+00
         0.00000E+00
         0.00000E+00
         0.00000E+00
         0.00000E+00
         0.00000E+00
         0.00000E+00
         0.00000E+00
         0.00000E+00
         0.00000E+00
         0.00000E+00
         0.00000E+00
         0.00000E+00
         0.00000E+00
         0.00000E+00
         0.00000E+00
         0.00000E+00
         0.00000E+00
         0.00000E+00
         0.00000E+00
         0.00000E+00
         0.00000E+00
         0.00000E+00
         0.00000E+00
         0.00000E+00
         0.00000E+00
         0.00000E+00
         0.00000E+00
         0.00000E+00
         0.00000E+00
         0.00000E+00
         0.00000E+00
         0.00000E+00
         0.00000E+00
         0.00000E+00
         0.00000E+00
         0.00000E+00
         0.00000E+00
         0.00000E+00
         0.00000E+00
         0.00000E+00
         0.00000E+00
         0.00000E+00
         0.00000E+00
         0.00000E+00
         0.00000E+00
         0.00000E+00
         0.00000E+00
         0.00000E+00
         0.00000E+00
         0.00000E+00
         0.00000E+00
         0.00000E+00
         0.00000E+00
         0.00000E+00
         0.00000E+00
         0.00000E+00
         0.00000E+00
         0.00000E+00
         0.00000E+00
         0.00000E+00
         0.00000E+00
         0.00000E+00
         0.00000E+00
         0.00000E+00
         0.00000E+00
         0.00000E+00
         0.00000E+00
         0.00000E+00
         0.00000E+00
         0.00000E+00
         0.00000E+00
         0.00000E+00
         0.00000E+00
         0.00000E+00
         0.00000E+00
         0.00000E+00
         0.00000E+00
         0.00000E+00
         0.00000E+00
         0.00000E+00
         0.00000E+00
         0.00000E+00
         0.00000E+00
         0.00000E+00
         0.00000E+00
         0.00000E+00
         0.00000E+00
         0.00000E+00
         0.00000E+00
         0.00000E+00
         0.00000E+00
         0.00000E+00
         0.00000E+00
         0.00000E+00
         0.00000E+00
         0.00000E+00
         0.00000E+00
         0.00000E+00
         0.00000E+00
         0.00000E+00
         0.00000E+00
         0.00000E+00
         0.00000E+00
         0.00000E+00
         0.00000E+00
         0.00000E+00
         0.00000E+00
         0.00000E+00
         0.00000E+00
         0.00000E+00
         0.00000E+00
         0.00000E+00
         0.00000E+00
         0.00000E+00
         0.00000E+00
         0.00000E+00
         0.00000E+00
         0.00000E+00
         0.00000E+00
         0.00000E+00
         0.00000E+00
         0.00000E+00
         0.00000E+00
         0.00000E+00
         0.00000E+00
         0.00000E+00
         0.00000E+00
         0.00000E+00
         0.00000E+00
         0.00000E+00
         0.00000E+00
         0.00000E+00
         0.00000E+00
         0.00000E+00
         0.00000E+00
         0.00000E+00
         0.00000E+00
         0.00000E+00
         0.00000E+00
         0.00000E+00
         0.00000E+00
         0.00000E+00
         0.00000E+00
         0.00000E+00
         0.00000E+00
         0.00000E+00
         0.00000E+00
         0.00000E+00
         0.00000E+00
         0.00000E+00
         0.00000E+00
         0.00000E+00
         0.00000E+00
         0.00000E+00
         0.00000E+00
         0.00000E+00
         0.00000E+00
         0.00000E+00
         0.00000E+00
         0.00000E+00
         0.00000E+00
         0.00000E+00
         0.00000E+00
         0.00000E+00
         0.00000E+00
         0.00000E+00
         0.00000E+00
         0.00000E+00
         0.00000E+00
         0.00000E+00
         0.00000E+00
         0.00000E+00
         0.00000E+00
         0.00000E+00
         0.00000E+00
         0.00000E+00
         0.00000E+00
         0.00000E+00
         0.00000E+00
         0.00000E+00
         0.00000E+00
         0.00000E+00
         0.00000E+00
         0.00000E+00
         0.00000E+00
         0.00000E+00
         0.00000E+00
         0.00000E+00
         0.00000E+00
         0.00000E+00
         0.00000E+00
         0.00000E+00
         0.00000E+00
         0.00000E+00
         0.00000E+00
         0.00000E+00
         0.00000E+00
         0.00000E+00
         0.00000E+00
         0.00000E+00
         0.00000E+00
         0.00000E+00
         0.00000E+00
         0.00000E+00
         0.00000E+00
         0.00000E+00
         0.00000E+00
         0.00000E+00
         0.00000E+00
         0.00000E+00
         0.00000E+00
         0.00000E+00
         0.00000E+00
         0.00000E+00
         0.00000E+00
         0.00000E+00
         0.00000E+00
         0.00000E+00
         0.00000E+00
         0.00000E+00
         0.00000E+00
         0.00000E+00
         0.00000E+00
         0.00000E+00
         0.00000E+00
         0.00000E+00
         0.00000E+00
         0.00000E+00
         0.00000E+00
         0.00000E+00
         0.00000E+00
         0.00000E+00
         0.00000E+00
         0.00000E+00
         0.00000E+00
         0.00000E+00
         0.00000E+00
         0.00000E+00
         0.00000E+00
         0.00000E+00
         0.00000E+00
         0.00000E+00
         0.00000E+00
         0.00000E+00
         0.00000E+00
         0.00000E+00
         0.00000E+00
         0.00000E+00
         0.00000E+00
         0.00000E+00
         0.00000E+00
         0.00000E+00
         0.00000E+00
         0.00000E+00
         0.00000E+00
         0.00000E+00
         0.00000E+00
         0.00000E+00
         0.00000E+00
         0.00000E+00
         0.00000E+00
         0.00000E+00
         0.00000E+00
         0.00000E+00
         0.00000E+00
         0.00000E+00
         0.00000E+00
         0.00000E+00
         0.00000E+00
         0.00000E+00
         0.00000E+00
         0.00000E+00
         0.00000E+00
         0.00000E+00
         0.00000E+00
         0.00000E+00
         0.00000E+00
         0.00000E+00
         0.00000E+00
         0.00000E+00
         0.00000E+00
         0.00000E+00
         0.00000E+00
         0.00000E+00
         0.00000E+00
         0.00000E+00
         0.00000E+00
         0.00000E+00
         0.00000E+00
         0.00000E+00
         0.00000E+00
         0.00000E+00
         0.00000E+00
         0.00000E+00
         0.00000E+00
         0.00000E+00
         0.00000E+00
         0.00000E+00
         0.00000E+00
         0.00000E+00
         0.00000E+00
         0.00000E+00
         0.00000E+00
         0.00000E+00
         0.00000E+00
         0.00000E+00
         0.00000E+00
         0.00000E+00
         0.00000E+00
         0.00000E+00
         0.00000E+00
         0.00000E+00
         0.00000E+00
         0.00000E+00
         0.00000E+00
         0.00000E+00
         0.00000E+00
         0.00000E+00
         0.00000E+00
         0.00000E+00
         0.00000E+00
         0.00000E+00
         0.00000E+00
         0.00000E+00
         0.00000E+00
         0.00000E+00
         0.00000E+00
         0.00000E+00
         0.00000E+00
         0.00000E+00
         0.00000E+00
         0.00000E+00
         0.00000E+00
         0.00000E+00
         0.00000E+00
         0.00000E+00
         0.00000E+00
         0.00000E+00
         0.00000E+00
         0.00000E+00
         0.00000E+00
         0.00000E+00
         0.00000E+00
         0.00000E+00
         0.00000E+00
         0.00000E+00
         0.00000E+00
         0.00000E+00
         0.00000E+00
         0.00000E+00
         0.00000E+00
         0.00000E+00
         0.00000E+00
         0.00000E+00
         0.00000E+00
         0.00000E+00
         0.00000E+00
         0.00000E+00
         0.00000E+00
         0.00000E+00
         0.00000E+00
         0.00000E+00
         0.00000E+00
         0.00000E+00
         0.00000E+00
         0.00000E+00
         0.00000E+00
         0.00000E+00
         0.00000E+00
         0.00000E+00
         0.00000E+00
         0.00000E+00
         0.00000E+00
         0.00000E+00
         0.00000E+00
         0.00000E+00
         0.00000E+00
         0.00000E+00
         0.00000E+00
         0.00000E+00
         0.00000E+00
         0.00000E+00
         0.00000E+00
         0.00000E+00
         0.00000E+00
         0.00000E+00
         0.00000E+00
         0.00000E+00
         0.00000E+00
         0.00000E+00
         0.00000E+00
         0.00000E+00
         0.00000E+00
         0.00000E+00
         0.00000E+00
         0.00000E+00
         0.00000E+00
         0.00000E+00
         0.00000E+00
         0.00000E+00
         0.00000E+00
         0.00000E+00
         0.00000E+00
         0.00000E+00
         0.00000E+00
         0.00000E+00
         0.00000E+00
         0.00000E+00
         0.00000E+00
         0.00000E+00
         0.00000E+00
         0.00000E+00
         0.00000E+00
         0.00000E+00
         0.00000E+00
         0.00000E+00
         0.00000E+00
         0.00000E+00
         0.00000E+00
         0.00000E+00
         0.00000E+00
         0.00000E+00
         0.00000E+00
         0.00000E+00
         0.00000E+00
         0.00000E+00
         0.00000E+00
         0.00000E+00
         0.00000E+00
         0.00000E+00
         0.00000E+00
         0.00000E+00
         0.00000E+00
         0.00000E+00
         0.00000E+00
         0.00000E+00
         0.00000E+00
         0.00000E+00
         0.00000E+00
         0.00000E+00
         0.00000E+00
         0.00000E+00
         0.00000E+00
         0.00000E+00
         0.00000E+00
         0.00000E+00
         0.00000E+00
         0.00000E+00
         0.00000E+00
         0.00000E+00
         0.00000E+00
         0.00000E+00
         0.00000E+00
         0.00000E+00
         0.00000E+00
         0.00000E+00
         0.00000E+00
         0.00000E+00
         0.00000E+00
         0.00000E+00
         0.00000E+00
         0.00000E+00
         0.00000E+00
         0.00000E+00
         0.00000E+00
         0.00000E+00
         0.00000E+00
         0.00000E+00
         0.00000E+00
         0.00000E+00
         0.00000E+00
         0.00000E+00
         0.00000E+00
         0.00000E+00
         0.00000E+00
         0.00000E+00
         0.00000E+00
         0.00000E+00
         0.00000E+00
         0.00000E+00
         0.00000E+00
         0.00000E+00
         0.00000E+00
         0.00000E+00
         0.00000E+00
         0.00000E+00
         0.00000E+00
         0.00000E+00
         0.00000E+00
         0.00000E+00
         0.00000E+00
         0.00000E+00
         0.00000E+00
         0.00000E+00
         0.00000E+00
         0.00000E+00
         0.00000E+00
         0.00000E+00
         0.00000E+00
         0.00000E+00
         0.00000E+00
         0.00000E+00
         0.00000E+00
         0.00000E+00
         0.00000E+00
         0.00000E+00
         0.00000E+00
         0.00000E+00
         0.00000E+00
         0.00000E+00
         0.00000E+00
         0.00000E+00
         0.00000E+00
         0.00000E+00
         0.00000E+00
         0.00000E+00
         0.00000E+00
         0.00000E+00
         0.00000E+00
         0.00000E+00
         0.00000E+00
         0.00000E+00
         0.00000E+00
         0.00000E+00
         0.00000E+00
         0.00000E+00
         0.00000E+00
         0.00000E+00
         0.00000E+00
         0.00000E+00
         0.00000E+00
         0.00000E+00
         0.00000E+00
         0.00000E+00
         0.00000E+00
         0.00000E+00
         0.00000E+00
         0.00000E+00
         0.00000E+00
         0.00000E+00
         0.00000E+00
         0.00000E+00
         0.00000E+00
         0.00000E+00
         0.00000E+00
         0.00000E+00
         0.00000E+00
         0.00000E+00
         0.00000E+00
         0.00000E+00
         0.00000E+00
         0.00000E+00
         0.00000E+00
         0.00000E+00
         0.00000E+00
         0.00000E+00
         0.00000E+00
         0.00000E+00
         0.00000E+00
         0.00000E+00
         0.00000E+00
         0.00000E+00
         0.00000E+00
         0.00000E+00
         0.00000E+00
         0.00000E+00
         0.00000E+00
         0.00000E+00
         0.00000E+00
         0.00000E+00
         0.00000E+00
         0.00000E+00
         0.00000E+00
         0.00000E+00
         0.00000E+00
         0.00000E+00
         0.00000E+00
         0.00000E+00
         0.00000E+00
         0.00000E+00
         0.00000E+00
         0.00000E+00
         0.00000E+00
         0.00000E+00
         0.00000E+00
         0.00000E+00
         0.00000E+00
         0.00000E+00
         0.00000E+00
         0.00000E+00
         0.00000E+00
         0.00000E+00
         0.00000E+00
         0.00000E+00
         0.00000E+00
         0.00000E+00
         0.00000E+00
         0.00000E+00
         0.00000E+00
         0.00000E+00
         0.00000E+00
         0.00000E+00
         0.00000E+00
         0.00000E+00
         0.00000E+00
         0.00000E+00
         0.00000E+00
         0.00000E+00
         0.00000E+00
         0.00000E+00
         0.00000E+00
         0.00000E+00
         0.00000E+00
         0.00000E+00
         0.00000E+00
         0.00000E+00
         0.00000E+00
         0.00000E+00
         0.00000E+00
         0.00000E+00
         0.00000E+00
         0.00000E+00
         0.00000E+00
         0.00000E+00
         0.00000E+00
         0.00000E+00
         0.00000E+00
         0.00000E+00
         0.00000E+00
         0.00000E+00
         0.00000E+00
         0.00000E+00
         0.00000E+00
         0.00000E+00
         0.00000E+00
         0.00000E+00
         0.00000E+00
         0.00000E+00
         0.00000E+00
         0.00000E+00
         0.00000E+00
         0.00000E+00
         0.00000E+00
         0.00000E+00
         0.00000E+00
         0.00000E+00
         0.00000E+00
         0.00000E+00
         0.00000E+00
         0.00000E+00
         0.00000E+00
         0.00000E+00
         0.00000E+00
         0.00000E+00
         0.00000E+00
         0.00000E+00
         0.00000E+00
         0.00000E+00
         0.00000E+00
         0.00000E+00
         0.00000E+00
         0.00000E+00
         0.00000E+00
         0.00000E+00
         0.00000E+00
         0.00000E+00
         0.00000E+00
         0.00000E+00
         0.00000E+00
         0.00000E+00
         0.00000E+00
         0.00000E+00
         0.00000E+00
         0.00000E+00
         0.00000E+00
         0.00000E+00
         0.00000E+00
         0.00000E+00
         0.00000E+00
         0.00000E+00
         0.00000E+00
         0.00000E+00
         0.00000E+00
         0.00000E+00
         0.00000E+00
         0.00000E+00
         0.00000E+00
         0.00000E+00
         0.00000E+00
         0.00000E+00
         0.00000E+00
         0.00000E+00
         0.00000E+00
         0.00000E+00
         0.00000E+00
         0.00000E+00
         0.00000E+00
         0.00000E+00
         0.00000E+00
         0.00000E+00
         0.00000E+00
         0.00000E+00
         0.00000E+00
         0.00000E+00
         0.00000E+00
         0.00000E+00
         0.00000E+00
         0.00000E+00
         0.00000E+00
         0.00000E+00
         0.00000E+00
         0.00000E+00
         0.00000E+00
         0.00000E+00
         0.00000E+00
         0.00000E+00
         0.00000E+00
         0.00000E+00
         0.00000E+00
         0.00000E+00
         0.00000E+00
         0.00000E+00
         0.00000E+00
         0.00000E+00
         0.00000E+00
         0.00000E+00
         0.00000E+00
         0.00000E+00
         0.00000E+00
         0.00000E+00
         0.00000E+00
         0.00000E+00
         0.00000E+00
         0.00000E+00
         0.00000E+00
         0.00000E+00
         0.00000E+00
         0.00000E+00
         0.00000E+00
         0.00000E+00
         0.00000E+00
         0.00000E+00
         0.00000E+00
         0.00000E+00
         0.00000E+00
         0.00000E+00
         0.00000E+00
         0.00000E+00
         0.00000E+00
         0.00000E+00
         0.00000E+00
         0.00000E+00
         0.00000E+00
         0.00000E+00
         0.00000E+00
         0.00000E+00
         0.00000E+00
         0.00000E+00
         0.00000E+00
         0.00000E+00
         0.00000E+00
         0.00000E+00
         0.00000E+00
         0.00000E+00
         0.00000E+00
         0.00000E+00
         0.00000E+00
         0.00000E+00
         0.00000E+00
         0.00000E+00
         0.00000E+00
         0.00000E+00
         0.00000E+00
         0.00000E+00
         0.00000E+00
         0.00000E+00
         0.00000E+00
         0.00000E+00
         0.00000E+00
         0.00000E+00
         0.00000E+00
         0.00000E+00
         0.00000E+00
         0.00000E+00
         0.00000E+00
         0.00000E+00
         0.00000E+00
         0.00000E+00
         0.00000E+00
         0.00000E+00
         0.00000E+00
         0.00000E+00
         0.00000E+00
         0.00000E+00
         0.00000E+00
         0.00000E+00
         0.00000E+00
         0.00000E+00
         0.00000E+00
         0.00000E+00
         0.00000E+00
         0.00000E+00
         0.00000E+00
         0.00000E+00
         0.00000E+00
         0.00000E+00
         0.00000E+00
         0.00000E+00
         0.00000E+00
         0.00000E+00
         0.00000E+00
         0.00000E+00
         0.00000E+00
         0.00000E+00
         0.00000E+00
         0.00000E+00
         0.00000E+00
         0.00000E+00
         0.00000E+00
         0.00000E+00
         0.00000E+00
         0.00000E+00
         0.00000E+00
         0.00000E+00
         0.00000E+00
         0.00000E+00
         0.00000E+00
         0.00000E+00
         0.00000E+00
         0.00000E+00
         0.00000E+00
         0.00000E+00
         0.00000E+00
         0.00000E+00
         0.00000E+00
         0.00000E+00
         0.00000E+00
         0.00000E+00
         0.00000E+00
         0.00000E+00
         0.00000E+00
         0.00000E+00
         0.00000E+00
         0.00000E+00
         0.00000E+00
         0.00000E+00
         0.00000E+00
         0.00000E+00
         0.00000E+00
         0.00000E+00
         0.00000E+00
         0.00000E+00
         0.00000E+00
         0.00000E+00
         0.00000E+00
         0.00000E+00
         0.00000E+00
         0.00000E+00
         0.00000E+00
         0.00000E+00
         0.00000E+00
         0.00000E+00
         0.00000E+00
         0.00000E+00
         0.00000E+00
         0.00000E+00
         0.00000E+00
         0.00000E+00
         0.00000E+00
         0.00000E+00
         0.00000E+00
         0.00000E+00
         0.00000E+00
         0.00000E+00
         0.00000E+00
         0.00000E+00
         0.00000E+00
         0.00000E+00
         0.00000E+00
         0.00000E+00
         0.00000E+00
         0.00000E+00
         0.00000E+00
         0.00000E+00
         0.00000E+00
         0.00000E+00
         0.00000E+00
         0.00000E+00
         0.00000E+00
         0.00000E+00
         0.00000E+00
         0.00000E+00
         0.00000E+00
         0.00000E+00
         0.00000E+00
         0.00000E+00
         0.00000E+00
         0.00000E+00
         0.00000E+00
         0.00000E+00
         0.00000E+00
         0.00000E+00
         0.00000E+00
         0.00000E+00
         0.00000E+00
         0.00000E+00
         0.00000E+00
         0.00000E+00
         0.00000E+00
         0.00000E+00
         0.00000E+00
         0.00000E+00
         0.00000E+00
         0.00000E+00
         0.00000E+00
         0.00000E+00
         0.00000E+00
         0.00000E+00
         0.00000E+00
         0.00000E+00
         0.00000E+00
         0.00000E+00
         0.00000E+00
         0.00000E+00
         0.00000E+00
         0.00000E+00
         0.00000E+00
         0.00000E+00
         0.00000E+00
         0.00000E+00
         0.00000E+00
         0.00000E+00
         0.00000E+00
         0.00000E+00
         0.00000E+00
         0.00000E+00
         0.00000E+00
         0.00000E+00
         0.00000E+00
         0.00000E+00
         0.00000E+00
         0.00000E+00
         0.00000E+00
         0.00000E+00
         0.00000E+00
         0.00000E+00
         0.00000E+00
         0.00000E+00
         0.00000E+00
         0.00000E+00
         0.00000E+00
         0.00000E+00
         0.00000E+00
         0.00000E+00
         0.00000E+00
         0.00000E+00
         0.00000E+00
         0.00000E+00
         0.00000E+00
         0.00000E+00
         0.00000E+00
         0.00000E+00
         0.00000E+00
         0.00000E+00
         0.00000E+00
         0.00000E+00
         0.00000E+00
         0.00000E+00
         0.00000E+00
         0.00000E+00
         0.00000E+00
         0.00000E+00
         0.00000E+00
         0.00000E+00
         0.00000E+00
         0.00000E+00
         0.00000E+00
         0.00000E+00
         0.00000E+00
         0.00000E+00
         0.00000E+00
         0.00000E+00
         0.00000E+00
         0.00000E+00
         0.00000E+00
         0.00000E+00
         0.00000E+00
         0.00000E+00
         0.00000E+00
         0.00000E+00
         0.00000E+00
         0.00000E+00
         0.00000E+00
         0.00000E+00
         0.00000E+00
         0.00000E+00
         0.00000E+00
         0.00000E+00
         0.00000E+00
         0.00000E+00
         0.00000E+00
         0.00000E+00
         0.00000E+00
         0.00000E+00
         0.00000E+00
         0.00000E+00
         0.00000E+00
         0.00000E+00
         0.00000E+00
         0.00000E+00
         0.00000E+00
         0.00000E+00
         0.00000E+00
         0.00000E+00
         0.00000E+00
         0.00000E+00
         0.00000E+00
         0.00000E+00
         0.00000E+00
         0.00000E+00
         0.00000E+00
         0.00000E+00
         0.00000E+00
         0.00000E+00
         0.00000E+00
         0.00000E+00
         0.00000E+00
         0.00000E+00
         0.00000E+00
         0.00000E+00
         0.00000E+00
         0.00000E+00
         0.00000E+00
         0.00000E+00
         0.00000E+00
         0.00000E+00
         0.00000E+00
         0.00000E+00
         0.00000E+00
         0.00000E+00
         0.00000E+00
         0.00000E+00
         0.00000E+00
         0.00000E+00
         0.00000E+00
         0.00000E+00
         0.00000E+00
         0.00000E+00
         0.00000E+00
         0.00000E+00
         0.00000E+00
         0.00000E+00
         0.00000E+00
         0.00000E+00
         0.00000E+00
         0.00000E+00
         0.00000E+00
         0.00000E+00
         0.00000E+00
         0.00000E+00
         0.00000E+00
         0.00000E+00
         0.00000E+00
         0.00000E+00
         0.00000E+00
         0.00000E+00
         0.00000E+00
         0.00000E+00
         0.00000E+00
         0.00000E+00
         0.00000E+00
         0.00000E+00
         0.00000E+00
         0.00000E+00
         0.00000E+00
         0.00000E+00
         0.00000E+00
         0.00000E+00
         0.00000E+00
         0.00000E+00
         0.00000E+00
         0.00000E+00
         0.00000E+00
         0.00000E+00
         0.00000E+00
         0.00000E+00
         0.00000E+00
         0.00000E+00
         0.00000E+00
         0.00000E+00
         0.00000E+00
         0.00000E+00
         0.00000E+00
         0.00000E+00
         0.00000E+00
         0.00000E+00
         0.00000E+00
         0.00000E+00
         0.00000E+00
         0.00000E+00
         0.00000E+00
         0.00000E+00
         0.00000E+00
         0.00000E+00
         0.00000E+00
         0.00000E+00
         0.00000E+00
         0.00000E+00
         0.00000E+00
         0.00000E+00
         0.00000E+00
         0.00000E+00
         0.00000E+00
         0.00000E+00
         0.00000E+00
         0.00000E+00
         0.00000E+00
         0.00000E+00
         0.00000E+00
         0.00000E+00
         0.00000E+00
         0.00000E+00
         0.00000E+00
         0.00000E+00
         0.00000E+00
         0.00000E+00
         0.00000E+00
         0.00000E+00
         0.00000E+00
         0.00000E+00
         0.00000E+00
         0.00000E+00
         0.00000E+00
         0.00000E+00
         0.00000E+00
         0.00000E+00
         0.00000E+00
         0.00000E+00
         0.00000E+00
         0.00000E+00
         0.00000E+00
         0.00000E+00
         0.00000E+00
         0.00000E+00
         0.00000E+00
         0.00000E+00
         0.00000E+00
         0.00000E+00
         0.00000E+00
         0.00000E+00
         0.00000E+00
         0.00000E+00
         0.00000E+00
         0.00000E+00
         0.00000E+00
         0.00000E+00
         0.00000E+00
         0.00000E+00
         0.00000E+00
         0.00000E+00
         0.00000E+00
         0.00000E+00
         0.00000E+00
         0.00000E+00
         0.00000E+00
         0.00000E+00
         0.00000E+00
         0.00000E+00
         0.00000E+00
         0.00000E+00
         0.00000E+00
         0.00000E+00
         0.00000E+00
         0.00000E+00
         0.00000E+00
         0.00000E+00
         0.00000E+00
         0.00000E+00
         0.00000E+00
         0.00000E+00
         0.00000E+00
         0.00000E+00
         0.00000E+00
         0.00000E+00
         0.00000E+00
         0.00000E+00
         0.00000E+00
         0.00000E+00
         0.00000E+00
         0.00000E+00
         0.00000E+00
         0.00000E+00
         0.00000E+00
         0.00000E+00
         0.00000E+00
         0.00000E+00
         0.00000E+00
         0.00000E+00
         0.00000E+00
         0.00000E+00
         0.00000E+00
         0.00000E+00
         0.00000E+00
         0.00000E+00
         0.00000E+00
         0.00000E+00
         0.00000E+00
         0.00000E+00
         0.00000E+00
         0.00000E+00
         0.00000E+00
         0.00000E+00
         0.00000E+00
         0.00000E+00
         0.00000E+00
         0.00000E+00
         0.00000E+00
         0.00000E+00
         0.00000E+00
         0.00000E+00
         0.00000E+00
         0.00000E+00
         0.00000E+00
         0.00000E+00
         0.00000E+00
         0.00000E+00
         0.00000E+00
         0.00000E+00
         0.00000E+00
         0.00000E+00
         0.00000E+00
         0.00000E+00
         0.00000E+00
         0.00000E+00
         0.00000E+00
         0.00000E+00
         0.00000E+00
         0.00000E+00
         0.00000E+00
         0.00000E+00
         0.00000E+00
         0.00000E+00
         0.00000E+00
         0.00000E+00
         0.00000E+00
         0.00000E+00
         0.00000E+00
         0.00000E+00
         0.00000E+00
         0.00000E+00
         0.00000E+00
         0.00000E+00
         0.00000E+00
         0.00000E+00
         0.00000E+00
         0.00000E+00
         0.00000E+00
         0.00000E+00
         0.00000E+00
         0.00000E+00
         0.00000E+00
         0.00000E+00
         0.00000E+00
         0.00000E+00
         0.00000E+00
         0.00000E+00
         0.00000E+00
         0.00000E+00
         0.00000E+00
         0.00000E+00
         0.00000E+00
         0.00000E+00
         0.00000E+00
         0.00000E+00
         0.00000E+00
         0.00000E+00
         0.00000E+00
         0.00000E+00
         0.00000E+00
         0.00000E+00
         0.00000E+00
         0.00000E+00
         0.00000E+00
         0.00000E+00
         0.00000E+00
         0.00000E+00
         0.00000E+00
         0.00000E+00
         0.00000E+00
         0.00000E+00
         0.00000E+00
         0.00000E+00
         0.00000E+00
         0.00000E+00
         0.00000E+00
         0.00000E+00
         0.00000E+00
         0.00000E+00
         0.00000E+00
         0.00000E+00
         0.00000E+00
         0.00000E+00
         0.00000E+00
         0.00000E+00
         0.00000E+00
         0.00000E+00
         0.00000E+00
         0.00000E+00
         0.00000E+00
         0.00000E+00
         0.00000E+00
         0.00000E+00
         0.00000E+00
         0.00000E+00
         0.00000E+00
         0.00000E+00
         0.00000E+00
         0.00000E+00
         0.00000E+00
         0.00000E+00
         0.00000E+00
         0.00000E+00
         0.00000E+00
         0.00000E+00
         0.00000E+00
         0.00000E+00
         0.00000E+00
         0.00000E+00
         0.00000E+00
         0.00000E+00
         0.00000E+00
         0.00000E+00
         0.00000E+00
         0.00000E+00
         0.00000E+00
         0.00000E+00
         0.00000E+00
         0.00000E+00
         0.00000E+00
         0.00000E+00
         0.00000E+00
         0.00000E+00
         0.00000E+00
         0.00000E+00
         0.00000E+00
         0.00000E+00
         0.00000E+00
         0.00000E+00
         0.00000E+00
         0.00000E+00
         0.00000E+00
         0.00000E+00
         0.00000E+00
         0.00000E+00
         0.00000E+00
         0.00000E+00
         0.00000E+00
         0.00000E+00
         0.00000E+00
         0.00000E+00
         0.00000E+00
         0.00000E+00
         0.00000E+00
         0.00000E+00
         0.00000E+00
         0.00000E+00
         0.00000E+00
         0.00000E+00
         0.00000E+00
         0.00000E+00
         0.00000E+00
         0.00000E+00
         0.00000E+00
         0.00000E+00
         0.00000E+00
         0.00000E+00
         0.00000E+00
         0.00000E+00
         0.00000E+00
         0.00000E+00
         0.00000E+00
         0.00000E+00
         0.00000E+00
         0.00000E+00
         0.00000E+00
         0.00000E+00
         0.00000E+00
         0.00000E+00
         0.00000E+00
         0.00000E+00
         0.00000E+00
         0.00000E+00
         0.00000E+00
         0.00000E+00
         0.00000E+00
         0.00000E+00
         0.00000E+00
         0.00000E+00
         0.00000E+00
         0.00000E+00
         0.00000E+00
         0.00000E+00
         0.00000E+00
         0.00000E+00
         0.00000E+00
         0.00000E+00
         0.00000E+00
         0.00000E+00
         0.00000E+00
         0.00000E+00
         0.00000E+00
         0.00000E+00
         0.00000E+00
         0.00000E+00
         0.00000E+00
         0.00000E+00
         0.00000E+00
         0.00000E+00
         0.00000E+00
         0.00000E+00
         0.00000E+00
         0.00000E+00
         0.00000E+00
         0.00000E+00
         0.00000E+00
         0.00000E+00
         0.00000E+00
         0.00000E+00
         0.00000E+00
         0.00000E+00
         0.00000E+00
         0.00000E+00
         0.00000E+00
         0.00000E+00
         0.00000E+00
         0.00000E+00
         0.00000E+00
         0.00000E+00
         0.00000E+00
         0.00000E+00
         0.00000E+00
         0.00000E+00
         0.00000E+00
         0.00000E+00
         0.00000E+00
         0.00000E+00
         0.00000E+00
         0.00000E+00
         0.00000E+00
         0.00000E+00
         0.00000E+00
         0.00000E+00
         0.00000E+00
         0.00000E+00
         0.00000E+00
         0.00000E+00
         0.00000E+00
         0.00000E+00
         0.00000E+00
         0.00000E+00
         0.00000E+00
         0.00000E+00
         0.00000E+00
         0.00000E+00
         0.00000E+00
         0.00000E+00
         0.00000E+00
         0.00000E+00
         0.00000E+00
         0.00000E+00
         0.00000E+00
         0.00000E+00
         0.00000E+00
         0.00000E+00
         0.00000E+00
         0.00000E+00
         0.00000E+00
         0.00000E+00
         0.00000E+00
         0.00000E+00
         0.00000E+00
         0.00000E+00
         0.00000E+00
         0.00000E+00
         0.00000E+00
         0.00000E+00
         0.00000E+00
         0.00000E+00
         0.00000E+00
         0.00000E+00
         0.00000E+00
         0.00000E+00
         0.00000E+00
         0.00000E+00
         0.00000E+00
         0.00000E+00
         0.00000E+00
         0.00000E+00
         0.00000E+00
         0.00000E+00
         0.00000E+00
         0.00000E+00
         0.00000E+00
         0.00000E+00
         0.00000E+00
         0.00000E+00
         0.00000E+00
         0.00000E+00
         0.00000E+00
         0.00000E+00
         0.00000E+00
         0.00000E+00
         0.00000E+00
         0.00000E+00
         0.00000E+00
         0.00000E+00
         0.00000E+00
         0.00000E+00
         0.00000E+00
         0.00000E+00
         0.00000E+00
         0.00000E+00
         0.00000E+00
         0.00000E+00
         0.00000E+00
         0.00000E+00
         0.00000E+00
         0.00000E+00
         0.00000E+00
         0.00000E+00
         0.00000E+00
         0.00000E+00
         0.00000E+00
         0.00000E+00
         0.00000E+00
         0.00000E+00
         0.00000E+00
         0.00000E+00
         0.00000E+00
         0.00000E+00
         0.00000E+00
         0.00000E+00
         0.00000E+00
         0.00000E+00
         0.00000E+00
         0.00000E+00
         0.00000E+00
         0.00000E+00
         0.00000E+00
         0.00000E+00
         0.00000E+00
         0.00000E+00
         0.00000E+00
         0.00000E+00
         0.00000E+00
         0.00000E+00
         0.00000E+00
         0.00000E+00
         0.00000E+00
         0.00000E+00
         0.00000E+00
         0.00000E+00
         0.00000E+00
         0.00000E+00
         0.00000E+00
         0.00000E+00
         0.00000E+00
         0.00000E+00
         0.00000E+00
         0.00000E+00
         0.00000E+00
         0.00000E+00
         0.00000E+00
         0.00000E+00
         0.00000E+00
         0.00000E+00
         0.00000E+00
         0.00000E+00
         0.00000E+00
         0.00000E+00
         0.00000E+00
         0.00000E+00
         0.00000E+00
         0.00000E+00
         0.00000E+00
         0.00000E+00
         0.00000E+00
         0.00000E+00
         0.00000E+00
         0.00000E+00
         0.00000E+00
         0.00000E+00
         0.00000E+00
         0.00000E+00
         0.00000E+00
         0.00000E+00
         0.00000E+00
         0.00000E+00
         0.00000E+00
         0.00000E+00
         0.00000E+00
         0.00000E+00
         0.00000E+00
         0.00000E+00
         0.00000E+00
         0.00000E+00
         0.00000E+00
         0.00000E+00
         0.00000E+00
         0.00000E+00
         0.00000E+00
         0.00000E+00
         0.00000E+00
         0.00000E+00
         0.00000E+00
         0.00000E+00
         0.00000E+00
         0.00000E+00
         0.00000E+00
         0.00000E+00
         0.00000E+00
         0.00000E+00
         0.00000E+00
         0.00000E+00
         0.00000E+00
         0.00000E+00
         0.00000E+00
         0.00000E+00
         0.00000E+00
         0.00000E+00
         0.00000E+00
         0.00000E+00
         0.00000E+00
         0.00000E+00
         0.00000E+00
         0.00000E+00
         0.00000E+00
         0.00000E+00
         0.00000E+00
         0.00000E+00
         0.00000E+00
         0.00000E+00
         0.00000E+00
         0.00000E+00
         0.00000E+00
         0.00000E+00
         0.00000E+00
         0.00000E+00
         0.00000E+00
         0.00000E+00
         0.00000E+00
         0.00000E+00
         0.00000E+00
         0.00000E+00
         0.00000E+00
         0.00000E+00
         0.00000E+00
         0.00000E+00
         0.00000E+00
         0.00000E+00
         0.00000E+00
         0.00000E+00
         0.00000E+00
         0.00000E+00
         0.00000E+00
         0.00000E+00
         0.00000E+00
         0.00000E+00
         0.00000E+00
         0.00000E+00
         0.00000E+00
         0.00000E+00
         0.00000E+00
         0.00000E+00
         0.00000E+00
         0.00000E+00
         0.00000E+00
         0.00000E+00
         0.00000E+00
         0.00000E+00
         0.00000E+00
         0.00000E+00
         0.00000E+00
         0.00000E+00
         0.00000E+00
         0.00000E+00
         0.00000E+00
         0.00000E+00
         0.00000E+00
         0.00000E+00
         0.00000E+00
         0.00000E+00
         0.00000E+00
         0.00000E+00
         0.00000E+00
         0.00000E+00
         0.00000E+00
         0.00000E+00
         0.00000E+00
         0.00000E+00
         0.00000E+00
         0.00000E+00
         0.00000E+00
         0.00000E+00
         0.00000E+00
         0.00000E+00
         0.00000E+00
         0.00000E+00
         0.00000E+00
         0.00000E+00
         0.00000E+00
         0.00000E+00
         0.00000E+00
         0.00000E+00
         0.00000E+00
         0.00000E+00
         0.00000E+00
         0.00000E+00
         0.00000E+00
         0.00000E+00
         0.00000E+00
         0.00000E+00
         0.00000E+00
         0.00000E+00
         0.00000E+00
         0.00000E+00
         0.00000E+00
         0.00000E+00
         0.00000E+00
         0.00000E+00
         0.00000E+00
         0.00000E+00
         0.00000E+00
         0.00000E+00
         0.00000E+00
         0.00000E+00
         0.00000E+00
         0.00000E+00
         0.00000E+00
         0.00000E+00
         0.00000E+00
         0.00000E+00
         0.00000E+00
         0.00000E+00
         0.00000E+00
         0.00000E+00
         0.00000E+00
         0.00000E+00
         0.00000E+00
         0.00000E+00
         0.00000E+00
         0.00000E+00
         0.00000E+00
         0.00000E+00
         0.00000E+00
         0.00000E+00
  
SCALARS                        eps_vol  double 1
LOOKUP_TABLE default
         0.00000E+00
         0.00000E+00
         0.00000E+00
         0.00000E+00
         0.00000E+00
         0.00000E+00
         0.00000E+00
         0.00000E+00
         0.00000E+00
         0.00000E+00
         0.00000E+00
         0.00000E+00
         0.00000E+00
         0.00000E+00
         0.00000E+00
         0.00000E+00
         0.00000E+00
         0.00000E+00
         0.00000E+00
         0.00000E+00
         0.00000E+00
         0.00000E+00
         0.00000E+00
         0.00000E+00
         0.00000E+00
         0.00000E+00
         0.00000E+00
         0.00000E+00
         0.00000E+00
         0.00000E+00
         0.00000E+00
         0.00000E+00
         0.00000E+00
         0.00000E+00
         0.00000E+00
         0.00000E+00
         0.00000E+00
         0.00000E+00
         0.00000E+00
         0.00000E+00
         0.00000E+00
         0.00000E+00
         0.00000E+00
         0.00000E+00
         0.00000E+00
         0.00000E+00
         0.00000E+00
         0.00000E+00
         0.00000E+00
         0.00000E+00
         0.00000E+00
         0.00000E+00
         0.00000E+00
         0.00000E+00
         0.00000E+00
         0.00000E+00
         0.00000E+00
         0.00000E+00
         0.00000E+00
         0.00000E+00
         0.00000E+00
         0.00000E+00
         0.00000E+00
         0.00000E+00
         0.00000E+00
         0.00000E+00
         0.00000E+00
         0.00000E+00
         0.00000E+00
         0.00000E+00
         0.00000E+00
         0.00000E+00
         0.00000E+00
         0.00000E+00
         0.00000E+00
         0.00000E+00
         0.00000E+00
         0.00000E+00
         0.00000E+00
         0.00000E+00
         0.00000E+00
         0.00000E+00
         0.00000E+00
         0.00000E+00
         0.00000E+00
         0.00000E+00
         0.00000E+00
         0.00000E+00
         0.00000E+00
         0.00000E+00
         0.00000E+00
         0.00000E+00
         0.00000E+00
         0.00000E+00
         0.00000E+00
         0.00000E+00
         0.00000E+00
         0.00000E+00
         0.00000E+00
         0.00000E+00
         0.00000E+00
         0.00000E+00
         0.00000E+00
         0.00000E+00
         0.00000E+00
         0.00000E+00
         0.00000E+00
         0.00000E+00
         0.00000E+00
         0.00000E+00
         0.00000E+00
         0.00000E+00
         0.00000E+00
         0.00000E+00
         0.00000E+00
         0.00000E+00
         0.00000E+00
         0.00000E+00
         0.00000E+00
         0.00000E+00
         0.00000E+00
         0.00000E+00
         0.00000E+00
         0.00000E+00
         0.00000E+00
         0.00000E+00
         0.00000E+00
         0.00000E+00
         0.00000E+00
         0.00000E+00
         0.00000E+00
         0.00000E+00
         0.00000E+00
         0.00000E+00
         0.00000E+00
         0.00000E+00
         0.00000E+00
         0.00000E+00
         0.00000E+00
         0.00000E+00
         0.00000E+00
         0.00000E+00
         0.00000E+00
         0.00000E+00
         0.00000E+00
         0.00000E+00
         0.00000E+00
         0.00000E+00
         0.00000E+00
         0.00000E+00
         0.00000E+00
         0.00000E+00
         0.00000E+00
         0.00000E+00
         0.00000E+00
         0.00000E+00
         0.00000E+00
         0.00000E+00
         0.00000E+00
         0.00000E+00
         0.00000E+00
         0.00000E+00
         0.00000E+00
         0.00000E+00
         0.00000E+00
         0.00000E+00
         0.00000E+00
         0.00000E+00
         0.00000E+00
         0.00000E+00
         0.00000E+00
         0.00000E+00
         0.00000E+00
         0.00000E+00
         0.00000E+00
         0.00000E+00
         0.00000E+00
         0.00000E+00
         0.00000E+00
         0.00000E+00
         0.00000E+00
         0.00000E+00
         0.00000E+00
         0.00000E+00
         0.00000E+00
         0.00000E+00
         0.00000E+00
         0.00000E+00
         0.00000E+00
         0.00000E+00
         0.00000E+00
         0.00000E+00
         0.00000E+00
         0.00000E+00
         0.00000E+00
         0.00000E+00
         0.00000E+00
         0.00000E+00
         0.00000E+00
         0.00000E+00
         0.00000E+00
         0.00000E+00
         0.00000E+00
         0.00000E+00
         0.00000E+00
         0.00000E+00
         0.00000E+00
         0.00000E+00
         0.00000E+00
         0.00000E+00
         0.00000E+00
         0.00000E+00
         0.00000E+00
         0.00000E+00
         0.00000E+00
         0.00000E+00
         0.00000E+00
         0.00000E+00
         0.00000E+00
         0.00000E+00
         0.00000E+00
         0.00000E+00
         0.00000E+00
         0.00000E+00
         0.00000E+00
         0.00000E+00
         0.00000E+00
         0.00000E+00
         0.00000E+00
         0.00000E+00
         0.00000E+00
         0.00000E+00
         0.00000E+00
         0.00000E+00
         0.00000E+00
         0.00000E+00
         0.00000E+00
         0.00000E+00
         0.00000E+00
         0.00000E+00
         0.00000E+00
         0.00000E+00
         0.00000E+00
         0.00000E+00
         0.00000E+00
         0.00000E+00
         0.00000E+00
         0.00000E+00
         0.00000E+00
         0.00000E+00
         0.00000E+00
         0.00000E+00
         0.00000E+00
         0.00000E+00
         0.00000E+00
         0.00000E+00
         0.00000E+00
         0.00000E+00
         0.00000E+00
         0.00000E+00
         0.00000E+00
         0.00000E+00
         0.00000E+00
         0.00000E+00
         0.00000E+00
         0.00000E+00
         0.00000E+00
         0.00000E+00
         0.00000E+00
         0.00000E+00
         0.00000E+00
         0.00000E+00
         0.00000E+00
         0.00000E+00
         0.00000E+00
         0.00000E+00
         0.00000E+00
         0.00000E+00
         0.00000E+00
         0.00000E+00
         0.00000E+00
         0.00000E+00
         0.00000E+00
         0.00000E+00
         0.00000E+00
         0.00000E+00
         0.00000E+00
         0.00000E+00
         0.00000E+00
         0.00000E+00
         0.00000E+00
         0.00000E+00
         0.00000E+00
         0.00000E+00
         0.00000E+00
         0.00000E+00
         0.00000E+00
         0.00000E+00
         0.00000E+00
         0.00000E+00
         0.00000E+00
         0.00000E+00
         0.00000E+00
         0.00000E+00
         0.00000E+00
         0.00000E+00
         0.00000E+00
         0.00000E+00
         0.00000E+00
         0.00000E+00
         0.00000E+00
         0.00000E+00
         0.00000E+00
         0.00000E+00
         0.00000E+00
         0.00000E+00
         0.00000E+00
         0.00000E+00
         0.00000E+00
         0.00000E+00
         0.00000E+00
         0.00000E+00
         0.00000E+00
         0.00000E+00
         0.00000E+00
         0.00000E+00
         0.00000E+00
         0.00000E+00
         0.00000E+00
         0.00000E+00
         0.00000E+00
         0.00000E+00
         0.00000E+00
         0.00000E+00
         0.00000E+00
         0.00000E+00
         0.00000E+00
         0.00000E+00
         0.00000E+00
         0.00000E+00
         0.00000E+00
         0.00000E+00
         0.00000E+00
         0.00000E+00
         0.00000E+00
         0.00000E+00
         0.00000E+00
         0.00000E+00
         0.00000E+00
         0.00000E+00
         0.00000E+00
         0.00000E+00
         0.00000E+00
         0.00000E+00
         0.00000E+00
         0.00000E+00
         0.00000E+00
         0.00000E+00
         0.00000E+00
         0.00000E+00
         0.00000E+00
         0.00000E+00
         0.00000E+00
         0.00000E+00
         0.00000E+00
         0.00000E+00
         0.00000E+00
         0.00000E+00
         0.00000E+00
         0.00000E+00
         0.00000E+00
         0.00000E+00
         0.00000E+00
         0.00000E+00
         0.00000E+00
         0.00000E+00
         0.00000E+00
         0.00000E+00
         0.00000E+00
         0.00000E+00
         0.00000E+00
         0.00000E+00
         0.00000E+00
         0.00000E+00
         0.00000E+00
         0.00000E+00
         0.00000E+00
         0.00000E+00
         0.00000E+00
         0.00000E+00
         0.00000E+00
         0.00000E+00
         0.00000E+00
         0.00000E+00
         0.00000E+00
         0.00000E+00
         0.00000E+00
         0.00000E+00
         0.00000E+00
         0.00000E+00
         0.00000E+00
         0.00000E+00
         0.00000E+00
         0.00000E+00
         0.00000E+00
         0.00000E+00
         0.00000E+00
         0.00000E+00
         0.00000E+00
         0.00000E+00
         0.00000E+00
         0.00000E+00
         0.00000E+00
         0.00000E+00
         0.00000E+00
         0.00000E+00
         0.00000E+00
         0.00000E+00
         0.00000E+00
         0.00000E+00
         0.00000E+00
         0.00000E+00
         0.00000E+00
         0.00000E+00
         0.00000E+00
         0.00000E+00
         0.00000E+00
         0.00000E+00
         0.00000E+00
         0.00000E+00
         0.00000E+00
         0.00000E+00
         0.00000E+00
         0.00000E+00
         0.00000E+00
         0.00000E+00
         0.00000E+00
         0.00000E+00
         0.00000E+00
         0.00000E+00
         0.00000E+00
         0.00000E+00
         0.00000E+00
         0.00000E+00
         0.00000E+00
         0.00000E+00
         0.00000E+00
         0.00000E+00
         0.00000E+00
         0.00000E+00
         0.00000E+00
         0.00000E+00
         0.00000E+00
         0.00000E+00
         0.00000E+00
         0.00000E+00
         0.00000E+00
         0.00000E+00
         0.00000E+00
         0.00000E+00
         0.00000E+00
         0.00000E+00
         0.00000E+00
         0.00000E+00
         0.00000E+00
         0.00000E+00
         0.00000E+00
         0.00000E+00
         0.00000E+00
         0.00000E+00
         0.00000E+00
         0.00000E+00
         0.00000E+00
         0.00000E+00
         0.00000E+00
         0.00000E+00
         0.00000E+00
         0.00000E+00
         0.00000E+00
         0.00000E+00
         0.00000E+00
         0.00000E+00
         0.00000E+00
         0.00000E+00
         0.00000E+00
         0.00000E+00
         0.00000E+00
         0.00000E+00
         0.00000E+00
         0.00000E+00
         0.00000E+00
         0.00000E+00
         0.00000E+00
         0.00000E+00
         0.00000E+00
         0.00000E+00
         0.00000E+00
         0.00000E+00
         0.00000E+00
         0.00000E+00
         0.00000E+00
         0.00000E+00
         0.00000E+00
         0.00000E+00
         0.00000E+00
         0.00000E+00
         0.00000E+00
         0.00000E+00
         0.00000E+00
         0.00000E+00
         0.00000E+00
         0.00000E+00
         0.00000E+00
         0.00000E+00
         0.00000E+00
         0.00000E+00
         0.00000E+00
         0.00000E+00
         0.00000E+00
         0.00000E+00
         0.00000E+00
         0.00000E+00
         0.00000E+00
         0.00000E+00
         0.00000E+00
         0.00000E+00
         0.00000E+00
         0.00000E+00
         0.00000E+00
         0.00000E+00
         0.00000E+00
         0.00000E+00
         0.00000E+00
         0.00000E+00
         0.00000E+00
         0.00000E+00
         0.00000E+00
         0.00000E+00
         0.00000E+00
         0.00000E+00
         0.00000E+00
         0.00000E+00
         0.00000E+00
         0.00000E+00
         0.00000E+00
         0.00000E+00
         0.00000E+00
         0.00000E+00
         0.00000E+00
         0.00000E+00
         0.00000E+00
         0.00000E+00
         0.00000E+00
         0.00000E+00
         0.00000E+00
         0.00000E+00
         0.00000E+00
         0.00000E+00
         0.00000E+00
         0.00000E+00
         0.00000E+00
         0.00000E+00
         0.00000E+00
         0.00000E+00
         0.00000E+00
         0.00000E+00
         0.00000E+00
         0.00000E+00
         0.00000E+00
         0.00000E+00
         0.00000E+00
         0.00000E+00
         0.00000E+00
         0.00000E+00
         0.00000E+00
         0.00000E+00
         0.00000E+00
         0.00000E+00
         0.00000E+00
         0.00000E+00
         0.00000E+00
         0.00000E+00
         0.00000E+00
         0.00000E+00
         0.00000E+00
         0.00000E+00
         0.00000E+00
         0.00000E+00
         0.00000E+00
         0.00000E+00
         0.00000E+00
         0.00000E+00
         0.00000E+00
         0.00000E+00
         0.00000E+00
         0.00000E+00
         0.00000E+00
         0.00000E+00
         0.00000E+00
         0.00000E+00
         0.00000E+00
         0.00000E+00
         0.00000E+00
         0.00000E+00
         0.00000E+00
         0.00000E+00
         0.00000E+00
         0.00000E+00
         0.00000E+00
         0.00000E+00
         0.00000E+00
         0.00000E+00
         0.00000E+00
         0.00000E+00
         0.00000E+00
         0.00000E+00
         0.00000E+00
         0.00000E+00
         0.00000E+00
         0.00000E+00
         0.00000E+00
         0.00000E+00
         0.00000E+00
         0.00000E+00
         0.00000E+00
         0.00000E+00
         0.00000E+00
         0.00000E+00
         0.00000E+00
         0.00000E+00
         0.00000E+00
         0.00000E+00
         0.00000E+00
         0.00000E+00
         0.00000E+00
         0.00000E+00
         0.00000E+00
         0.00000E+00
         0.00000E+00
         0.00000E+00
         0.00000E+00
         0.00000E+00
         0.00000E+00
         0.00000E+00
         0.00000E+00
         0.00000E+00
         0.00000E+00
         0.00000E+00
         0.00000E+00
         0.00000E+00
         0.00000E+00
         0.00000E+00
         0.00000E+00
         0.00000E+00
         0.00000E+00
         0.00000E+00
         0.00000E+00
         0.00000E+00
         0.00000E+00
         0.00000E+00
         0.00000E+00
         0.00000E+00
         0.00000E+00
         0.00000E+00
         0.00000E+00
         0.00000E+00
         0.00000E+00
         0.00000E+00
         0.00000E+00
         0.00000E+00
         0.00000E+00
         0.00000E+00
         0.00000E+00
         0.00000E+00
         0.00000E+00
         0.00000E+00
         0.00000E+00
         0.00000E+00
         0.00000E+00
         0.00000E+00
         0.00000E+00
         0.00000E+00
         0.00000E+00
         0.00000E+00
         0.00000E+00
         0.00000E+00
         0.00000E+00
         0.00000E+00
         0.00000E+00
         0.00000E+00
         0.00000E+00
         0.00000E+00
         0.00000E+00
         0.00000E+00
         0.00000E+00
         0.00000E+00
         0.00000E+00
         0.00000E+00
         0.00000E+00
         0.00000E+00
         0.00000E+00
         0.00000E+00
         0.00000E+00
         0.00000E+00
         0.00000E+00
         0.00000E+00
         0.00000E+00
         0.00000E+00
         0.00000E+00
         0.00000E+00
         0.00000E+00
         0.00000E+00
         0.00000E+00
         0.00000E+00
         0.00000E+00
         0.00000E+00
         0.00000E+00
         0.00000E+00
         0.00000E+00
         0.00000E+00
         0.00000E+00
         0.00000E+00
         0.00000E+00
         0.00000E+00
         0.00000E+00
         0.00000E+00
         0.00000E+00
         0.00000E+00
         0.00000E+00
         0.00000E+00
         0.00000E+00
         0.00000E+00
         0.00000E+00
         0.00000E+00
         0.00000E+00
         0.00000E+00
         0.00000E+00
         0.00000E+00
         0.00000E+00
         0.00000E+00
         0.00000E+00
         0.00000E+00
         0.00000E+00
         0.00000E+00
         0.00000E+00
         0.00000E+00
         0.00000E+00
         0.00000E+00
         0.00000E+00
         0.00000E+00
         0.00000E+00
         0.00000E+00
         0.00000E+00
         0.00000E+00
         0.00000E+00
         0.00000E+00
         0.00000E+00
         0.00000E+00
         0.00000E+00
         0.00000E+00
         0.00000E+00
         0.00000E+00
         0.00000E+00
         0.00000E+00
         0.00000E+00
         0.00000E+00
         0.00000E+00
         0.00000E+00
         0.00000E+00
         0.00000E+00
         0.00000E+00
         0.00000E+00
         0.00000E+00
         0.00000E+00
         0.00000E+00
         0.00000E+00
         0.00000E+00
         0.00000E+00
         0.00000E+00
         0.00000E+00
         0.00000E+00
         0.00000E+00
         0.00000E+00
         0.00000E+00
         0.00000E+00
         0.00000E+00
         0.00000E+00
         0.00000E+00
         0.00000E+00
         0.00000E+00
         0.00000E+00
         0.00000E+00
         0.00000E+00
         0.00000E+00
         0.00000E+00
         0.00000E+00
         0.00000E+00
         0.00000E+00
         0.00000E+00
         0.00000E+00
         0.00000E+00
         0.00000E+00
         0.00000E+00
         0.00000E+00
         0.00000E+00
         0.00000E+00
         0.00000E+00
         0.00000E+00
         0.00000E+00
         0.00000E+00
         0.00000E+00
         0.00000E+00
         0.00000E+00
         0.00000E+00
         0.00000E+00
         0.00000E+00
         0.00000E+00
         0.00000E+00
         0.00000E+00
         0.00000E+00
         0.00000E+00
         0.00000E+00
         0.00000E+00
         0.00000E+00
         0.00000E+00
         0.00000E+00
         0.00000E+00
         0.00000E+00
         0.00000E+00
         0.00000E+00
         0.00000E+00
         0.00000E+00
         0.00000E+00
         0.00000E+00
         0.00000E+00
         0.00000E+00
         0.00000E+00
         0.00000E+00
         0.00000E+00
         0.00000E+00
         0.00000E+00
         0.00000E+00
         0.00000E+00
         0.00000E+00
         0.00000E+00
         0.00000E+00
         0.00000E+00
         0.00000E+00
         0.00000E+00
         0.00000E+00
         0.00000E+00
         0.00000E+00
         0.00000E+00
         0.00000E+00
         0.00000E+00
         0.00000E+00
         0.00000E+00
         0.00000E+00
         0.00000E+00
         0.00000E+00
         0.00000E+00
         0.00000E+00
         0.00000E+00
         0.00000E+00
         0.00000E+00
         0.00000E+00
         0.00000E+00
         0.00000E+00
         0.00000E+00
         0.00000E+00
         0.00000E+00
         0.00000E+00
         0.00000E+00
         0.00000E+00
         0.00000E+00
         0.00000E+00
         0.00000E+00
         0.00000E+00
         0.00000E+00
         0.00000E+00
         0.00000E+00
         0.00000E+00
         0.00000E+00
         0.00000E+00
         0.00000E+00
         0.00000E+00
         0.00000E+00
         0.00000E+00
         0.00000E+00
         0.00000E+00
         0.00000E+00
         0.00000E+00
         0.00000E+00
         0.00000E+00
         0.00000E+00
         0.00000E+00
         0.00000E+00
         0.00000E+00
         0.00000E+00
         0.00000E+00
         0.00000E+00
         0.00000E+00
         0.00000E+00
         0.00000E+00
         0.00000E+00
         0.00000E+00
         0.00000E+00
         0.00000E+00
         0.00000E+00
         0.00000E+00
         0.00000E+00
         0.00000E+00
         0.00000E+00
         0.00000E+00
         0.00000E+00
         0.00000E+00
         0.00000E+00
         0.00000E+00
         0.00000E+00
         0.00000E+00
         0.00000E+00
         0.00000E+00
         0.00000E+00
         0.00000E+00
         0.00000E+00
         0.00000E+00
         0.00000E+00
         0.00000E+00
         0.00000E+00
         0.00000E+00
         0.00000E+00
         0.00000E+00
         0.00000E+00
         0.00000E+00
         0.00000E+00
         0.00000E+00
         0.00000E+00
         0.00000E+00
         0.00000E+00
         0.00000E+00
         0.00000E+00
         0.00000E+00
         0.00000E+00
         0.00000E+00
         0.00000E+00
         0.00000E+00
         0.00000E+00
         0.00000E+00
         0.00000E+00
         0.00000E+00
         0.00000E+00
         0.00000E+00
         0.00000E+00
         0.00000E+00
         0.00000E+00
         0.00000E+00
         0.00000E+00
         0.00000E+00
         0.00000E+00
         0.00000E+00
         0.00000E+00
         0.00000E+00
         0.00000E+00
         0.00000E+00
         0.00000E+00
         0.00000E+00
         0.00000E+00
         0.00000E+00
         0.00000E+00
         0.00000E+00
         0.00000E+00
         0.00000E+00
         0.00000E+00
         0.00000E+00
         0.00000E+00
         0.00000E+00
         0.00000E+00
         0.00000E+00
         0.00000E+00
         0.00000E+00
         0.00000E+00
         0.00000E+00
         0.00000E+00
         0.00000E+00
         0.00000E+00
         0.00000E+00
         0.00000E+00
         0.00000E+00
         0.00000E+00
         0.00000E+00
         0.00000E+00
         0.00000E+00
         0.00000E+00
         0.00000E+00
         0.00000E+00
         0.00000E+00
         0.00000E+00
         0.00000E+00
         0.00000E+00
         0.00000E+00
         0.00000E+00
         0.00000E+00
         0.00000E+00
         0.00000E+00
         0.00000E+00
         0.00000E+00
         0.00000E+00
         0.00000E+00
         0.00000E+00
         0.00000E+00
         0.00000E+00
         0.00000E+00
         0.00000E+00
         0.00000E+00
         0.00000E+00
         0.00000E+00
         0.00000E+00
         0.00000E+00
         0.00000E+00
         0.00000E+00
         0.00000E+00
         0.00000E+00
         0.00000E+00
         0.00000E+00
         0.00000E+00
         0.00000E+00
         0.00000E+00
         0.00000E+00
         0.00000E+00
         0.00000E+00
         0.00000E+00
         0.00000E+00
         0.00000E+00
         0.00000E+00
         0.00000E+00
         0.00000E+00
         0.00000E+00
         0.00000E+00
         0.00000E+00
         0.00000E+00
         0.00000E+00
         0.00000E+00
         0.00000E+00
         0.00000E+00
         0.00000E+00
         0.00000E+00
         0.00000E+00
         0.00000E+00
         0.00000E+00
         0.00000E+00
         0.00000E+00
         0.00000E+00
         0.00000E+00
         0.00000E+00
         0.00000E+00
         0.00000E+00
         0.00000E+00
         0.00000E+00
         0.00000E+00
         0.00000E+00
         0.00000E+00
         0.00000E+00
         0.00000E+00
         0.00000E+00
         0.00000E+00
         0.00000E+00
         0.00000E+00
         0.00000E+00
         0.00000E+00
         0.00000E+00
         0.00000E+00
         0.00000E+00
         0.00000E+00
         0.00000E+00
         0.00000E+00
         0.00000E+00
         0.00000E+00
         0.00000E+00
         0.00000E+00
         0.00000E+00
         0.00000E+00
         0.00000E+00
         0.00000E+00
         0.00000E+00
         0.00000E+00
         0.00000E+00
         0.00000E+00
         0.00000E+00
         0.00000E+00
         0.00000E+00
         0.00000E+00
         0.00000E+00
         0.00000E+00
         0.00000E+00
         0.00000E+00
         0.00000E+00
         0.00000E+00
         0.00000E+00
         0.00000E+00
         0.00000E+00
         0.00000E+00
         0.00000E+00
         0.00000E+00
         0.00000E+00
         0.00000E+00
         0.00000E+00
         0.00000E+00
         0.00000E+00
         0.00000E+00
         0.00000E+00
         0.00000E+00
         0.00000E+00
         0.00000E+00
         0.00000E+00
         0.00000E+00
         0.00000E+00
         0.00000E+00
         0.00000E+00
         0.00000E+00
         0.00000E+00
         0.00000E+00
         0.00000E+00
         0.00000E+00
         0.00000E+00
         0.00000E+00
         0.00000E+00
         0.00000E+00
         0.00000E+00
         0.00000E+00
         0.00000E+00
         0.00000E+00
         0.00000E+00
         0.00000E+00
         0.00000E+00
         0.00000E+00
         0.00000E+00
         0.00000E+00
         0.00000E+00
         0.00000E+00
         0.00000E+00
         0.00000E+00
         0.00000E+00
         0.00000E+00
         0.00000E+00
         0.00000E+00
         0.00000E+00
         0.00000E+00
         0.00000E+00
         0.00000E+00
         0.00000E+00
         0.00000E+00
         0.00000E+00
         0.00000E+00
         0.00000E+00
         0.00000E+00
         0.00000E+00
         0.00000E+00
         0.00000E+00
         0.00000E+00
         0.00000E+00
         0.00000E+00
         0.00000E+00
         0.00000E+00
         0.00000E+00
         0.00000E+00
         0.00000E+00
         0.00000E+00
         0.00000E+00
         0.00000E+00
         0.00000E+00
         0.00000E+00
         0.00000E+00
         0.00000E+00
         0.00000E+00
         0.00000E+00
         0.00000E+00
         0.00000E+00
         0.00000E+00
         0.00000E+00
         0.00000E+00
         0.00000E+00
         0.00000E+00
         0.00000E+00
         0.00000E+00
         0.00000E+00
         0.00000E+00
         0.00000E+00
         0.00000E+00
         0.00000E+00
         0.00000E+00
         0.00000E+00
         0.00000E+00
         0.00000E+00
         0.00000E+00
         0.00000E+00
         0.00000E+00
         0.00000E+00
         0.00000E+00
         0.00000E+00
         0.00000E+00
         0.00000E+00
         0.00000E+00
         0.00000E+00
         0.00000E+00
         0.00000E+00
         0.00000E+00
         0.00000E+00
         0.00000E+00
         0.00000E+00
         0.00000E+00
         0.00000E+00
         0.00000E+00
         0.00000E+00
         0.00000E+00
         0.00000E+00
         0.00000E+00
         0.00000E+00
         0.00000E+00
         0.00000E+00
         0.00000E+00
         0.00000E+00
         0.00000E+00
         0.00000E+00
         0.00000E+00
         0.00000E+00
         0.00000E+00
         0.00000E+00
         0.00000E+00
         0.00000E+00
         0.00000E+00
         0.00000E+00
         0.00000E+00
         0.00000E+00
         0.00000E+00
         0.00000E+00
         0.00000E+00
         0.00000E+00
         0.00000E+00
         0.00000E+00
         0.00000E+00
         0.00000E+00
         0.00000E+00
         0.00000E+00
         0.00000E+00
         0.00000E+00
         0.00000E+00
         0.00000E+00
         0.00000E+00
         0.00000E+00
         0.00000E+00
         0.00000E+00
         0.00000E+00
         0.00000E+00
         0.00000E+00
         0.00000E+00
         0.00000E+00
         0.00000E+00
         0.00000E+00
         0.00000E+00
         0.00000E+00
         0.00000E+00
         0.00000E+00
         0.00000E+00
         0.00000E+00
         0.00000E+00
         0.00000E+00
         0.00000E+00
         0.00000E+00
         0.00000E+00
         0.00000E+00
         0.00000E+00
         0.00000E+00
         0.00000E+00
         0.00000E+00
         0.00000E+00
         0.00000E+00
         0.00000E+00
         0.00000E+00
         0.00000E+00
         0.00000E+00
         0.00000E+00
         0.00000E+00
         0.00000E+00
         0.00000E+00
         0.00000E+00
         0.00000E+00
         0.00000E+00
         0.00000E+00
         0.00000E+00
         0.00000E+00
         0.00000E+00
         0.00000E+00
         0.00000E+00
         0.00000E+00
         0.00000E+00
         0.00000E+00
         0.00000E+00
         0.00000E+00
         0.00000E+00
         0.00000E+00
         0.00000E+00
         0.00000E+00
         0.00000E+00
         0.00000E+00
         0.00000E+00
         0.00000E+00
         0.00000E+00
         0.00000E+00
         0.00000E+00
         0.00000E+00
         0.00000E+00
         0.00000E+00
         0.00000E+00
         0.00000E+00
         0.00000E+00
         0.00000E+00
         0.00000E+00
         0.00000E+00
         0.00000E+00
         0.00000E+00
         0.00000E+00
         0.00000E+00
         0.00000E+00
         0.00000E+00
         0.00000E+00
         0.00000E+00
         0.00000E+00
         0.00000E+00
         0.00000E+00
         0.00000E+00
         0.00000E+00
         0.00000E+00
         0.00000E+00
         0.00000E+00
         0.00000E+00
         0.00000E+00
         0.00000E+00
         0.00000E+00
         0.00000E+00
         0.00000E+00
         0.00000E+00
         0.00000E+00
         0.00000E+00
         0.00000E+00
         0.00000E+00
         0.00000E+00
         0.00000E+00
         0.00000E+00
         0.00000E+00
         0.00000E+00
         0.00000E+00
         0.00000E+00
         0.00000E+00
         0.00000E+00
         0.00000E+00
         0.00000E+00
         0.00000E+00
         0.00000E+00
         0.00000E+00
         0.00000E+00
         0.00000E+00
         0.00000E+00
         0.00000E+00
         0.00000E+00
         0.00000E+00
         0.00000E+00
         0.00000E+00
         0.00000E+00
         0.00000E+00
         0.00000E+00
         0.00000E+00
         0.00000E+00
         0.00000E+00
         0.00000E+00
         0.00000E+00
         0.00000E+00
         0.00000E+00
         0.00000E+00
         0.00000E+00
         0.00000E+00
         0.00000E+00
         0.00000E+00
         0.00000E+00
         0.00000E+00
         0.00000E+00
         0.00000E+00
         0.00000E+00
         0.00000E+00
         0.00000E+00
         0.00000E+00
         0.00000E+00
         0.00000E+00
         0.00000E+00
         0.00000E+00
         0.00000E+00
         0.00000E+00
         0.00000E+00
         0.00000E+00
         0.00000E+00
         0.00000E+00
         0.00000E+00
         0.00000E+00
         0.00000E+00
         0.00000E+00
         0.00000E+00
         0.00000E+00
         0.00000E+00
         0.00000E+00
         0.00000E+00
         0.00000E+00
         0.00000E+00
         0.00000E+00
         0.00000E+00
         0.00000E+00
         0.00000E+00
         0.00000E+00
         0.00000E+00
         0.00000E+00
         0.00000E+00
         0.00000E+00
         0.00000E+00
         0.00000E+00
         0.00000E+00
         0.00000E+00
         0.00000E+00
         0.00000E+00
         0.00000E+00
         0.00000E+00
         0.00000E+00
         0.00000E+00
         0.00000E+00
         0.00000E+00
         0.00000E+00
         0.00000E+00
         0.00000E+00
         0.00000E+00
         0.00000E+00
         0.00000E+00
         0.00000E+00
         0.00000E+00
         0.00000E+00
         0.00000E+00
         0.00000E+00
         0.00000E+00
         0.00000E+00
         0.00000E+00
         0.00000E+00
         0.00000E+00
         0.00000E+00
         0.00000E+00
         0.00000E+00
         0.00000E+00
         0.00000E+00
         0.00000E+00
         0.00000E+00
         0.00000E+00
         0.00000E+00
         0.00000E+00
         0.00000E+00
         0.00000E+00
         0.00000E+00
         0.00000E+00
         0.00000E+00
         0.00000E+00
         0.00000E+00
         0.00000E+00
         0.00000E+00
         0.00000E+00
         0.00000E+00
         0.00000E+00
         0.00000E+00
         0.00000E+00
         0.00000E+00
         0.00000E+00
         0.00000E+00
         0.00000E+00
         0.00000E+00
         0.00000E+00
         0.00000E+00
         0.00000E+00
         0.00000E+00
         0.00000E+00
         0.00000E+00
         0.00000E+00
         0.00000E+00
         0.00000E+00
         0.00000E+00
         0.00000E+00
         0.00000E+00
         0.00000E+00
         0.00000E+00
         0.00000E+00
         0.00000E+00
         0.00000E+00
         0.00000E+00
         0.00000E+00
         0.00000E+00
         0.00000E+00
         0.00000E+00
         0.00000E+00
         0.00000E+00
         0.00000E+00
         0.00000E+00
         0.00000E+00
         0.00000E+00
         0.00000E+00
         0.00000E+00
         0.00000E+00
         0.00000E+00
         0.00000E+00
         0.00000E+00
         0.00000E+00
         0.00000E+00
         0.00000E+00
         0.00000E+00
         0.00000E+00
         0.00000E+00
         0.00000E+00
         0.00000E+00
         0.00000E+00
         0.00000E+00
         0.00000E+00
         0.00000E+00
         0.00000E+00
         0.00000E+00
         0.00000E+00
         0.00000E+00
         0.00000E+00
         0.00000E+00
         0.00000E+00
         0.00000E+00
         0.00000E+00
         0.00000E+00
         0.00000E+00
         0.00000E+00
         0.00000E+00
         0.00000E+00
         0.00000E+00
         0.00000E+00
         0.00000E+00
         0.00000E+00
         0.00000E+00
         0.00000E+00
         0.00000E+00
         0.00000E+00
         0.00000E+00
         0.00000E+00
         0.00000E+00
         0.00000E+00
         0.00000E+00
         0.00000E+00
         0.00000E+00
         0.00000E+00
         0.00000E+00
         0.00000E+00
         0.00000E+00
         0.00000E+00
         0.00000E+00
         0.00000E+00
         0.00000E+00
         0.00000E+00
         0.00000E+00
         0.00000E+00
         0.00000E+00
         0.00000E+00
         0.00000E+00
         0.00000E+00
         0.00000E+00
         0.00000E+00
         0.00000E+00
         0.00000E+00
         0.00000E+00
         0.00000E+00
         0.00000E+00
         0.00000E+00
         0.00000E+00
         0.00000E+00
         0.00000E+00
         0.00000E+00
         0.00000E+00
         0.00000E+00
         0.00000E+00
         0.00000E+00
         0.00000E+00
         0.00000E+00
         0.00000E+00
         0.00000E+00
         0.00000E+00
         0.00000E+00
         0.00000E+00
         0.00000E+00
         0.00000E+00
         0.00000E+00
         0.00000E+00
         0.00000E+00
         0.00000E+00
         0.00000E+00
         0.00000E+00
         0.00000E+00
         0.00000E+00
         0.00000E+00
         0.00000E+00
         0.00000E+00
         0.00000E+00
         0.00000E+00
         0.00000E+00
         0.00000E+00
         0.00000E+00
         0.00000E+00
         0.00000E+00
         0.00000E+00
         0.00000E+00
         0.00000E+00
         0.00000E+00
         0.00000E+00
         0.00000E+00
         0.00000E+00
         0.00000E+00
         0.00000E+00
         0.00000E+00
         0.00000E+00
         0.00000E+00
         0.00000E+00
         0.00000E+00
         0.00000E+00
         0.00000E+00
         0.00000E+00
         0.00000E+00
         0.00000E+00
         0.00000E+00
         0.00000E+00
         0.00000E+00
         0.00000E+00
         0.00000E+00
         0.00000E+00
         0.00000E+00
         0.00000E+00
         0.00000E+00
         0.00000E+00
         0.00000E+00
         0.00000E+00
         0.00000E+00
         0.00000E+00
         0.00000E+00
         0.00000E+00
         0.00000E+00
         0.00000E+00
         0.00000E+00
         0.00000E+00
         0.00000E+00
         0.00000E+00
         0.00000E+00
         0.00000E+00
         0.00000E+00
         0.00000E+00
         0.00000E+00
         0.00000E+00
         0.00000E+00
         0.00000E+00
         0.00000E+00
         0.00000E+00
         0.00000E+00
         0.00000E+00
         0.00000E+00
         0.00000E+00
         0.00000E+00
         0.00000E+00
         0.00000E+00
         0.00000E+00
         0.00000E+00
         0.00000E+00
         0.00000E+00
         0.00000E+00
         0.00000E+00
         0.00000E+00
         0.00000E+00
         0.00000E+00
         0.00000E+00
         0.00000E+00
         0.00000E+00
         0.00000E+00
         0.00000E+00
         0.00000E+00
         0.00000E+00
         0.00000E+00
         0.00000E+00
         0.00000E+00
         0.00000E+00
         0.00000E+00
         0.00000E+00
         0.00000E+00
         0.00000E+00
         0.00000E+00
         0.00000E+00
         0.00000E+00
         0.00000E+00
         0.00000E+00
         0.00000E+00
         0.00000E+00
         0.00000E+00
         0.00000E+00
         0.00000E+00
         0.00000E+00
         0.00000E+00
         0.00000E+00
         0.00000E+00
         0.00000E+00
         0.00000E+00
         0.00000E+00
         0.00000E+00
         0.00000E+00
         0.00000E+00
         0.00000E+00
         0.00000E+00
         0.00000E+00
         0.00000E+00
         0.00000E+00
         0.00000E+00
         0.00000E+00
         0.00000E+00
         0.00000E+00
         0.00000E+00
         0.00000E+00
         0.00000E+00
         0.00000E+00
         0.00000E+00
         0.00000E+00
         0.00000E+00
         0.00000E+00
         0.00000E+00
         0.00000E+00
         0.00000E+00
         0.00000E+00
         0.00000E+00
         0.00000E+00
         0.00000E+00
         0.00000E+00
         0.00000E+00
         0.00000E+00
         0.00000E+00
         0.00000E+00
         0.00000E+00
         0.00000E+00
         0.00000E+00
         0.00000E+00
         0.00000E+00
         0.00000E+00
         0.00000E+00
         0.00000E+00
         0.00000E+00
         0.00000E+00
         0.00000E+00
         0.00000E+00
         0.00000E+00
         0.00000E+00
         0.00000E+00
         0.00000E+00
         0.00000E+00
         0.00000E+00
         0.00000E+00
         0.00000E+00
         0.00000E+00
         0.00000E+00
         0.00000E+00
         0.00000E+00
         0.00000E+00
         0.00000E+00
         0.00000E+00
         0.00000E+00
         0.00000E+00
         0.00000E+00
         0.00000E+00
         0.00000E+00
         0.00000E+00
         0.00000E+00
         0.00000E+00
         0.00000E+00
         0.00000E+00
         0.00000E+00
         0.00000E+00
         0.00000E+00
         0.00000E+00
         0.00000E+00
         0.00000E+00
         0.00000E+00
         0.00000E+00
         0.00000E+00
         0.00000E+00
         0.00000E+00
         0.00000E+00
         0.00000E+00
         0.00000E+00
         0.00000E+00
         0.00000E+00
         0.00000E+00
         0.00000E+00
         0.00000E+00
         0.00000E+00
         0.00000E+00
         0.00000E+00
         0.00000E+00
         0.00000E+00
         0.00000E+00
         0.00000E+00
         0.00000E+00
         0.00000E+00
         0.00000E+00
         0.00000E+00
         0.00000E+00
         0.00000E+00
         0.00000E+00
         0.00000E+00
         0.00000E+00
         0.00000E+00
         0.00000E+00
         0.00000E+00
         0.00000E+00
         0.00000E+00
         0.00000E+00
         0.00000E+00
         0.00000E+00
         0.00000E+00
         0.00000E+00
         0.00000E+00
         0.00000E+00
         0.00000E+00
         0.00000E+00
         0.00000E+00
         0.00000E+00
         0.00000E+00
         0.00000E+00
         0.00000E+00
         0.00000E+00
         0.00000E+00
         0.00000E+00
         0.00000E+00
         0.00000E+00
         0.00000E+00
         0.00000E+00
         0.00000E+00
         0.00000E+00
         0.00000E+00
         0.00000E+00
         0.00000E+00
         0.00000E+00
         0.00000E+00
         0.00000E+00
         0.00000E+00
         0.00000E+00
         0.00000E+00
         0.00000E+00
         0.00000E+00
         0.00000E+00
         0.00000E+00
         0.00000E+00
         0.00000E+00
         0.00000E+00
         0.00000E+00
         0.00000E+00
         0.00000E+00
         0.00000E+00
         0.00000E+00
         0.00000E+00
         0.00000E+00
         0.00000E+00
         0.00000E+00
         0.00000E+00
         0.00000E+00
         0.00000E+00
         0.00000E+00
         0.00000E+00
         0.00000E+00
         0.00000E+00
         0.00000E+00
         0.00000E+00
         0.00000E+00
         0.00000E+00
         0.00000E+00
         0.00000E+00
         0.00000E+00
         0.00000E+00
         0.00000E+00
         0.00000E+00
         0.00000E+00
         0.00000E+00
         0.00000E+00
         0.00000E+00
         0.00000E+00
         0.00000E+00
         0.00000E+00
         0.00000E+00
         0.00000E+00
         0.00000E+00
         0.00000E+00
         0.00000E+00
         0.00000E+00
         0.00000E+00
         0.00000E+00
         0.00000E+00
         0.00000E+00
         0.00000E+00
         0.00000E+00
         0.00000E+00
         0.00000E+00
         0.00000E+00
         0.00000E+00
         0.00000E+00
         0.00000E+00
         0.00000E+00
         0.00000E+00
         0.00000E+00
         0.00000E+00
         0.00000E+00
         0.00000E+00
         0.00000E+00
         0.00000E+00
         0.00000E+00
         0.00000E+00
         0.00000E+00
         0.00000E+00
         0.00000E+00
         0.00000E+00
         0.00000E+00
         0.00000E+00
         0.00000E+00
         0.00000E+00
         0.00000E+00
         0.00000E+00
         0.00000E+00
         0.00000E+00
         0.00000E+00
         0.00000E+00
         0.00000E+00
         0.00000E+00
         0.00000E+00
         0.00000E+00
         0.00000E+00
         0.00000E+00
         0.00000E+00
         0.00000E+00
         0.00000E+00
         0.00000E+00
         0.00000E+00
         0.00000E+00
         0.00000E+00
         0.00000E+00
         0.00000E+00
         0.00000E+00
         0.00000E+00
         0.00000E+00
  
SCALARS                            eps  double 1
LOOKUP_TABLE default
         0.56600E+01
         0.55891E+01
         0.56341E+01
         0.57148E+01
         0.00000E+00
         0.00000E+00
         0.00000E+00
         0.00000E+00
         0.55870E+01
         0.56108E+01
         0.00000E+00
         0.00000E+00
         0.54862E+01
         0.54823E+01
         0.00000E+00
         0.00000E+00
         0.57030E+01
         0.54879E+01
         0.00000E+00
         0.00000E+00
         0.54088E+01
         0.53475E+01
         0.54453E+01
         0.00000E+00
         0.00000E+00
         0.00000E+00
         0.53498E+01
         0.52601E+01
         0.00000E+00
         0.00000E+00
         0.56991E+01
         0.56056E+01
         0.57897E+01
         0.00000E+00
         0.00000E+00
         0.00000E+00
         0.56450E+01
         0.55258E+01
         0.00000E+00
         0.00000E+00
         0.55979E+01
         0.55060E+01
         0.00000E+00
         0.00000E+00
         0.56758E+01
         0.57102E+01
         0.00000E+00
         0.00000E+00
         0.54319E+01
         0.00000E+00
         0.57035E+01
         0.00000E+00
         0.53238E+01
         0.00000E+00
         0.52956E+01
         0.00000E+00
         0.52962E+01
         0.53963E+01
         0.00000E+00
         0.00000E+00
         0.56972E+01
         0.56613E+01
         0.00000E+00
         0.00000E+00
         0.57197E+01
         0.00000E+00
         0.56770E+01
         0.00000E+00
         0.55652E+01
         0.55535E+01
         0.00000E+00
         0.00000E+00
         0.55280E+01
         0.00000E+00
         0.52282E+01
         0.00000E+00
         0.52126E+01
         0.00000E+00
         0.52206E+01
         0.00000E+00
         0.52645E+01
         0.53092E+01
         0.00000E+00
         0.00000E+00
         0.53998E+01
         0.00000E+00
         0.56740E+01
         0.00000E+00
         0.56315E+01
         0.00000E+00
         0.55969E+01
         0.55771E+01
         0.00000E+00
         0.00000E+00
         0.56006E+01
         0.00000E+00
         0.56175E+01
         0.00000E+00
         0.56024E+01
         0.00000E+00
         0.55974E+01
         0.56125E+01
         0.00000E+00
         0.00000E+00
         0.55146E+01
         0.55557E+01
         0.00000E+00
         0.00000E+00
         0.55076E+01
         0.00000E+00
         0.55550E+01
         0.00000E+00
         0.55085E+01
         0.00000E+00
         0.54065E+01
         0.00000E+00
         0.53078E+01
         0.00000E+00
         0.52484E+01
         0.00000E+00
         0.52424E+01
         0.00000E+00
         0.52442E+01
         0.00000E+00
         0.53084E+01
         0.00000E+00
         0.54295E+01
         0.00000E+00
         0.55620E+01
         0.00000E+00
         0.56388E+01
         0.00000E+00
         0.57149E+01
         0.00000E+00
         0.57652E+01
         0.00000E+00
         0.57637E+01
         0.00000E+00
         0.56403E+01
         0.00000E+00
         0.55541E+01
         0.00000E+00
         0.55256E+01
         0.00000E+00
         0.55720E+01
         0.00000E+00
         0.55956E+01
         0.00000E+00
         0.55547E+01
         0.00000E+00
         0.55547E+01
         0.00000E+00
         0.55856E+01
         0.00000E+00
         0.56256E+01
         0.00000E+00
         0.32610E+00
         0.32673E+00
         0.32666E+00
         0.32573E+00
         0.32719E+00
         0.32662E+00
         0.32721E+00
         0.32697E+00
         0.32591E+00
         0.32666E+00
         0.32735E+00
         0.32747E+00
         0.32738E+00
         0.32729E+00
         0.32746E+00
         0.32579E+00
         0.32598E+00
         0.32539E+00
         0.32678E+00
         0.32659E+00
         0.32693E+00
         0.32677E+00
         0.32705E+00
         0.32692E+00
         0.32662E+00
         0.32663E+00
         0.32710E+00
         0.32706E+00
         0.32727E+00
         0.32691E+00
         0.32589E+00
         0.32673E+00
         0.32589E+00
         0.32649E+00
         0.32746E+00
         0.32733E+00
         0.32724E+00
         0.32740E+00
         0.32739E+00
         0.32743E+00
         0.32749E+00
         0.32740E+00
         0.32694E+00
         0.32700E+00
         0.32726E+00
         0.32747E+00
         0.32729E+00
         0.32685E+00
         0.32688E+00
         0.32723E+00
         0.32744E+00
         0.32715E+00
         0.32825E+00
         0.32839E+00
         0.32846E+00
         0.32854E+00
         0.32867E+00
         0.32883E+00
         0.32874E+00
         0.32852E+00
         0.32846E+00
         0.32854E+00
         0.32846E+00
         0.32856E+00
         0.32832E+00
         0.32824E+00
         0.32836E+00
         0.32845E+00
         0.32853E+00
         0.32860E+00
         0.32837E+00
         0.32850E+00
         0.32844E+00
         0.32834E+00
         0.32835E+00
         0.32825E+00
         0.32838E+00
         0.32845E+00
         0.49894E-02
         0.17469E-02
         0.14711E-02
         0.34840E-04
         0.53032E-02
         0.26960E-02
         0.00000E+00
         0.48550E-02
         0.18701E-02
         0.43926E-02
         0.54369E-03
         0.12748E-01
         0.89015E-02
         0.28703E-02
         0.13507E-01
         0.27658E-02
         0.00000E+00
         0.00000E+00
         0.84528E-03
         0.00000E+00
         0.93330E-02
         0.85572E-02
         0.82495E-02
         0.00000E+00
         0.17243E-02
         0.00000E+00
         0.25312E-02
         0.00000E+00
         0.00000E+00
         0.21342E-02
         0.19076E-02
         0.00000E+00
         0.14272E-03
         0.00000E+00
         0.77867E-02
         0.33887E-02
         0.53143E-02
         0.10415E-01
         0.72699E-02
         0.65457E-02
         0.10645E-01
         0.93479E-02
         0.94316E-02
         0.65782E-02
         0.55347E-02
         0.87451E-02
         0.46370E-02
         0.34717E-02
         0.23138E-02
         0.32985E-02
         0.74014E-02
         0.40881E-02
         0.43701E-01
         0.44831E-01
         0.47023E-01
         0.46656E-01
         0.49972E-01
         0.53920E-01
         0.51595E-01
         0.45481E-01
         0.44231E-01
         0.47587E-01
         0.46567E-01
         0.45884E-01
         0.37319E-01
         0.35304E-01
         0.39128E-01
         0.42162E-01
         0.43887E-01
         0.48255E-01
         0.46281E-01
         0.47630E-01
         0.42534E-01
         0.40207E-01
         0.43114E-01
         0.42068E-01
         0.43393E-01
         0.42997E-01
         0.49956E-02
         0.17479E-02
         0.14737E-02
         0.39316E-04
         0.52994E-02
         0.26927E-02
         0.00000E+00
         0.48628E-02
         0.18787E-02
         0.44148E-02
         0.54360E-03
         0.12748E-01
         0.89063E-02
         0.28562E-02
         0.13524E-01
         0.27705E-02
         0.00000E+00
         0.00000E+00
         0.84757E-03
         0.00000E+00
         0.93340E-02
         0.85564E-02
         0.82488E-02
         0.00000E+00
         0.17451E-02
         0.00000E+00
         0.25331E-02
         0.00000E+00
         0.00000E+00
         0.21435E-02
         0.19125E-02
         0.00000E+00
         0.13725E-03
         0.00000E+00
         0.77916E-02
         0.33868E-02
         0.53124E-02
         0.10436E-01
         0.72934E-02
         0.65592E-02
         0.10654E-01
         0.93545E-02
         0.94331E-02
         0.65780E-02
         0.55330E-02
         0.87444E-02
         0.46371E-02
         0.34713E-02
         0.23060E-02
         0.32896E-02
         0.73954E-02
         0.40769E-02
         0.43683E-01
         0.44819E-01
         0.47023E-01
         0.46656E-01
         0.49963E-01
         0.53901E-01
         0.51572E-01
         0.45468E-01
         0.44218E-01
         0.47572E-01
         0.46558E-01
         0.45886E-01
         0.37315E-01
         0.35302E-01
         0.39133E-01
         0.42172E-01
         0.43899E-01
         0.48266E-01
         0.46278E-01
         0.47627E-01
         0.42529E-01
         0.40204E-01
         0.43098E-01
         0.42038E-01
         0.43366E-01
         0.42973E-01
         0.50018E-02
         0.17491E-02
         0.14763E-02
         0.43819E-04
         0.52955E-02
         0.26895E-02
         0.00000E+00
         0.48705E-02
         0.18874E-02
         0.44369E-02
         0.54357E-03
         0.12747E-01
         0.89110E-02
         0.28421E-02
         0.13541E-01
         0.27754E-02
         0.00000E+00
         0.00000E+00
         0.84991E-03
         0.00000E+00
         0.93352E-02
         0.85556E-02
         0.82482E-02
         0.00000E+00
         0.17658E-02
         0.00000E+00
         0.25349E-02
         0.00000E+00
         0.00000E+00
         0.21524E-02
         0.19174E-02
         0.00000E+00
         0.13178E-03
         0.00000E+00
         0.77965E-02
         0.33851E-02
         0.53103E-02
         0.10457E-01
         0.73170E-02
         0.65727E-02
         0.10664E-01
         0.93612E-02
         0.94349E-02
         0.65783E-02
         0.55316E-02
         0.87441E-02
         0.46372E-02
         0.34708E-02
         0.22984E-02
         0.32808E-02
         0.73897E-02
         0.40658E-02
         0.43666E-01
         0.44808E-01
         0.47023E-01
         0.46657E-01
         0.49954E-01
         0.53881E-01
         0.51549E-01
         0.45455E-01
         0.44206E-01
         0.47556E-01
         0.46550E-01
         0.45888E-01
         0.37311E-01
         0.35300E-01
         0.39138E-01
         0.42184E-01
         0.43911E-01
         0.48277E-01
         0.46275E-01
         0.47624E-01
         0.42524E-01
         0.40202E-01
         0.43082E-01
         0.42008E-01
         0.43340E-01
         0.42948E-01
         0.50080E-02
         0.17502E-02
         0.14789E-02
         0.48326E-04
         0.52916E-02
         0.26861E-02
         0.00000E+00
         0.48781E-02
         0.18960E-02
         0.44585E-02
         0.54358E-03
         0.12747E-01
         0.89160E-02
         0.28281E-02
         0.13559E-01
         0.27806E-02
         0.00000E+00
         0.00000E+00
         0.85244E-03
         0.00000E+00
         0.93368E-02
         0.85551E-02
         0.82483E-02
         0.00000E+00
         0.17860E-02
         0.00000E+00
         0.25364E-02
         0.00000E+00
         0.00000E+00
         0.21606E-02
         0.19225E-02
         0.00000E+00
         0.12627E-03
         0.00000E+00
         0.78013E-02
         0.33833E-02
         0.53083E-02
         0.10479E-01
         0.73410E-02
         0.65871E-02
         0.10674E-01
         0.93681E-02
         0.94372E-02
         0.65794E-02
         0.55306E-02
         0.87439E-02
         0.46378E-02
         0.34705E-02
         0.22907E-02
         0.32719E-02
         0.73836E-02
         0.40546E-02
         0.43649E-01
         0.44796E-01
         0.47022E-01
         0.46657E-01
         0.49945E-01
         0.53862E-01
         0.51526E-01
         0.45442E-01
         0.44194E-01
         0.47541E-01
         0.46541E-01
         0.45890E-01
         0.37308E-01
         0.35299E-01
         0.39144E-01
         0.42197E-01
         0.43926E-01
         0.48289E-01
         0.46272E-01
         0.47622E-01
         0.42519E-01
         0.40199E-01
         0.43066E-01
         0.41979E-01
         0.43314E-01
         0.42923E-01
         0.50140E-02
         0.17513E-02
         0.14815E-02
         0.52823E-04
         0.52879E-02
         0.26828E-02
         0.00000E+00
         0.48857E-02
         0.19045E-02
         0.44796E-02
         0.54367E-03
         0.12746E-01
         0.89208E-02
         0.28141E-02
         0.13576E-01
         0.27863E-02
         0.00000E+00
         0.00000E+00
         0.85502E-03
         0.00000E+00
         0.93388E-02
         0.85549E-02
         0.82490E-02
         0.00000E+00
         0.18058E-02
         0.00000E+00
         0.25378E-02
         0.00000E+00
         0.00000E+00
         0.21678E-02
         0.19278E-02
         0.00000E+00
         0.12077E-03
         0.00000E+00
         0.78062E-02
         0.33815E-02
         0.53065E-02
         0.10500E-01
         0.73653E-02
         0.66020E-02
         0.10684E-01
         0.93754E-02
         0.94400E-02
         0.65814E-02
         0.55302E-02
         0.87444E-02
         0.46387E-02
         0.34704E-02
         0.22831E-02
         0.32630E-02
         0.73779E-02
         0.40435E-02
         0.43632E-01
         0.44785E-01
         0.47022E-01
         0.46657E-01
         0.49936E-01
         0.53842E-01
         0.51503E-01
         0.45429E-01
         0.44182E-01
         0.47525E-01
         0.46533E-01
         0.45893E-01
         0.37307E-01
         0.35298E-01
         0.39150E-01
         0.42211E-01
         0.43941E-01
         0.48302E-01
         0.46270E-01
         0.47619E-01
         0.42514E-01
         0.40196E-01
         0.43050E-01
         0.41949E-01
         0.43287E-01
         0.42898E-01
         0.50199E-02
         0.17521E-02
         0.14840E-02
         0.57321E-04
         0.52840E-02
         0.26795E-02
         0.00000E+00
         0.48928E-02
         0.19131E-02
         0.45001E-02
         0.54407E-03
         0.12746E-01
         0.89257E-02
         0.28001E-02
         0.13593E-01
         0.27922E-02
         0.00000E+00
         0.00000E+00
         0.85762E-03
         0.00000E+00
         0.93410E-02
         0.85548E-02
         0.82502E-02
         0.00000E+00
         0.18251E-02
         0.00000E+00
         0.25391E-02
         0.00000E+00
         0.00000E+00
         0.21749E-02
         0.19330E-02
         0.00000E+00
         0.11526E-03
         0.00000E+00
         0.78113E-02
         0.33800E-02
         0.53048E-02
         0.10522E-01
         0.73900E-02
         0.66174E-02
         0.10695E-01
         0.93828E-02
         0.94432E-02
         0.65838E-02
         0.55305E-02
         0.87456E-02
         0.46398E-02
         0.34705E-02
         0.22759E-02
         0.32543E-02
         0.73722E-02
         0.40326E-02
         0.43615E-01
         0.44773E-01
         0.47022E-01
         0.46658E-01
         0.49928E-01
         0.53823E-01
         0.51479E-01
         0.45416E-01
         0.44170E-01
         0.47510E-01
         0.46525E-01
         0.45897E-01
         0.37305E-01
         0.35297E-01
         0.39157E-01
         0.42227E-01
         0.43958E-01
         0.48314E-01
         0.46267E-01
         0.47616E-01
         0.42509E-01
         0.40193E-01
         0.43034E-01
         0.41919E-01
         0.43261E-01
         0.42874E-01
         0.50252E-02
         0.17522E-02
         0.14864E-02
         0.61876E-04
         0.52804E-02
         0.26763E-02
         0.00000E+00
         0.48988E-02
         0.19219E-02
         0.45198E-02
         0.54501E-03
         0.12746E-01
         0.89311E-02
         0.27862E-02
         0.13611E-01
         0.27980E-02
         0.00000E+00
         0.00000E+00
         0.86029E-03
         0.00000E+00
         0.93431E-02
         0.85549E-02
         0.82515E-02
         0.00000E+00
         0.18438E-02
         0.00000E+00
         0.25406E-02
         0.00000E+00
         0.00000E+00
         0.21819E-02
         0.19378E-02
         0.00000E+00
         0.10971E-03
         0.00000E+00
         0.78164E-02
         0.33788E-02
         0.53033E-02
         0.10543E-01
         0.74150E-02
         0.66329E-02
         0.10706E-01
         0.93904E-02
         0.94464E-02
         0.65863E-02
         0.55310E-02
         0.87471E-02
         0.46415E-02
         0.34713E-02
         0.22697E-02
         0.32460E-02
         0.73670E-02
         0.40218E-02
         0.43598E-01
         0.44762E-01
         0.47021E-01
         0.46658E-01
         0.49919E-01
         0.53803E-01
         0.51456E-01
         0.45402E-01
         0.44158E-01
         0.47494E-01
         0.46517E-01
         0.45900E-01
         0.37304E-01
         0.35297E-01
         0.39163E-01
         0.42242E-01
         0.43974E-01
         0.48327E-01
         0.46264E-01
         0.47612E-01
         0.42505E-01
         0.40191E-01
         0.43018E-01
         0.41889E-01
         0.43235E-01
         0.42849E-01
         0.50303E-02
         0.17523E-02
         0.14888E-02
         0.66411E-04
         0.52769E-02
         0.26729E-02
         0.00000E+00
         0.49043E-02
         0.19308E-02
         0.45390E-02
         0.54626E-03
         0.12746E-01
         0.89366E-02
         0.27724E-02
         0.13628E-01
         0.28039E-02
         0.00000E+00
         0.00000E+00
         0.86292E-03
         0.00000E+00
         0.93453E-02
         0.85548E-02
         0.82527E-02
         0.00000E+00
         0.18622E-02
         0.00000E+00
         0.25421E-02
         0.00000E+00
         0.00000E+00
         0.21890E-02
         0.19424E-02
         0.00000E+00
         0.10414E-03
         0.00000E+00
         0.78218E-02
         0.33778E-02
         0.53022E-02
         0.10565E-01
         0.74399E-02
         0.66484E-02
         0.10717E-01
         0.93981E-02
         0.94497E-02
         0.65891E-02
         0.55318E-02
         0.87490E-02
         0.46435E-02
         0.34723E-02
         0.22639E-02
         0.32379E-02
         0.73619E-02
         0.40112E-02
         0.43581E-01
         0.44750E-01
         0.47021E-01
         0.46658E-01
         0.49910E-01
         0.53784E-01
         0.51433E-01
         0.45389E-01
         0.44146E-01
         0.47478E-01
         0.46509E-01
         0.45903E-01
         0.37302E-01
         0.35296E-01
         0.39170E-01
         0.42257E-01
         0.43990E-01
         0.48339E-01
         0.46260E-01
         0.47609E-01
         0.42501E-01
         0.40189E-01
         0.43002E-01
         0.41860E-01
         0.43209E-01
         0.42824E-01
         0.50354E-02
         0.17523E-02
         0.14911E-02
         0.70969E-04
         0.52733E-02
         0.26696E-02
         0.00000E+00
         0.49098E-02
         0.19397E-02
         0.45582E-02
         0.54742E-03
         0.12746E-01
         0.89420E-02
         0.27587E-02
         0.13646E-01
         0.28098E-02
         0.00000E+00
         0.00000E+00
         0.86554E-03
         0.00000E+00
         0.93474E-02
         0.85549E-02
         0.82540E-02
         0.00000E+00
         0.18806E-02
         0.00000E+00
         0.25438E-02
         0.00000E+00
         0.00000E+00
         0.21960E-02
         0.19471E-02
         0.00000E+00
         0.98622E-04
         0.00000E+00
         0.78273E-02
         0.33766E-02
         0.53010E-02
         0.10587E-01
         0.74650E-02
         0.66638E-02
         0.10728E-01
         0.94058E-02
         0.94531E-02
         0.65919E-02
         0.55328E-02
         0.87510E-02
         0.46453E-02
         0.34733E-02
         0.22582E-02
         0.32299E-02
         0.73571E-02
         0.40004E-02
         0.43564E-01
         0.44739E-01
         0.47020E-01
         0.46658E-01
         0.49901E-01
         0.53764E-01
         0.51410E-01
         0.45376E-01
         0.44134E-01
         0.47463E-01
         0.46501E-01
         0.45906E-01
         0.37301E-01
         0.35295E-01
         0.39176E-01
         0.42272E-01
         0.44007E-01
         0.48351E-01
         0.46257E-01
         0.47606E-01
         0.42497E-01
         0.40187E-01
         0.42986E-01
         0.41830E-01
         0.43183E-01
         0.42800E-01
         0.50405E-02
         0.17522E-02
         0.14934E-02
         0.75563E-04
         0.52696E-02
         0.26663E-02
         0.00000E+00
         0.49154E-02
         0.19486E-02
         0.45774E-02
         0.54879E-03
         0.12746E-01
         0.89477E-02
         0.27450E-02
         0.13664E-01
         0.28157E-02
         0.00000E+00
         0.00000E+00
         0.86812E-03
         0.00000E+00
         0.93496E-02
         0.85548E-02
         0.82551E-02
         0.00000E+00
         0.18990E-02
         0.00000E+00
         0.25454E-02
         0.00000E+00
         0.00000E+00
         0.22031E-02
         0.19517E-02
         0.00000E+00
         0.93118E-04
         0.00000E+00
         0.78325E-02
         0.33757E-02
         0.52999E-02
         0.10609E-01
         0.74901E-02
         0.66793E-02
         0.10739E-01
         0.94134E-02
         0.94563E-02
         0.65947E-02
         0.55337E-02
         0.87529E-02
         0.46472E-02
         0.34745E-02
         0.22524E-02
         0.32217E-02
         0.73519E-02
         0.39896E-02
         0.43546E-01
         0.44728E-01
         0.47019E-01
         0.46659E-01
         0.49892E-01
         0.53745E-01
         0.51386E-01
         0.45363E-01
         0.44122E-01
         0.47447E-01
         0.46492E-01
         0.45910E-01
         0.37299E-01
         0.35295E-01
         0.39182E-01
         0.42288E-01
         0.44023E-01
         0.48363E-01
         0.46254E-01
         0.47603E-01
         0.42493E-01
         0.40185E-01
         0.42970E-01
         0.41800E-01
         0.43157E-01
         0.42775E-01
         0.50455E-02
         0.17521E-02
         0.14958E-02
         0.80110E-04
         0.52661E-02
         0.26631E-02
         0.00000E+00
         0.49208E-02
         0.19575E-02
         0.45966E-02
         0.55019E-03
         0.12746E-01
         0.89532E-02
         0.27313E-02
         0.13682E-01
         0.28216E-02
         0.00000E+00
         0.00000E+00
         0.87076E-03
         0.00000E+00
         0.93517E-02
         0.85549E-02
         0.82563E-02
         0.00000E+00
         0.19173E-02
         0.00000E+00
         0.25471E-02
         0.00000E+00
         0.00000E+00
         0.22101E-02
         0.19563E-02
         0.00000E+00
         0.87671E-04
         0.00000E+00
         0.78380E-02
         0.33747E-02
         0.52988E-02
         0.10631E-01
         0.75152E-02
         0.66946E-02
         0.10750E-01
         0.94211E-02
         0.94596E-02
         0.65973E-02
         0.55345E-02
         0.87548E-02
         0.46492E-02
         0.34755E-02
         0.22468E-02
         0.32137E-02
         0.73471E-02
         0.39790E-02
         0.43529E-01
         0.44716E-01
         0.47019E-01
         0.46659E-01
         0.49883E-01
         0.53725E-01
         0.51362E-01
         0.45350E-01
         0.44110E-01
         0.47431E-01
         0.46484E-01
         0.45913E-01
         0.37297E-01
         0.35294E-01
         0.39189E-01
         0.42303E-01
         0.44040E-01
         0.48375E-01
         0.46250E-01
         0.47600E-01
         0.42488E-01
         0.40183E-01
         0.42953E-01
         0.41771E-01
         0.43130E-01
         0.42750E-01
         0.50505E-02
         0.17521E-02
         0.14981E-02
         0.84717E-04
         0.52625E-02
         0.26598E-02
         0.00000E+00
         0.49263E-02
         0.19665E-02
         0.46158E-02
         0.55164E-03
         0.12746E-01
         0.89586E-02
         0.27177E-02
         0.13699E-01
         0.28274E-02
         0.00000E+00
         0.00000E+00
         0.87337E-03
         0.00000E+00
         0.93538E-02
         0.85548E-02
         0.82576E-02
         0.00000E+00
         0.19356E-02
         0.00000E+00
         0.25487E-02
         0.00000E+00
         0.00000E+00
         0.22171E-02
         0.19609E-02
         0.00000E+00
         0.82198E-04
         0.00000E+00
         0.78435E-02
         0.33736E-02
         0.52976E-02
         0.10653E-01
         0.75404E-02
         0.67101E-02
         0.10761E-01
         0.94287E-02
         0.94629E-02
         0.66000E-02
         0.55354E-02
         0.87568E-02
         0.46510E-02
         0.34767E-02
         0.22411E-02
         0.32057E-02
         0.73421E-02
         0.39683E-02
         0.43512E-01
         0.44705E-01
         0.47018E-01
         0.46659E-01
         0.49875E-01
         0.53706E-01
         0.51339E-01
         0.45336E-01
         0.44098E-01
         0.47415E-01
         0.46476E-01
         0.45916E-01
         0.37296E-01
         0.35293E-01
         0.39195E-01
         0.42318E-01
         0.44056E-01
         0.48387E-01
         0.46247E-01
         0.47597E-01
         0.42484E-01
         0.40181E-01
         0.42937E-01
         0.41741E-01
         0.43104E-01
         0.42726E-01
         0.50556E-02
         0.17520E-02
         0.15004E-02
         0.89324E-04
         0.52590E-02
         0.26565E-02
         0.00000E+00
         0.49318E-02
         0.19754E-02
         0.46349E-02
         0.55315E-03
         0.12747E-01
         0.89642E-02
         0.27040E-02
         0.13717E-01
         0.28333E-02
         0.00000E+00
         0.00000E+00
         0.87598E-03
         0.00000E+00
         0.93559E-02
         0.85549E-02
         0.82588E-02
         0.00000E+00
         0.19539E-02
         0.00000E+00
         0.25503E-02
         0.00000E+00
         0.00000E+00
         0.22241E-02
         0.19656E-02
         0.00000E+00
         0.76741E-04
         0.00000E+00
         0.78488E-02
         0.33728E-02
         0.52965E-02
         0.10675E-01
         0.75656E-02
         0.67256E-02
         0.10773E-01
         0.94362E-02
         0.94662E-02
         0.66029E-02
         0.55364E-02
         0.87584E-02
         0.46530E-02
         0.34777E-02
         0.22354E-02
         0.31976E-02
         0.73369E-02
         0.39575E-02
         0.43495E-01
         0.44694E-01
         0.47017E-01
         0.46659E-01
         0.49866E-01
         0.53686E-01
         0.51315E-01
         0.45323E-01
         0.44086E-01
         0.47399E-01
         0.46468E-01
         0.45919E-01
         0.37294E-01
         0.35292E-01
         0.39202E-01
         0.42333E-01
         0.44072E-01
         0.48399E-01
         0.46244E-01
         0.47593E-01
         0.42480E-01
         0.40179E-01
         0.42921E-01
         0.41711E-01
         0.43079E-01
         0.42701E-01
         0.50606E-02
         0.17520E-02
         0.15028E-02
         0.93928E-04
         0.52555E-02
         0.26532E-02
         0.00000E+00
         0.49373E-02
         0.19843E-02
         0.46540E-02
         0.55472E-03
         0.12747E-01
         0.89697E-02
         0.26904E-02
         0.13735E-01
         0.28391E-02
         0.00000E+00
         0.00000E+00
         0.87861E-03
         0.00000E+00
         0.93580E-02
         0.85548E-02
         0.82601E-02
         0.00000E+00
         0.19722E-02
         0.00000E+00
         0.25519E-02
         0.00000E+00
         0.00000E+00
         0.22310E-02
         0.19702E-02
         0.00000E+00
         0.71339E-04
         0.00000E+00
         0.78543E-02
         0.33717E-02
         0.52953E-02
         0.10697E-01
         0.75908E-02
         0.67409E-02
         0.10784E-01
         0.94438E-02
         0.94694E-02
         0.66056E-02
         0.55373E-02
         0.87605E-02
         0.46549E-02
         0.34788E-02
         0.22297E-02
         0.31896E-02
         0.73320E-02
         0.39469E-02
         0.43478E-01
         0.44682E-01
         0.47016E-01
         0.46660E-01
         0.49857E-01
         0.53666E-01
         0.51292E-01
         0.45310E-01
         0.44074E-01
         0.47383E-01
         0.46460E-01
         0.45923E-01
         0.37293E-01
         0.35292E-01
         0.39208E-01
         0.42349E-01
         0.44089E-01
         0.48411E-01
         0.46241E-01
         0.47590E-01
         0.42476E-01
         0.40177E-01
         0.42905E-01
         0.41682E-01
         0.43053E-01
         0.42677E-01
         0.50656E-02
         0.17520E-02
         0.15051E-02
         0.98575E-04
         0.52519E-02
         0.26498E-02
         0.00000E+00
         0.49427E-02
         0.19933E-02
         0.46731E-02
         0.55633E-03
         0.12747E-01
         0.89751E-02
         0.26767E-02
         0.13752E-01
         0.28450E-02
         0.00000E+00
         0.00000E+00
         0.88122E-03
         0.00000E+00
         0.93603E-02
         0.85548E-02
         0.82612E-02
         0.00000E+00
         0.19905E-02
         0.00000E+00
         0.25535E-02
         0.00000E+00
         0.00000E+00
         0.22380E-02
         0.19748E-02
         0.00000E+00
         0.65951E-04
         0.00000E+00
         0.78596E-02
         0.33709E-02
         0.52942E-02
         0.10719E-01
         0.76160E-02
         0.67562E-02
         0.10795E-01
         0.94515E-02
         0.94727E-02
         0.66084E-02
         0.55382E-02
         0.87625E-02
         0.46567E-02
         0.34800E-02
         0.22240E-02
         0.31814E-02
         0.73270E-02
         0.39362E-02
         0.43460E-01
         0.44671E-01
         0.47016E-01
         0.46660E-01
         0.49848E-01
         0.53647E-01
         0.51268E-01
         0.45296E-01
         0.44063E-01
         0.47367E-01
         0.46452E-01
         0.45926E-01
         0.37291E-01
         0.35291E-01
         0.39215E-01
         0.42364E-01
         0.44105E-01
         0.48423E-01
         0.46237E-01
         0.47587E-01
         0.42472E-01
         0.40175E-01
         0.42888E-01
         0.41652E-01
         0.43027E-01
         0.42652E-01
         0.50705E-02
         0.17519E-02
         0.15074E-02
         0.10319E-03
         0.52484E-02
         0.26467E-02
         0.00000E+00
         0.49482E-02
         0.20023E-02
         0.46922E-02
         0.55798E-03
         0.12747E-01
         0.89808E-02
         0.26631E-02
         0.13770E-01
         0.28509E-02
         0.30073E-05
         0.00000E+00
         0.88384E-03
         0.00000E+00
         0.93624E-02
         0.85547E-02
         0.82625E-02
         0.00000E+00
         0.20087E-02
         0.00000E+00
         0.25551E-02
         0.00000E+00
         0.00000E+00
         0.22450E-02
         0.19794E-02
         0.00000E+00
         0.60615E-04
         0.00000E+00
         0.78652E-02
         0.33698E-02
         0.52931E-02
         0.10741E-01
         0.76412E-02
         0.67714E-02
         0.10806E-01
         0.94590E-02
         0.94759E-02
         0.66109E-02
         0.55392E-02
         0.87643E-02
         0.46587E-02
         0.34810E-02
         0.22184E-02
         0.31734E-02
         0.73220E-02
         0.39254E-02
         0.43443E-01
         0.44660E-01
         0.47015E-01
         0.46660E-01
         0.49840E-01
         0.53627E-01
         0.51244E-01
         0.45283E-01
         0.44051E-01
         0.47350E-01
         0.46443E-01
         0.45929E-01
         0.37290E-01
         0.35290E-01
         0.39221E-01
         0.42379E-01
         0.44122E-01
         0.48435E-01
         0.46234E-01
         0.47584E-01
         0.42468E-01
         0.40173E-01
         0.42872E-01
         0.41623E-01
         0.43001E-01
         0.42627E-01
         0.50755E-02
         0.17518E-02
         0.15097E-02
         0.10784E-03
         0.52449E-02
         0.26434E-02
         0.00000E+00
         0.49537E-02
         0.20113E-02
         0.47112E-02
         0.55970E-03
         0.12747E-01
         0.89863E-02
         0.26495E-02
         0.13788E-01
         0.28567E-02
         0.12070E-04
         0.00000E+00
         0.88646E-03
         0.00000E+00
         0.93646E-02
         0.85546E-02
         0.82637E-02
         0.00000E+00
         0.20269E-02
         0.00000E+00
         0.25565E-02
         0.00000E+00
         0.00000E+00
         0.22518E-02
         0.19840E-02
         0.00000E+00
         0.55322E-04
         0.00000E+00
         0.78708E-02
         0.33688E-02
         0.52919E-02
         0.10764E-01
         0.76664E-02
         0.67866E-02
         0.10817E-01
         0.94665E-02
         0.94791E-02
         0.66138E-02
         0.55401E-02
         0.87664E-02
         0.46607E-02
         0.34822E-02
         0.22128E-02
         0.31653E-02
         0.73169E-02
         0.39149E-02
         0.43426E-01
         0.44648E-01
         0.47014E-01
         0.46660E-01
         0.49831E-01
         0.53607E-01
         0.51220E-01
         0.45269E-01
         0.44039E-01
         0.47334E-01
         0.46435E-01
         0.45933E-01
         0.37288E-01
         0.35289E-01
         0.39228E-01
         0.42394E-01
         0.44138E-01
         0.48447E-01
         0.46231E-01
         0.47581E-01
         0.42464E-01
         0.40171E-01
         0.42856E-01
         0.41593E-01
         0.42975E-01
         0.42603E-01
         0.50805E-02
         0.17518E-02
         0.15120E-02
         0.11250E-03
         0.52414E-02
         0.26401E-02
         0.00000E+00
         0.49590E-02
         0.20203E-02
         0.47301E-02
         0.56144E-03
         0.12747E-01
         0.89917E-02
         0.26358E-02
         0.13805E-01
         0.28626E-02
         0.21123E-04
         0.00000E+00
         0.88911E-03
         0.00000E+00
         0.93667E-02
         0.85545E-02
         0.82650E-02
         0.00000E+00
         0.20450E-02
         0.00000E+00
         0.25575E-02
         0.00000E+00
         0.00000E+00
         0.22583E-02
         0.19886E-02
         0.00000E+00
         0.50004E-04
         0.00000E+00
         0.78761E-02
         0.33680E-02
         0.52908E-02
         0.10786E-01
         0.76917E-02
         0.68011E-02
         0.10827E-01
         0.94733E-02
         0.94820E-02
         0.66166E-02
         0.55411E-02
         0.87683E-02
         0.46625E-02
         0.34833E-02
         0.22070E-02
         0.31572E-02
         0.73121E-02
         0.39041E-02
         0.43409E-01
         0.44637E-01
         0.47013E-01
         0.46660E-01
         0.49822E-01
         0.53587E-01
         0.51196E-01
         0.45256E-01
         0.44027E-01
         0.47317E-01
         0.46427E-01
         0.45938E-01
         0.37288E-01
         0.35289E-01
         0.39234E-01
         0.42409E-01
         0.44154E-01
         0.48459E-01
         0.46227E-01
         0.47578E-01
         0.42460E-01
         0.40169E-01
         0.42840E-01
         0.41563E-01
         0.42949E-01
         0.42578E-01
         0.50854E-02
         0.17518E-02
         0.15143E-02
         0.11717E-03
         0.52378E-02
         0.26368E-02
         0.00000E+00
         0.49644E-02
         0.20294E-02
         0.47489E-02
         0.56323E-03
         0.12747E-01
         0.89973E-02
         0.26220E-02
         0.13823E-01
         0.28684E-02
         0.30185E-04
         0.00000E+00
         0.89175E-03
         0.00000E+00
         0.93690E-02
         0.85542E-02
         0.82663E-02
         0.00000E+00
         0.20631E-02
         0.00000E+00
         0.25582E-02
         0.00000E+00
         0.00000E+00
         0.22644E-02
         0.19932E-02
         0.00000E+00
         0.44713E-04
         0.00000E+00
         0.78817E-02
         0.33670E-02
         0.52897E-02
         0.10808E-01
         0.77167E-02
         0.68154E-02
         0.10837E-01
         0.94794E-02
         0.94846E-02
         0.66193E-02
         0.55421E-02
         0.87703E-02
         0.46645E-02
         0.34844E-02
         0.22014E-02
         0.31491E-02
         0.73069E-02
         0.38933E-02
         0.43391E-01
         0.44626E-01
         0.47012E-01
         0.46660E-01
         0.49813E-01
         0.53568E-01
         0.51172E-01
         0.45243E-01
         0.44015E-01
         0.47299E-01
         0.46420E-01
         0.45944E-01
         0.37288E-01
         0.35288E-01
         0.39241E-01
         0.42424E-01
         0.44171E-01
         0.48471E-01
         0.46224E-01
         0.47574E-01
         0.42456E-01
         0.40167E-01
         0.42823E-01
         0.41534E-01
         0.42923E-01
         0.42554E-01
         0.50905E-02
         0.17517E-02
         0.15168E-02
         0.12186E-03
         0.52345E-02
         0.26336E-02
         0.00000E+00
         0.49698E-02
         0.20385E-02
         0.47676E-02
         0.56510E-03
         0.12747E-01
         0.90027E-02
         0.26082E-02
         0.13840E-01
         0.28743E-02
         0.39295E-04
         0.00000E+00
         0.89442E-03
         0.00000E+00
         0.93711E-02
         0.85540E-02
         0.82674E-02
         0.00000E+00
         0.20811E-02
         0.00000E+00
         0.25587E-02
         0.00000E+00
         0.00000E+00
         0.22705E-02
         0.19979E-02
         0.00000E+00
         0.39548E-04
         0.00000E+00
         0.78874E-02
         0.33661E-02
         0.52884E-02
         0.10830E-01
         0.77417E-02
         0.68291E-02
         0.10846E-01
         0.94853E-02
         0.94871E-02
         0.66221E-02
         0.55429E-02
         0.87723E-02
         0.46665E-02
         0.34856E-02
         0.21958E-02
         0.31411E-02
         0.73022E-02
         0.38828E-02
         0.43374E-01
         0.44615E-01
         0.47012E-01
         0.46661E-01
         0.49804E-01
         0.53548E-01
         0.51149E-01
         0.45230E-01
         0.44003E-01
         0.47280E-01
         0.46412E-01
         0.45951E-01
         0.37288E-01
         0.35288E-01
         0.39247E-01
         0.42439E-01
         0.44187E-01
         0.48483E-01
         0.46221E-01
         0.47571E-01
         0.42452E-01
         0.40165E-01
         0.42807E-01
         0.41504E-01
         0.42898E-01
         0.42529E-01
         0.54708E-02
         0.23616E-02
         0.21457E-02
         0.83451E-03
         0.57410E-02
         0.32382E-02
         0.69336E-03
         0.54512E-02
         0.25718E-02
         0.52718E-02
         0.16170E-02
         0.13199E-01
         0.94552E-02
         0.33806E-02
         0.14312E-01
         0.33222E-02
         0.89113E-03
         0.00000E+00
         0.16484E-02
         0.25217E-03
         0.97503E-02
         0.89563E-02
         0.86405E-02
         0.70992E-03
         0.27792E-02
         0.00000E+00
         0.33299E-02
         0.00000E+00
         0.58877E-03
         0.29833E-02
         0.25146E-02
         0.47262E-03
         0.76600E-03
         0.60629E-03
         0.83899E-02
         0.39813E-02
         0.57902E-02
         0.11321E-01
         0.82893E-02
         0.73883E-02
         0.11307E-01
         0.99298E-02
         0.98894E-02
         0.70186E-02
         0.60092E-02
         0.92462E-02
         0.52147E-02
         0.40351E-02
         0.28181E-02
         0.37253E-02
         0.77757E-02
         0.44238E-02
         0.43955E-01
         0.45181E-01
         0.47601E-01
         0.47227E-01
         0.50386E-01
         0.54159E-01
         0.51763E-01
         0.45850E-01
         0.44632E-01
         0.47924E-01
         0.47039E-01
         0.46540E-01
         0.37795E-01
         0.35759E-01
         0.39724E-01
         0.42933E-01
         0.44688E-01
         0.49038E-01
         0.46819E-01
         0.48171E-01
         0.42989E-01
         0.40680E-01
         0.43331E-01
         0.42013E-01
         0.43401E-01
         0.43034E-01
         0.25573E-01
         0.24941E-01
         0.24470E-01
         0.21775E-01
         0.29168E-01
         0.26247E-01
         0.26399E-01
         0.28764E-01
         0.23363E-01
         0.28633E-01
         0.29383E-01
         0.39337E-01
         0.33900E-01
         0.30905E-01
         0.41321E-01
         0.23300E-01
         0.23928E-01
         0.20355E-01
         0.25001E-01
         0.25916E-01
         0.31814E-01
         0.31879E-01
         0.30005E-01
         0.23697E-01
         0.27694E-01
         0.22528E-01
         0.30797E-01
         0.29185E-01
         0.29489E-01
         0.28757E-01
         0.23124E-01
         0.23518E-01
         0.21933E-01
         0.22938E-01
         0.33170E-01
         0.28395E-01
         0.29455E-01
         0.38292E-01
         0.35494E-01
         0.34572E-01
         0.37711E-01
         0.35256E-01
         0.33695E-01
         0.28325E-01
         0.28658E-01
         0.33667E-01
         0.29197E-01
         0.26990E-01
         0.25901E-01
         0.27256E-01
         0.31659E-01
         0.27663E-01
         0.75463E-01
         0.75730E-01
         0.78812E-01
         0.77591E-01
         0.81654E-01
         0.87238E-01
         0.85941E-01
         0.80335E-01
         0.79296E-01
         0.83064E-01
         0.81204E-01
         0.78550E-01
         0.66918E-01
         0.63388E-01
         0.66914E-01
         0.69999E-01
         0.71904E-01
         0.78307E-01
         0.78159E-01
         0.79687E-01
         0.72613E-01
         0.69580E-01
         0.73024E-01
         0.71648E-01
         0.72553E-01
         0.71933E-01
  
SCALARS                            dam  double 1
LOOKUP_TABLE default
         0.00000E+00
         0.00000E+00
         0.00000E+00
         0.00000E+00
         0.00000E+00
         0.00000E+00
         0.00000E+00
         0.00000E+00
         0.00000E+00
         0.00000E+00
         0.00000E+00
         0.00000E+00
         0.00000E+00
         0.00000E+00
         0.00000E+00
         0.00000E+00
         0.00000E+00
         0.00000E+00
         0.00000E+00
         0.00000E+00
         0.00000E+00
         0.00000E+00
         0.00000E+00
         0.00000E+00
         0.00000E+00
         0.00000E+00
         0.00000E+00
         0.00000E+00
         0.00000E+00
         0.00000E+00
         0.00000E+00
         0.00000E+00
         0.00000E+00
         0.00000E+00
         0.00000E+00
         0.00000E+00
         0.00000E+00
         0.00000E+00
         0.00000E+00
         0.00000E+00
         0.00000E+00
         0.00000E+00
         0.00000E+00
         0.00000E+00
         0.00000E+00
         0.00000E+00
         0.00000E+00
         0.00000E+00
         0.00000E+00
         0.00000E+00
         0.00000E+00
         0.00000E+00
         0.00000E+00
         0.00000E+00
         0.00000E+00
         0.00000E+00
         0.00000E+00
         0.00000E+00
         0.00000E+00
         0.00000E+00
         0.00000E+00
         0.00000E+00
         0.00000E+00
         0.00000E+00
         0.00000E+00
         0.00000E+00
         0.00000E+00
         0.00000E+00
         0.00000E+00
         0.00000E+00
         0.00000E+00
         0.00000E+00
         0.00000E+00
         0.00000E+00
         0.00000E+00
         0.00000E+00
         0.00000E+00
         0.00000E+00
         0.00000E+00
         0.00000E+00
         0.00000E+00
         0.00000E+00
         0.00000E+00
         0.00000E+00
         0.00000E+00
         0.00000E+00
         0.00000E+00
         0.00000E+00
         0.00000E+00
         0.00000E+00
         0.00000E+00
         0.00000E+00
         0.00000E+00
         0.00000E+00
         0.00000E+00
         0.00000E+00
         0.00000E+00
         0.00000E+00
         0.00000E+00
         0.00000E+00
         0.00000E+00
         0.00000E+00
         0.00000E+00
         0.00000E+00
         0.00000E+00
         0.00000E+00
         0.00000E+00
         0.00000E+00
         0.00000E+00
         0.00000E+00
         0.00000E+00
         0.00000E+00
         0.00000E+00
         0.00000E+00
         0.00000E+00
         0.00000E+00
         0.00000E+00
         0.00000E+00
         0.00000E+00
         0.00000E+00
         0.00000E+00
         0.00000E+00
         0.00000E+00
         0.00000E+00
         0.00000E+00
         0.00000E+00
         0.00000E+00
         0.00000E+00
         0.00000E+00
         0.00000E+00
         0.00000E+00
         0.00000E+00
         0.00000E+00
         0.00000E+00
         0.00000E+00
         0.00000E+00
         0.00000E+00
         0.00000E+00
         0.00000E+00
         0.00000E+00
         0.00000E+00
         0.00000E+00
         0.00000E+00
         0.00000E+00
         0.00000E+00
         0.00000E+00
         0.00000E+00
         0.00000E+00
         0.00000E+00
         0.00000E+00
         0.00000E+00
         0.00000E+00
         0.00000E+00
         0.00000E+00
         0.00000E+00
         0.00000E+00
         0.00000E+00
         0.00000E+00
         0.00000E+00
         0.00000E+00
         0.00000E+00
         0.00000E+00
         0.00000E+00
         0.00000E+00
         0.00000E+00
         0.00000E+00
         0.00000E+00
         0.00000E+00
         0.00000E+00
         0.00000E+00
         0.00000E+00
         0.00000E+00
         0.00000E+00
         0.00000E+00
         0.00000E+00
         0.00000E+00
         0.00000E+00
         0.00000E+00
         0.00000E+00
         0.00000E+00
         0.00000E+00
         0.00000E+00
         0.00000E+00
         0.00000E+00
         0.00000E+00
         0.00000E+00
         0.00000E+00
         0.00000E+00
         0.00000E+00
         0.00000E+00
         0.00000E+00
         0.00000E+00
         0.00000E+00
         0.00000E+00
         0.00000E+00
         0.00000E+00
         0.00000E+00
         0.00000E+00
         0.00000E+00
         0.00000E+00
         0.00000E+00
         0.00000E+00
         0.00000E+00
         0.00000E+00
         0.00000E+00
         0.00000E+00
         0.00000E+00
         0.00000E+00
         0.00000E+00
         0.00000E+00
         0.00000E+00
         0.00000E+00
         0.00000E+00
         0.00000E+00
         0.00000E+00
         0.00000E+00
         0.00000E+00
         0.00000E+00
         0.00000E+00
         0.00000E+00
         0.00000E+00
         0.00000E+00
         0.00000E+00
         0.00000E+00
         0.00000E+00
         0.00000E+00
         0.00000E+00
         0.00000E+00
         0.00000E+00
         0.00000E+00
         0.00000E+00
         0.00000E+00
         0.00000E+00
         0.00000E+00
         0.00000E+00
         0.00000E+00
         0.00000E+00
         0.00000E+00
         0.00000E+00
         0.00000E+00
         0.00000E+00
         0.00000E+00
         0.00000E+00
         0.00000E+00
         0.00000E+00
         0.00000E+00
         0.00000E+00
         0.00000E+00
         0.00000E+00
         0.00000E+00
         0.00000E+00
         0.00000E+00
         0.00000E+00
         0.00000E+00
         0.00000E+00
         0.00000E+00
         0.00000E+00
         0.00000E+00
         0.00000E+00
         0.00000E+00
         0.00000E+00
         0.00000E+00
         0.00000E+00
         0.00000E+00
         0.00000E+00
         0.00000E+00
         0.00000E+00
         0.00000E+00
         0.00000E+00
         0.00000E+00
         0.00000E+00
         0.00000E+00
         0.00000E+00
         0.00000E+00
         0.00000E+00
         0.00000E+00
         0.00000E+00
         0.00000E+00
         0.00000E+00
         0.00000E+00
         0.00000E+00
         0.00000E+00
         0.00000E+00
         0.00000E+00
         0.00000E+00
         0.00000E+00
         0.00000E+00
         0.00000E+00
         0.00000E+00
         0.00000E+00
         0.00000E+00
         0.00000E+00
         0.00000E+00
         0.00000E+00
         0.00000E+00
         0.00000E+00
         0.00000E+00
         0.00000E+00
         0.00000E+00
         0.00000E+00
         0.00000E+00
         0.00000E+00
         0.00000E+00
         0.00000E+00
         0.00000E+00
         0.00000E+00
         0.00000E+00
         0.00000E+00
         0.00000E+00
         0.00000E+00
         0.00000E+00
         0.00000E+00
         0.00000E+00
         0.00000E+00
         0.00000E+00
         0.00000E+00
         0.00000E+00
         0.00000E+00
         0.00000E+00
         0.00000E+00
         0.00000E+00
         0.00000E+00
         0.00000E+00
         0.00000E+00
         0.00000E+00
         0.00000E+00
         0.00000E+00
         0.00000E+00
         0.00000E+00
         0.00000E+00
         0.00000E+00
         0.00000E+00
         0.00000E+00
         0.00000E+00
         0.00000E+00
         0.00000E+00
         0.00000E+00
         0.00000E+00
         0.00000E+00
         0.00000E+00
         0.00000E+00
         0.00000E+00
         0.00000E+00
         0.00000E+00
         0.00000E+00
         0.00000E+00
         0.00000E+00
         0.00000E+00
         0.00000E+00
         0.00000E+00
         0.00000E+00
         0.00000E+00
         0.00000E+00
         0.00000E+00
         0.00000E+00
         0.00000E+00
         0.00000E+00
         0.00000E+00
         0.00000E+00
         0.00000E+00
         0.00000E+00
         0.00000E+00
         0.00000E+00
         0.00000E+00
         0.00000E+00
         0.00000E+00
         0.00000E+00
         0.00000E+00
         0.00000E+00
         0.00000E+00
         0.00000E+00
         0.00000E+00
         0.00000E+00
         0.00000E+00
         0.00000E+00
         0.00000E+00
         0.00000E+00
         0.00000E+00
         0.00000E+00
         0.00000E+00
         0.00000E+00
         0.00000E+00
         0.00000E+00
         0.00000E+00
         0.00000E+00
         0.00000E+00
         0.00000E+00
         0.00000E+00
         0.00000E+00
         0.00000E+00
         0.00000E+00
         0.00000E+00
         0.00000E+00
         0.00000E+00
         0.00000E+00
         0.00000E+00
         0.00000E+00
         0.00000E+00
         0.00000E+00
         0.00000E+00
         0.00000E+00
         0.00000E+00
         0.00000E+00
         0.00000E+00
         0.00000E+00
         0.00000E+00
         0.00000E+00
         0.00000E+00
         0.00000E+00
         0.00000E+00
         0.00000E+00
         0.00000E+00
         0.00000E+00
         0.00000E+00
         0.00000E+00
         0.00000E+00
         0.00000E+00
         0.00000E+00
         0.00000E+00
         0.00000E+00
         0.00000E+00
         0.00000E+00
         0.00000E+00
         0.00000E+00
         0.00000E+00
         0.00000E+00
         0.00000E+00
         0.00000E+00
         0.00000E+00
         0.00000E+00
         0.00000E+00
         0.00000E+00
         0.00000E+00
         0.00000E+00
         0.00000E+00
         0.00000E+00
         0.00000E+00
         0.00000E+00
         0.00000E+00
         0.00000E+00
         0.00000E+00
         0.00000E+00
         0.00000E+00
         0.00000E+00
         0.00000E+00
         0.00000E+00
         0.00000E+00
         0.00000E+00
         0.00000E+00
         0.00000E+00
         0.00000E+00
         0.00000E+00
         0.00000E+00
         0.00000E+00
         0.00000E+00
         0.00000E+00
         0.00000E+00
         0.00000E+00
         0.00000E+00
         0.00000E+00
         0.00000E+00
         0.00000E+00
         0.00000E+00
         0.00000E+00
         0.00000E+00
         0.00000E+00
         0.00000E+00
         0.00000E+00
         0.00000E+00
         0.00000E+00
         0.00000E+00
         0.00000E+00
         0.00000E+00
         0.00000E+00
         0.00000E+00
         0.00000E+00
         0.00000E+00
         0.00000E+00
         0.00000E+00
         0.00000E+00
         0.00000E+00
         0.00000E+00
         0.00000E+00
         0.00000E+00
         0.00000E+00
         0.00000E+00
         0.00000E+00
         0.00000E+00
         0.00000E+00
         0.00000E+00
         0.00000E+00
         0.00000E+00
         0.00000E+00
         0.00000E+00
         0.00000E+00
         0.00000E+00
         0.00000E+00
         0.00000E+00
         0.00000E+00
         0.00000E+00
         0.00000E+00
         0.00000E+00
         0.00000E+00
         0.00000E+00
         0.00000E+00
         0.00000E+00
         0.00000E+00
         0.00000E+00
         0.00000E+00
         0.00000E+00
         0.00000E+00
         0.00000E+00
         0.00000E+00
         0.00000E+00
         0.00000E+00
         0.00000E+00
         0.00000E+00
         0.00000E+00
         0.00000E+00
         0.00000E+00
         0.00000E+00
         0.00000E+00
         0.00000E+00
         0.00000E+00
         0.00000E+00
         0.00000E+00
         0.00000E+00
         0.00000E+00
         0.00000E+00
         0.00000E+00
         0.00000E+00
         0.00000E+00
         0.00000E+00
         0.00000E+00
         0.00000E+00
         0.00000E+00
         0.00000E+00
         0.00000E+00
         0.00000E+00
         0.00000E+00
         0.00000E+00
         0.00000E+00
         0.00000E+00
         0.00000E+00
         0.00000E+00
         0.00000E+00
         0.00000E+00
         0.00000E+00
         0.00000E+00
         0.00000E+00
         0.00000E+00
         0.00000E+00
         0.00000E+00
         0.00000E+00
         0.00000E+00
         0.00000E+00
         0.00000E+00
         0.00000E+00
         0.00000E+00
         0.00000E+00
         0.00000E+00
         0.00000E+00
         0.00000E+00
         0.00000E+00
         0.00000E+00
         0.00000E+00
         0.00000E+00
         0.00000E+00
         0.00000E+00
         0.00000E+00
         0.00000E+00
         0.00000E+00
         0.00000E+00
         0.00000E+00
         0.00000E+00
         0.00000E+00
         0.00000E+00
         0.00000E+00
         0.00000E+00
         0.00000E+00
         0.00000E+00
         0.00000E+00
         0.00000E+00
         0.00000E+00
         0.00000E+00
         0.00000E+00
         0.00000E+00
         0.00000E+00
         0.00000E+00
         0.00000E+00
         0.00000E+00
         0.00000E+00
         0.00000E+00
         0.00000E+00
         0.00000E+00
         0.00000E+00
         0.00000E+00
         0.00000E+00
         0.00000E+00
         0.00000E+00
         0.00000E+00
         0.00000E+00
         0.00000E+00
         0.00000E+00
         0.00000E+00
         0.00000E+00
         0.00000E+00
         0.00000E+00
         0.00000E+00
         0.00000E+00
         0.00000E+00
         0.00000E+00
         0.00000E+00
         0.00000E+00
         0.00000E+00
         0.00000E+00
         0.00000E+00
         0.00000E+00
         0.00000E+00
         0.00000E+00
         0.00000E+00
         0.00000E+00
         0.00000E+00
         0.00000E+00
         0.00000E+00
         0.00000E+00
         0.00000E+00
         0.00000E+00
         0.00000E+00
         0.00000E+00
         0.00000E+00
         0.00000E+00
         0.00000E+00
         0.00000E+00
         0.00000E+00
         0.00000E+00
         0.00000E+00
         0.00000E+00
         0.00000E+00
         0.00000E+00
         0.00000E+00
         0.00000E+00
         0.00000E+00
         0.00000E+00
         0.00000E+00
         0.00000E+00
         0.00000E+00
         0.00000E+00
         0.00000E+00
         0.00000E+00
         0.00000E+00
         0.00000E+00
         0.00000E+00
         0.00000E+00
         0.00000E+00
         0.00000E+00
         0.00000E+00
         0.00000E+00
         0.00000E+00
         0.00000E+00
         0.00000E+00
         0.00000E+00
         0.00000E+00
         0.00000E+00
         0.00000E+00
         0.00000E+00
         0.00000E+00
         0.00000E+00
         0.00000E+00
         0.00000E+00
         0.00000E+00
         0.00000E+00
         0.00000E+00
         0.00000E+00
         0.00000E+00
         0.00000E+00
         0.00000E+00
         0.00000E+00
         0.00000E+00
         0.00000E+00
         0.00000E+00
         0.00000E+00
         0.00000E+00
         0.00000E+00
         0.00000E+00
         0.00000E+00
         0.00000E+00
         0.00000E+00
         0.00000E+00
         0.00000E+00
         0.00000E+00
         0.00000E+00
         0.00000E+00
         0.00000E+00
         0.00000E+00
         0.00000E+00
         0.00000E+00
         0.00000E+00
         0.00000E+00
         0.00000E+00
         0.00000E+00
         0.00000E+00
         0.00000E+00
         0.00000E+00
         0.00000E+00
         0.00000E+00
         0.00000E+00
         0.00000E+00
         0.00000E+00
         0.00000E+00
         0.00000E+00
         0.00000E+00
         0.00000E+00
         0.00000E+00
         0.00000E+00
         0.00000E+00
         0.00000E+00
         0.00000E+00
         0.00000E+00
         0.00000E+00
         0.00000E+00
         0.00000E+00
         0.00000E+00
         0.00000E+00
         0.00000E+00
         0.00000E+00
         0.00000E+00
         0.00000E+00
         0.00000E+00
         0.00000E+00
         0.00000E+00
         0.00000E+00
         0.00000E+00
         0.00000E+00
         0.00000E+00
         0.00000E+00
         0.00000E+00
         0.00000E+00
         0.00000E+00
         0.00000E+00
         0.00000E+00
         0.00000E+00
         0.00000E+00
         0.00000E+00
         0.00000E+00
         0.00000E+00
         0.00000E+00
         0.00000E+00
         0.00000E+00
         0.00000E+00
         0.00000E+00
         0.00000E+00
         0.00000E+00
         0.00000E+00
         0.00000E+00
         0.00000E+00
         0.00000E+00
         0.00000E+00
         0.00000E+00
         0.00000E+00
         0.00000E+00
         0.00000E+00
         0.00000E+00
         0.00000E+00
         0.00000E+00
         0.00000E+00
         0.00000E+00
         0.00000E+00
         0.00000E+00
         0.00000E+00
         0.00000E+00
         0.00000E+00
         0.00000E+00
         0.00000E+00
         0.00000E+00
         0.00000E+00
         0.00000E+00
         0.00000E+00
         0.00000E+00
         0.00000E+00
         0.00000E+00
         0.00000E+00
         0.00000E+00
         0.00000E+00
         0.00000E+00
         0.00000E+00
         0.00000E+00
         0.00000E+00
         0.00000E+00
         0.00000E+00
         0.00000E+00
         0.00000E+00
         0.00000E+00
         0.00000E+00
         0.00000E+00
         0.00000E+00
         0.00000E+00
         0.00000E+00
         0.00000E+00
         0.00000E+00
         0.00000E+00
         0.00000E+00
         0.00000E+00
         0.00000E+00
         0.00000E+00
         0.00000E+00
         0.00000E+00
         0.00000E+00
         0.00000E+00
         0.00000E+00
         0.00000E+00
         0.00000E+00
         0.00000E+00
         0.00000E+00
         0.00000E+00
         0.00000E+00
         0.00000E+00
         0.00000E+00
         0.00000E+00
         0.00000E+00
         0.00000E+00
         0.00000E+00
         0.00000E+00
         0.00000E+00
         0.00000E+00
         0.00000E+00
         0.00000E+00
         0.00000E+00
         0.00000E+00
         0.00000E+00
         0.00000E+00
         0.00000E+00
         0.00000E+00
         0.00000E+00
         0.00000E+00
         0.00000E+00
         0.00000E+00
         0.00000E+00
         0.00000E+00
         0.00000E+00
         0.00000E+00
         0.00000E+00
         0.00000E+00
         0.00000E+00
         0.00000E+00
         0.00000E+00
         0.00000E+00
         0.00000E+00
         0.00000E+00
         0.00000E+00
         0.00000E+00
         0.00000E+00
         0.00000E+00
         0.00000E+00
         0.00000E+00
         0.00000E+00
         0.00000E+00
         0.00000E+00
         0.00000E+00
         0.00000E+00
         0.00000E+00
         0.00000E+00
         0.00000E+00
         0.00000E+00
         0.00000E+00
         0.00000E+00
         0.00000E+00
         0.00000E+00
         0.00000E+00
         0.00000E+00
         0.00000E+00
         0.00000E+00
         0.00000E+00
         0.00000E+00
         0.00000E+00
         0.00000E+00
         0.00000E+00
         0.00000E+00
         0.00000E+00
         0.00000E+00
         0.00000E+00
         0.00000E+00
         0.00000E+00
         0.00000E+00
         0.00000E+00
         0.00000E+00
         0.00000E+00
         0.00000E+00
         0.00000E+00
         0.00000E+00
         0.00000E+00
         0.00000E+00
         0.00000E+00
         0.00000E+00
         0.00000E+00
         0.00000E+00
         0.00000E+00
         0.00000E+00
         0.00000E+00
         0.00000E+00
         0.00000E+00
         0.00000E+00
         0.00000E+00
         0.00000E+00
         0.00000E+00
         0.00000E+00
         0.00000E+00
         0.00000E+00
         0.00000E+00
         0.00000E+00
         0.00000E+00
         0.00000E+00
         0.00000E+00
         0.00000E+00
         0.00000E+00
         0.00000E+00
         0.00000E+00
         0.00000E+00
         0.00000E+00
         0.00000E+00
         0.00000E+00
         0.00000E+00
         0.00000E+00
         0.00000E+00
         0.00000E+00
         0.00000E+00
         0.00000E+00
         0.00000E+00
         0.00000E+00
         0.00000E+00
         0.00000E+00
         0.00000E+00
         0.00000E+00
         0.00000E+00
         0.00000E+00
         0.00000E+00
         0.00000E+00
         0.00000E+00
         0.00000E+00
         0.00000E+00
         0.00000E+00
         0.00000E+00
         0.00000E+00
         0.00000E+00
         0.00000E+00
         0.00000E+00
         0.00000E+00
         0.00000E+00
         0.00000E+00
         0.00000E+00
         0.00000E+00
         0.00000E+00
         0.00000E+00
         0.00000E+00
         0.00000E+00
         0.00000E+00
         0.00000E+00
         0.00000E+00
         0.00000E+00
         0.00000E+00
         0.00000E+00
         0.00000E+00
         0.00000E+00
         0.00000E+00
         0.00000E+00
         0.00000E+00
         0.00000E+00
         0.00000E+00
         0.00000E+00
         0.00000E+00
         0.00000E+00
         0.00000E+00
         0.00000E+00
         0.00000E+00
         0.00000E+00
         0.00000E+00
         0.00000E+00
         0.00000E+00
         0.00000E+00
         0.00000E+00
         0.00000E+00
         0.00000E+00
         0.00000E+00
         0.00000E+00
         0.00000E+00
         0.00000E+00
         0.00000E+00
         0.00000E+00
         0.00000E+00
         0.00000E+00
         0.00000E+00
         0.00000E+00
         0.00000E+00
         0.00000E+00
         0.00000E+00
         0.00000E+00
         0.00000E+00
         0.00000E+00
         0.00000E+00
         0.00000E+00
         0.00000E+00
         0.00000E+00
         0.00000E+00
         0.00000E+00
         0.00000E+00
         0.00000E+00
         0.00000E+00
         0.00000E+00
         0.00000E+00
         0.00000E+00
         0.00000E+00
         0.00000E+00
         0.00000E+00
         0.00000E+00
         0.00000E+00
         0.00000E+00
         0.00000E+00
         0.00000E+00
         0.00000E+00
         0.00000E+00
         0.00000E+00
         0.00000E+00
         0.00000E+00
         0.00000E+00
         0.00000E+00
         0.00000E+00
         0.00000E+00
         0.00000E+00
         0.00000E+00
         0.00000E+00
         0.00000E+00
         0.00000E+00
         0.00000E+00
         0.00000E+00
         0.00000E+00
         0.00000E+00
         0.00000E+00
         0.00000E+00
         0.00000E+00
         0.00000E+00
         0.00000E+00
         0.00000E+00
         0.00000E+00
         0.00000E+00
         0.00000E+00
         0.00000E+00
         0.00000E+00
         0.00000E+00
         0.00000E+00
         0.00000E+00
         0.00000E+00
         0.00000E+00
         0.00000E+00
         0.00000E+00
         0.00000E+00
         0.00000E+00
         0.00000E+00
         0.00000E+00
         0.00000E+00
         0.00000E+00
         0.00000E+00
         0.00000E+00
         0.00000E+00
         0.00000E+00
         0.00000E+00
         0.00000E+00
         0.00000E+00
         0.00000E+00
         0.00000E+00
         0.00000E+00
         0.00000E+00
         0.00000E+00
         0.00000E+00
         0.00000E+00
         0.00000E+00
         0.00000E+00
         0.00000E+00
         0.00000E+00
         0.00000E+00
         0.00000E+00
         0.00000E+00
         0.00000E+00
         0.00000E+00
         0.00000E+00
         0.00000E+00
         0.00000E+00
         0.00000E+00
         0.00000E+00
         0.00000E+00
         0.00000E+00
         0.00000E+00
         0.00000E+00
         0.00000E+00
         0.00000E+00
         0.00000E+00
         0.00000E+00
         0.00000E+00
         0.00000E+00
         0.00000E+00
         0.00000E+00
         0.00000E+00
         0.00000E+00
         0.00000E+00
         0.00000E+00
         0.00000E+00
         0.00000E+00
         0.00000E+00
         0.00000E+00
         0.00000E+00
         0.00000E+00
         0.00000E+00
         0.00000E+00
         0.00000E+00
         0.00000E+00
         0.00000E+00
         0.00000E+00
         0.00000E+00
         0.00000E+00
         0.00000E+00
         0.00000E+00
         0.00000E+00
         0.00000E+00
         0.00000E+00
         0.00000E+00
         0.00000E+00
         0.00000E+00
         0.00000E+00
         0.00000E+00
         0.00000E+00
         0.00000E+00
         0.00000E+00
         0.00000E+00
         0.00000E+00
         0.00000E+00
         0.00000E+00
         0.00000E+00
         0.00000E+00
         0.00000E+00
         0.00000E+00
         0.00000E+00
         0.00000E+00
         0.00000E+00
         0.00000E+00
         0.00000E+00
         0.00000E+00
         0.00000E+00
         0.00000E+00
         0.00000E+00
         0.00000E+00
         0.00000E+00
         0.00000E+00
         0.00000E+00
         0.00000E+00
         0.00000E+00
         0.00000E+00
         0.00000E+00
         0.00000E+00
         0.00000E+00
         0.00000E+00
         0.00000E+00
         0.00000E+00
         0.00000E+00
         0.00000E+00
         0.00000E+00
         0.00000E+00
         0.00000E+00
         0.00000E+00
         0.00000E+00
         0.00000E+00
         0.00000E+00
         0.00000E+00
         0.00000E+00
         0.00000E+00
         0.00000E+00
         0.00000E+00
         0.00000E+00
         0.00000E+00
         0.00000E+00
         0.00000E+00
         0.00000E+00
         0.00000E+00
         0.00000E+00
         0.00000E+00
         0.00000E+00
         0.00000E+00
         0.00000E+00
         0.00000E+00
         0.00000E+00
         0.00000E+00
         0.00000E+00
         0.00000E+00
         0.00000E+00
         0.00000E+00
         0.00000E+00
         0.00000E+00
         0.00000E+00
         0.00000E+00
         0.00000E+00
         0.00000E+00
         0.00000E+00
         0.00000E+00
         0.00000E+00
         0.00000E+00
         0.00000E+00
         0.00000E+00
         0.00000E+00
         0.00000E+00
         0.00000E+00
         0.00000E+00
         0.00000E+00
         0.00000E+00
         0.00000E+00
         0.00000E+00
         0.00000E+00
         0.00000E+00
         0.00000E+00
         0.00000E+00
         0.00000E+00
         0.00000E+00
         0.00000E+00
         0.00000E+00
         0.00000E+00
         0.00000E+00
         0.00000E+00
         0.00000E+00
         0.00000E+00
         0.00000E+00
         0.00000E+00
         0.00000E+00
         0.00000E+00
         0.00000E+00
         0.00000E+00
         0.00000E+00
         0.00000E+00
         0.00000E+00
         0.00000E+00
         0.00000E+00
         0.00000E+00
         0.00000E+00
         0.00000E+00
         0.00000E+00
         0.00000E+00
         0.00000E+00
         0.00000E+00
         0.00000E+00
         0.00000E+00
         0.00000E+00
         0.00000E+00
         0.00000E+00
         0.00000E+00
         0.00000E+00
         0.00000E+00
         0.00000E+00
         0.00000E+00
         0.00000E+00
         0.00000E+00
         0.00000E+00
         0.00000E+00
         0.00000E+00
         0.00000E+00
         0.00000E+00
         0.00000E+00
         0.00000E+00
         0.00000E+00
         0.00000E+00
         0.00000E+00
         0.00000E+00
         0.00000E+00
         0.00000E+00
         0.00000E+00
         0.00000E+00
         0.00000E+00
         0.00000E+00
         0.00000E+00
         0.00000E+00
         0.00000E+00
         0.00000E+00
         0.00000E+00
         0.00000E+00
         0.00000E+00
         0.00000E+00
         0.00000E+00
         0.00000E+00
         0.00000E+00
         0.00000E+00
         0.00000E+00
         0.00000E+00
         0.00000E+00
         0.00000E+00
         0.00000E+00
         0.00000E+00
         0.00000E+00
         0.00000E+00
         0.00000E+00
         0.00000E+00
         0.00000E+00
         0.00000E+00
         0.00000E+00
         0.00000E+00
         0.00000E+00
         0.00000E+00
         0.00000E+00
         0.00000E+00
         0.00000E+00
         0.00000E+00
         0.00000E+00
         0.00000E+00
         0.00000E+00
         0.00000E+00
         0.00000E+00
         0.00000E+00
         0.00000E+00
         0.00000E+00
         0.00000E+00
         0.00000E+00
         0.00000E+00
         0.00000E+00
         0.00000E+00
         0.00000E+00
         0.00000E+00
         0.00000E+00
         0.00000E+00
         0.00000E+00
         0.00000E+00
         0.00000E+00
         0.00000E+00
         0.00000E+00
         0.00000E+00
         0.00000E+00
         0.00000E+00
         0.00000E+00
         0.00000E+00
         0.00000E+00
         0.00000E+00
         0.00000E+00
         0.00000E+00
         0.00000E+00
         0.00000E+00
         0.00000E+00
         0.00000E+00
         0.00000E+00
         0.00000E+00
         0.00000E+00
         0.00000E+00
         0.00000E+00
         0.00000E+00
         0.00000E+00
         0.00000E+00
         0.00000E+00
         0.00000E+00
         0.00000E+00
         0.00000E+00
         0.00000E+00
         0.00000E+00
         0.00000E+00
         0.00000E+00
         0.00000E+00
         0.00000E+00
         0.00000E+00
         0.00000E+00
         0.00000E+00
         0.00000E+00
         0.00000E+00
         0.00000E+00
         0.00000E+00
         0.00000E+00
         0.00000E+00
         0.00000E+00
         0.00000E+00
         0.00000E+00
         0.00000E+00
         0.00000E+00
         0.00000E+00
         0.00000E+00
         0.00000E+00
         0.00000E+00
         0.00000E+00
         0.00000E+00
         0.00000E+00
         0.00000E+00
         0.00000E+00
         0.00000E+00
         0.00000E+00
         0.00000E+00
         0.00000E+00
         0.00000E+00
         0.00000E+00
         0.00000E+00
         0.00000E+00
         0.00000E+00
         0.00000E+00
         0.00000E+00
         0.00000E+00
         0.00000E+00
         0.00000E+00
         0.00000E+00
         0.00000E+00
         0.00000E+00
         0.00000E+00
         0.00000E+00
         0.00000E+00
         0.00000E+00
         0.00000E+00
         0.00000E+00
         0.00000E+00
         0.00000E+00
         0.00000E+00
         0.00000E+00
         0.00000E+00
         0.00000E+00
         0.00000E+00
         0.00000E+00
         0.00000E+00
         0.00000E+00
         0.00000E+00
         0.00000E+00
         0.00000E+00
         0.00000E+00
         0.00000E+00
         0.00000E+00
         0.00000E+00
         0.00000E+00
         0.00000E+00
         0.00000E+00
         0.00000E+00
         0.00000E+00
         0.00000E+00
         0.00000E+00
         0.00000E+00
         0.00000E+00
         0.00000E+00
         0.00000E+00
         0.00000E+00
         0.00000E+00
         0.00000E+00
         0.00000E+00
         0.00000E+00
         0.00000E+00
         0.00000E+00
         0.00000E+00
         0.00000E+00
         0.00000E+00
         0.00000E+00
         0.00000E+00
         0.00000E+00
         0.00000E+00
         0.00000E+00
         0.00000E+00
         0.00000E+00
         0.00000E+00
         0.00000E+00
         0.00000E+00
         0.00000E+00
         0.00000E+00
         0.00000E+00
         0.00000E+00
         0.00000E+00
         0.00000E+00
         0.00000E+00
         0.00000E+00
         0.00000E+00
         0.00000E+00
         0.00000E+00
         0.00000E+00
         0.00000E+00
         0.00000E+00
         0.00000E+00
         0.00000E+00
         0.00000E+00
         0.00000E+00
         0.00000E+00
         0.00000E+00
         0.00000E+00
         0.00000E+00
         0.00000E+00
         0.00000E+00
         0.00000E+00
         0.00000E+00
         0.00000E+00
         0.00000E+00
         0.00000E+00
         0.00000E+00
         0.00000E+00
         0.00000E+00
         0.00000E+00
         0.00000E+00
         0.00000E+00
         0.00000E+00
         0.00000E+00
         0.00000E+00
         0.00000E+00
         0.00000E+00
         0.00000E+00
         0.00000E+00
         0.00000E+00
         0.00000E+00
         0.00000E+00
         0.00000E+00
         0.00000E+00
         0.00000E+00
         0.00000E+00
         0.00000E+00
         0.00000E+00
         0.00000E+00
         0.00000E+00
         0.00000E+00
         0.00000E+00
         0.00000E+00
         0.00000E+00
         0.00000E+00
         0.00000E+00
         0.00000E+00
         0.00000E+00
         0.00000E+00
         0.00000E+00
         0.00000E+00
         0.00000E+00
         0.00000E+00
         0.00000E+00
         0.00000E+00
         0.00000E+00
         0.00000E+00
         0.00000E+00
         0.00000E+00
         0.00000E+00
         0.00000E+00
         0.00000E+00
         0.00000E+00
         0.00000E+00
         0.00000E+00
         0.00000E+00
         0.00000E+00
         0.00000E+00
         0.00000E+00
         0.00000E+00
         0.00000E+00
         0.00000E+00
         0.00000E+00
         0.00000E+00
         0.00000E+00
         0.00000E+00
         0.00000E+00
         0.00000E+00
         0.00000E+00
         0.00000E+00
         0.00000E+00
         0.00000E+00
         0.00000E+00
         0.00000E+00
         0.00000E+00
         0.00000E+00
         0.00000E+00
         0.00000E+00
         0.00000E+00
         0.00000E+00
         0.00000E+00
         0.00000E+00
         0.00000E+00
         0.00000E+00
         0.00000E+00
         0.00000E+00
         0.00000E+00
         0.00000E+00
         0.00000E+00
         0.00000E+00
         0.00000E+00
         0.00000E+00
         0.00000E+00
         0.00000E+00
         0.00000E+00
         0.00000E+00
         0.00000E+00
         0.00000E+00
         0.00000E+00
         0.00000E+00
         0.00000E+00
         0.00000E+00
         0.00000E+00
         0.00000E+00
         0.00000E+00
         0.00000E+00
         0.00000E+00
         0.00000E+00
         0.00000E+00
         0.00000E+00
         0.00000E+00
         0.00000E+00
         0.00000E+00
         0.00000E+00
         0.00000E+00
         0.00000E+00
         0.00000E+00
         0.00000E+00
         0.00000E+00
         0.00000E+00
         0.00000E+00
         0.00000E+00
         0.00000E+00
         0.00000E+00
         0.00000E+00
         0.00000E+00
         0.00000E+00
         0.00000E+00
         0.00000E+00
         0.00000E+00
         0.00000E+00
         0.00000E+00
         0.00000E+00
         0.00000E+00
         0.00000E+00
         0.00000E+00
         0.00000E+00
         0.00000E+00
         0.00000E+00
         0.00000E+00
         0.00000E+00
         0.00000E+00
         0.00000E+00
         0.00000E+00
         0.00000E+00
         0.00000E+00
         0.00000E+00
         0.00000E+00
         0.00000E+00
         0.00000E+00
         0.00000E+00
         0.00000E+00
         0.00000E+00
         0.00000E+00
         0.00000E+00
         0.00000E+00
         0.00000E+00
         0.00000E+00
         0.00000E+00
         0.00000E+00
         0.00000E+00
         0.00000E+00
         0.00000E+00
         0.00000E+00
         0.00000E+00
         0.00000E+00
         0.00000E+00
         0.00000E+00
         0.00000E+00
         0.00000E+00
         0.00000E+00
         0.00000E+00
         0.00000E+00
         0.00000E+00
         0.00000E+00
         0.00000E+00
         0.00000E+00
         0.00000E+00
         0.00000E+00
         0.00000E+00
         0.00000E+00
         0.00000E+00
         0.00000E+00
         0.00000E+00
         0.00000E+00
         0.00000E+00
         0.00000E+00
         0.00000E+00
         0.00000E+00
         0.00000E+00
         0.00000E+00
         0.00000E+00
         0.00000E+00
         0.00000E+00
         0.00000E+00
         0.00000E+00
         0.00000E+00
         0.00000E+00
         0.00000E+00
         0.00000E+00
         0.00000E+00
         0.00000E+00
         0.00000E+00
         0.00000E+00
         0.00000E+00
         0.00000E+00
         0.00000E+00
         0.00000E+00
         0.00000E+00
         0.00000E+00
         0.00000E+00
         0.00000E+00
         0.00000E+00
         0.00000E+00
         0.00000E+00
         0.00000E+00
         0.00000E+00
         0.00000E+00
         0.00000E+00
         0.00000E+00
         0.00000E+00
         0.00000E+00
         0.00000E+00
         0.00000E+00
         0.00000E+00
         0.00000E+00
         0.00000E+00
         0.00000E+00
         0.00000E+00
         0.00000E+00
         0.00000E+00
         0.00000E+00
         0.00000E+00
         0.00000E+00
         0.00000E+00
         0.00000E+00
         0.00000E+00
         0.00000E+00
         0.00000E+00
         0.00000E+00
         0.00000E+00
         0.00000E+00
         0.00000E+00
         0.00000E+00
         0.00000E+00
         0.00000E+00
         0.00000E+00
         0.00000E+00
         0.00000E+00
         0.00000E+00
         0.00000E+00
         0.00000E+00
         0.00000E+00
         0.00000E+00
         0.00000E+00
         0.00000E+00
         0.00000E+00
         0.00000E+00
         0.00000E+00
         0.00000E+00
         0.00000E+00
         0.00000E+00
         0.00000E+00
         0.00000E+00
         0.00000E+00
         0.00000E+00
         0.00000E+00
         0.00000E+00
         0.00000E+00
         0.00000E+00
         0.00000E+00
         0.00000E+00
         0.00000E+00
         0.00000E+00
         0.00000E+00
         0.00000E+00
         0.00000E+00
         0.00000E+00
         0.00000E+00
         0.00000E+00
         0.00000E+00
         0.00000E+00
         0.00000E+00
         0.00000E+00
         0.00000E+00
         0.00000E+00
         0.00000E+00
         0.00000E+00
         0.00000E+00
         0.00000E+00
         0.00000E+00
         0.00000E+00
         0.00000E+00
         0.00000E+00
         0.00000E+00
         0.00000E+00
         0.00000E+00
         0.00000E+00
         0.00000E+00
         0.00000E+00
         0.00000E+00
         0.00000E+00
         0.00000E+00
         0.00000E+00
         0.00000E+00
         0.00000E+00
         0.00000E+00
         0.00000E+00
         0.00000E+00
         0.00000E+00
         0.00000E+00
         0.00000E+00
         0.00000E+00
         0.00000E+00
         0.00000E+00
         0.00000E+00
         0.00000E+00
         0.00000E+00
         0.00000E+00
         0.00000E+00
         0.00000E+00
         0.00000E+00
         0.00000E+00
         0.00000E+00
         0.00000E+00
         0.00000E+00
         0.00000E+00
         0.00000E+00
         0.00000E+00
         0.00000E+00
         0.00000E+00
         0.00000E+00
         0.00000E+00
         0.00000E+00
         0.00000E+00
         0.00000E+00
         0.00000E+00
         0.00000E+00
         0.00000E+00
         0.00000E+00
         0.00000E+00
         0.00000E+00
         0.00000E+00
         0.00000E+00
         0.00000E+00
         0.00000E+00
         0.00000E+00
         0.00000E+00
         0.00000E+00
         0.00000E+00
         0.00000E+00
         0.00000E+00
         0.00000E+00
         0.00000E+00
         0.00000E+00
         0.00000E+00
         0.00000E+00
         0.00000E+00
         0.00000E+00
         0.00000E+00
         0.00000E+00
         0.00000E+00
         0.00000E+00
         0.00000E+00
         0.00000E+00
         0.00000E+00
         0.00000E+00
         0.00000E+00
         0.00000E+00
         0.00000E+00
         0.00000E+00
         0.00000E+00
         0.00000E+00
         0.00000E+00
         0.00000E+00
         0.00000E+00
         0.00000E+00
         0.00000E+00
         0.00000E+00
         0.00000E+00
         0.00000E+00
         0.00000E+00
         0.00000E+00
         0.00000E+00
         0.00000E+00
         0.00000E+00
         0.00000E+00
         0.00000E+00
         0.00000E+00
         0.00000E+00
         0.00000E+00
         0.00000E+00
         0.00000E+00
         0.00000E+00
         0.00000E+00
         0.00000E+00
         0.00000E+00
         0.00000E+00
         0.00000E+00
         0.00000E+00
         0.00000E+00
         0.00000E+00
         0.00000E+00
         0.00000E+00
         0.00000E+00
         0.00000E+00
         0.00000E+00
         0.00000E+00
         0.00000E+00
         0.00000E+00
         0.00000E+00
         0.00000E+00
         0.00000E+00
         0.00000E+00
         0.00000E+00
         0.00000E+00
         0.00000E+00
         0.00000E+00
         0.00000E+00
         0.00000E+00
         0.00000E+00
         0.00000E+00
         0.00000E+00
         0.00000E+00
         0.00000E+00
         0.00000E+00
         0.00000E+00
         0.00000E+00
         0.00000E+00
         0.00000E+00
         0.00000E+00
         0.00000E+00
         0.00000E+00
         0.00000E+00
         0.00000E+00
         0.00000E+00
         0.00000E+00
         0.00000E+00
         0.00000E+00
         0.00000E+00
         0.00000E+00
         0.00000E+00
         0.00000E+00
         0.00000E+00
         0.00000E+00
         0.00000E+00
         0.00000E+00
         0.00000E+00
         0.00000E+00
         0.00000E+00
         0.00000E+00
         0.00000E+00
         0.00000E+00
         0.00000E+00
         0.00000E+00
         0.00000E+00
         0.00000E+00
         0.00000E+00
         0.00000E+00
         0.00000E+00
         0.00000E+00
         0.00000E+00
         0.00000E+00
         0.00000E+00
         0.00000E+00
         0.00000E+00
         0.00000E+00
         0.00000E+00
         0.00000E+00
         0.00000E+00
         0.00000E+00
         0.00000E+00
         0.00000E+00
         0.00000E+00
         0.00000E+00
  
SCALARS           initial_coordinate_x  double 1
LOOKUP_TABLE default
         0.10378E-02
         0.17452E-02
         0.23177E-02
         0.16698E-02
         0.10379E-02
         0.17453E-02
         0.23178E-02
         0.16700E-02
         0.30377E-02
         0.27791E-02
         0.30377E-02
         0.27788E-02
         0.12850E-02
         0.65139E-03
         0.12851E-02
         0.65164E-03
         0.12757E-03
        -0.12822E-03
         0.12783E-03
        -0.12804E-03
         0.94500E-03
         0.11327E-02
         0.17490E-02
         0.94533E-03
         0.11330E-02
         0.17494E-02
         0.40588E-03
         0.39779E-03
         0.40594E-03
         0.39781E-03
        -0.76303E-03
        -0.86604E-03
         0.46119E-03
        -0.76268E-03
        -0.86593E-03
         0.46164E-03
        -0.18300E-02
        -0.18440E-02
        -0.18297E-02
        -0.18441E-02
        -0.27238E-02
        -0.28028E-02
        -0.27238E-02
        -0.28031E-02
        -0.25365E-02
        -0.19287E-02
        -0.25363E-02
        -0.19283E-02
        -0.99363E-03
        -0.99377E-03
        -0.14380E-02
        -0.14377E-02
        -0.31574E-03
        -0.31594E-03
        -0.11068E-02
        -0.11071E-02
        -0.18845E-02
        -0.18713E-02
        -0.18846E-02
        -0.18714E-02
        -0.15871E-03
        -0.94089E-03
        -0.15844E-03
        -0.94029E-03
         0.78856E-03
         0.78922E-03
         0.17211E-02
         0.17211E-02
         0.32050E-02
         0.28046E-02
         0.32047E-02
         0.28047E-02
         0.23059E-02
         0.23060E-02
        -0.40614E-03
        -0.40627E-03
        -0.12092E-02
        -0.12092E-02
        -0.19448E-02
        -0.19448E-02
        -0.25029E-02
        -0.26371E-02
        -0.25029E-02
        -0.26372E-02
        -0.27671E-02
        -0.27674E-02
        -0.21123E-02
        -0.21122E-02
        -0.16087E-02
        -0.16087E-02
        -0.11939E-02
        -0.58641E-03
        -0.11937E-02
        -0.58606E-03
         0.20912E-03
         0.20952E-03
         0.10586E-02
         0.10589E-02
         0.18413E-02
         0.18413E-02
         0.24544E-02
         0.26022E-02
         0.24543E-02
         0.26021E-02
         0.37964E-02
         0.39100E-02
         0.37964E-02
         0.39100E-02
         0.34621E-02
         0.34621E-02
         0.29267E-02
         0.29267E-02
         0.22211E-02
         0.22211E-02
         0.13865E-02
         0.13865E-02
         0.47130E-03
         0.47130E-03
        -0.47130E-03
        -0.47130E-03
        -0.13865E-02
        -0.13865E-02
        -0.22211E-02
        -0.22211E-02
        -0.29267E-02
        -0.29267E-02
        -0.34621E-02
        -0.34621E-02
        -0.37964E-02
        -0.37964E-02
        -0.39100E-02
        -0.39100E-02
        -0.37964E-02
        -0.37964E-02
        -0.34621E-02
        -0.34621E-02
        -0.29267E-02
        -0.29267E-02
        -0.22211E-02
        -0.22211E-02
        -0.13865E-02
        -0.13865E-02
        -0.47130E-03
        -0.47130E-03
         0.47130E-03
         0.47130E-03
         0.13865E-02
         0.13865E-02
         0.22211E-02
         0.22211E-02
         0.29267E-02
         0.29267E-02
         0.34621E-02
         0.34621E-02
         0.37964E-02
         0.37964E-02
         0.10376E-02
         0.17450E-02
         0.23175E-02
         0.16696E-02
         0.30377E-02
         0.27795E-02
         0.12849E-02
         0.65115E-03
         0.12731E-03
        -0.12841E-03
         0.94467E-03
         0.11323E-02
         0.17487E-02
         0.40583E-03
         0.39777E-03
        -0.76338E-03
        -0.86615E-03
         0.46074E-03
        -0.18303E-02
        -0.18439E-02
        -0.27238E-02
        -0.28025E-02
        -0.25366E-02
        -0.19292E-02
        -0.99349E-03
        -0.14384E-02
        -0.31554E-03
        -0.11064E-02
        -0.18845E-02
        -0.18712E-02
        -0.15899E-03
        -0.94149E-03
         0.78790E-03
         0.17210E-02
         0.32053E-02
         0.28046E-02
         0.23058E-02
        -0.40600E-03
        -0.12092E-02
        -0.19447E-02
        -0.25028E-02
        -0.26370E-02
        -0.27668E-02
        -0.21125E-02
        -0.16088E-02
        -0.11940E-02
        -0.58676E-03
         0.20871E-03
         0.10583E-02
         0.18413E-02
         0.24545E-02
         0.26022E-02
         0.37964E-02
         0.39100E-02
         0.34621E-02
         0.29267E-02
         0.22211E-02
         0.13865E-02
         0.47130E-03
        -0.47130E-03
        -0.13865E-02
        -0.22211E-02
        -0.29267E-02
        -0.34621E-02
        -0.37964E-02
        -0.39100E-02
        -0.37964E-02
        -0.34621E-02
        -0.29267E-02
        -0.22211E-02
        -0.13865E-02
        -0.47130E-03
         0.47130E-03
         0.13865E-02
         0.22211E-02
         0.29267E-02
         0.34621E-02
         0.37964E-02
         0.10375E-02
         0.17448E-02
         0.23174E-02
         0.16694E-02
         0.30377E-02
         0.27798E-02
         0.12848E-02
         0.65090E-03
         0.12705E-03
        -0.12859E-03
         0.94434E-03
         0.11320E-02
         0.17483E-02
         0.40577E-03
         0.39776E-03
        -0.76374E-03
        -0.86626E-03
         0.46029E-03
        -0.18306E-02
        -0.18438E-02
        -0.27238E-02
        -0.28022E-02
        -0.25368E-02
        -0.19296E-02
        -0.99334E-03
        -0.14387E-02
        -0.31534E-03
        -0.11061E-02
        -0.18844E-02
        -0.18710E-02
        -0.15926E-03
        -0.94209E-03
         0.78724E-03
         0.17210E-02
         0.32056E-02
         0.28046E-02
         0.23057E-02
        -0.40586E-03
        -0.12092E-02
        -0.19447E-02
        -0.25028E-02
        -0.26369E-02
        -0.27665E-02
        -0.21126E-02
        -0.16088E-02
        -0.11941E-02
        -0.58711E-03
         0.20830E-03
         0.10580E-02
         0.18414E-02
         0.24546E-02
         0.26023E-02
         0.37964E-02
         0.39100E-02
         0.34621E-02
         0.29267E-02
         0.22211E-02
         0.13865E-02
         0.47130E-03
        -0.47130E-03
        -0.13865E-02
        -0.22211E-02
        -0.29267E-02
        -0.34621E-02
        -0.37964E-02
        -0.39100E-02
        -0.37964E-02
        -0.34621E-02
        -0.29267E-02
        -0.22211E-02
        -0.13865E-02
        -0.47130E-03
         0.47130E-03
         0.13865E-02
         0.22211E-02
         0.29267E-02
         0.34621E-02
         0.37964E-02
         0.10374E-02
         0.17446E-02
         0.23173E-02
         0.16692E-02
         0.30376E-02
         0.27801E-02
         0.12847E-02
         0.65065E-03
         0.12678E-03
        -0.12878E-03
         0.94401E-03
         0.11316E-02
         0.17479E-02
         0.40572E-03
         0.39774E-03
        -0.76409E-03
        -0.86637E-03
         0.45985E-03
        -0.18309E-02
        -0.18437E-02
        -0.27237E-02
        -0.28020E-02
        -0.25369E-02
        -0.19300E-02
        -0.99320E-03
        -0.14391E-02
        -0.31514E-03
        -0.11057E-02
        -0.18844E-02
        -0.18709E-02
        -0.15954E-03
        -0.94269E-03
         0.78658E-03
         0.17209E-02
         0.32060E-02
         0.28046E-02
         0.23056E-02
        -0.40572E-03
        -0.12092E-02
        -0.19446E-02
        -0.25028E-02
        -0.26368E-02
        -0.27662E-02
        -0.21128E-02
        -0.16088E-02
        -0.11942E-02
        -0.58746E-03
         0.20790E-03
         0.10577E-02
         0.18414E-02
         0.24548E-02
         0.26024E-02
         0.37964E-02
         0.39100E-02
         0.34621E-02
         0.29267E-02
         0.22211E-02
         0.13865E-02
         0.47130E-03
        -0.47130E-03
        -0.13865E-02
        -0.22211E-02
        -0.29267E-02
        -0.34621E-02
        -0.37964E-02
        -0.39100E-02
        -0.37964E-02
        -0.34621E-02
        -0.29267E-02
        -0.22211E-02
        -0.13865E-02
        -0.47130E-03
         0.47130E-03
         0.13865E-02
         0.22211E-02
         0.29267E-02
         0.34621E-02
         0.37964E-02
         0.10373E-02
         0.17445E-02
         0.23172E-02
         0.16689E-02
         0.30376E-02
         0.27805E-02
         0.12846E-02
         0.65041E-03
         0.12652E-03
        -0.12896E-03
         0.94367E-03
         0.11313E-02
         0.17475E-02
         0.40566E-03
         0.39772E-03
        -0.76444E-03
        -0.86648E-03
         0.45940E-03
        -0.18312E-02
        -0.18436E-02
        -0.27237E-02
        -0.28017E-02
        -0.25371E-02
        -0.19305E-02
        -0.99305E-03
        -0.14394E-02
        -0.31494E-03
        -0.11054E-02
        -0.18843E-02
        -0.18708E-02
        -0.15981E-03
        -0.94328E-03
         0.78592E-03
         0.17209E-02
         0.32063E-02
         0.28045E-02
         0.23055E-02
        -0.40558E-03
        -0.12092E-02
        -0.19446E-02
        -0.25027E-02
        -0.26367E-02
        -0.27658E-02
        -0.21129E-02
        -0.16089E-02
        -0.11943E-02
        -0.58781E-03
         0.20749E-03
         0.10574E-02
         0.18415E-02
         0.24549E-02
         0.26025E-02
         0.37964E-02
         0.39100E-02
         0.34621E-02
         0.29267E-02
         0.22211E-02
         0.13865E-02
         0.47130E-03
        -0.47130E-03
        -0.13865E-02
        -0.22211E-02
        -0.29267E-02
        -0.34621E-02
        -0.37964E-02
        -0.39100E-02
        -0.37964E-02
        -0.34621E-02
        -0.29267E-02
        -0.22211E-02
        -0.13865E-02
        -0.47130E-03
         0.47130E-03
         0.13865E-02
         0.22211E-02
         0.29267E-02
         0.34621E-02
         0.37964E-02
         0.10372E-02
         0.17443E-02
         0.23171E-02
         0.16687E-02
         0.30376E-02
         0.27808E-02
         0.12845E-02
         0.65016E-03
         0.12626E-03
        -0.12915E-03
         0.94334E-03
         0.11310E-02
         0.17471E-02
         0.40561E-03
         0.39770E-03
        -0.76480E-03
        -0.86659E-03
         0.45895E-03
        -0.18315E-02
        -0.18435E-02
        -0.27237E-02
        -0.28014E-02
        -0.25372E-02
        -0.19309E-02
        -0.99291E-03
        -0.14398E-02
        -0.31474E-03
        -0.11051E-02
        -0.18843E-02
        -0.18706E-02
        -0.16009E-03
        -0.94388E-03
         0.78526E-03
         0.17208E-02
         0.32066E-02
         0.28045E-02
         0.23053E-02
        -0.40545E-03
        -0.12092E-02
        -0.19446E-02
        -0.25027E-02
        -0.26366E-02
        -0.27655E-02
        -0.21130E-02
        -0.16089E-02
        -0.11944E-02
        -0.58816E-03
         0.20709E-03
         0.10571E-02
         0.18415E-02
         0.24550E-02
         0.26025E-02
         0.37964E-02
         0.39100E-02
         0.34621E-02
         0.29267E-02
         0.22211E-02
         0.13865E-02
         0.47130E-03
        -0.47130E-03
        -0.13865E-02
        -0.22211E-02
        -0.29267E-02
        -0.34621E-02
        -0.37964E-02
        -0.39100E-02
        -0.37964E-02
        -0.34621E-02
        -0.29267E-02
        -0.22211E-02
        -0.13865E-02
        -0.47130E-03
         0.47130E-03
         0.13865E-02
         0.22211E-02
         0.29267E-02
         0.34621E-02
         0.37964E-02
         0.10371E-02
         0.17441E-02
         0.23169E-02
         0.16685E-02
         0.30376E-02
         0.27812E-02
         0.12844E-02
         0.64992E-03
         0.12600E-03
        -0.12933E-03
         0.94301E-03
         0.11306E-02
         0.17467E-02
         0.40556E-03
         0.39769E-03
        -0.76515E-03
        -0.86670E-03
         0.45850E-03
        -0.18318E-02
        -0.18434E-02
        -0.27236E-02
        -0.28011E-02
        -0.25374E-02
        -0.19313E-02
        -0.99277E-03
        -0.14401E-02
        -0.31454E-03
        -0.11047E-02
        -0.18842E-02
        -0.18705E-02
        -0.16036E-03
        -0.94448E-03
         0.78460E-03
         0.17208E-02
         0.32070E-02
         0.28045E-02
         0.23052E-02
        -0.40531E-03
        -0.12092E-02
        -0.19445E-02
        -0.25027E-02
        -0.26366E-02
        -0.27652E-02
        -0.21132E-02
        -0.16090E-02
        -0.11946E-02
        -0.58851E-03
         0.20668E-03
         0.10567E-02
         0.18416E-02
         0.24551E-02
         0.26026E-02
         0.37964E-02
         0.39100E-02
         0.34621E-02
         0.29267E-02
         0.22211E-02
         0.13865E-02
         0.47130E-03
        -0.47130E-03
        -0.13865E-02
        -0.22211E-02
        -0.29267E-02
        -0.34621E-02
        -0.37964E-02
        -0.39100E-02
        -0.37964E-02
        -0.34621E-02
        -0.29267E-02
        -0.22211E-02
        -0.13865E-02
        -0.47130E-03
         0.47130E-03
         0.13865E-02
         0.22211E-02
         0.29267E-02
         0.34621E-02
         0.37964E-02
         0.10370E-02
         0.17439E-02
         0.23168E-02
         0.16683E-02
         0.30375E-02
         0.27815E-02
         0.12843E-02
         0.64967E-03
         0.12573E-03
        -0.12952E-03
         0.94268E-03
         0.11303E-02
         0.17463E-02
         0.40550E-03
         0.39767E-03
        -0.76551E-03
        -0.86680E-03
         0.45806E-03
        -0.18321E-02
        -0.18433E-02
        -0.27236E-02
        -0.28009E-02
        -0.25375E-02
        -0.19317E-02
        -0.99262E-03
        -0.14405E-02
        -0.31434E-03
        -0.11044E-02
        -0.18842E-02
        -0.18704E-02
        -0.16064E-03
        -0.94508E-03
         0.78394E-03
         0.17208E-02
         0.32073E-02
         0.28045E-02
         0.23051E-02
        -0.40517E-03
        -0.12092E-02
        -0.19445E-02
        -0.25026E-02
        -0.26365E-02
        -0.27649E-02
        -0.21133E-02
        -0.16090E-02
        -0.11947E-02
        -0.58886E-03
         0.20627E-03
         0.10564E-02
         0.18416E-02
         0.24553E-02
         0.26027E-02
         0.37964E-02
         0.39100E-02
         0.34621E-02
         0.29267E-02
         0.22211E-02
         0.13865E-02
         0.47130E-03
        -0.47130E-03
        -0.13865E-02
        -0.22211E-02
        -0.29267E-02
        -0.34621E-02
        -0.37964E-02
        -0.39100E-02
        -0.37964E-02
        -0.34621E-02
        -0.29267E-02
        -0.22211E-02
        -0.13865E-02
        -0.47130E-03
         0.47130E-03
         0.13865E-02
         0.22211E-02
         0.29267E-02
         0.34621E-02
         0.37964E-02
         0.10368E-02
         0.17438E-02
         0.23167E-02
         0.16681E-02
         0.30375E-02
         0.27819E-02
         0.12842E-02
         0.64943E-03
         0.12547E-03
        -0.12970E-03
         0.94235E-03
         0.11300E-02
         0.17459E-02
         0.40545E-03
         0.39766E-03
        -0.76586E-03
        -0.86691E-03
         0.45761E-03
        -0.18324E-02
        -0.18432E-02
        -0.27236E-02
        -0.28006E-02
        -0.25377E-02
        -0.19322E-02
        -0.99248E-03
        -0.14408E-02
        -0.31414E-03
        -0.11040E-02
        -0.18841E-02
        -0.18703E-02
        -0.16091E-03
        -0.94568E-03
         0.78328E-03
         0.17207E-02
         0.32076E-02
         0.28044E-02
         0.23050E-02
        -0.40503E-03
        -0.12092E-02
        -0.19445E-02
        -0.25026E-02
        -0.26364E-02
        -0.27646E-02
        -0.21134E-02
        -0.16091E-02
        -0.11948E-02
        -0.58921E-03
         0.20587E-03
         0.10561E-02
         0.18416E-02
         0.24554E-02
         0.26027E-02
         0.37964E-02
         0.39100E-02
         0.34621E-02
         0.29267E-02
         0.22211E-02
         0.13865E-02
         0.47130E-03
        -0.47130E-03
        -0.13865E-02
        -0.22211E-02
        -0.29267E-02
        -0.34621E-02
        -0.37964E-02
        -0.39100E-02
        -0.37964E-02
        -0.34621E-02
        -0.29267E-02
        -0.22211E-02
        -0.13865E-02
        -0.47130E-03
         0.47130E-03
         0.13865E-02
         0.22211E-02
         0.29267E-02
         0.34621E-02
         0.37964E-02
         0.10367E-02
         0.17436E-02
         0.23166E-02
         0.16679E-02
         0.30375E-02
         0.27822E-02
         0.12841E-02
         0.64918E-03
         0.12521E-03
        -0.12989E-03
         0.94202E-03
         0.11296E-02
         0.17455E-02
         0.40539E-03
         0.39764E-03
        -0.76621E-03
        -0.86702E-03
         0.45716E-03
        -0.18326E-02
        -0.18431E-02
        -0.27235E-02
        -0.28003E-02
        -0.25379E-02
        -0.19326E-02
        -0.99233E-03
        -0.14412E-02
        -0.31394E-03
        -0.11037E-02
        -0.18841E-02
        -0.18701E-02
        -0.16119E-03
        -0.94628E-03
         0.78262E-03
         0.17207E-02
         0.32079E-02
         0.28044E-02
         0.23049E-02
        -0.40490E-03
        -0.12093E-02
        -0.19444E-02
        -0.25026E-02
        -0.26363E-02
        -0.27643E-02
        -0.21136E-02
        -0.16091E-02
        -0.11949E-02
        -0.58956E-03
         0.20546E-03
         0.10558E-02
         0.18417E-02
         0.24555E-02
         0.26028E-02
         0.37964E-02
         0.39100E-02
         0.34621E-02
         0.29267E-02
         0.22211E-02
         0.13865E-02
         0.47130E-03
        -0.47130E-03
        -0.13865E-02
        -0.22211E-02
        -0.29267E-02
        -0.34621E-02
        -0.37964E-02
        -0.39100E-02
        -0.37964E-02
        -0.34621E-02
        -0.29267E-02
        -0.22211E-02
        -0.13865E-02
        -0.47130E-03
         0.47130E-03
         0.13865E-02
         0.22211E-02
         0.29267E-02
         0.34621E-02
         0.37964E-02
         0.10366E-02
         0.17434E-02
         0.23164E-02
         0.16677E-02
         0.30375E-02
         0.27825E-02
         0.12840E-02
         0.64894E-03
         0.12495E-03
        -0.13007E-03
         0.94169E-03
         0.11293E-02
         0.17451E-02
         0.40534E-03
         0.39762E-03
        -0.76657E-03
        -0.86713E-03
         0.45671E-03
        -0.18329E-02
        -0.18430E-02
        -0.27235E-02
        -0.28001E-02
        -0.25380E-02
        -0.19330E-02
        -0.99219E-03
        -0.14415E-02
        -0.31374E-03
        -0.11033E-02
        -0.18840E-02
        -0.18700E-02
        -0.16146E-03
        -0.94687E-03
         0.78195E-03
         0.17207E-02
         0.32083E-02
         0.28044E-02
         0.23048E-02
        -0.40476E-03
        -0.12093E-02
        -0.19444E-02
        -0.25026E-02
        -0.26362E-02
        -0.27640E-02
        -0.21137E-02
        -0.16091E-02
        -0.11950E-02
        -0.58991E-03
         0.20505E-03
         0.10555E-02
         0.18417E-02
         0.24556E-02
         0.26029E-02
         0.37964E-02
         0.39100E-02
         0.34621E-02
         0.29267E-02
         0.22211E-02
         0.13865E-02
         0.47130E-03
        -0.47130E-03
        -0.13865E-02
        -0.22211E-02
        -0.29267E-02
        -0.34621E-02
        -0.37964E-02
        -0.39100E-02
        -0.37964E-02
        -0.34621E-02
        -0.29267E-02
        -0.22211E-02
        -0.13865E-02
        -0.47130E-03
         0.47130E-03
         0.13865E-02
         0.22211E-02
         0.29267E-02
         0.34621E-02
         0.37964E-02
         0.10365E-02
         0.17432E-02
         0.23163E-02
         0.16675E-02
         0.30374E-02
         0.27829E-02
         0.12839E-02
         0.64869E-03
         0.12468E-03
        -0.13026E-03
         0.94135E-03
         0.11289E-02
         0.17447E-02
         0.40528E-03
         0.39760E-03
        -0.76692E-03
        -0.86724E-03
         0.45626E-03
        -0.18332E-02
        -0.18430E-02
        -0.27235E-02
        -0.27998E-02
        -0.25382E-02
        -0.19334E-02
        -0.99205E-03
        -0.14419E-02
        -0.31354E-03
        -0.11030E-02
        -0.18840E-02
        -0.18699E-02
        -0.16174E-03
        -0.94747E-03
         0.78129E-03
         0.17206E-02
         0.32086E-02
         0.28044E-02
         0.23047E-02
        -0.40462E-03
        -0.12093E-02
        -0.19444E-02
        -0.25025E-02
        -0.26361E-02
        -0.27637E-02
        -0.21139E-02
        -0.16092E-02
        -0.11951E-02
        -0.59025E-03
         0.20465E-03
         0.10552E-02
         0.18418E-02
         0.24558E-02
         0.26030E-02
         0.37964E-02
         0.39100E-02
         0.34621E-02
         0.29267E-02
         0.22211E-02
         0.13865E-02
         0.47130E-03
        -0.47130E-03
        -0.13865E-02
        -0.22211E-02
        -0.29267E-02
        -0.34621E-02
        -0.37964E-02
        -0.39100E-02
        -0.37964E-02
        -0.34621E-02
        -0.29267E-02
        -0.22211E-02
        -0.13865E-02
        -0.47130E-03
         0.47130E-03
         0.13865E-02
         0.22211E-02
         0.29267E-02
         0.34621E-02
         0.37964E-02
         0.10364E-02
         0.17430E-02
         0.23162E-02
         0.16672E-02
         0.30374E-02
         0.27832E-02
         0.12838E-02
         0.64845E-03
         0.12442E-03
        -0.13044E-03
         0.94102E-03
         0.11286E-02
         0.17443E-02
         0.40523E-03
         0.39759E-03
        -0.76727E-03
        -0.86735E-03
         0.45582E-03
        -0.18335E-02
        -0.18429E-02
        -0.27235E-02
        -0.27995E-02
        -0.25383E-02
        -0.19339E-02
        -0.99190E-03
        -0.14422E-02
        -0.31334E-03
        -0.11026E-02
        -0.18839E-02
        -0.18697E-02
        -0.16201E-03
        -0.94807E-03
         0.78063E-03
         0.17206E-02
         0.32089E-02
         0.28043E-02
         0.23046E-02
        -0.40448E-03
        -0.12093E-02
        -0.19443E-02
        -0.25025E-02
        -0.26360E-02
        -0.27633E-02
        -0.21140E-02
        -0.16092E-02
        -0.11953E-02
        -0.59060E-03
         0.20424E-03
         0.10549E-02
         0.18418E-02
         0.24559E-02
         0.26030E-02
         0.37964E-02
         0.39100E-02
         0.34621E-02
         0.29267E-02
         0.22211E-02
         0.13865E-02
         0.47130E-03
        -0.47130E-03
        -0.13865E-02
        -0.22211E-02
        -0.29267E-02
        -0.34621E-02
        -0.37964E-02
        -0.39100E-02
        -0.37964E-02
        -0.34621E-02
        -0.29267E-02
        -0.22211E-02
        -0.13865E-02
        -0.47130E-03
         0.47130E-03
         0.13865E-02
         0.22211E-02
         0.29267E-02
         0.34621E-02
         0.37964E-02
         0.10363E-02
         0.17429E-02
         0.23161E-02
         0.16670E-02
         0.30374E-02
         0.27836E-02
         0.12837E-02
         0.64820E-03
         0.12416E-03
        -0.13063E-03
         0.94069E-03
         0.11282E-02
         0.17439E-02
         0.40518E-03
         0.39757E-03
        -0.76763E-03
        -0.86746E-03
         0.45537E-03
        -0.18338E-02
        -0.18428E-02
        -0.27234E-02
        -0.27992E-02
        -0.25385E-02
        -0.19343E-02
        -0.99176E-03
        -0.14425E-02
        -0.31314E-03
        -0.11023E-02
        -0.18839E-02
        -0.18696E-02
        -0.16229E-03
        -0.94867E-03
         0.77997E-03
         0.17205E-02
         0.32092E-02
         0.28043E-02
         0.23044E-02
        -0.40434E-03
        -0.12093E-02
        -0.19443E-02
        -0.25025E-02
        -0.26359E-02
        -0.27630E-02
        -0.21141E-02
        -0.16093E-02
        -0.11954E-02
        -0.59095E-03
         0.20384E-03
         0.10546E-02
         0.18419E-02
         0.24560E-02
         0.26031E-02
         0.37964E-02
         0.39100E-02
         0.34621E-02
         0.29267E-02
         0.22211E-02
         0.13865E-02
         0.47130E-03
        -0.47130E-03
        -0.13865E-02
        -0.22211E-02
        -0.29267E-02
        -0.34621E-02
        -0.37964E-02
        -0.39100E-02
        -0.37964E-02
        -0.34621E-02
        -0.29267E-02
        -0.22211E-02
        -0.13865E-02
        -0.47130E-03
         0.47130E-03
         0.13865E-02
         0.22211E-02
         0.29267E-02
         0.34621E-02
         0.37964E-02
         0.10362E-02
         0.17427E-02
         0.23160E-02
         0.16668E-02
         0.30373E-02
         0.27839E-02
         0.12836E-02
         0.64796E-03
         0.12390E-03
        -0.13082E-03
         0.94036E-03
         0.11279E-02
         0.17435E-02
         0.40512E-03
         0.39755E-03
        -0.76798E-03
        -0.86756E-03
         0.45492E-03
        -0.18341E-02
        -0.18427E-02
        -0.27234E-02
        -0.27990E-02
        -0.25386E-02
        -0.19347E-02
        -0.99161E-03
        -0.14429E-02
        -0.31294E-03
        -0.11019E-02
        -0.18838E-02
        -0.18695E-02
        -0.16256E-03
        -0.94927E-03
         0.77931E-03
         0.17205E-02
         0.32096E-02
         0.28043E-02
         0.23043E-02
        -0.40420E-03
        -0.12093E-02
        -0.19443E-02
        -0.25024E-02
        -0.26358E-02
        -0.27627E-02
        -0.21143E-02
        -0.16093E-02
        -0.11955E-02
        -0.59130E-03
         0.20343E-03
         0.10543E-02
         0.18419E-02
         0.24561E-02
         0.26032E-02
         0.37964E-02
         0.39100E-02
         0.34621E-02
         0.29267E-02
         0.22211E-02
         0.13865E-02
         0.47130E-03
        -0.47130E-03
        -0.13865E-02
        -0.22211E-02
        -0.29267E-02
        -0.34621E-02
        -0.37964E-02
        -0.39100E-02
        -0.37964E-02
        -0.34621E-02
        -0.29267E-02
        -0.22211E-02
        -0.13865E-02
        -0.47130E-03
         0.47130E-03
         0.13865E-02
         0.22211E-02
         0.29267E-02
         0.34621E-02
         0.37964E-02
         0.10360E-02
         0.17425E-02
         0.23158E-02
         0.16666E-02
         0.30373E-02
         0.27842E-02
         0.12835E-02
         0.64771E-03
         0.12363E-03
        -0.13100E-03
         0.94003E-03
         0.11276E-02
         0.17432E-02
         0.40507E-03
         0.39754E-03
        -0.76834E-03
        -0.86767E-03
         0.45447E-03
        -0.18344E-02
        -0.18426E-02
        -0.27234E-02
        -0.27987E-02
        -0.25388E-02
        -0.19352E-02
        -0.99147E-03
        -0.14433E-02
        -0.31274E-03
        -0.11016E-02
        -0.18838E-02
        -0.18694E-02
        -0.16284E-03
        -0.94986E-03
         0.77865E-03
         0.17205E-02
         0.32099E-02
         0.28042E-02
         0.23042E-02
        -0.40407E-03
        -0.12093E-02
        -0.19442E-02
        -0.25024E-02
        -0.26358E-02
        -0.27624E-02
        -0.21144E-02
        -0.16094E-02
        -0.11956E-02
        -0.59165E-03
         0.20302E-03
         0.10540E-02
         0.18419E-02
         0.24563E-02
         0.26033E-02
         0.37964E-02
         0.39100E-02
         0.34621E-02
         0.29267E-02
         0.22211E-02
         0.13865E-02
         0.47130E-03
        -0.47130E-03
        -0.13865E-02
        -0.22211E-02
        -0.29267E-02
        -0.34621E-02
        -0.37964E-02
        -0.39100E-02
        -0.37964E-02
        -0.34621E-02
        -0.29267E-02
        -0.22211E-02
        -0.13865E-02
        -0.47130E-03
         0.47130E-03
         0.13865E-02
         0.22211E-02
         0.29267E-02
         0.34621E-02
         0.37964E-02
         0.10359E-02
         0.17423E-02
         0.23157E-02
         0.16664E-02
         0.30373E-02
         0.27846E-02
         0.12834E-02
         0.64747E-03
         0.12337E-03
        -0.13118E-03
         0.93970E-03
         0.11272E-02
         0.17428E-02
         0.40501E-03
         0.39752E-03
        -0.76869E-03
        -0.86778E-03
         0.45402E-03
        -0.18347E-02
        -0.18425E-02
        -0.27234E-02
        -0.27984E-02
        -0.25389E-02
        -0.19356E-02
        -0.99133E-03
        -0.14436E-02
        -0.31254E-03
        -0.11013E-02
        -0.18837E-02
        -0.18692E-02
        -0.16311E-03
        -0.95046E-03
         0.77799E-03
         0.17204E-02
         0.32102E-02
         0.28042E-02
         0.23041E-02
        -0.40393E-03
        -0.12093E-02
        -0.19442E-02
        -0.25024E-02
        -0.26357E-02
        -0.27621E-02
        -0.21146E-02
        -0.16094E-02
        -0.11957E-02
        -0.59200E-03
         0.20262E-03
         0.10536E-02
         0.18420E-02
         0.24564E-02
         0.26033E-02
         0.37964E-02
         0.39100E-02
         0.34621E-02
         0.29267E-02
         0.22211E-02
         0.13865E-02
         0.47130E-03
        -0.47130E-03
        -0.13865E-02
        -0.22211E-02
        -0.29267E-02
        -0.34621E-02
        -0.37964E-02
        -0.39100E-02
        -0.37964E-02
        -0.34621E-02
        -0.29267E-02
        -0.22211E-02
        -0.13865E-02
        -0.47130E-03
         0.47130E-03
         0.13865E-02
         0.22211E-02
         0.29267E-02
         0.34621E-02
         0.37964E-02
         0.10358E-02
         0.17422E-02
         0.23156E-02
         0.16662E-02
         0.30373E-02
         0.27849E-02
         0.12833E-02
         0.64722E-03
         0.12311E-03
        -0.13137E-03
         0.93937E-03
         0.11269E-02
         0.17424E-02
         0.40496E-03
         0.39750E-03
        -0.76904E-03
        -0.86789E-03
         0.45358E-03
        -0.18350E-02
        -0.18424E-02
        -0.27233E-02
        -0.27981E-02
        -0.25391E-02
        -0.19360E-02
        -0.99118E-03
        -0.14440E-02
        -0.31234E-03
        -0.11009E-02
        -0.18836E-02
        -0.18691E-02
        -0.16339E-03
        -0.95106E-03
         0.77733E-03
         0.17204E-02
         0.32105E-02
         0.28042E-02
         0.23040E-02
        -0.40379E-03
        -0.12093E-02
        -0.19441E-02
        -0.25023E-02
        -0.26356E-02
        -0.27618E-02
        -0.21147E-02
        -0.16094E-02
        -0.11958E-02
        -0.59235E-03
         0.20221E-03
         0.10533E-02
         0.18420E-02
         0.24565E-02
         0.26034E-02
         0.37964E-02
         0.39100E-02
         0.34621E-02
         0.29267E-02
         0.22211E-02
         0.13865E-02
         0.47130E-03
        -0.47130E-03
        -0.13865E-02
        -0.22211E-02
        -0.29267E-02
        -0.34621E-02
        -0.37964E-02
        -0.39100E-02
        -0.37964E-02
        -0.34621E-02
        -0.29267E-02
        -0.22211E-02
        -0.13865E-02
        -0.47130E-03
         0.47130E-03
         0.13865E-02
         0.22211E-02
         0.29267E-02
         0.34621E-02
         0.37964E-02
         0.10357E-02
         0.17420E-02
         0.23155E-02
         0.16660E-02
         0.30372E-02
         0.27853E-02
         0.12832E-02
         0.64698E-03
         0.12285E-03
        -0.13155E-03
         0.93903E-03
         0.11266E-02
         0.17420E-02
         0.40490E-03
         0.39749E-03
        -0.76940E-03
        -0.86800E-03
         0.45313E-03
        -0.18353E-02
        -0.18423E-02
        -0.27233E-02
        -0.27979E-02
        -0.25393E-02
        -0.19365E-02
        -0.99104E-03
        -0.14443E-02
        -0.31214E-03
        -0.11006E-02
        -0.18836E-02
        -0.18690E-02
        -0.16366E-03
        -0.95166E-03
         0.77667E-03
         0.17203E-02
         0.32109E-02
         0.28042E-02
         0.23039E-02
        -0.40365E-03
        -0.12093E-02
        -0.19441E-02
        -0.25023E-02
        -0.26355E-02
        -0.27615E-02
        -0.21148E-02
        -0.16095E-02
        -0.11960E-02
        -0.59270E-03
         0.20180E-03
         0.10530E-02
         0.18421E-02
         0.24566E-02
         0.26035E-02
         0.37964E-02
         0.39100E-02
         0.34621E-02
         0.29267E-02
         0.22211E-02
         0.13865E-02
         0.47130E-03
        -0.47130E-03
        -0.13865E-02
        -0.22211E-02
        -0.29267E-02
        -0.34621E-02
        -0.37964E-02
        -0.39100E-02
        -0.37964E-02
        -0.34621E-02
        -0.29267E-02
        -0.22211E-02
        -0.13865E-02
        -0.47130E-03
         0.47130E-03
         0.13865E-02
         0.22211E-02
         0.29267E-02
         0.34621E-02
         0.37964E-02
         0.10356E-02
         0.17418E-02
         0.23153E-02
         0.16657E-02
         0.30372E-02
         0.27856E-02
         0.12830E-02
         0.64673E-03
         0.12259E-03
        -0.13174E-03
         0.93870E-03
         0.11262E-02
         0.17416E-02
         0.40485E-03
         0.39747E-03
        -0.76975E-03
        -0.86811E-03
         0.45268E-03
        -0.18356E-02
        -0.18422E-02
        -0.27233E-02
        -0.27976E-02
        -0.25394E-02
        -0.19369E-02
        -0.99090E-03
        -0.14446E-02
        -0.31194E-03
        -0.11002E-02
        -0.18835E-02
        -0.18689E-02
        -0.16394E-03
        -0.95226E-03
         0.77601E-03
         0.17203E-02
         0.32112E-02
         0.28042E-02
         0.23038E-02
        -0.40352E-03
        -0.12093E-02
        -0.19441E-02
        -0.25023E-02
        -0.26354E-02
        -0.27612E-02
        -0.21150E-02
        -0.16095E-02
        -0.11961E-02
        -0.59305E-03
         0.20140E-03
         0.10527E-02
         0.18421E-02
         0.24568E-02
         0.26036E-02
         0.37964E-02
         0.39100E-02
         0.34621E-02
         0.29267E-02
         0.22211E-02
         0.13865E-02
         0.47130E-03
        -0.47130E-03
        -0.13865E-02
        -0.22211E-02
        -0.29267E-02
        -0.34621E-02
        -0.37964E-02
        -0.39100E-02
        -0.37964E-02
        -0.34621E-02
        -0.29267E-02
        -0.22211E-02
        -0.13865E-02
        -0.47130E-03
         0.47130E-03
         0.13865E-02
         0.22211E-02
         0.29267E-02
         0.34621E-02
         0.37964E-02
         0.10355E-02
         0.17416E-02
         0.23152E-02
         0.16655E-02
         0.30372E-02
         0.27860E-02
         0.12829E-02
         0.64649E-03
         0.12232E-03
        -0.13193E-03
         0.93837E-03
         0.11259E-02
         0.17412E-02
         0.40480E-03
         0.39745E-03
        -0.77011E-03
        -0.86822E-03
         0.45223E-03
        -0.18359E-02
        -0.18421E-02
        -0.27232E-02
        -0.27973E-02
        -0.25396E-02
        -0.19373E-02
        -0.99075E-03
        -0.14450E-02
        -0.31173E-03
        -0.10999E-02
        -0.18835E-02
        -0.18687E-02
        -0.16421E-03
        -0.95285E-03
         0.77535E-03
         0.17202E-02
         0.32115E-02
         0.28041E-02
         0.23037E-02
        -0.40338E-03
        -0.12093E-02
        -0.19440E-02
        -0.25023E-02
        -0.26353E-02
        -0.27609E-02
        -0.21151E-02
        -0.16096E-02
        -0.11962E-02
        -0.59340E-03
         0.20099E-03
         0.10524E-02
         0.18422E-02
         0.24569E-02
         0.26036E-02
         0.37964E-02
         0.39100E-02
         0.34621E-02
         0.29267E-02
         0.22211E-02
         0.13865E-02
         0.47130E-03
        -0.47130E-03
        -0.13865E-02
        -0.22211E-02
        -0.29267E-02
        -0.34621E-02
        -0.37964E-02
        -0.39100E-02
        -0.37964E-02
        -0.34621E-02
        -0.29267E-02
        -0.22211E-02
        -0.13865E-02
        -0.47130E-03
         0.47130E-03
         0.13865E-02
         0.22211E-02
         0.29267E-02
         0.34621E-02
         0.37964E-02
         0.10354E-02
         0.17414E-02
         0.23151E-02
         0.16653E-02
         0.30372E-02
         0.27863E-02
         0.12829E-02
         0.64624E-03
         0.12206E-03
        -0.13211E-03
         0.93804E-03
         0.11255E-02
         0.17408E-02
         0.40474E-03
         0.39744E-03
        -0.77046E-03
        -0.86832E-03
         0.45179E-03
        -0.18362E-02
        -0.18420E-02
        -0.27232E-02
        -0.27970E-02
        -0.25397E-02
        -0.19377E-02
        -0.99061E-03
        -0.14453E-02
        -0.31153E-03
        -0.10995E-02
        -0.18834E-02
        -0.18686E-02
        -0.16449E-03
        -0.95345E-03
         0.77469E-03
         0.17202E-02
         0.32119E-02
         0.28041E-02
         0.23036E-02
        -0.40324E-03
        -0.12093E-02
        -0.19440E-02
        -0.25022E-02
        -0.26352E-02
        -0.27606E-02
        -0.21152E-02
        -0.16096E-02
        -0.11963E-02
        -0.59375E-03
         0.20059E-03
         0.10521E-02
         0.18422E-02
         0.24570E-02
         0.26037E-02
         0.37964E-02
         0.39100E-02
         0.34621E-02
         0.29267E-02
         0.22211E-02
         0.13865E-02
         0.47130E-03
        -0.47130E-03
        -0.13865E-02
        -0.22211E-02
        -0.29267E-02
        -0.34621E-02
        -0.37964E-02
        -0.39100E-02
        -0.37964E-02
        -0.34621E-02
        -0.29267E-02
        -0.22211E-02
        -0.13865E-02
        -0.47130E-03
         0.47130E-03
         0.13865E-02
         0.22211E-02
         0.29267E-02
         0.34621E-02
         0.37964E-02
         0.10352E-02
         0.17413E-02
         0.23150E-02
         0.16651E-02
         0.30371E-02
         0.27866E-02
         0.12827E-02
         0.64600E-03
         0.12180E-03
        -0.13230E-03
         0.93771E-03
         0.11252E-02
         0.17404E-02
         0.40469E-03
         0.39742E-03
        -0.77081E-03
        -0.86843E-03
         0.45134E-03
        -0.18365E-02
        -0.18419E-02
        -0.27232E-02
        -0.27968E-02
        -0.25399E-02
        -0.19382E-02
        -0.99046E-03
        -0.14457E-02
        -0.31133E-03
        -0.10992E-02
        -0.18834E-02
        -0.18685E-02
        -0.16476E-03
        -0.95405E-03
         0.77402E-03
         0.17202E-02
         0.32122E-02
         0.28041E-02
         0.23034E-02
        -0.40310E-03
        -0.12093E-02
        -0.19440E-02
        -0.25022E-02
        -0.26351E-02
        -0.27602E-02
        -0.21154E-02
        -0.16097E-02
        -0.11964E-02
        -0.59409E-03
         0.20018E-03
         0.10518E-02
         0.18422E-02
         0.24571E-02
         0.26038E-02
         0.37964E-02
         0.39100E-02
         0.34621E-02
         0.29267E-02
         0.22211E-02
         0.13865E-02
         0.47130E-03
        -0.47130E-03
        -0.13865E-02
        -0.22211E-02
        -0.29267E-02
        -0.34621E-02
        -0.37964E-02
        -0.39100E-02
        -0.37964E-02
        -0.34621E-02
        -0.29267E-02
        -0.22211E-02
        -0.13865E-02
        -0.47130E-03
         0.47130E-03
         0.13865E-02
         0.22211E-02
         0.29267E-02
         0.34621E-02
         0.37964E-02
         0.10351E-02
         0.17411E-02
         0.23149E-02
         0.16649E-02
         0.30371E-02
         0.27870E-02
         0.12826E-02
         0.64575E-03
         0.12154E-03
        -0.13248E-03
         0.93738E-03
         0.11249E-02
         0.17400E-02
         0.40463E-03
         0.39740E-03
        -0.77117E-03
        -0.86854E-03
         0.45089E-03
        -0.18368E-02
        -0.18418E-02
        -0.27232E-02
        -0.27965E-02
        -0.25400E-02
        -0.19386E-02
        -0.99032E-03
        -0.14460E-02
        -0.31113E-03
        -0.10988E-02
        -0.18833E-02
        -0.18683E-02
        -0.16504E-03
        -0.95465E-03
         0.77336E-03
         0.17201E-02
         0.32125E-02
         0.28041E-02
         0.23033E-02
        -0.40296E-03
        -0.12093E-02
        -0.19439E-02
        -0.25022E-02
        -0.26350E-02
        -0.27599E-02
        -0.21155E-02
        -0.16097E-02
        -0.11965E-02
        -0.59444E-03
         0.19977E-03
         0.10515E-02
         0.18423E-02
         0.24573E-02
         0.26039E-02
         0.37964E-02
         0.39100E-02
         0.34621E-02
         0.29267E-02
         0.22211E-02
         0.13865E-02
         0.47130E-03
        -0.47130E-03
        -0.13865E-02
        -0.22211E-02
        -0.29267E-02
        -0.34621E-02
        -0.37964E-02
        -0.39100E-02
        -0.37964E-02
        -0.34621E-02
        -0.29267E-02
        -0.22211E-02
        -0.13865E-02
        -0.47130E-03
         0.47130E-03
         0.13865E-02
         0.22211E-02
         0.29267E-02
         0.34621E-02
         0.37964E-02
  
SCALARS           initial_coordinate_y  double 1
LOOKUP_TABLE default
         0.67292E-03
         0.12308E-02
         0.59151E-03
        -0.33775E-03
         0.67237E-03
         0.12301E-02
         0.59098E-03
        -0.33851E-03
         0.14882E-03
        -0.67643E-03
         0.14846E-03
        -0.67692E-03
         0.18412E-02
         0.14576E-02
         0.18410E-02
         0.14566E-02
         0.29933E-03
         0.11672E-02
         0.29819E-03
         0.11655E-02
         0.22748E-02
         0.28286E-02
         0.24238E-02
         0.22746E-02
         0.28291E-02
         0.24236E-02
         0.21685E-02
         0.29366E-02
         0.21684E-02
         0.29369E-02
        -0.10033E-02
         0.78969E-04
        -0.70318E-03
        -0.10032E-02
         0.78160E-04
        -0.70391E-03
        -0.71196E-03
         0.82749E-04
        -0.71210E-03
         0.82626E-04
        -0.77865E-03
         0.40713E-04
        -0.77882E-03
         0.40439E-04
        -0.15195E-02
        -0.13230E-02
        -0.15195E-02
        -0.13231E-02
         0.98847E-03
         0.98712E-03
        -0.17325E-02
        -0.17325E-02
         0.20220E-02
         0.20217E-02
         0.18615E-02
         0.18616E-02
         0.17175E-02
         0.90940E-03
         0.17175E-02
         0.90916E-03
        -0.19800E-02
        -0.23489E-02
        -0.19800E-02
        -0.23489E-02
        -0.17074E-02
        -0.17074E-02
        -0.14894E-02
        -0.14892E-02
         0.76036E-03
         0.12477E-02
         0.75936E-03
         0.12473E-02
         0.18665E-02
         0.18664E-02
         0.29038E-02
         0.29049E-02
         0.27207E-02
         0.27212E-02
         0.24642E-02
         0.24645E-02
         0.22359E-02
         0.16503E-02
         0.22359E-02
         0.16503E-02
         0.87493E-03
         0.87466E-03
        -0.21373E-02
        -0.21373E-02
        -0.26931E-02
        -0.26931E-02
        -0.31291E-02
        -0.30382E-02
        -0.31291E-02
        -0.30382E-02
        -0.28748E-02
        -0.28748E-02
        -0.26423E-02
        -0.26420E-02
        -0.23707E-02
        -0.23705E-02
        -0.21445E-02
        -0.15105E-02
        -0.21439E-02
        -0.15106E-02
         0.93572E-03
         0.00000E+00
         0.93572E-03
         0.00000E+00
         0.18171E-02
         0.18171E-02
         0.25928E-02
         0.25928E-02
         0.32179E-02
         0.32179E-02
         0.36559E-02
         0.36559E-02
         0.38815E-02
         0.38815E-02
         0.38815E-02
         0.38815E-02
         0.36559E-02
         0.36559E-02
         0.32179E-02
         0.32179E-02
         0.25928E-02
         0.25928E-02
         0.18171E-02
         0.18171E-02
         0.93572E-03
         0.93572E-03
         0.22152E-17
        -0.47884E-18
        -0.93572E-03
        -0.93572E-03
        -0.18171E-02
        -0.18171E-02
        -0.25928E-02
        -0.25928E-02
        -0.32179E-02
        -0.32179E-02
        -0.36559E-02
        -0.36559E-02
        -0.38815E-02
        -0.38815E-02
        -0.38815E-02
        -0.38815E-02
        -0.36559E-02
        -0.36559E-02
        -0.32179E-02
        -0.32179E-02
        -0.25928E-02
        -0.25928E-02
        -0.18171E-02
        -0.18171E-02
        -0.93572E-03
        -0.93572E-03
         0.67348E-03
         0.12314E-02
         0.59203E-03
        -0.33700E-03
         0.14918E-03
        -0.67594E-03
         0.18414E-02
         0.14586E-02
         0.30048E-03
         0.11690E-02
         0.22749E-02
         0.28282E-02
         0.24239E-02
         0.21685E-02
         0.29364E-02
        -0.10035E-02
         0.79778E-04
        -0.70245E-03
        -0.71182E-03
         0.82873E-04
        -0.77848E-03
         0.40986E-04
        -0.15194E-02
        -0.13228E-02
         0.98983E-03
        -0.17324E-02
         0.20223E-02
         0.18614E-02
         0.17175E-02
         0.90964E-03
        -0.19800E-02
        -0.23489E-02
        -0.17074E-02
        -0.14896E-02
         0.76137E-03
         0.12481E-02
         0.18665E-02
         0.29027E-02
         0.27202E-02
         0.24640E-02
         0.22359E-02
         0.16503E-02
         0.87519E-03
        -0.21373E-02
        -0.26932E-02
        -0.31291E-02
        -0.30382E-02
        -0.28748E-02
        -0.26426E-02
        -0.23709E-02
        -0.21450E-02
        -0.15104E-02
         0.93572E-03
         0.00000E+00
         0.18171E-02
         0.25928E-02
         0.32179E-02
         0.36559E-02
         0.38815E-02
         0.38815E-02
         0.36559E-02
         0.32179E-02
         0.25928E-02
         0.18171E-02
         0.93572E-03
        -0.47884E-18
        -0.93572E-03
        -0.18171E-02
        -0.25928E-02
        -0.32179E-02
        -0.36559E-02
        -0.38815E-02
        -0.38815E-02
        -0.36559E-02
        -0.32179E-02
        -0.25928E-02
        -0.18171E-02
        -0.93572E-03
         0.67403E-03
         0.12321E-02
         0.59255E-03
        -0.33624E-03
         0.14955E-03
        -0.67544E-03
         0.18415E-02
         0.14596E-02
         0.30163E-03
         0.11707E-02
         0.22750E-02
         0.28277E-02
         0.24241E-02
         0.21685E-02
         0.29361E-02
        -0.10036E-02
         0.80588E-04
        -0.70173E-03
        -0.71168E-03
         0.82996E-04
        -0.77831E-03
         0.41259E-04
        -0.15194E-02
        -0.13227E-02
         0.99119E-03
        -0.17324E-02
         0.20226E-02
         0.18613E-02
         0.17175E-02
         0.90988E-03
        -0.19801E-02
        -0.23490E-02
        -0.17074E-02
        -0.14899E-02
         0.76237E-03
         0.12485E-02
         0.18666E-02
         0.29017E-02
         0.27198E-02
         0.24638E-02
         0.22359E-02
         0.16503E-02
         0.87545E-03
        -0.21374E-02
        -0.26932E-02
        -0.31291E-02
        -0.30382E-02
        -0.28748E-02
        -0.26428E-02
        -0.23711E-02
        -0.21456E-02
        -0.15103E-02
         0.93572E-03
         0.00000E+00
         0.18171E-02
         0.25928E-02
         0.32179E-02
         0.36559E-02
         0.38815E-02
         0.38815E-02
         0.36559E-02
         0.32179E-02
         0.25928E-02
         0.18171E-02
         0.93572E-03
         0.39516E-17
        -0.93572E-03
        -0.18171E-02
        -0.25928E-02
        -0.32179E-02
        -0.36559E-02
        -0.38815E-02
        -0.38815E-02
        -0.36559E-02
        -0.32179E-02
        -0.25928E-02
        -0.18171E-02
        -0.93572E-03
         0.67459E-03
         0.12328E-02
         0.59308E-03
        -0.33549E-03
         0.14991E-03
        -0.67495E-03
         0.18417E-02
         0.14606E-02
         0.30278E-03
         0.11725E-02
         0.22752E-02
         0.28273E-02
         0.24242E-02
         0.21686E-02
         0.29359E-02
        -0.10038E-02
         0.81397E-04
        -0.70100E-03
        -0.71154E-03
         0.83120E-04
        -0.77814E-03
         0.41533E-04
        -0.15193E-02
        -0.13227E-02
         0.99254E-03
        -0.17324E-02
         0.20228E-02
         0.18611E-02
         0.17175E-02
         0.91012E-03
        -0.19801E-02
        -0.23490E-02
        -0.17074E-02
        -0.14901E-02
         0.76338E-03
         0.12490E-02
         0.18666E-02
         0.29006E-02
         0.27193E-02
         0.24636E-02
         0.22359E-02
         0.16503E-02
         0.87571E-03
        -0.21374E-02
        -0.26932E-02
        -0.31291E-02
        -0.30382E-02
        -0.28748E-02
        -0.26431E-02
        -0.23713E-02
        -0.21461E-02
        -0.15102E-02
         0.93572E-03
         0.00000E+00
         0.18171E-02
         0.25928E-02
         0.32179E-02
         0.36559E-02
         0.38815E-02
         0.38815E-02
         0.36559E-02
         0.32179E-02
         0.25928E-02
         0.18171E-02
         0.93572E-03
        -0.47884E-18
        -0.93572E-03
        -0.18171E-02
        -0.25928E-02
        -0.32179E-02
        -0.36559E-02
        -0.38815E-02
        -0.38815E-02
        -0.36559E-02
        -0.32179E-02
        -0.25928E-02
        -0.18171E-02
        -0.93572E-03
         0.67514E-03
         0.12334E-02
         0.59360E-03
        -0.33474E-03
         0.15027E-03
        -0.67446E-03
         0.18419E-02
         0.14616E-02
         0.30393E-03
         0.11742E-02
         0.22753E-02
         0.28269E-02
         0.24244E-02
         0.21686E-02
         0.29356E-02
        -0.10039E-02
         0.82206E-04
        -0.70028E-03
        -0.71140E-03
         0.83243E-04
        -0.77797E-03
         0.41806E-04
        -0.15193E-02
        -0.13226E-02
         0.99390E-03
        -0.17323E-02
         0.20231E-02
         0.18610E-02
         0.17175E-02
         0.91036E-03
        -0.19801E-02
        -0.23490E-02
        -0.17074E-02
        -0.14904E-02
         0.76439E-03
         0.12494E-02
         0.18666E-02
         0.28995E-02
         0.27188E-02
         0.24633E-02
         0.22359E-02
         0.16503E-02
         0.87597E-03
        -0.21374E-02
        -0.26932E-02
        -0.31291E-02
        -0.30382E-02
        -0.28748E-02
        -0.26434E-02
        -0.23715E-02
        -0.21467E-02
        -0.15101E-02
         0.93572E-03
         0.00000E+00
         0.18171E-02
         0.25928E-02
         0.32179E-02
         0.36559E-02
         0.38815E-02
         0.38815E-02
         0.36559E-02
         0.32179E-02
         0.25928E-02
         0.18171E-02
         0.93572E-03
        -0.47884E-18
        -0.93572E-03
        -0.18171E-02
        -0.25928E-02
        -0.32179E-02
        -0.36559E-02
        -0.38815E-02
        -0.38815E-02
        -0.36559E-02
        -0.32179E-02
        -0.25928E-02
        -0.18171E-02
        -0.93572E-03
         0.67570E-03
         0.12341E-02
         0.59412E-03
        -0.33398E-03
         0.15064E-03
        -0.67396E-03
         0.18421E-02
         0.14626E-02
         0.30507E-03
         0.11760E-02
         0.22754E-02
         0.28264E-02
         0.24245E-02
         0.21686E-02
         0.29353E-02
        -0.10040E-02
         0.83015E-04
        -0.69955E-03
        -0.71126E-03
         0.83367E-04
        -0.77780E-03
         0.42080E-04
        -0.15192E-02
        -0.13224E-02
         0.99526E-03
        -0.17323E-02
         0.20234E-02
         0.18609E-02
         0.17175E-02
         0.91060E-03
        -0.19801E-02
        -0.23490E-02
        -0.17074E-02
        -0.14906E-02
         0.76539E-03
         0.12498E-02
         0.18667E-02
         0.28984E-02
         0.27184E-02
         0.24631E-02
         0.22359E-02
         0.16503E-02
         0.87623E-03
        -0.21374E-02
        -0.26932E-02
        -0.31291E-02
        -0.30382E-02
        -0.28748E-02
        -0.26436E-02
        -0.23717E-02
        -0.21472E-02
        -0.15100E-02
         0.93572E-03
         0.00000E+00
         0.18171E-02
         0.25928E-02
         0.32179E-02
         0.36559E-02
         0.38815E-02
         0.38815E-02
         0.36559E-02
         0.32179E-02
         0.25928E-02
         0.18171E-02
         0.93572E-03
        -0.47884E-18
        -0.93572E-03
        -0.18171E-02
        -0.25928E-02
        -0.32179E-02
        -0.36559E-02
        -0.38815E-02
        -0.38815E-02
        -0.36559E-02
        -0.32179E-02
        -0.25928E-02
        -0.18171E-02
        -0.93572E-03
         0.67625E-03
         0.12348E-02
         0.59465E-03
        -0.33323E-03
         0.15100E-03
        -0.67347E-03
         0.18423E-02
         0.14636E-02
         0.30622E-03
         0.11777E-02
         0.22755E-02
         0.28260E-02
         0.24247E-02
         0.21687E-02
         0.29351E-02
        -0.10042E-02
         0.83825E-04
        -0.69882E-03
        -0.71112E-03
         0.83490E-04
        -0.77763E-03
         0.42353E-04
        -0.15192E-02
        -0.13223E-02
         0.99661E-03
        -0.17322E-02
         0.20237E-02
         0.18607E-02
         0.17175E-02
         0.91084E-03
        -0.19801E-02
        -0.23491E-02
        -0.17074E-02
        -0.14909E-02
         0.76640E-03
         0.12503E-02
         0.18667E-02
         0.28974E-02
         0.27179E-02
         0.24629E-02
         0.22359E-02
         0.16503E-02
         0.87650E-03
        -0.21374E-02
        -0.26933E-02
        -0.31291E-02
        -0.30382E-02
        -0.28749E-02
        -0.26439E-02
        -0.23719E-02
        -0.21478E-02
        -0.15099E-02
         0.93572E-03
         0.00000E+00
         0.18171E-02
         0.25928E-02
         0.32179E-02
         0.36559E-02
         0.38815E-02
         0.38815E-02
         0.36559E-02
         0.32179E-02
         0.25928E-02
         0.18171E-02
         0.93572E-03
        -0.47884E-18
        -0.93572E-03
        -0.18171E-02
        -0.25928E-02
        -0.32179E-02
        -0.36559E-02
        -0.38815E-02
        -0.38815E-02
        -0.36559E-02
        -0.32179E-02
        -0.25928E-02
        -0.18171E-02
        -0.93572E-03
         0.67680E-03
         0.12354E-02
         0.59517E-03
        -0.33247E-03
         0.15136E-03
        -0.67298E-03
         0.18425E-02
         0.14646E-02
         0.30737E-03
         0.11795E-02
         0.22757E-02
         0.28255E-02
         0.24248E-02
         0.21687E-02
         0.29348E-02
        -0.10043E-02
         0.84634E-04
        -0.69810E-03
        -0.71098E-03
         0.83614E-04
        -0.77746E-03
         0.42626E-04
        -0.15191E-02
        -0.13223E-02
         0.99797E-03
        -0.17322E-02
         0.20240E-02
         0.18606E-02
         0.17175E-02
         0.91108E-03
        -0.19802E-02
        -0.23491E-02
        -0.17074E-02
        -0.14911E-02
         0.76740E-03
         0.12507E-02
         0.18668E-02
         0.28963E-02
         0.27174E-02
         0.24627E-02
         0.22358E-02
         0.16503E-02
         0.87676E-03
        -0.21374E-02
        -0.26933E-02
        -0.31291E-02
        -0.30382E-02
        -0.28749E-02
        -0.26442E-02
        -0.23721E-02
        -0.21483E-02
        -0.15097E-02
         0.93572E-03
         0.00000E+00
         0.18171E-02
         0.25928E-02
         0.32179E-02
         0.36559E-02
         0.38815E-02
         0.38815E-02
         0.36559E-02
         0.32179E-02
         0.25928E-02
         0.18171E-02
         0.93572E-03
        -0.47884E-18
        -0.93572E-03
        -0.18171E-02
        -0.25928E-02
        -0.32179E-02
        -0.36559E-02
        -0.38815E-02
        -0.38815E-02
        -0.36559E-02
        -0.32179E-02
        -0.25928E-02
        -0.18171E-02
        -0.93572E-03
         0.67736E-03
         0.12361E-02
         0.59570E-03
        -0.33172E-03
         0.15173E-03
        -0.67248E-03
         0.18427E-02
         0.14656E-02
         0.30852E-03
         0.11812E-02
         0.22758E-02
         0.28251E-02
         0.24249E-02
         0.21688E-02
         0.29345E-02
        -0.10044E-02
         0.85443E-04
        -0.69737E-03
        -0.71084E-03
         0.83737E-04
        -0.77729E-03
         0.42899E-04
        -0.15191E-02
        -0.13222E-02
         0.99932E-03
        -0.17322E-02
         0.20243E-02
         0.18605E-02
         0.17175E-02
         0.91132E-03
        -0.19802E-02
        -0.23491E-02
        -0.17074E-02
        -0.14914E-02
         0.76841E-03
         0.12511E-02
         0.18668E-02
         0.28952E-02
         0.27170E-02
         0.24624E-02
         0.22358E-02
         0.16503E-02
         0.87702E-03
        -0.21374E-02
        -0.26933E-02
        -0.31291E-02
        -0.30382E-02
        -0.28749E-02
        -0.26444E-02
        -0.23723E-02
        -0.21489E-02
        -0.15096E-02
         0.93572E-03
         0.00000E+00
         0.18171E-02
         0.25928E-02
         0.32179E-02
         0.36559E-02
         0.38815E-02
         0.38815E-02
         0.36559E-02
         0.32179E-02
         0.25928E-02
         0.18171E-02
         0.93572E-03
        -0.47884E-18
        -0.93572E-03
        -0.18171E-02
        -0.25928E-02
        -0.32179E-02
        -0.36559E-02
        -0.38815E-02
        -0.38815E-02
        -0.36559E-02
        -0.32179E-02
        -0.25928E-02
        -0.18171E-02
        -0.93572E-03
         0.67791E-03
         0.12368E-02
         0.59622E-03
        -0.33096E-03
         0.15209E-03
        -0.67199E-03
         0.18429E-02
         0.14666E-02
         0.30967E-03
         0.11830E-02
         0.22759E-02
         0.28247E-02
         0.24251E-02
         0.21688E-02
         0.29343E-02
        -0.10046E-02
         0.86253E-04
        -0.69665E-03
        -0.71070E-03
         0.83861E-04
        -0.77712E-03
         0.43173E-04
        -0.15190E-02
        -0.13220E-02
         0.10007E-02
        -0.17321E-02
         0.20245E-02
         0.18603E-02
         0.17175E-02
         0.91156E-03
        -0.19802E-02
        -0.23491E-02
        -0.17074E-02
        -0.14916E-02
         0.76941E-03
         0.12515E-02
         0.18668E-02
         0.28942E-02
         0.27165E-02
         0.24622E-02
         0.22358E-02
         0.16503E-02
         0.87728E-03
        -0.21374E-02
        -0.26933E-02
        -0.31291E-02
        -0.30382E-02
        -0.28749E-02
        -0.26447E-02
        -0.23725E-02
        -0.21494E-02
        -0.15095E-02
         0.93572E-03
         0.00000E+00
         0.18171E-02
         0.25928E-02
         0.32179E-02
         0.36559E-02
         0.38815E-02
         0.38815E-02
         0.36559E-02
         0.32179E-02
         0.25928E-02
         0.18171E-02
         0.93572E-03
        -0.47884E-18
        -0.93572E-03
        -0.18171E-02
        -0.25928E-02
        -0.32179E-02
        -0.36559E-02
        -0.38815E-02
        -0.38815E-02
        -0.36559E-02
        -0.32179E-02
        -0.25928E-02
        -0.18171E-02
        -0.93572E-03
         0.67847E-03
         0.12374E-02
         0.59674E-03
        -0.33021E-03
         0.15245E-03
        -0.67150E-03
         0.18430E-02
         0.14676E-02
         0.31081E-03
         0.11847E-02
         0.22761E-02
         0.28242E-02
         0.24252E-02
         0.21688E-02
         0.29340E-02
        -0.10047E-02
         0.87062E-04
        -0.69592E-03
        -0.71056E-03
         0.83985E-04
        -0.77695E-03
         0.43446E-04
        -0.15190E-02
        -0.13219E-02
         0.10020E-02
        -0.17321E-02
         0.20248E-02
         0.18602E-02
         0.17175E-02
         0.91180E-03
        -0.19803E-02
        -0.23491E-02
        -0.17073E-02
        -0.14919E-02
         0.77042E-03
         0.12520E-02
         0.18669E-02
         0.28931E-02
         0.27160E-02
         0.24620E-02
         0.22358E-02
         0.16503E-02
         0.87754E-03
        -0.21374E-02
        -0.26933E-02
        -0.31291E-02
        -0.30382E-02
        -0.28749E-02
        -0.26450E-02
        -0.23727E-02
        -0.21500E-02
        -0.15094E-02
         0.93572E-03
         0.00000E+00
         0.18171E-02
         0.25928E-02
         0.32179E-02
         0.36559E-02
         0.38815E-02
         0.38815E-02
         0.36559E-02
         0.32179E-02
         0.25928E-02
         0.18171E-02
         0.93572E-03
         0.39516E-17
        -0.93572E-03
        -0.18171E-02
        -0.25928E-02
        -0.32179E-02
        -0.36559E-02
        -0.38815E-02
        -0.38815E-02
        -0.36559E-02
        -0.32179E-02
        -0.25928E-02
        -0.18171E-02
        -0.93572E-03
         0.67902E-03
         0.12381E-02
         0.59727E-03
        -0.32945E-03
         0.15282E-03
        -0.67100E-03
         0.18432E-02
         0.14686E-02
         0.31196E-03
         0.11865E-02
         0.22762E-02
         0.28238E-02
         0.24254E-02
         0.21688E-02
         0.29337E-02
        -0.10049E-02
         0.87871E-04
        -0.69519E-03
        -0.71042E-03
         0.84108E-04
        -0.77678E-03
         0.43720E-04
        -0.15189E-02
        -0.13219E-02
         0.10034E-02
        -0.17320E-02
         0.20251E-02
         0.18601E-02
         0.17175E-02
         0.91204E-03
        -0.19803E-02
        -0.23492E-02
        -0.17073E-02
        -0.14921E-02
         0.77142E-03
         0.12524E-02
         0.18669E-02
         0.28920E-02
         0.27155E-02
         0.24618E-02
         0.22358E-02
         0.16503E-02
         0.87781E-03
        -0.21374E-02
        -0.26934E-02
        -0.31291E-02
        -0.30382E-02
        -0.28749E-02
        -0.26452E-02
        -0.23729E-02
        -0.21505E-02
        -0.15093E-02
         0.93572E-03
         0.00000E+00
         0.18171E-02
         0.25928E-02
         0.32179E-02
         0.36559E-02
         0.38815E-02
         0.38815E-02
         0.36559E-02
         0.32179E-02
         0.25928E-02
         0.18171E-02
         0.93572E-03
        -0.47884E-18
        -0.93572E-03
        -0.18171E-02
        -0.25928E-02
        -0.32179E-02
        -0.36559E-02
        -0.38815E-02
        -0.38815E-02
        -0.36559E-02
        -0.32179E-02
        -0.25928E-02
        -0.18171E-02
        -0.93572E-03
         0.67958E-03
         0.12387E-02
         0.59779E-03
        -0.32870E-03
         0.15318E-03
        -0.67051E-03
         0.18434E-02
         0.14696E-02
         0.31311E-03
         0.11882E-02
         0.22763E-02
         0.28233E-02
         0.24255E-02
         0.21689E-02
         0.29335E-02
        -0.10050E-02
         0.88681E-04
        -0.69447E-03
        -0.71028E-03
         0.84232E-04
        -0.77661E-03
         0.43993E-04
        -0.15189E-02
        -0.13218E-02
         0.10048E-02
        -0.17320E-02
         0.20254E-02
         0.18599E-02
         0.17175E-02
         0.91228E-03
        -0.19803E-02
        -0.23492E-02
        -0.17073E-02
        -0.14923E-02
         0.77243E-03
         0.12528E-02
         0.18670E-02
         0.28910E-02
         0.27151E-02
         0.24615E-02
         0.22358E-02
         0.16503E-02
         0.87807E-03
        -0.21374E-02
        -0.26934E-02
        -0.31291E-02
        -0.30382E-02
        -0.28749E-02
        -0.26455E-02
        -0.23732E-02
        -0.21511E-02
        -0.15092E-02
         0.93572E-03
         0.00000E+00
         0.18171E-02
         0.25928E-02
         0.32179E-02
         0.36559E-02
         0.38815E-02
         0.38815E-02
         0.36559E-02
         0.32179E-02
         0.25928E-02
         0.18171E-02
         0.93572E-03
         0.22152E-17
        -0.93572E-03
        -0.18171E-02
        -0.25928E-02
        -0.32179E-02
        -0.36559E-02
        -0.38815E-02
        -0.38815E-02
        -0.36559E-02
        -0.32179E-02
        -0.25928E-02
        -0.18171E-02
        -0.93572E-03
         0.68013E-03
         0.12394E-02
         0.59831E-03
        -0.32794E-03
         0.15354E-03
        -0.67002E-03
         0.18436E-02
         0.14706E-02
         0.31426E-03
         0.11900E-02
         0.22765E-02
         0.28229E-02
         0.24257E-02
         0.21689E-02
         0.29332E-02
        -0.10051E-02
         0.89490E-04
        -0.69374E-03
        -0.71013E-03
         0.84355E-04
        -0.77644E-03
         0.44266E-04
        -0.15188E-02
        -0.13216E-02
         0.10061E-02
        -0.17320E-02
         0.20257E-02
         0.18598E-02
         0.17175E-02
         0.91252E-03
        -0.19803E-02
        -0.23492E-02
        -0.17073E-02
        -0.14926E-02
         0.77343E-03
         0.12533E-02
         0.18670E-02
         0.28899E-02
         0.27146E-02
         0.24613E-02
         0.22358E-02
         0.16503E-02
         0.87833E-03
        -0.21374E-02
        -0.26934E-02
        -0.31291E-02
        -0.30382E-02
        -0.28750E-02
        -0.26458E-02
        -0.23734E-02
        -0.21516E-02
        -0.15091E-02
         0.93572E-03
         0.00000E+00
         0.18171E-02
         0.25928E-02
         0.32179E-02
         0.36559E-02
         0.38815E-02
         0.38815E-02
         0.36559E-02
         0.32179E-02
         0.25928E-02
         0.18171E-02
         0.93572E-03
        -0.47884E-18
        -0.93572E-03
        -0.18171E-02
        -0.25928E-02
        -0.32179E-02
        -0.36559E-02
        -0.38815E-02
        -0.38815E-02
        -0.36559E-02
        -0.32179E-02
        -0.25928E-02
        -0.18171E-02
        -0.93572E-03
         0.68068E-03
         0.12401E-02
         0.59884E-03
        -0.32719E-03
         0.15391E-03
        -0.66953E-03
         0.18438E-02
         0.14716E-02
         0.31541E-03
         0.11917E-02
         0.22766E-02
         0.28225E-02
         0.24258E-02
         0.21690E-02
         0.29330E-02
        -0.10053E-02
         0.90299E-04
        -0.69302E-03
        -0.70999E-03
         0.84479E-04
        -0.77627E-03
         0.44540E-04
        -0.15188E-02
        -0.13215E-02
         0.10075E-02
        -0.17319E-02
         0.20260E-02
         0.18597E-02
         0.17175E-02
         0.91276E-03
        -0.19804E-02
        -0.23493E-02
        -0.17073E-02
        -0.14928E-02
         0.77444E-03
         0.12537E-02
         0.18670E-02
         0.28888E-02
         0.27141E-02
         0.24611E-02
         0.22358E-02
         0.16503E-02
         0.87859E-03
        -0.21374E-02
        -0.26934E-02
        -0.31291E-02
        -0.30382E-02
        -0.28750E-02
        -0.26460E-02
        -0.23736E-02
        -0.21521E-02
        -0.15090E-02
         0.93572E-03
         0.00000E+00
         0.18171E-02
         0.25928E-02
         0.32179E-02
         0.36559E-02
         0.38815E-02
         0.38815E-02
         0.36559E-02
         0.32179E-02
         0.25928E-02
         0.18171E-02
         0.93572E-03
         0.22152E-17
        -0.93572E-03
        -0.18171E-02
        -0.25928E-02
        -0.32179E-02
        -0.36559E-02
        -0.38815E-02
        -0.38815E-02
        -0.36559E-02
        -0.32179E-02
        -0.25928E-02
        -0.18171E-02
        -0.93572E-03
         0.68124E-03
         0.12407E-02
         0.59936E-03
        -0.32643E-03
         0.15427E-03
        -0.66903E-03
         0.18440E-02
         0.14727E-02
         0.31656E-03
         0.11935E-02
         0.22767E-02
         0.28220E-02
         0.24260E-02
         0.21690E-02
         0.29327E-02
        -0.10054E-02
         0.91108E-04
        -0.69229E-03
        -0.70985E-03
         0.84602E-04
        -0.77610E-03
         0.44813E-04
        -0.15187E-02
        -0.13215E-02
         0.10088E-02
        -0.17319E-02
         0.20262E-02
         0.18595E-02
         0.17175E-02
         0.91300E-03
        -0.19804E-02
        -0.23493E-02
        -0.17073E-02
        -0.14931E-02
         0.77544E-03
         0.12541E-02
         0.18671E-02
         0.28877E-02
         0.27137E-02
         0.24609E-02
         0.22358E-02
         0.16503E-02
         0.87885E-03
        -0.21374E-02
        -0.26934E-02
        -0.31291E-02
        -0.30382E-02
        -0.28750E-02
        -0.26463E-02
        -0.23738E-02
        -0.21527E-02
        -0.15088E-02
         0.93572E-03
         0.00000E+00
         0.18171E-02
         0.25928E-02
         0.32179E-02
         0.36559E-02
         0.38815E-02
         0.38815E-02
         0.36559E-02
         0.32179E-02
         0.25928E-02
         0.18171E-02
         0.93572E-03
        -0.47884E-18
        -0.93572E-03
        -0.18171E-02
        -0.25928E-02
        -0.32179E-02
        -0.36559E-02
        -0.38815E-02
        -0.38815E-02
        -0.36559E-02
        -0.32179E-02
        -0.25928E-02
        -0.18171E-02
        -0.93572E-03
         0.68179E-03
         0.12414E-02
         0.59988E-03
        -0.32568E-03
         0.15463E-03
        -0.66854E-03
         0.18442E-02
         0.14736E-02
         0.31770E-03
         0.11952E-02
         0.22768E-02
         0.28216E-02
         0.24261E-02
         0.21690E-02
         0.29324E-02
        -0.10056E-02
         0.91918E-04
        -0.69156E-03
        -0.70971E-03
         0.84726E-04
        -0.77593E-03
         0.45086E-04
        -0.15187E-02
        -0.13213E-02
         0.10102E-02
        -0.17318E-02
         0.20265E-02
         0.18594E-02
         0.17175E-02
         0.91324E-03
        -0.19804E-02
        -0.23493E-02
        -0.17073E-02
        -0.14933E-02
         0.77645E-03
         0.12545E-02
         0.18671E-02
         0.28867E-02
         0.27132E-02
         0.24606E-02
         0.22358E-02
         0.16503E-02
         0.87912E-03
        -0.21374E-02
        -0.26935E-02
        -0.31291E-02
        -0.30381E-02
        -0.28750E-02
        -0.26466E-02
        -0.23740E-02
        -0.21533E-02
        -0.15087E-02
         0.93572E-03
         0.00000E+00
         0.18171E-02
         0.25928E-02
         0.32179E-02
         0.36559E-02
         0.38815E-02
         0.38815E-02
         0.36559E-02
         0.32179E-02
         0.25928E-02
         0.18171E-02
         0.93572E-03
        -0.47884E-18
        -0.93572E-03
        -0.18171E-02
        -0.25928E-02
        -0.32179E-02
        -0.36559E-02
        -0.38815E-02
        -0.38815E-02
        -0.36559E-02
        -0.32179E-02
        -0.25928E-02
        -0.18171E-02
        -0.93572E-03
         0.68235E-03
         0.12421E-02
         0.60041E-03
        -0.32493E-03
         0.15500E-03
        -0.66805E-03
         0.18444E-02
         0.14747E-02
         0.31885E-03
         0.11970E-02
         0.22770E-02
         0.28211E-02
         0.24262E-02
         0.21691E-02
         0.29322E-02
        -0.10057E-02
         0.92727E-04
        -0.69084E-03
        -0.70957E-03
         0.84849E-04
        -0.77576E-03
         0.45359E-04
        -0.15186E-02
        -0.13212E-02
         0.10115E-02
        -0.17318E-02
         0.20268E-02
         0.18593E-02
         0.17175E-02
         0.91347E-03
        -0.19804E-02
        -0.23493E-02
        -0.17073E-02
        -0.14936E-02
         0.77745E-03
         0.12550E-02
         0.18671E-02
         0.28856E-02
         0.27127E-02
         0.24604E-02
         0.22358E-02
         0.16503E-02
         0.87938E-03
        -0.21374E-02
        -0.26935E-02
        -0.31291E-02
        -0.30381E-02
        -0.28750E-02
        -0.26468E-02
        -0.23742E-02
        -0.21538E-02
        -0.15086E-02
         0.93572E-03
         0.00000E+00
         0.18171E-02
         0.25928E-02
         0.32179E-02
         0.36559E-02
         0.38815E-02
         0.38815E-02
         0.36559E-02
         0.32179E-02
         0.25928E-02
         0.18171E-02
         0.93572E-03
        -0.47884E-18
        -0.93572E-03
        -0.18171E-02
        -0.25928E-02
        -0.32179E-02
        -0.36559E-02
        -0.38815E-02
        -0.38815E-02
        -0.36559E-02
        -0.32179E-02
        -0.25928E-02
        -0.18171E-02
        -0.93572E-03
         0.68290E-03
         0.12427E-02
         0.60093E-03
        -0.32417E-03
         0.15536E-03
        -0.66755E-03
         0.18445E-02
         0.14757E-02
         0.32000E-03
         0.11987E-02
         0.22771E-02
         0.28207E-02
         0.24264E-02
         0.21691E-02
         0.29319E-02
        -0.10058E-02
         0.93536E-04
        -0.69011E-03
        -0.70943E-03
         0.84973E-04
        -0.77559E-03
         0.45633E-04
        -0.15186E-02
        -0.13212E-02
         0.10129E-02
        -0.17318E-02
         0.20271E-02
         0.18592E-02
         0.17175E-02
         0.91371E-03
        -0.19805E-02
        -0.23493E-02
        -0.17073E-02
        -0.14938E-02
         0.77846E-03
         0.12554E-02
         0.18672E-02
         0.28845E-02
         0.27122E-02
         0.24602E-02
         0.22358E-02
         0.16502E-02
         0.87964E-03
        -0.21374E-02
        -0.26935E-02
        -0.31291E-02
        -0.30381E-02
        -0.28750E-02
        -0.26471E-02
        -0.23744E-02
        -0.21543E-02
        -0.15085E-02
         0.93572E-03
         0.00000E+00
         0.18171E-02
         0.25928E-02
         0.32179E-02
         0.36559E-02
         0.38815E-02
         0.38815E-02
         0.36559E-02
         0.32179E-02
         0.25928E-02
         0.18171E-02
         0.93572E-03
        -0.47884E-18
        -0.93572E-03
        -0.18171E-02
        -0.25928E-02
        -0.32179E-02
        -0.36559E-02
        -0.38815E-02
        -0.38815E-02
        -0.36559E-02
        -0.32179E-02
        -0.25928E-02
        -0.18171E-02
        -0.93572E-03
         0.68346E-03
         0.12434E-02
         0.60145E-03
        -0.32342E-03
         0.15572E-03
        -0.66706E-03
         0.18447E-02
         0.14767E-02
         0.32115E-03
         0.12005E-02
         0.22772E-02
         0.28203E-02
         0.24265E-02
         0.21691E-02
         0.29316E-02
        -0.10060E-02
         0.94345E-04
        -0.68939E-03
        -0.70929E-03
         0.85096E-04
        -0.77542E-03
         0.45906E-04
        -0.15185E-02
        -0.13211E-02
         0.10142E-02
        -0.17317E-02
         0.20274E-02
         0.18590E-02
         0.17175E-02
         0.91395E-03
        -0.19805E-02
        -0.23494E-02
        -0.17073E-02
        -0.14941E-02
         0.77946E-03
         0.12558E-02
         0.18672E-02
         0.28835E-02
         0.27118E-02
         0.24600E-02
         0.22358E-02
         0.16502E-02
         0.87990E-03
        -0.21374E-02
        -0.26935E-02
        -0.31291E-02
        -0.30381E-02
        -0.28750E-02
        -0.26474E-02
        -0.23746E-02
        -0.21549E-02
        -0.15084E-02
         0.93572E-03
         0.00000E+00
         0.18171E-02
         0.25928E-02
         0.32179E-02
         0.36559E-02
         0.38815E-02
         0.38815E-02
         0.36559E-02
         0.32179E-02
         0.25928E-02
         0.18171E-02
         0.93572E-03
         0.22152E-17
        -0.93572E-03
        -0.18171E-02
        -0.25928E-02
        -0.32179E-02
        -0.36559E-02
        -0.38815E-02
        -0.38815E-02
        -0.36559E-02
        -0.32179E-02
        -0.25928E-02
        -0.18171E-02
        -0.93572E-03
         0.68401E-03
         0.12440E-02
         0.60198E-03
        -0.32266E-03
         0.15609E-03
        -0.66657E-03
         0.18449E-02
         0.14777E-02
         0.32230E-03
         0.12022E-02
         0.22774E-02
         0.28198E-02
         0.24267E-02
         0.21692E-02
         0.29314E-02
        -0.10061E-02
         0.95155E-04
        -0.68866E-03
        -0.70915E-03
         0.85220E-04
        -0.77525E-03
         0.46180E-04
        -0.15185E-02
        -0.13210E-02
         0.10156E-02
        -0.17317E-02
         0.20277E-02
         0.18589E-02
         0.17175E-02
         0.91419E-03
        -0.19805E-02
        -0.23494E-02
        -0.17073E-02
        -0.14943E-02
         0.78047E-03
         0.12563E-02
         0.18672E-02
         0.28824E-02
         0.27113E-02
         0.24597E-02
         0.22358E-02
         0.16502E-02
         0.88016E-03
        -0.21374E-02
        -0.26935E-02
        -0.31291E-02
        -0.30381E-02
        -0.28751E-02
        -0.26476E-02
        -0.23748E-02
        -0.21554E-02
        -0.15083E-02
         0.93572E-03
         0.00000E+00
         0.18171E-02
         0.25928E-02
         0.32179E-02
         0.36559E-02
         0.38815E-02
         0.38815E-02
         0.36559E-02
         0.32179E-02
         0.25928E-02
         0.18171E-02
         0.93572E-03
        -0.47884E-18
        -0.93572E-03
        -0.18171E-02
        -0.25928E-02
        -0.32179E-02
        -0.36559E-02
        -0.38815E-02
        -0.38815E-02
        -0.36559E-02
        -0.32179E-02
        -0.25928E-02
        -0.18171E-02
        -0.93572E-03
         0.68457E-03
         0.12447E-02
         0.60250E-03
        -0.32191E-03
         0.15645E-03
        -0.66607E-03
         0.18451E-02
         0.14787E-02
         0.32345E-03
         0.12040E-02
         0.22775E-02
         0.28194E-02
         0.24268E-02
         0.21692E-02
         0.29311E-02
        -0.10062E-02
         0.95964E-04
        -0.68793E-03
        -0.70901E-03
         0.85343E-04
        -0.77507E-03
         0.46453E-04
        -0.15184E-02
        -0.13209E-02
         0.10169E-02
        -0.17316E-02
         0.20280E-02
         0.18588E-02
         0.17175E-02
         0.91443E-03
        -0.19806E-02
        -0.23494E-02
        -0.17073E-02
        -0.14945E-02
         0.78148E-03
         0.12567E-02
         0.18673E-02
         0.28813E-02
         0.27108E-02
         0.24595E-02
         0.22358E-02
         0.16502E-02
         0.88043E-03
        -0.21374E-02
        -0.26936E-02
        -0.31291E-02
        -0.30381E-02
        -0.28751E-02
        -0.26479E-02
        -0.23750E-02
        -0.21560E-02
        -0.15082E-02
         0.93572E-03
         0.00000E+00
         0.18171E-02
         0.25928E-02
         0.32179E-02
         0.36559E-02
         0.38815E-02
         0.38815E-02
         0.36559E-02
         0.32179E-02
         0.25928E-02
         0.18171E-02
         0.93572E-03
        -0.47884E-18
        -0.93572E-03
        -0.18171E-02
        -0.25928E-02
        -0.32179E-02
        -0.36559E-02
        -0.38815E-02
        -0.38815E-02
        -0.36559E-02
        -0.32179E-02
        -0.25928E-02
        -0.18171E-02
        -0.93572E-03
         0.68512E-03
         0.12454E-02
         0.60302E-03
        -0.32115E-03
         0.15681E-03
        -0.66558E-03
         0.18453E-02
         0.14797E-02
         0.32459E-03
         0.12058E-02
         0.22776E-02
         0.28189E-02
         0.24270E-02
         0.21693E-02
         0.29308E-02
        -0.10064E-02
         0.96773E-04
        -0.68721E-03
        -0.70887E-03
         0.85467E-04
        -0.77490E-03
         0.46726E-04
        -0.15184E-02
        -0.13208E-02
         0.10183E-02
        -0.17316E-02
         0.20283E-02
         0.18586E-02
         0.17175E-02
         0.91467E-03
        -0.19806E-02
        -0.23494E-02
        -0.17073E-02
        -0.14948E-02
         0.78248E-03
         0.12571E-02
         0.18673E-02
         0.28802E-02
         0.27103E-02
         0.24593E-02
         0.22358E-02
         0.16502E-02
         0.88069E-03
        -0.21374E-02
        -0.26936E-02
        -0.31291E-02
        -0.30381E-02
        -0.28751E-02
        -0.26482E-02
        -0.23752E-02
        -0.21565E-02
        -0.15081E-02
         0.93572E-03
         0.00000E+00
         0.18171E-02
         0.25928E-02
         0.32179E-02
         0.36559E-02
         0.38815E-02
         0.38815E-02
         0.36559E-02
         0.32179E-02
         0.25928E-02
         0.18171E-02
         0.93572E-03
        -0.47884E-18
        -0.93572E-03
        -0.18171E-02
        -0.25928E-02
        -0.32179E-02
        -0.36559E-02
        -0.38815E-02
        -0.38815E-02
        -0.36559E-02
        -0.32179E-02
        -0.25928E-02
        -0.18171E-02
        -0.93572E-03
         0.68567E-03
         0.12460E-02
         0.60355E-03
        -0.32040E-03
         0.15718E-03
        -0.66509E-03
         0.18455E-02
         0.14807E-02
         0.32574E-03
         0.12075E-02
         0.22777E-02
         0.28185E-02
         0.24271E-02
         0.21693E-02
         0.29306E-02
        -0.10065E-02
         0.97583E-04
        -0.68648E-03
        -0.70873E-03
         0.85591E-04
        -0.77474E-03
         0.47000E-04
        -0.15183E-02
        -0.13207E-02
         0.10197E-02
        -0.17316E-02
         0.20285E-02
         0.18585E-02
         0.17175E-02
         0.91491E-03
        -0.19806E-02
        -0.23495E-02
        -0.17073E-02
        -0.14950E-02
         0.78348E-03
         0.12576E-02
         0.18674E-02
         0.28792E-02
         0.27099E-02
         0.24591E-02
         0.22358E-02
         0.16502E-02
         0.88095E-03
        -0.21374E-02
        -0.26936E-02
        -0.31290E-02
        -0.30381E-02
        -0.28751E-02
        -0.26484E-02
        -0.23754E-02
        -0.21571E-02
        -0.15080E-02
         0.93572E-03
         0.00000E+00
         0.18171E-02
         0.25928E-02
         0.32179E-02
         0.36559E-02
         0.38815E-02
         0.38815E-02
         0.36559E-02
         0.32179E-02
         0.25928E-02
         0.18171E-02
         0.93572E-03
         0.47884E-18
        -0.93572E-03
        -0.18171E-02
        -0.25928E-02
        -0.32179E-02
        -0.36559E-02
        -0.38815E-02
        -0.38815E-02
        -0.36559E-02
        -0.32179E-02
        -0.25928E-02
        -0.18171E-02
        -0.93572E-03
  
SCALARS           initial_coordinate_z  double 1
LOOKUP_TABLE default
        -0.10771E-01
        -0.10771E-01
        -0.10771E-01
        -0.10771E-01
        -0.11750E-01
        -0.11750E-01
        -0.11750E-01
        -0.11750E-01
        -0.10771E-01
        -0.10771E-01
        -0.11750E-01
        -0.11750E-01
        -0.10771E-01
        -0.10771E-01
        -0.11750E-01
        -0.11750E-01
        -0.10771E-01
        -0.10771E-01
        -0.11750E-01
        -0.11750E-01
        -0.10771E-01
        -0.10771E-01
        -0.10771E-01
        -0.11750E-01
        -0.11750E-01
        -0.11750E-01
        -0.10771E-01
        -0.10771E-01
        -0.11750E-01
        -0.11750E-01
        -0.10771E-01
        -0.10771E-01
        -0.10771E-01
        -0.11750E-01
        -0.11750E-01
        -0.11750E-01
        -0.10771E-01
        -0.10771E-01
        -0.11750E-01
        -0.11750E-01
        -0.10771E-01
        -0.10771E-01
        -0.11750E-01
        -0.11750E-01
        -0.10771E-01
        -0.10771E-01
        -0.11750E-01
        -0.11750E-01
        -0.10771E-01
        -0.11750E-01
        -0.10771E-01
        -0.11750E-01
        -0.10771E-01
        -0.11750E-01
        -0.10771E-01
        -0.11750E-01
        -0.10771E-01
        -0.10771E-01
        -0.11750E-01
        -0.11750E-01
        -0.10771E-01
        -0.10771E-01
        -0.11750E-01
        -0.11750E-01
        -0.10771E-01
        -0.11750E-01
        -0.10771E-01
        -0.11750E-01
        -0.10771E-01
        -0.10771E-01
        -0.11750E-01
        -0.11750E-01
        -0.10771E-01
        -0.11750E-01
        -0.10771E-01
        -0.11750E-01
        -0.10771E-01
        -0.11750E-01
        -0.10771E-01
        -0.11750E-01
        -0.10771E-01
        -0.10771E-01
        -0.11750E-01
        -0.11750E-01
        -0.10771E-01
        -0.11750E-01
        -0.10771E-01
        -0.11750E-01
        -0.10771E-01
        -0.11750E-01
        -0.10771E-01
        -0.10771E-01
        -0.11750E-01
        -0.11750E-01
        -0.10771E-01
        -0.11750E-01
        -0.10771E-01
        -0.11750E-01
        -0.10771E-01
        -0.11750E-01
        -0.10771E-01
        -0.10771E-01
        -0.11750E-01
        -0.11750E-01
        -0.10771E-01
        -0.10771E-01
        -0.11750E-01
        -0.11750E-01
        -0.10771E-01
        -0.11750E-01
        -0.10771E-01
        -0.11750E-01
        -0.10771E-01
        -0.11750E-01
        -0.10771E-01
        -0.11750E-01
        -0.10771E-01
        -0.11750E-01
        -0.10771E-01
        -0.11750E-01
        -0.10771E-01
        -0.11750E-01
        -0.10771E-01
        -0.11750E-01
        -0.10771E-01
        -0.11750E-01
        -0.10771E-01
        -0.11750E-01
        -0.10771E-01
        -0.11750E-01
        -0.10771E-01
        -0.11750E-01
        -0.10771E-01
        -0.11750E-01
        -0.10771E-01
        -0.11750E-01
        -0.10771E-01
        -0.11750E-01
        -0.10771E-01
        -0.11750E-01
        -0.10771E-01
        -0.11750E-01
        -0.10771E-01
        -0.11750E-01
        -0.10771E-01
        -0.11750E-01
        -0.10771E-01
        -0.11750E-01
        -0.10771E-01
        -0.11750E-01
        -0.10771E-01
        -0.11750E-01
        -0.10771E-01
        -0.11750E-01
        -0.10771E-01
        -0.11750E-01
        -0.97917E-02
        -0.97917E-02
        -0.97917E-02
        -0.97917E-02
        -0.97917E-02
        -0.97917E-02
        -0.97917E-02
        -0.97917E-02
        -0.97917E-02
        -0.97917E-02
        -0.97917E-02
        -0.97917E-02
        -0.97917E-02
        -0.97917E-02
        -0.97917E-02
        -0.97917E-02
        -0.97917E-02
        -0.97917E-02
        -0.97917E-02
        -0.97917E-02
        -0.97917E-02
        -0.97917E-02
        -0.97917E-02
        -0.97917E-02
        -0.97917E-02
        -0.97917E-02
        -0.97917E-02
        -0.97917E-02
        -0.97917E-02
        -0.97917E-02
        -0.97917E-02
        -0.97917E-02
        -0.97917E-02
        -0.97917E-02
        -0.97917E-02
        -0.97917E-02
        -0.97917E-02
        -0.97917E-02
        -0.97917E-02
        -0.97917E-02
        -0.97917E-02
        -0.97917E-02
        -0.97917E-02
        -0.97917E-02
        -0.97917E-02
        -0.97917E-02
        -0.97917E-02
        -0.97917E-02
        -0.97917E-02
        -0.97917E-02
        -0.97917E-02
        -0.97917E-02
        -0.97917E-02
        -0.97917E-02
        -0.97917E-02
        -0.97917E-02
        -0.97917E-02
        -0.97917E-02
        -0.97917E-02
        -0.97917E-02
        -0.97917E-02
        -0.97917E-02
        -0.97917E-02
        -0.97917E-02
        -0.97917E-02
        -0.97917E-02
        -0.97917E-02
        -0.97917E-02
        -0.97917E-02
        -0.97917E-02
        -0.97917E-02
        -0.97917E-02
        -0.97917E-02
        -0.97917E-02
        -0.97917E-02
        -0.97917E-02
        -0.97917E-02
        -0.97917E-02
        -0.88125E-02
        -0.88125E-02
        -0.88125E-02
        -0.88125E-02
        -0.88125E-02
        -0.88125E-02
        -0.88125E-02
        -0.88125E-02
        -0.88125E-02
        -0.88125E-02
        -0.88125E-02
        -0.88125E-02
        -0.88125E-02
        -0.88125E-02
        -0.88125E-02
        -0.88125E-02
        -0.88125E-02
        -0.88125E-02
        -0.88125E-02
        -0.88125E-02
        -0.88125E-02
        -0.88125E-02
        -0.88125E-02
        -0.88125E-02
        -0.88125E-02
        -0.88125E-02
        -0.88125E-02
        -0.88125E-02
        -0.88125E-02
        -0.88125E-02
        -0.88125E-02
        -0.88125E-02
        -0.88125E-02
        -0.88125E-02
        -0.88125E-02
        -0.88125E-02
        -0.88125E-02
        -0.88125E-02
        -0.88125E-02
        -0.88125E-02
        -0.88125E-02
        -0.88125E-02
        -0.88125E-02
        -0.88125E-02
        -0.88125E-02
        -0.88125E-02
        -0.88125E-02
        -0.88125E-02
        -0.88125E-02
        -0.88125E-02
        -0.88125E-02
        -0.88125E-02
        -0.88125E-02
        -0.88125E-02
        -0.88125E-02
        -0.88125E-02
        -0.88125E-02
        -0.88125E-02
        -0.88125E-02
        -0.88125E-02
        -0.88125E-02
        -0.88125E-02
        -0.88125E-02
        -0.88125E-02
        -0.88125E-02
        -0.88125E-02
        -0.88125E-02
        -0.88125E-02
        -0.88125E-02
        -0.88125E-02
        -0.88125E-02
        -0.88125E-02
        -0.88125E-02
        -0.88125E-02
        -0.88125E-02
        -0.88125E-02
        -0.88125E-02
        -0.88125E-02
        -0.78333E-02
        -0.78333E-02
        -0.78333E-02
        -0.78333E-02
        -0.78333E-02
        -0.78333E-02
        -0.78333E-02
        -0.78333E-02
        -0.78333E-02
        -0.78333E-02
        -0.78333E-02
        -0.78333E-02
        -0.78333E-02
        -0.78333E-02
        -0.78333E-02
        -0.78333E-02
        -0.78333E-02
        -0.78333E-02
        -0.78333E-02
        -0.78333E-02
        -0.78333E-02
        -0.78333E-02
        -0.78333E-02
        -0.78333E-02
        -0.78333E-02
        -0.78333E-02
        -0.78333E-02
        -0.78333E-02
        -0.78333E-02
        -0.78333E-02
        -0.78333E-02
        -0.78333E-02
        -0.78333E-02
        -0.78333E-02
        -0.78333E-02
        -0.78333E-02
        -0.78333E-02
        -0.78333E-02
        -0.78333E-02
        -0.78333E-02
        -0.78333E-02
        -0.78333E-02
        -0.78333E-02
        -0.78333E-02
        -0.78333E-02
        -0.78333E-02
        -0.78333E-02
        -0.78333E-02
        -0.78333E-02
        -0.78333E-02
        -0.78333E-02
        -0.78333E-02
        -0.78333E-02
        -0.78333E-02
        -0.78333E-02
        -0.78333E-02
        -0.78333E-02
        -0.78333E-02
        -0.78333E-02
        -0.78333E-02
        -0.78333E-02
        -0.78333E-02
        -0.78333E-02
        -0.78333E-02
        -0.78333E-02
        -0.78333E-02
        -0.78333E-02
        -0.78333E-02
        -0.78333E-02
        -0.78333E-02
        -0.78333E-02
        -0.78333E-02
        -0.78333E-02
        -0.78333E-02
        -0.78333E-02
        -0.78333E-02
        -0.78333E-02
        -0.78333E-02
        -0.68542E-02
        -0.68542E-02
        -0.68542E-02
        -0.68542E-02
        -0.68542E-02
        -0.68542E-02
        -0.68542E-02
        -0.68542E-02
        -0.68542E-02
        -0.68542E-02
        -0.68542E-02
        -0.68542E-02
        -0.68542E-02
        -0.68542E-02
        -0.68542E-02
        -0.68542E-02
        -0.68542E-02
        -0.68542E-02
        -0.68542E-02
        -0.68542E-02
        -0.68542E-02
        -0.68542E-02
        -0.68542E-02
        -0.68542E-02
        -0.68542E-02
        -0.68542E-02
        -0.68542E-02
        -0.68542E-02
        -0.68542E-02
        -0.68542E-02
        -0.68542E-02
        -0.68542E-02
        -0.68542E-02
        -0.68542E-02
        -0.68542E-02
        -0.68542E-02
        -0.68542E-02
        -0.68542E-02
        -0.68542E-02
        -0.68542E-02
        -0.68542E-02
        -0.68542E-02
        -0.68542E-02
        -0.68542E-02
        -0.68542E-02
        -0.68542E-02
        -0.68542E-02
        -0.68542E-02
        -0.68542E-02
        -0.68542E-02
        -0.68542E-02
        -0.68542E-02
        -0.68542E-02
        -0.68542E-02
        -0.68542E-02
        -0.68542E-02
        -0.68542E-02
        -0.68542E-02
        -0.68542E-02
        -0.68542E-02
        -0.68542E-02
        -0.68542E-02
        -0.68542E-02
        -0.68542E-02
        -0.68542E-02
        -0.68542E-02
        -0.68542E-02
        -0.68542E-02
        -0.68542E-02
        -0.68542E-02
        -0.68542E-02
        -0.68542E-02
        -0.68542E-02
        -0.68542E-02
        -0.68542E-02
        -0.68542E-02
        -0.68542E-02
        -0.68542E-02
        -0.58750E-02
        -0.58750E-02
        -0.58750E-02
        -0.58750E-02
        -0.58750E-02
        -0.58750E-02
        -0.58750E-02
        -0.58750E-02
        -0.58750E-02
        -0.58750E-02
        -0.58750E-02
        -0.58750E-02
        -0.58750E-02
        -0.58750E-02
        -0.58750E-02
        -0.58750E-02
        -0.58750E-02
        -0.58750E-02
        -0.58750E-02
        -0.58750E-02
        -0.58750E-02
        -0.58750E-02
        -0.58750E-02
        -0.58750E-02
        -0.58750E-02
        -0.58750E-02
        -0.58750E-02
        -0.58750E-02
        -0.58750E-02
        -0.58750E-02
        -0.58750E-02
        -0.58750E-02
        -0.58750E-02
        -0.58750E-02
        -0.58750E-02
        -0.58750E-02
        -0.58750E-02
        -0.58750E-02
        -0.58750E-02
        -0.58750E-02
        -0.58750E-02
        -0.58750E-02
        -0.58750E-02
        -0.58750E-02
        -0.58750E-02
        -0.58750E-02
        -0.58750E-02
        -0.58750E-02
        -0.58750E-02
        -0.58750E-02
        -0.58750E-02
        -0.58750E-02
        -0.58750E-02
        -0.58750E-02
        -0.58750E-02
        -0.58750E-02
        -0.58750E-02
        -0.58750E-02
        -0.58750E-02
        -0.58750E-02
        -0.58750E-02
        -0.58750E-02
        -0.58750E-02
        -0.58750E-02
        -0.58750E-02
        -0.58750E-02
        -0.58750E-02
        -0.58750E-02
        -0.58750E-02
        -0.58750E-02
        -0.58750E-02
        -0.58750E-02
        -0.58750E-02
        -0.58750E-02
        -0.58750E-02
        -0.58750E-02
        -0.58750E-02
        -0.58750E-02
        -0.48958E-02
        -0.48958E-02
        -0.48958E-02
        -0.48958E-02
        -0.48958E-02
        -0.48958E-02
        -0.48958E-02
        -0.48958E-02
        -0.48958E-02
        -0.48958E-02
        -0.48958E-02
        -0.48958E-02
        -0.48958E-02
        -0.48958E-02
        -0.48958E-02
        -0.48958E-02
        -0.48958E-02
        -0.48958E-02
        -0.48958E-02
        -0.48958E-02
        -0.48958E-02
        -0.48958E-02
        -0.48958E-02
        -0.48958E-02
        -0.48958E-02
        -0.48958E-02
        -0.48958E-02
        -0.48958E-02
        -0.48958E-02
        -0.48958E-02
        -0.48958E-02
        -0.48958E-02
        -0.48958E-02
        -0.48958E-02
        -0.48958E-02
        -0.48958E-02
        -0.48958E-02
        -0.48958E-02
        -0.48958E-02
        -0.48958E-02
        -0.48958E-02
        -0.48958E-02
        -0.48958E-02
        -0.48958E-02
        -0.48958E-02
        -0.48958E-02
        -0.48958E-02
        -0.48958E-02
        -0.48958E-02
        -0.48958E-02
        -0.48958E-02
        -0.48958E-02
        -0.48958E-02
        -0.48958E-02
        -0.48958E-02
        -0.48958E-02
        -0.48958E-02
        -0.48958E-02
        -0.48958E-02
        -0.48958E-02
        -0.48958E-02
        -0.48958E-02
        -0.48958E-02
        -0.48958E-02
        -0.48958E-02
        -0.48958E-02
        -0.48958E-02
        -0.48958E-02
        -0.48958E-02
        -0.48958E-02
        -0.48958E-02
        -0.48958E-02
        -0.48958E-02
        -0.48958E-02
        -0.48958E-02
        -0.48958E-02
        -0.48958E-02
        -0.48958E-02
        -0.39167E-02
        -0.39167E-02
        -0.39167E-02
        -0.39167E-02
        -0.39167E-02
        -0.39167E-02
        -0.39167E-02
        -0.39167E-02
        -0.39167E-02
        -0.39167E-02
        -0.39167E-02
        -0.39167E-02
        -0.39167E-02
        -0.39167E-02
        -0.39167E-02
        -0.39167E-02
        -0.39167E-02
        -0.39167E-02
        -0.39167E-02
        -0.39167E-02
        -0.39167E-02
        -0.39167E-02
        -0.39167E-02
        -0.39167E-02
        -0.39167E-02
        -0.39167E-02
        -0.39167E-02
        -0.39167E-02
        -0.39167E-02
        -0.39167E-02
        -0.39167E-02
        -0.39167E-02
        -0.39167E-02
        -0.39167E-02
        -0.39167E-02
        -0.39167E-02
        -0.39167E-02
        -0.39167E-02
        -0.39167E-02
        -0.39167E-02
        -0.39167E-02
        -0.39167E-02
        -0.39167E-02
        -0.39167E-02
        -0.39167E-02
        -0.39167E-02
        -0.39167E-02
        -0.39167E-02
        -0.39167E-02
        -0.39167E-02
        -0.39167E-02
        -0.39167E-02
        -0.39167E-02
        -0.39167E-02
        -0.39167E-02
        -0.39167E-02
        -0.39167E-02
        -0.39167E-02
        -0.39167E-02
        -0.39167E-02
        -0.39167E-02
        -0.39167E-02
        -0.39167E-02
        -0.39167E-02
        -0.39167E-02
        -0.39167E-02
        -0.39167E-02
        -0.39167E-02
        -0.39167E-02
        -0.39167E-02
        -0.39167E-02
        -0.39167E-02
        -0.39167E-02
        -0.39167E-02
        -0.39167E-02
        -0.39167E-02
        -0.39167E-02
        -0.39167E-02
        -0.29375E-02
        -0.29375E-02
        -0.29375E-02
        -0.29375E-02
        -0.29375E-02
        -0.29375E-02
        -0.29375E-02
        -0.29375E-02
        -0.29375E-02
        -0.29375E-02
        -0.29375E-02
        -0.29375E-02
        -0.29375E-02
        -0.29375E-02
        -0.29375E-02
        -0.29375E-02
        -0.29375E-02
        -0.29375E-02
        -0.29375E-02
        -0.29375E-02
        -0.29375E-02
        -0.29375E-02
        -0.29375E-02
        -0.29375E-02
        -0.29375E-02
        -0.29375E-02
        -0.29375E-02
        -0.29375E-02
        -0.29375E-02
        -0.29375E-02
        -0.29375E-02
        -0.29375E-02
        -0.29375E-02
        -0.29375E-02
        -0.29375E-02
        -0.29375E-02
        -0.29375E-02
        -0.29375E-02
        -0.29375E-02
        -0.29375E-02
        -0.29375E-02
        -0.29375E-02
        -0.29375E-02
        -0.29375E-02
        -0.29375E-02
        -0.29375E-02
        -0.29375E-02
        -0.29375E-02
        -0.29375E-02
        -0.29375E-02
        -0.29375E-02
        -0.29375E-02
        -0.29375E-02
        -0.29375E-02
        -0.29375E-02
        -0.29375E-02
        -0.29375E-02
        -0.29375E-02
        -0.29375E-02
        -0.29375E-02
        -0.29375E-02
        -0.29375E-02
        -0.29375E-02
        -0.29375E-02
        -0.29375E-02
        -0.29375E-02
        -0.29375E-02
        -0.29375E-02
        -0.29375E-02
        -0.29375E-02
        -0.29375E-02
        -0.29375E-02
        -0.29375E-02
        -0.29375E-02
        -0.29375E-02
        -0.29375E-02
        -0.29375E-02
        -0.29375E-02
        -0.19583E-02
        -0.19583E-02
        -0.19583E-02
        -0.19583E-02
        -0.19583E-02
        -0.19583E-02
        -0.19583E-02
        -0.19583E-02
        -0.19583E-02
        -0.19583E-02
        -0.19583E-02
        -0.19583E-02
        -0.19583E-02
        -0.19583E-02
        -0.19583E-02
        -0.19583E-02
        -0.19583E-02
        -0.19583E-02
        -0.19583E-02
        -0.19583E-02
        -0.19583E-02
        -0.19583E-02
        -0.19583E-02
        -0.19583E-02
        -0.19583E-02
        -0.19583E-02
        -0.19583E-02
        -0.19583E-02
        -0.19583E-02
        -0.19583E-02
        -0.19583E-02
        -0.19583E-02
        -0.19583E-02
        -0.19583E-02
        -0.19583E-02
        -0.19583E-02
        -0.19583E-02
        -0.19583E-02
        -0.19583E-02
        -0.19583E-02
        -0.19583E-02
        -0.19583E-02
        -0.19583E-02
        -0.19583E-02
        -0.19583E-02
        -0.19583E-02
        -0.19583E-02
        -0.19583E-02
        -0.19583E-02
        -0.19583E-02
        -0.19583E-02
        -0.19583E-02
        -0.19583E-02
        -0.19583E-02
        -0.19583E-02
        -0.19583E-02
        -0.19583E-02
        -0.19583E-02
        -0.19583E-02
        -0.19583E-02
        -0.19583E-02
        -0.19583E-02
        -0.19583E-02
        -0.19583E-02
        -0.19583E-02
        -0.19583E-02
        -0.19583E-02
        -0.19583E-02
        -0.19583E-02
        -0.19583E-02
        -0.19583E-02
        -0.19583E-02
        -0.19583E-02
        -0.19583E-02
        -0.19583E-02
        -0.19583E-02
        -0.19583E-02
        -0.19583E-02
        -0.97917E-03
        -0.97917E-03
        -0.97917E-03
        -0.97917E-03
        -0.97917E-03
        -0.97917E-03
        -0.97917E-03
        -0.97917E-03
        -0.97917E-03
        -0.97917E-03
        -0.97917E-03
        -0.97917E-03
        -0.97917E-03
        -0.97917E-03
        -0.97917E-03
        -0.97917E-03
        -0.97917E-03
        -0.97917E-03
        -0.97917E-03
        -0.97917E-03
        -0.97917E-03
        -0.97917E-03
        -0.97917E-03
        -0.97917E-03
        -0.97917E-03
        -0.97917E-03
        -0.97917E-03
        -0.97917E-03
        -0.97917E-03
        -0.97917E-03
        -0.97917E-03
        -0.97917E-03
        -0.97917E-03
        -0.97917E-03
        -0.97917E-03
        -0.97917E-03
        -0.97917E-03
        -0.97917E-03
        -0.97917E-03
        -0.97917E-03
        -0.97917E-03
        -0.97917E-03
        -0.97917E-03
        -0.97917E-03
        -0.97917E-03
        -0.97917E-03
        -0.97917E-03
        -0.97917E-03
        -0.97917E-03
        -0.97917E-03
        -0.97917E-03
        -0.97917E-03
        -0.97917E-03
        -0.97917E-03
        -0.97917E-03
        -0.97917E-03
        -0.97917E-03
        -0.97917E-03
        -0.97917E-03
        -0.97917E-03
        -0.97917E-03
        -0.97917E-03
        -0.97917E-03
        -0.97917E-03
        -0.97917E-03
        -0.97917E-03
        -0.97917E-03
        -0.97917E-03
        -0.97917E-03
        -0.97917E-03
        -0.97917E-03
        -0.97917E-03
        -0.97917E-03
        -0.97917E-03
        -0.97917E-03
        -0.97917E-03
        -0.97917E-03
        -0.97917E-03
         0.38917E-18
         0.44621E-18
         0.34485E-18
         0.23671E-18
         0.26613E-18
         0.16162E-18
         0.53980E-18
         0.50579E-18
         0.36337E-18
         0.48798E-18
         0.60712E-18
         0.67611E-18
         0.60634E-18
         0.60658E-18
         0.70997E-18
         0.20892E-18
         0.35894E-18
         0.21887E-18
         0.27638E-18
         0.38382E-18
         0.29058E-18
         0.40326E-18
         0.18564E-18
         0.19650E-18
         0.48570E-18
         0.12837E-18
         0.60589E-18
         0.60416E-18
         0.60524E-18
         0.49621E-18
         0.61582E-19
         0.32255E-19
         0.73874E-19
         0.78478E-19
         0.34514E-18
         0.42054E-18
         0.51644E-18
         0.72521E-18
         0.72233E-18
         0.70722E-18
         0.69126E-18
         0.61573E-18
         0.51484E-18
         0.91170E-19
         0.30347E-20
        -0.66516E-19
        -0.69988E-19
        -0.68643E-19
        -0.59779E-19
        -0.43507E-19
        -0.29471E-19
         0.53205E-19
         0.86819E-18
         0.00000E+00
         0.86819E-18
         0.86819E-18
         0.00000E+00
         0.00000E+00
         0.00000E+00
         0.17364E-17
         0.17364E-17
         0.17364E-17
         0.43410E-18
         0.43410E-18
         0.43410E-18
         0.00000E+00
         0.00000E+00
         0.00000E+00
         0.00000E+00
         0.00000E+00
         0.21705E-18
        -0.21705E-18
         0.00000E+00
         0.00000E+00
         0.00000E+00
        -0.32557E-18
         0.54262E-19
        -0.40697E-18
         0.97917E-03
         0.97917E-03
         0.97917E-03
         0.97917E-03
         0.97917E-03
         0.97917E-03
         0.97917E-03
         0.97917E-03
         0.97917E-03
         0.97917E-03
         0.97917E-03
         0.97917E-03
         0.97917E-03
         0.97917E-03
         0.97917E-03
         0.97917E-03
         0.97917E-03
         0.97917E-03
         0.97917E-03
         0.97917E-03
         0.97917E-03
         0.97917E-03
         0.97917E-03
         0.97917E-03
         0.97917E-03
         0.97917E-03
         0.97917E-03
         0.97917E-03
         0.97917E-03
         0.97917E-03
         0.97917E-03
         0.97917E-03
         0.97917E-03
         0.97917E-03
         0.97917E-03
         0.97917E-03
         0.97917E-03
         0.97917E-03
         0.97917E-03
         0.97917E-03
         0.97917E-03
         0.97917E-03
         0.97917E-03
         0.97917E-03
         0.97917E-03
         0.97917E-03
         0.97917E-03
         0.97917E-03
         0.97917E-03
         0.97917E-03
         0.97917E-03
         0.97917E-03
         0.97917E-03
         0.97917E-03
         0.97917E-03
         0.97917E-03
         0.97917E-03
         0.97917E-03
         0.97917E-03
         0.97917E-03
         0.97917E-03
         0.97917E-03
         0.97917E-03
         0.97917E-03
         0.97917E-03
         0.97917E-03
         0.97917E-03
         0.97917E-03
         0.97917E-03
         0.97917E-03
         0.97917E-03
         0.97917E-03
         0.97917E-03
         0.97917E-03
         0.97917E-03
         0.97917E-03
         0.97917E-03
         0.97917E-03
         0.19583E-02
         0.19583E-02
         0.19583E-02
         0.19583E-02
         0.19583E-02
         0.19583E-02
         0.19583E-02
         0.19583E-02
         0.19583E-02
         0.19583E-02
         0.19583E-02
         0.19583E-02
         0.19583E-02
         0.19583E-02
         0.19583E-02
         0.19583E-02
         0.19583E-02
         0.19583E-02
         0.19583E-02
         0.19583E-02
         0.19583E-02
         0.19583E-02
         0.19583E-02
         0.19583E-02
         0.19583E-02
         0.19583E-02
         0.19583E-02
         0.19583E-02
         0.19583E-02
         0.19583E-02
         0.19583E-02
         0.19583E-02
         0.19583E-02
         0.19583E-02
         0.19583E-02
         0.19583E-02
         0.19583E-02
         0.19583E-02
         0.19583E-02
         0.19583E-02
         0.19583E-02
         0.19583E-02
         0.19583E-02
         0.19583E-02
         0.19583E-02
         0.19583E-02
         0.19583E-02
         0.19583E-02
         0.19583E-02
         0.19583E-02
         0.19583E-02
         0.19583E-02
         0.19583E-02
         0.19583E-02
         0.19583E-02
         0.19583E-02
         0.19583E-02
         0.19583E-02
         0.19583E-02
         0.19583E-02
         0.19583E-02
         0.19583E-02
         0.19583E-02
         0.19583E-02
         0.19583E-02
         0.19583E-02
         0.19583E-02
         0.19583E-02
         0.19583E-02
         0.19583E-02
         0.19583E-02
         0.19583E-02
         0.19583E-02
         0.19583E-02
         0.19583E-02
         0.19583E-02
         0.19583E-02
         0.19583E-02
         0.29375E-02
         0.29375E-02
         0.29375E-02
         0.29375E-02
         0.29375E-02
         0.29375E-02
         0.29375E-02
         0.29375E-02
         0.29375E-02
         0.29375E-02
         0.29375E-02
         0.29375E-02
         0.29375E-02
         0.29375E-02
         0.29375E-02
         0.29375E-02
         0.29375E-02
         0.29375E-02
         0.29375E-02
         0.29375E-02
         0.29375E-02
         0.29375E-02
         0.29375E-02
         0.29375E-02
         0.29375E-02
         0.29375E-02
         0.29375E-02
         0.29375E-02
         0.29375E-02
         0.29375E-02
         0.29375E-02
         0.29375E-02
         0.29375E-02
         0.29375E-02
         0.29375E-02
         0.29375E-02
         0.29375E-02
         0.29375E-02
         0.29375E-02
         0.29375E-02
         0.29375E-02
         0.29375E-02
         0.29375E-02
         0.29375E-02
         0.29375E-02
         0.29375E-02
         0.29375E-02
         0.29375E-02
         0.29375E-02
         0.29375E-02
         0.29375E-02
         0.29375E-02
         0.29375E-02
         0.29375E-02
         0.29375E-02
         0.29375E-02
         0.29375E-02
         0.29375E-02
         0.29375E-02
         0.29375E-02
         0.29375E-02
         0.29375E-02
         0.29375E-02
         0.29375E-02
         0.29375E-02
         0.29375E-02
         0.29375E-02
         0.29375E-02
         0.29375E-02
         0.29375E-02
         0.29375E-02
         0.29375E-02
         0.29375E-02
         0.29375E-02
         0.29375E-02
         0.29375E-02
         0.29375E-02
         0.29375E-02
         0.39167E-02
         0.39167E-02
         0.39167E-02
         0.39167E-02
         0.39167E-02
         0.39167E-02
         0.39167E-02
         0.39167E-02
         0.39167E-02
         0.39167E-02
         0.39167E-02
         0.39167E-02
         0.39167E-02
         0.39167E-02
         0.39167E-02
         0.39167E-02
         0.39167E-02
         0.39167E-02
         0.39167E-02
         0.39167E-02
         0.39167E-02
         0.39167E-02
         0.39167E-02
         0.39167E-02
         0.39167E-02
         0.39167E-02
         0.39167E-02
         0.39167E-02
         0.39167E-02
         0.39167E-02
         0.39167E-02
         0.39167E-02
         0.39167E-02
         0.39167E-02
         0.39167E-02
         0.39167E-02
         0.39167E-02
         0.39167E-02
         0.39167E-02
         0.39167E-02
         0.39167E-02
         0.39167E-02
         0.39167E-02
         0.39167E-02
         0.39167E-02
         0.39167E-02
         0.39167E-02
         0.39167E-02
         0.39167E-02
         0.39167E-02
         0.39167E-02
         0.39167E-02
         0.39167E-02
         0.39167E-02
         0.39167E-02
         0.39167E-02
         0.39167E-02
         0.39167E-02
         0.39167E-02
         0.39167E-02
         0.39167E-02
         0.39167E-02
         0.39167E-02
         0.39167E-02
         0.39167E-02
         0.39167E-02
         0.39167E-02
         0.39167E-02
         0.39167E-02
         0.39167E-02
         0.39167E-02
         0.39167E-02
         0.39167E-02
         0.39167E-02
         0.39167E-02
         0.39167E-02
         0.39167E-02
         0.39167E-02
         0.48958E-02
         0.48958E-02
         0.48958E-02
         0.48958E-02
         0.48958E-02
         0.48958E-02
         0.48958E-02
         0.48958E-02
         0.48958E-02
         0.48958E-02
         0.48958E-02
         0.48958E-02
         0.48958E-02
         0.48958E-02
         0.48958E-02
         0.48958E-02
         0.48958E-02
         0.48958E-02
         0.48958E-02
         0.48958E-02
         0.48958E-02
         0.48958E-02
         0.48958E-02
         0.48958E-02
         0.48958E-02
         0.48958E-02
         0.48958E-02
         0.48958E-02
         0.48958E-02
         0.48958E-02
         0.48958E-02
         0.48958E-02
         0.48958E-02
         0.48958E-02
         0.48958E-02
         0.48958E-02
         0.48958E-02
         0.48958E-02
         0.48958E-02
         0.48958E-02
         0.48958E-02
         0.48958E-02
         0.48958E-02
         0.48958E-02
         0.48958E-02
         0.48958E-02
         0.48958E-02
         0.48958E-02
         0.48958E-02
         0.48958E-02
         0.48958E-02
         0.48958E-02
         0.48958E-02
         0.48958E-02
         0.48958E-02
         0.48958E-02
         0.48958E-02
         0.48958E-02
         0.48958E-02
         0.48958E-02
         0.48958E-02
         0.48958E-02
         0.48958E-02
         0.48958E-02
         0.48958E-02
         0.48958E-02
         0.48958E-02
         0.48958E-02
         0.48958E-02
         0.48958E-02
         0.48958E-02
         0.48958E-02
         0.48958E-02
         0.48958E-02
         0.48958E-02
         0.48958E-02
         0.48958E-02
         0.48958E-02
         0.58750E-02
         0.58750E-02
         0.58750E-02
         0.58750E-02
         0.58750E-02
         0.58750E-02
         0.58750E-02
         0.58750E-02
         0.58750E-02
         0.58750E-02
         0.58750E-02
         0.58750E-02
         0.58750E-02
         0.58750E-02
         0.58750E-02
         0.58750E-02
         0.58750E-02
         0.58750E-02
         0.58750E-02
         0.58750E-02
         0.58750E-02
         0.58750E-02
         0.58750E-02
         0.58750E-02
         0.58750E-02
         0.58750E-02
         0.58750E-02
         0.58750E-02
         0.58750E-02
         0.58750E-02
         0.58750E-02
         0.58750E-02
         0.58750E-02
         0.58750E-02
         0.58750E-02
         0.58750E-02
         0.58750E-02
         0.58750E-02
         0.58750E-02
         0.58750E-02
         0.58750E-02
         0.58750E-02
         0.58750E-02
         0.58750E-02
         0.58750E-02
         0.58750E-02
         0.58750E-02
         0.58750E-02
         0.58750E-02
         0.58750E-02
         0.58750E-02
         0.58750E-02
         0.58750E-02
         0.58750E-02
         0.58750E-02
         0.58750E-02
         0.58750E-02
         0.58750E-02
         0.58750E-02
         0.58750E-02
         0.58750E-02
         0.58750E-02
         0.58750E-02
         0.58750E-02
         0.58750E-02
         0.58750E-02
         0.58750E-02
         0.58750E-02
         0.58750E-02
         0.58750E-02
         0.58750E-02
         0.58750E-02
         0.58750E-02
         0.58750E-02
         0.58750E-02
         0.58750E-02
         0.58750E-02
         0.58750E-02
         0.68542E-02
         0.68542E-02
         0.68542E-02
         0.68542E-02
         0.68542E-02
         0.68542E-02
         0.68542E-02
         0.68542E-02
         0.68542E-02
         0.68542E-02
         0.68542E-02
         0.68542E-02
         0.68542E-02
         0.68542E-02
         0.68542E-02
         0.68542E-02
         0.68542E-02
         0.68542E-02
         0.68542E-02
         0.68542E-02
         0.68542E-02
         0.68542E-02
         0.68542E-02
         0.68542E-02
         0.68542E-02
         0.68542E-02
         0.68542E-02
         0.68542E-02
         0.68542E-02
         0.68542E-02
         0.68542E-02
         0.68542E-02
         0.68542E-02
         0.68542E-02
         0.68542E-02
         0.68542E-02
         0.68542E-02
         0.68542E-02
         0.68542E-02
         0.68542E-02
         0.68542E-02
         0.68542E-02
         0.68542E-02
         0.68542E-02
         0.68542E-02
         0.68542E-02
         0.68542E-02
         0.68542E-02
         0.68542E-02
         0.68542E-02
         0.68542E-02
         0.68542E-02
         0.68542E-02
         0.68542E-02
         0.68542E-02
         0.68542E-02
         0.68542E-02
         0.68542E-02
         0.68542E-02
         0.68542E-02
         0.68542E-02
         0.68542E-02
         0.68542E-02
         0.68542E-02
         0.68542E-02
         0.68542E-02
         0.68542E-02
         0.68542E-02
         0.68542E-02
         0.68542E-02
         0.68542E-02
         0.68542E-02
         0.68542E-02
         0.68542E-02
         0.68542E-02
         0.68542E-02
         0.68542E-02
         0.68542E-02
         0.78333E-02
         0.78333E-02
         0.78333E-02
         0.78333E-02
         0.78333E-02
         0.78333E-02
         0.78333E-02
         0.78333E-02
         0.78333E-02
         0.78333E-02
         0.78333E-02
         0.78333E-02
         0.78333E-02
         0.78333E-02
         0.78333E-02
         0.78333E-02
         0.78333E-02
         0.78333E-02
         0.78333E-02
         0.78333E-02
         0.78333E-02
         0.78333E-02
         0.78333E-02
         0.78333E-02
         0.78333E-02
         0.78333E-02
         0.78333E-02
         0.78333E-02
         0.78333E-02
         0.78333E-02
         0.78333E-02
         0.78333E-02
         0.78333E-02
         0.78333E-02
         0.78333E-02
         0.78333E-02
         0.78333E-02
         0.78333E-02
         0.78333E-02
         0.78333E-02
         0.78333E-02
         0.78333E-02
         0.78333E-02
         0.78333E-02
         0.78333E-02
         0.78333E-02
         0.78333E-02
         0.78333E-02
         0.78333E-02
         0.78333E-02
         0.78333E-02
         0.78333E-02
         0.78333E-02
         0.78333E-02
         0.78333E-02
         0.78333E-02
         0.78333E-02
         0.78333E-02
         0.78333E-02
         0.78333E-02
         0.78333E-02
         0.78333E-02
         0.78333E-02
         0.78333E-02
         0.78333E-02
         0.78333E-02
         0.78333E-02
         0.78333E-02
         0.78333E-02
         0.78333E-02
         0.78333E-02
         0.78333E-02
         0.78333E-02
         0.78333E-02
         0.78333E-02
         0.78333E-02
         0.78333E-02
         0.78333E-02
         0.88125E-02
         0.88125E-02
         0.88125E-02
         0.88125E-02
         0.88125E-02
         0.88125E-02
         0.88125E-02
         0.88125E-02
         0.88125E-02
         0.88125E-02
         0.88125E-02
         0.88125E-02
         0.88125E-02
         0.88125E-02
         0.88125E-02
         0.88125E-02
         0.88125E-02
         0.88125E-02
         0.88125E-02
         0.88125E-02
         0.88125E-02
         0.88125E-02
         0.88125E-02
         0.88125E-02
         0.88125E-02
         0.88125E-02
         0.88125E-02
         0.88125E-02
         0.88125E-02
         0.88125E-02
         0.88125E-02
         0.88125E-02
         0.88125E-02
         0.88125E-02
         0.88125E-02
         0.88125E-02
         0.88125E-02
         0.88125E-02
         0.88125E-02
         0.88125E-02
         0.88125E-02
         0.88125E-02
         0.88125E-02
         0.88125E-02
         0.88125E-02
         0.88125E-02
         0.88125E-02
         0.88125E-02
         0.88125E-02
         0.88125E-02
         0.88125E-02
         0.88125E-02
         0.88125E-02
         0.88125E-02
         0.88125E-02
         0.88125E-02
         0.88125E-02
         0.88125E-02
         0.88125E-02
         0.88125E-02
         0.88125E-02
         0.88125E-02
         0.88125E-02
         0.88125E-02
         0.88125E-02
         0.88125E-02
         0.88125E-02
         0.88125E-02
         0.88125E-02
         0.88125E-02
         0.88125E-02
         0.88125E-02
         0.88125E-02
         0.88125E-02
         0.88125E-02
         0.88125E-02
         0.88125E-02
         0.88125E-02
         0.97917E-02
         0.97917E-02
         0.97917E-02
         0.97917E-02
         0.97917E-02
         0.97917E-02
         0.97917E-02
         0.97917E-02
         0.97917E-02
         0.97917E-02
         0.97917E-02
         0.97917E-02
         0.97917E-02
         0.97917E-02
         0.97917E-02
         0.97917E-02
         0.97917E-02
         0.97917E-02
         0.97917E-02
         0.97917E-02
         0.97917E-02
         0.97917E-02
         0.97917E-02
         0.97917E-02
         0.97917E-02
         0.97917E-02
         0.97917E-02
         0.97917E-02
         0.97917E-02
         0.97917E-02
         0.97917E-02
         0.97917E-02
         0.97917E-02
         0.97917E-02
         0.97917E-02
         0.97917E-02
         0.97917E-02
         0.97917E-02
         0.97917E-02
         0.97917E-02
         0.97917E-02
         0.97917E-02
         0.97917E-02
         0.97917E-02
         0.97917E-02
         0.97917E-02
         0.97917E-02
         0.97917E-02
         0.97917E-02
         0.97917E-02
         0.97917E-02
         0.97917E-02
         0.97917E-02
         0.97917E-02
         0.97917E-02
         0.97917E-02
         0.97917E-02
         0.97917E-02
         0.97917E-02
         0.97917E-02
         0.97917E-02
         0.97917E-02
         0.97917E-02
         0.97917E-02
         0.97917E-02
         0.97917E-02
         0.97917E-02
         0.97917E-02
         0.97917E-02
         0.97917E-02
         0.97917E-02
         0.97917E-02
         0.97917E-02
         0.97917E-02
         0.97917E-02
         0.97917E-02
         0.97917E-02
         0.97917E-02
         0.10771E-01
         0.10771E-01
         0.10771E-01
         0.10771E-01
         0.10771E-01
         0.10771E-01
         0.10771E-01
         0.10771E-01
         0.10771E-01
         0.10771E-01
         0.10771E-01
         0.10771E-01
         0.10771E-01
         0.10771E-01
         0.10771E-01
         0.10771E-01
         0.10771E-01
         0.10771E-01
         0.10771E-01
         0.10771E-01
         0.10771E-01
         0.10771E-01
         0.10771E-01
         0.10771E-01
         0.10771E-01
         0.10771E-01
         0.10771E-01
         0.10771E-01
         0.10771E-01
         0.10771E-01
         0.10771E-01
         0.10771E-01
         0.10771E-01
         0.10771E-01
         0.10771E-01
         0.10771E-01
         0.10771E-01
         0.10771E-01
         0.10771E-01
         0.10771E-01
         0.10771E-01
         0.10771E-01
         0.10771E-01
         0.10771E-01
         0.10771E-01
         0.10771E-01
         0.10771E-01
         0.10771E-01
         0.10771E-01
         0.10771E-01
         0.10771E-01
         0.10771E-01
         0.10771E-01
         0.10771E-01
         0.10771E-01
         0.10771E-01
         0.10771E-01
         0.10771E-01
         0.10771E-01
         0.10771E-01
         0.10771E-01
         0.10771E-01
         0.10771E-01
         0.10771E-01
         0.10771E-01
         0.10771E-01
         0.10771E-01
         0.10771E-01
         0.10771E-01
         0.10771E-01
         0.10771E-01
         0.10771E-01
         0.10771E-01
         0.10771E-01
         0.10771E-01
         0.10771E-01
         0.10771E-01
         0.10771E-01
         0.11750E-01
         0.11750E-01
         0.11750E-01
         0.11750E-01
         0.11750E-01
         0.11750E-01
         0.11750E-01
         0.11750E-01
         0.11750E-01
         0.11750E-01
         0.11750E-01
         0.11750E-01
         0.11750E-01
         0.11750E-01
         0.11750E-01
         0.11750E-01
         0.11750E-01
         0.11750E-01
         0.11750E-01
         0.11750E-01
         0.11750E-01
         0.11750E-01
         0.11750E-01
         0.11750E-01
         0.11750E-01
         0.11750E-01
         0.11750E-01
         0.11750E-01
         0.11750E-01
         0.11750E-01
         0.11750E-01
         0.11750E-01
         0.11750E-01
         0.11750E-01
         0.11750E-01
         0.11750E-01
         0.11750E-01
         0.11750E-01
         0.11750E-01
         0.11750E-01
         0.11750E-01
         0.11750E-01
         0.11750E-01
         0.11750E-01
         0.11750E-01
         0.11750E-01
         0.11750E-01
         0.11750E-01
         0.11750E-01
         0.11750E-01
         0.11750E-01
         0.11750E-01
         0.11750E-01
         0.11750E-01
         0.11750E-01
         0.11750E-01
         0.11750E-01
         0.11750E-01
         0.11750E-01
         0.11750E-01
         0.11750E-01
         0.11750E-01
         0.11750E-01
         0.11750E-01
         0.11750E-01
         0.11750E-01
         0.11750E-01
         0.11750E-01
         0.11750E-01
         0.11750E-01
         0.11750E-01
         0.11750E-01
         0.11750E-01
         0.11750E-01
         0.11750E-01
         0.11750E-01
         0.11750E-01
         0.11750E-01
  
SCALARS                init_velocity_x  double 1
LOOKUP_TABLE default
         0.00000E+00
         0.00000E+00
         0.00000E+00
         0.00000E+00
         0.00000E+00
         0.00000E+00
         0.00000E+00
         0.00000E+00
         0.00000E+00
         0.00000E+00
         0.00000E+00
         0.00000E+00
         0.00000E+00
         0.00000E+00
         0.00000E+00
         0.00000E+00
         0.00000E+00
         0.00000E+00
         0.00000E+00
         0.00000E+00
         0.00000E+00
         0.00000E+00
         0.00000E+00
         0.00000E+00
         0.00000E+00
         0.00000E+00
         0.00000E+00
         0.00000E+00
         0.00000E+00
         0.00000E+00
         0.00000E+00
         0.00000E+00
         0.00000E+00
         0.00000E+00
         0.00000E+00
         0.00000E+00
         0.00000E+00
         0.00000E+00
         0.00000E+00
         0.00000E+00
         0.00000E+00
         0.00000E+00
         0.00000E+00
         0.00000E+00
         0.00000E+00
         0.00000E+00
         0.00000E+00
         0.00000E+00
         0.00000E+00
         0.00000E+00
         0.00000E+00
         0.00000E+00
         0.00000E+00
         0.00000E+00
         0.00000E+00
         0.00000E+00
         0.00000E+00
         0.00000E+00
         0.00000E+00
         0.00000E+00
         0.00000E+00
         0.00000E+00
         0.00000E+00
         0.00000E+00
         0.00000E+00
         0.00000E+00
         0.00000E+00
         0.00000E+00
         0.00000E+00
         0.00000E+00
         0.00000E+00
         0.00000E+00
         0.00000E+00
         0.00000E+00
         0.00000E+00
         0.00000E+00
         0.00000E+00
         0.00000E+00
         0.00000E+00
         0.00000E+00
         0.00000E+00
         0.00000E+00
         0.00000E+00
         0.00000E+00
         0.00000E+00
         0.00000E+00
         0.00000E+00
         0.00000E+00
         0.00000E+00
         0.00000E+00
         0.00000E+00
         0.00000E+00
         0.00000E+00
         0.00000E+00
         0.00000E+00
         0.00000E+00
         0.00000E+00
         0.00000E+00
         0.00000E+00
         0.00000E+00
         0.00000E+00
         0.00000E+00
         0.00000E+00
         0.00000E+00
         0.00000E+00
         0.00000E+00
         0.00000E+00
         0.00000E+00
         0.00000E+00
         0.00000E+00
         0.00000E+00
         0.00000E+00
         0.00000E+00
         0.00000E+00
         0.00000E+00
         0.00000E+00
         0.00000E+00
         0.00000E+00
         0.00000E+00
         0.00000E+00
         0.00000E+00
         0.00000E+00
         0.00000E+00
         0.00000E+00
         0.00000E+00
         0.00000E+00
         0.00000E+00
         0.00000E+00
         0.00000E+00
         0.00000E+00
         0.00000E+00
         0.00000E+00
         0.00000E+00
         0.00000E+00
         0.00000E+00
         0.00000E+00
         0.00000E+00
         0.00000E+00
         0.00000E+00
         0.00000E+00
         0.00000E+00
         0.00000E+00
         0.00000E+00
         0.00000E+00
         0.00000E+00
         0.00000E+00
         0.00000E+00
         0.00000E+00
         0.00000E+00
         0.00000E+00
         0.00000E+00
         0.00000E+00
         0.00000E+00
         0.00000E+00
         0.00000E+00
         0.00000E+00
         0.00000E+00
         0.00000E+00
         0.00000E+00
         0.00000E+00
         0.00000E+00
         0.00000E+00
         0.00000E+00
         0.00000E+00
         0.00000E+00
         0.00000E+00
         0.00000E+00
         0.00000E+00
         0.00000E+00
         0.00000E+00
         0.00000E+00
         0.00000E+00
         0.00000E+00
         0.00000E+00
         0.00000E+00
         0.00000E+00
         0.00000E+00
         0.00000E+00
         0.00000E+00
         0.00000E+00
         0.00000E+00
         0.00000E+00
         0.00000E+00
         0.00000E+00
         0.00000E+00
         0.00000E+00
         0.00000E+00
         0.00000E+00
         0.00000E+00
         0.00000E+00
         0.00000E+00
         0.00000E+00
         0.00000E+00
         0.00000E+00
         0.00000E+00
         0.00000E+00
         0.00000E+00
         0.00000E+00
         0.00000E+00
         0.00000E+00
         0.00000E+00
         0.00000E+00
         0.00000E+00
         0.00000E+00
         0.00000E+00
         0.00000E+00
         0.00000E+00
         0.00000E+00
         0.00000E+00
         0.00000E+00
         0.00000E+00
         0.00000E+00
         0.00000E+00
         0.00000E+00
         0.00000E+00
         0.00000E+00
         0.00000E+00
         0.00000E+00
         0.00000E+00
         0.00000E+00
         0.00000E+00
         0.00000E+00
         0.00000E+00
         0.00000E+00
         0.00000E+00
         0.00000E+00
         0.00000E+00
         0.00000E+00
         0.00000E+00
         0.00000E+00
         0.00000E+00
         0.00000E+00
         0.00000E+00
         0.00000E+00
         0.00000E+00
         0.00000E+00
         0.00000E+00
         0.00000E+00
         0.00000E+00
         0.00000E+00
         0.00000E+00
         0.00000E+00
         0.00000E+00
         0.00000E+00
         0.00000E+00
         0.00000E+00
         0.00000E+00
         0.00000E+00
         0.00000E+00
         0.00000E+00
         0.00000E+00
         0.00000E+00
         0.00000E+00
         0.00000E+00
         0.00000E+00
         0.00000E+00
         0.00000E+00
         0.00000E+00
         0.00000E+00
         0.00000E+00
         0.00000E+00
         0.00000E+00
         0.00000E+00
         0.00000E+00
         0.00000E+00
         0.00000E+00
         0.00000E+00
         0.00000E+00
         0.00000E+00
         0.00000E+00
         0.00000E+00
         0.00000E+00
         0.00000E+00
         0.00000E+00
         0.00000E+00
         0.00000E+00
         0.00000E+00
         0.00000E+00
         0.00000E+00
         0.00000E+00
         0.00000E+00
         0.00000E+00
         0.00000E+00
         0.00000E+00
         0.00000E+00
         0.00000E+00
         0.00000E+00
         0.00000E+00
         0.00000E+00
         0.00000E+00
         0.00000E+00
         0.00000E+00
         0.00000E+00
         0.00000E+00
         0.00000E+00
         0.00000E+00
         0.00000E+00
         0.00000E+00
         0.00000E+00
         0.00000E+00
         0.00000E+00
         0.00000E+00
         0.00000E+00
         0.00000E+00
         0.00000E+00
         0.00000E+00
         0.00000E+00
         0.00000E+00
         0.00000E+00
         0.00000E+00
         0.00000E+00
         0.00000E+00
         0.00000E+00
         0.00000E+00
         0.00000E+00
         0.00000E+00
         0.00000E+00
         0.00000E+00
         0.00000E+00
         0.00000E+00
         0.00000E+00
         0.00000E+00
         0.00000E+00
         0.00000E+00
         0.00000E+00
         0.00000E+00
         0.00000E+00
         0.00000E+00
         0.00000E+00
         0.00000E+00
         0.00000E+00
         0.00000E+00
         0.00000E+00
         0.00000E+00
         0.00000E+00
         0.00000E+00
         0.00000E+00
         0.00000E+00
         0.00000E+00
         0.00000E+00
         0.00000E+00
         0.00000E+00
         0.00000E+00
         0.00000E+00
         0.00000E+00
         0.00000E+00
         0.00000E+00
         0.00000E+00
         0.00000E+00
         0.00000E+00
         0.00000E+00
         0.00000E+00
         0.00000E+00
         0.00000E+00
         0.00000E+00
         0.00000E+00
         0.00000E+00
         0.00000E+00
         0.00000E+00
         0.00000E+00
         0.00000E+00
         0.00000E+00
         0.00000E+00
         0.00000E+00
         0.00000E+00
         0.00000E+00
         0.00000E+00
         0.00000E+00
         0.00000E+00
         0.00000E+00
         0.00000E+00
         0.00000E+00
         0.00000E+00
         0.00000E+00
         0.00000E+00
         0.00000E+00
         0.00000E+00
         0.00000E+00
         0.00000E+00
         0.00000E+00
         0.00000E+00
         0.00000E+00
         0.00000E+00
         0.00000E+00
         0.00000E+00
         0.00000E+00
         0.00000E+00
         0.00000E+00
         0.00000E+00
         0.00000E+00
         0.00000E+00
         0.00000E+00
         0.00000E+00
         0.00000E+00
         0.00000E+00
         0.00000E+00
         0.00000E+00
         0.00000E+00
         0.00000E+00
         0.00000E+00
         0.00000E+00
         0.00000E+00
         0.00000E+00
         0.00000E+00
         0.00000E+00
         0.00000E+00
         0.00000E+00
         0.00000E+00
         0.00000E+00
         0.00000E+00
         0.00000E+00
         0.00000E+00
         0.00000E+00
         0.00000E+00
         0.00000E+00
         0.00000E+00
         0.00000E+00
         0.00000E+00
         0.00000E+00
         0.00000E+00
         0.00000E+00
         0.00000E+00
         0.00000E+00
         0.00000E+00
         0.00000E+00
         0.00000E+00
         0.00000E+00
         0.00000E+00
         0.00000E+00
         0.00000E+00
         0.00000E+00
         0.00000E+00
         0.00000E+00
         0.00000E+00
         0.00000E+00
         0.00000E+00
         0.00000E+00
         0.00000E+00
         0.00000E+00
         0.00000E+00
         0.00000E+00
         0.00000E+00
         0.00000E+00
         0.00000E+00
         0.00000E+00
         0.00000E+00
         0.00000E+00
         0.00000E+00
         0.00000E+00
         0.00000E+00
         0.00000E+00
         0.00000E+00
         0.00000E+00
         0.00000E+00
         0.00000E+00
         0.00000E+00
         0.00000E+00
         0.00000E+00
         0.00000E+00
         0.00000E+00
         0.00000E+00
         0.00000E+00
         0.00000E+00
         0.00000E+00
         0.00000E+00
         0.00000E+00
         0.00000E+00
         0.00000E+00
         0.00000E+00
         0.00000E+00
         0.00000E+00
         0.00000E+00
         0.00000E+00
         0.00000E+00
         0.00000E+00
         0.00000E+00
         0.00000E+00
         0.00000E+00
         0.00000E+00
         0.00000E+00
         0.00000E+00
         0.00000E+00
         0.00000E+00
         0.00000E+00
         0.00000E+00
         0.00000E+00
         0.00000E+00
         0.00000E+00
         0.00000E+00
         0.00000E+00
         0.00000E+00
         0.00000E+00
         0.00000E+00
         0.00000E+00
         0.00000E+00
         0.00000E+00
         0.00000E+00
         0.00000E+00
         0.00000E+00
         0.00000E+00
         0.00000E+00
         0.00000E+00
         0.00000E+00
         0.00000E+00
         0.00000E+00
         0.00000E+00
         0.00000E+00
         0.00000E+00
         0.00000E+00
         0.00000E+00
         0.00000E+00
         0.00000E+00
         0.00000E+00
         0.00000E+00
         0.00000E+00
         0.00000E+00
         0.00000E+00
         0.00000E+00
         0.00000E+00
         0.00000E+00
         0.00000E+00
         0.00000E+00
         0.00000E+00
         0.00000E+00
         0.00000E+00
         0.00000E+00
         0.00000E+00
         0.00000E+00
         0.00000E+00
         0.00000E+00
         0.00000E+00
         0.00000E+00
         0.00000E+00
         0.00000E+00
         0.00000E+00
         0.00000E+00
         0.00000E+00
         0.00000E+00
         0.00000E+00
         0.00000E+00
         0.00000E+00
         0.00000E+00
         0.00000E+00
         0.00000E+00
         0.00000E+00
         0.00000E+00
         0.00000E+00
         0.00000E+00
         0.00000E+00
         0.00000E+00
         0.00000E+00
         0.00000E+00
         0.00000E+00
         0.00000E+00
         0.00000E+00
         0.00000E+00
         0.00000E+00
         0.00000E+00
         0.00000E+00
         0.00000E+00
         0.00000E+00
         0.00000E+00
         0.00000E+00
         0.00000E+00
         0.00000E+00
         0.00000E+00
         0.00000E+00
         0.00000E+00
         0.00000E+00
         0.00000E+00
         0.00000E+00
         0.00000E+00
         0.00000E+00
         0.00000E+00
         0.00000E+00
         0.00000E+00
         0.00000E+00
         0.00000E+00
         0.00000E+00
         0.00000E+00
         0.00000E+00
         0.00000E+00
         0.00000E+00
         0.00000E+00
         0.00000E+00
         0.00000E+00
         0.00000E+00
         0.00000E+00
         0.00000E+00
         0.00000E+00
         0.00000E+00
         0.00000E+00
         0.00000E+00
         0.00000E+00
         0.00000E+00
         0.00000E+00
         0.00000E+00
         0.00000E+00
         0.00000E+00
         0.00000E+00
         0.00000E+00
         0.00000E+00
         0.00000E+00
         0.00000E+00
         0.00000E+00
         0.00000E+00
         0.00000E+00
         0.00000E+00
         0.00000E+00
         0.00000E+00
         0.00000E+00
         0.00000E+00
         0.00000E+00
         0.00000E+00
         0.00000E+00
         0.00000E+00
         0.00000E+00
         0.00000E+00
         0.00000E+00
         0.00000E+00
         0.00000E+00
         0.00000E+00
         0.00000E+00
         0.00000E+00
         0.00000E+00
         0.00000E+00
         0.00000E+00
         0.00000E+00
         0.00000E+00
         0.00000E+00
         0.00000E+00
         0.00000E+00
         0.00000E+00
         0.00000E+00
         0.00000E+00
         0.00000E+00
         0.00000E+00
         0.00000E+00
         0.00000E+00
         0.00000E+00
         0.00000E+00
         0.00000E+00
         0.00000E+00
         0.00000E+00
         0.00000E+00
         0.00000E+00
         0.00000E+00
         0.00000E+00
         0.00000E+00
         0.00000E+00
         0.00000E+00
         0.00000E+00
         0.00000E+00
         0.00000E+00
         0.00000E+00
         0.00000E+00
         0.00000E+00
         0.00000E+00
         0.00000E+00
         0.00000E+00
         0.00000E+00
         0.00000E+00
         0.00000E+00
         0.00000E+00
         0.00000E+00
         0.00000E+00
         0.00000E+00
         0.00000E+00
         0.00000E+00
         0.00000E+00
         0.00000E+00
         0.00000E+00
         0.00000E+00
         0.00000E+00
         0.00000E+00
         0.00000E+00
         0.00000E+00
         0.00000E+00
         0.00000E+00
         0.00000E+00
         0.00000E+00
         0.00000E+00
         0.00000E+00
         0.00000E+00
         0.00000E+00
         0.00000E+00
         0.00000E+00
         0.00000E+00
         0.00000E+00
         0.00000E+00
         0.00000E+00
         0.00000E+00
         0.00000E+00
         0.00000E+00
         0.00000E+00
         0.00000E+00
         0.00000E+00
         0.00000E+00
         0.00000E+00
         0.00000E+00
         0.00000E+00
         0.00000E+00
         0.00000E+00
         0.00000E+00
         0.00000E+00
         0.00000E+00
         0.00000E+00
         0.00000E+00
         0.00000E+00
         0.00000E+00
         0.00000E+00
         0.00000E+00
         0.00000E+00
         0.00000E+00
         0.00000E+00
         0.00000E+00
         0.00000E+00
         0.00000E+00
         0.00000E+00
         0.00000E+00
         0.00000E+00
         0.00000E+00
         0.00000E+00
         0.00000E+00
         0.00000E+00
         0.00000E+00
         0.00000E+00
         0.00000E+00
         0.00000E+00
         0.00000E+00
         0.00000E+00
         0.00000E+00
         0.00000E+00
         0.00000E+00
         0.00000E+00
         0.00000E+00
         0.00000E+00
         0.00000E+00
         0.00000E+00
         0.00000E+00
         0.00000E+00
         0.00000E+00
         0.00000E+00
         0.00000E+00
         0.00000E+00
         0.00000E+00
         0.00000E+00
         0.00000E+00
         0.00000E+00
         0.00000E+00
         0.00000E+00
         0.00000E+00
         0.00000E+00
         0.00000E+00
         0.00000E+00
         0.00000E+00
         0.00000E+00
         0.00000E+00
         0.00000E+00
         0.00000E+00
         0.00000E+00
         0.00000E+00
         0.00000E+00
         0.00000E+00
         0.00000E+00
         0.00000E+00
         0.00000E+00
         0.00000E+00
         0.00000E+00
         0.00000E+00
         0.00000E+00
         0.00000E+00
         0.00000E+00
         0.00000E+00
         0.00000E+00
         0.00000E+00
         0.00000E+00
         0.00000E+00
         0.00000E+00
         0.00000E+00
         0.00000E+00
         0.00000E+00
         0.00000E+00
         0.00000E+00
         0.00000E+00
         0.00000E+00
         0.00000E+00
         0.00000E+00
         0.00000E+00
         0.00000E+00
         0.00000E+00
         0.00000E+00
         0.00000E+00
         0.00000E+00
         0.00000E+00
         0.00000E+00
         0.00000E+00
         0.00000E+00
         0.00000E+00
         0.00000E+00
         0.00000E+00
         0.00000E+00
         0.00000E+00
         0.00000E+00
         0.00000E+00
         0.00000E+00
         0.00000E+00
         0.00000E+00
         0.00000E+00
         0.00000E+00
         0.00000E+00
         0.00000E+00
         0.00000E+00
         0.00000E+00
         0.00000E+00
         0.00000E+00
         0.00000E+00
         0.00000E+00
         0.00000E+00
         0.00000E+00
         0.00000E+00
         0.00000E+00
         0.00000E+00
         0.00000E+00
         0.00000E+00
         0.00000E+00
         0.00000E+00
         0.00000E+00
         0.00000E+00
         0.00000E+00
         0.00000E+00
         0.00000E+00
         0.00000E+00
         0.00000E+00
         0.00000E+00
         0.00000E+00
         0.00000E+00
         0.00000E+00
         0.00000E+00
         0.00000E+00
         0.00000E+00
         0.00000E+00
         0.00000E+00
         0.00000E+00
         0.00000E+00
         0.00000E+00
         0.00000E+00
         0.00000E+00
         0.00000E+00
         0.00000E+00
         0.00000E+00
         0.00000E+00
         0.00000E+00
         0.00000E+00
         0.00000E+00
         0.00000E+00
         0.00000E+00
         0.00000E+00
         0.00000E+00
         0.00000E+00
         0.00000E+00
         0.00000E+00
         0.00000E+00
         0.00000E+00
         0.00000E+00
         0.00000E+00
         0.00000E+00
         0.00000E+00
         0.00000E+00
         0.00000E+00
         0.00000E+00
         0.00000E+00
         0.00000E+00
         0.00000E+00
         0.00000E+00
         0.00000E+00
         0.00000E+00
         0.00000E+00
         0.00000E+00
         0.00000E+00
         0.00000E+00
         0.00000E+00
         0.00000E+00
         0.00000E+00
         0.00000E+00
         0.00000E+00
         0.00000E+00
         0.00000E+00
         0.00000E+00
         0.00000E+00
         0.00000E+00
         0.00000E+00
         0.00000E+00
         0.00000E+00
         0.00000E+00
         0.00000E+00
         0.00000E+00
         0.00000E+00
         0.00000E+00
         0.00000E+00
         0.00000E+00
         0.00000E+00
         0.00000E+00
         0.00000E+00
         0.00000E+00
         0.00000E+00
         0.00000E+00
         0.00000E+00
         0.00000E+00
         0.00000E+00
         0.00000E+00
         0.00000E+00
         0.00000E+00
         0.00000E+00
         0.00000E+00
         0.00000E+00
         0.00000E+00
         0.00000E+00
         0.00000E+00
         0.00000E+00
         0.00000E+00
         0.00000E+00
         0.00000E+00
         0.00000E+00
         0.00000E+00
         0.00000E+00
         0.00000E+00
         0.00000E+00
         0.00000E+00
         0.00000E+00
         0.00000E+00
         0.00000E+00
         0.00000E+00
         0.00000E+00
         0.00000E+00
         0.00000E+00
         0.00000E+00
         0.00000E+00
         0.00000E+00
         0.00000E+00
         0.00000E+00
         0.00000E+00
         0.00000E+00
         0.00000E+00
         0.00000E+00
         0.00000E+00
         0.00000E+00
         0.00000E+00
         0.00000E+00
         0.00000E+00
         0.00000E+00
         0.00000E+00
         0.00000E+00
         0.00000E+00
         0.00000E+00
         0.00000E+00
         0.00000E+00
         0.00000E+00
         0.00000E+00
         0.00000E+00
         0.00000E+00
         0.00000E+00
         0.00000E+00
         0.00000E+00
         0.00000E+00
         0.00000E+00
         0.00000E+00
         0.00000E+00
         0.00000E+00
         0.00000E+00
         0.00000E+00
         0.00000E+00
         0.00000E+00
         0.00000E+00
         0.00000E+00
         0.00000E+00
         0.00000E+00
         0.00000E+00
         0.00000E+00
         0.00000E+00
         0.00000E+00
         0.00000E+00
         0.00000E+00
         0.00000E+00
         0.00000E+00
         0.00000E+00
         0.00000E+00
         0.00000E+00
         0.00000E+00
         0.00000E+00
         0.00000E+00
         0.00000E+00
         0.00000E+00
         0.00000E+00
         0.00000E+00
         0.00000E+00
         0.00000E+00
         0.00000E+00
         0.00000E+00
         0.00000E+00
         0.00000E+00
         0.00000E+00
         0.00000E+00
         0.00000E+00
         0.00000E+00
         0.00000E+00
         0.00000E+00
         0.00000E+00
         0.00000E+00
         0.00000E+00
         0.00000E+00
         0.00000E+00
         0.00000E+00
         0.00000E+00
         0.00000E+00
         0.00000E+00
         0.00000E+00
         0.00000E+00
         0.00000E+00
         0.00000E+00
         0.00000E+00
         0.00000E+00
         0.00000E+00
         0.00000E+00
         0.00000E+00
         0.00000E+00
         0.00000E+00
         0.00000E+00
         0.00000E+00
         0.00000E+00
         0.00000E+00
         0.00000E+00
         0.00000E+00
         0.00000E+00
         0.00000E+00
         0.00000E+00
         0.00000E+00
         0.00000E+00
         0.00000E+00
         0.00000E+00
         0.00000E+00
         0.00000E+00
         0.00000E+00
         0.00000E+00
         0.00000E+00
         0.00000E+00
         0.00000E+00
         0.00000E+00
         0.00000E+00
         0.00000E+00
         0.00000E+00
         0.00000E+00
         0.00000E+00
         0.00000E+00
         0.00000E+00
         0.00000E+00
         0.00000E+00
         0.00000E+00
         0.00000E+00
         0.00000E+00
         0.00000E+00
         0.00000E+00
         0.00000E+00
         0.00000E+00
         0.00000E+00
         0.00000E+00
         0.00000E+00
         0.00000E+00
         0.00000E+00
         0.00000E+00
         0.00000E+00
         0.00000E+00
         0.00000E+00
         0.00000E+00
         0.00000E+00
         0.00000E+00
         0.00000E+00
         0.00000E+00
         0.00000E+00
         0.00000E+00
         0.00000E+00
         0.00000E+00
         0.00000E+00
         0.00000E+00
         0.00000E+00
         0.00000E+00
         0.00000E+00
         0.00000E+00
         0.00000E+00
         0.00000E+00
         0.00000E+00
         0.00000E+00
         0.00000E+00
         0.00000E+00
         0.00000E+00
         0.00000E+00
         0.00000E+00
         0.00000E+00
         0.00000E+00
         0.00000E+00
         0.00000E+00
         0.00000E+00
         0.00000E+00
         0.00000E+00
         0.00000E+00
         0.00000E+00
         0.00000E+00
         0.00000E+00
         0.00000E+00
         0.00000E+00
         0.00000E+00
         0.00000E+00
         0.00000E+00
         0.00000E+00
         0.00000E+00
         0.00000E+00
         0.00000E+00
         0.00000E+00
         0.00000E+00
         0.00000E+00
         0.00000E+00
         0.00000E+00
         0.00000E+00
         0.00000E+00
         0.00000E+00
         0.00000E+00
         0.00000E+00
         0.00000E+00
         0.00000E+00
         0.00000E+00
         0.00000E+00
         0.00000E+00
         0.00000E+00
         0.00000E+00
         0.00000E+00
         0.00000E+00
         0.00000E+00
         0.00000E+00
         0.00000E+00
         0.00000E+00
         0.00000E+00
         0.00000E+00
         0.00000E+00
         0.00000E+00
         0.00000E+00
         0.00000E+00
         0.00000E+00
         0.00000E+00
         0.00000E+00
         0.00000E+00
         0.00000E+00
         0.00000E+00
         0.00000E+00
         0.00000E+00
         0.00000E+00
         0.00000E+00
         0.00000E+00
         0.00000E+00
         0.00000E+00
         0.00000E+00
         0.00000E+00
         0.00000E+00
         0.00000E+00
         0.00000E+00
         0.00000E+00
         0.00000E+00
         0.00000E+00
         0.00000E+00
         0.00000E+00
         0.00000E+00
         0.00000E+00
         0.00000E+00
         0.00000E+00
         0.00000E+00
         0.00000E+00
         0.00000E+00
         0.00000E+00
         0.00000E+00
         0.00000E+00
         0.00000E+00
         0.00000E+00
         0.00000E+00
         0.00000E+00
         0.00000E+00
         0.00000E+00
         0.00000E+00
         0.00000E+00
         0.00000E+00
         0.00000E+00
         0.00000E+00
         0.00000E+00
         0.00000E+00
         0.00000E+00
         0.00000E+00
         0.00000E+00
         0.00000E+00
         0.00000E+00
         0.00000E+00
         0.00000E+00
         0.00000E+00
         0.00000E+00
         0.00000E+00
         0.00000E+00
         0.00000E+00
         0.00000E+00
         0.00000E+00
         0.00000E+00
         0.00000E+00
         0.00000E+00
         0.00000E+00
         0.00000E+00
         0.00000E+00
         0.00000E+00
         0.00000E+00
         0.00000E+00
         0.00000E+00
         0.00000E+00
         0.00000E+00
         0.00000E+00
         0.00000E+00
         0.00000E+00
         0.00000E+00
         0.00000E+00
         0.00000E+00
         0.00000E+00
         0.00000E+00
         0.00000E+00
         0.00000E+00
         0.00000E+00
         0.00000E+00
         0.00000E+00
         0.00000E+00
         0.00000E+00
         0.00000E+00
         0.00000E+00
         0.00000E+00
         0.00000E+00
         0.00000E+00
         0.00000E+00
         0.00000E+00
         0.00000E+00
         0.00000E+00
         0.00000E+00
         0.00000E+00
         0.00000E+00
         0.00000E+00
         0.00000E+00
         0.00000E+00
         0.00000E+00
         0.00000E+00
         0.00000E+00
         0.00000E+00
         0.00000E+00
         0.00000E+00
         0.00000E+00
         0.00000E+00
         0.00000E+00
         0.00000E+00
         0.00000E+00
         0.00000E+00
         0.00000E+00
         0.00000E+00
         0.00000E+00
         0.00000E+00
         0.00000E+00
         0.00000E+00
         0.00000E+00
         0.00000E+00
         0.00000E+00
         0.00000E+00
         0.00000E+00
         0.00000E+00
         0.00000E+00
         0.00000E+00
         0.00000E+00
         0.00000E+00
         0.00000E+00
         0.00000E+00
         0.00000E+00
         0.00000E+00
         0.00000E+00
         0.00000E+00
         0.00000E+00
         0.00000E+00
         0.00000E+00
         0.00000E+00
         0.00000E+00
         0.00000E+00
         0.00000E+00
         0.00000E+00
         0.00000E+00
         0.00000E+00
         0.00000E+00
         0.00000E+00
         0.00000E+00
         0.00000E+00
         0.00000E+00
         0.00000E+00
         0.00000E+00
         0.00000E+00
         0.00000E+00
         0.00000E+00
         0.00000E+00
         0.00000E+00
         0.00000E+00
         0.00000E+00
         0.00000E+00
         0.00000E+00
         0.00000E+00
         0.00000E+00
         0.00000E+00
         0.00000E+00
         0.00000E+00
         0.00000E+00
         0.00000E+00
         0.00000E+00
         0.00000E+00
         0.00000E+00
         0.00000E+00
         0.00000E+00
         0.00000E+00
         0.00000E+00
         0.00000E+00
         0.00000E+00
         0.00000E+00
         0.00000E+00
         0.00000E+00
         0.00000E+00
         0.00000E+00
         0.00000E+00
         0.00000E+00
         0.00000E+00
         0.00000E+00
         0.00000E+00
         0.00000E+00
         0.00000E+00
         0.00000E+00
         0.00000E+00
         0.00000E+00
         0.00000E+00
         0.00000E+00
         0.00000E+00
         0.00000E+00
         0.00000E+00
         0.00000E+00
         0.00000E+00
         0.00000E+00
         0.00000E+00
         0.00000E+00
         0.00000E+00
         0.00000E+00
         0.00000E+00
         0.00000E+00
         0.00000E+00
         0.00000E+00
         0.00000E+00
         0.00000E+00
         0.00000E+00
         0.00000E+00
         0.00000E+00
         0.00000E+00
         0.00000E+00
         0.00000E+00
         0.00000E+00
         0.00000E+00
         0.00000E+00
         0.00000E+00
         0.00000E+00
         0.00000E+00
         0.00000E+00
         0.00000E+00
         0.00000E+00
         0.00000E+00
         0.00000E+00
         0.00000E+00
         0.00000E+00
         0.00000E+00
         0.00000E+00
         0.00000E+00
         0.00000E+00
         0.00000E+00
         0.00000E+00
         0.00000E+00
         0.00000E+00
         0.00000E+00
         0.00000E+00
         0.00000E+00
         0.00000E+00
         0.00000E+00
         0.00000E+00
         0.00000E+00
         0.00000E+00
         0.00000E+00
         0.00000E+00
         0.00000E+00
         0.00000E+00
         0.00000E+00
         0.00000E+00
         0.00000E+00
         0.00000E+00
         0.00000E+00
         0.00000E+00
         0.00000E+00
         0.00000E+00
         0.00000E+00
         0.00000E+00
         0.00000E+00
         0.00000E+00
         0.00000E+00
         0.00000E+00
         0.00000E+00
         0.00000E+00
         0.00000E+00
         0.00000E+00
         0.00000E+00
         0.00000E+00
         0.00000E+00
         0.00000E+00
         0.00000E+00
         0.00000E+00
         0.00000E+00
         0.00000E+00
         0.00000E+00
         0.00000E+00
         0.00000E+00
         0.00000E+00
         0.00000E+00
         0.00000E+00
         0.00000E+00
         0.00000E+00
         0.00000E+00
         0.00000E+00
         0.00000E+00
         0.00000E+00
         0.00000E+00
         0.00000E+00
         0.00000E+00
         0.00000E+00
         0.00000E+00
         0.00000E+00
         0.00000E+00
         0.00000E+00
         0.00000E+00
         0.00000E+00
         0.00000E+00
         0.00000E+00
         0.00000E+00
         0.00000E+00
         0.00000E+00
         0.00000E+00
         0.00000E+00
         0.00000E+00
         0.00000E+00
         0.00000E+00
         0.00000E+00
         0.00000E+00
         0.00000E+00
         0.00000E+00
         0.00000E+00
         0.00000E+00
         0.00000E+00
         0.00000E+00
         0.00000E+00
         0.00000E+00
         0.00000E+00
         0.00000E+00
         0.00000E+00
         0.00000E+00
         0.00000E+00
         0.00000E+00
         0.00000E+00
         0.00000E+00
         0.00000E+00
         0.00000E+00
         0.00000E+00
         0.00000E+00
         0.00000E+00
         0.00000E+00
         0.00000E+00
         0.00000E+00
         0.00000E+00
         0.00000E+00
         0.00000E+00
         0.00000E+00
         0.00000E+00
         0.00000E+00
         0.00000E+00
         0.00000E+00
         0.00000E+00
         0.00000E+00
         0.00000E+00
         0.00000E+00
         0.00000E+00
         0.00000E+00
         0.00000E+00
         0.00000E+00
         0.00000E+00
         0.00000E+00
         0.00000E+00
         0.00000E+00
         0.00000E+00
         0.00000E+00
         0.00000E+00
         0.00000E+00
         0.00000E+00
         0.00000E+00
         0.00000E+00
         0.00000E+00
         0.00000E+00
         0.00000E+00
         0.00000E+00
         0.00000E+00
         0.00000E+00
         0.00000E+00
         0.00000E+00
         0.00000E+00
         0.00000E+00
         0.00000E+00
         0.00000E+00
         0.00000E+00
         0.00000E+00
         0.00000E+00
         0.00000E+00
         0.00000E+00
         0.00000E+00
         0.00000E+00
         0.00000E+00
         0.00000E+00
         0.00000E+00
         0.00000E+00
         0.00000E+00
         0.00000E+00
         0.00000E+00
         0.00000E+00
         0.00000E+00
         0.00000E+00
         0.00000E+00
         0.00000E+00
         0.00000E+00
         0.00000E+00
         0.00000E+00
         0.00000E+00
         0.00000E+00
         0.00000E+00
         0.00000E+00
         0.00000E+00
         0.00000E+00
         0.00000E+00
         0.00000E+00
         0.00000E+00
         0.00000E+00
         0.00000E+00
         0.00000E+00
         0.00000E+00
         0.00000E+00
         0.00000E+00
         0.00000E+00
         0.00000E+00
         0.00000E+00
         0.00000E+00
         0.00000E+00
         0.00000E+00
         0.00000E+00
         0.00000E+00
         0.00000E+00
         0.00000E+00
         0.00000E+00
         0.00000E+00
         0.00000E+00
         0.00000E+00
         0.00000E+00
         0.00000E+00
         0.00000E+00
         0.00000E+00
         0.00000E+00
         0.00000E+00
         0.00000E+00
         0.00000E+00
         0.00000E+00
         0.00000E+00
         0.00000E+00
         0.00000E+00
         0.00000E+00
         0.00000E+00
         0.00000E+00
         0.00000E+00
         0.00000E+00
         0.00000E+00
         0.00000E+00
         0.00000E+00
         0.00000E+00
         0.00000E+00
         0.00000E+00
         0.00000E+00
         0.00000E+00
         0.00000E+00
         0.00000E+00
         0.00000E+00
         0.00000E+00
         0.00000E+00
         0.00000E+00
         0.00000E+00
         0.00000E+00
         0.00000E+00
         0.00000E+00
         0.00000E+00
         0.00000E+00
         0.00000E+00
         0.00000E+00
         0.00000E+00
         0.00000E+00
         0.00000E+00
         0.00000E+00
         0.00000E+00
         0.00000E+00
         0.00000E+00
         0.00000E+00
         0.00000E+00
         0.00000E+00
         0.00000E+00
         0.00000E+00
         0.00000E+00
         0.00000E+00
         0.00000E+00
         0.00000E+00
         0.00000E+00
         0.00000E+00
         0.00000E+00
         0.00000E+00
         0.00000E+00
         0.00000E+00
         0.00000E+00
         0.00000E+00
         0.00000E+00
         0.00000E+00
         0.00000E+00
         0.00000E+00
         0.00000E+00
         0.00000E+00
         0.00000E+00
         0.00000E+00
         0.00000E+00
         0.00000E+00
         0.00000E+00
         0.00000E+00
         0.00000E+00
         0.00000E+00
         0.00000E+00
         0.00000E+00
         0.00000E+00
         0.00000E+00
         0.00000E+00
         0.00000E+00
         0.00000E+00
         0.00000E+00
         0.00000E+00
         0.00000E+00
         0.00000E+00
         0.00000E+00
         0.00000E+00
         0.00000E+00
         0.00000E+00
         0.00000E+00
         0.00000E+00
         0.00000E+00
         0.00000E+00
         0.00000E+00
         0.00000E+00
         0.00000E+00
         0.00000E+00
         0.00000E+00
         0.00000E+00
         0.00000E+00
         0.00000E+00
         0.00000E+00
         0.00000E+00
         0.00000E+00
         0.00000E+00
         0.00000E+00
         0.00000E+00
         0.00000E+00
         0.00000E+00
         0.00000E+00
         0.00000E+00
         0.00000E+00
         0.00000E+00
         0.00000E+00
         0.00000E+00
         0.00000E+00
         0.00000E+00
         0.00000E+00
         0.00000E+00
         0.00000E+00
         0.00000E+00
         0.00000E+00
         0.00000E+00
         0.00000E+00
         0.00000E+00
         0.00000E+00
         0.00000E+00
         0.00000E+00
         0.00000E+00
         0.00000E+00
         0.00000E+00
         0.00000E+00
         0.00000E+00
         0.00000E+00
         0.00000E+00
         0.00000E+00
         0.00000E+00
         0.00000E+00
         0.00000E+00
         0.00000E+00
         0.00000E+00
         0.00000E+00
         0.00000E+00
         0.00000E+00
         0.00000E+00
         0.00000E+00
         0.00000E+00
         0.00000E+00
         0.00000E+00
         0.00000E+00
         0.00000E+00
         0.00000E+00
         0.00000E+00
         0.00000E+00
         0.00000E+00
         0.00000E+00
         0.00000E+00
         0.00000E+00
         0.00000E+00
         0.00000E+00
         0.00000E+00
         0.00000E+00
         0.00000E+00
         0.00000E+00
         0.00000E+00
         0.00000E+00
         0.00000E+00
         0.00000E+00
         0.00000E+00
         0.00000E+00
         0.00000E+00
         0.00000E+00
         0.00000E+00
         0.00000E+00
         0.00000E+00
         0.00000E+00
         0.00000E+00
         0.00000E+00
         0.00000E+00
         0.00000E+00
         0.00000E+00
         0.00000E+00
         0.00000E+00
         0.00000E+00
         0.00000E+00
         0.00000E+00
         0.00000E+00
         0.00000E+00
         0.00000E+00
         0.00000E+00
         0.00000E+00
         0.00000E+00
         0.00000E+00
         0.00000E+00
         0.00000E+00
         0.00000E+00
         0.00000E+00
         0.00000E+00
         0.00000E+00
         0.00000E+00
         0.00000E+00
         0.00000E+00
         0.00000E+00
         0.00000E+00
         0.00000E+00
         0.00000E+00
         0.00000E+00
         0.00000E+00
         0.00000E+00
         0.00000E+00
         0.00000E+00
         0.00000E+00
         0.00000E+00
         0.00000E+00
         0.00000E+00
         0.00000E+00
         0.00000E+00
         0.00000E+00
         0.00000E+00
         0.00000E+00
         0.00000E+00
         0.00000E+00
         0.00000E+00
         0.00000E+00
         0.00000E+00
         0.00000E+00
         0.00000E+00
         0.00000E+00
         0.00000E+00
         0.00000E+00
         0.00000E+00
         0.00000E+00
         0.00000E+00
         0.00000E+00
         0.00000E+00
         0.00000E+00
         0.00000E+00
         0.00000E+00
         0.00000E+00
         0.00000E+00
         0.00000E+00
         0.00000E+00
         0.00000E+00
         0.00000E+00
         0.00000E+00
         0.00000E+00
         0.00000E+00
         0.00000E+00
         0.00000E+00
         0.00000E+00
         0.00000E+00
         0.00000E+00
         0.00000E+00
         0.00000E+00
         0.00000E+00
         0.00000E+00
         0.00000E+00
         0.00000E+00
         0.00000E+00
         0.00000E+00
         0.00000E+00
         0.00000E+00
         0.00000E+00
         0.00000E+00
         0.00000E+00
         0.00000E+00
         0.00000E+00
         0.00000E+00
         0.00000E+00
         0.00000E+00
         0.00000E+00
         0.00000E+00
         0.00000E+00
         0.00000E+00
         0.00000E+00
         0.00000E+00
         0.00000E+00
         0.00000E+00
         0.00000E+00
         0.00000E+00
         0.00000E+00
         0.00000E+00
         0.00000E+00
         0.00000E+00
         0.00000E+00
         0.00000E+00
         0.00000E+00
         0.00000E+00
         0.00000E+00
         0.00000E+00
         0.00000E+00
         0.00000E+00
         0.00000E+00
         0.00000E+00
         0.00000E+00
         0.00000E+00
         0.00000E+00
         0.00000E+00
         0.00000E+00
         0.00000E+00
         0.00000E+00
         0.00000E+00
         0.00000E+00
         0.00000E+00
         0.00000E+00
         0.00000E+00
         0.00000E+00
         0.00000E+00
         0.00000E+00
         0.00000E+00
         0.00000E+00
         0.00000E+00
         0.00000E+00
         0.00000E+00
         0.00000E+00
         0.00000E+00
         0.00000E+00
         0.00000E+00
         0.00000E+00
         0.00000E+00
         0.00000E+00
         0.00000E+00
         0.00000E+00
         0.00000E+00
         0.00000E+00
         0.00000E+00
         0.00000E+00
         0.00000E+00
         0.00000E+00
         0.00000E+00
         0.00000E+00
         0.00000E+00
         0.00000E+00
         0.00000E+00
         0.00000E+00
         0.00000E+00
         0.00000E+00
         0.00000E+00
         0.00000E+00
         0.00000E+00
         0.00000E+00
         0.00000E+00
         0.00000E+00
         0.00000E+00
         0.00000E+00
         0.00000E+00
         0.00000E+00
         0.00000E+00
         0.00000E+00
         0.00000E+00
         0.00000E+00
         0.00000E+00
         0.00000E+00
         0.00000E+00
         0.00000E+00
         0.00000E+00
         0.00000E+00
         0.00000E+00
         0.00000E+00
         0.00000E+00
         0.00000E+00
         0.00000E+00
         0.00000E+00
         0.00000E+00
         0.00000E+00
         0.00000E+00
         0.00000E+00
         0.00000E+00
         0.00000E+00
         0.00000E+00
         0.00000E+00
         0.00000E+00
         0.00000E+00
         0.00000E+00
         0.00000E+00
         0.00000E+00
         0.00000E+00
  
SCALARS                init_velocity_y  double 1
LOOKUP_TABLE default
         0.00000E+00
         0.00000E+00
         0.00000E+00
         0.00000E+00
         0.00000E+00
         0.00000E+00
         0.00000E+00
         0.00000E+00
         0.00000E+00
         0.00000E+00
         0.00000E+00
         0.00000E+00
         0.00000E+00
         0.00000E+00
         0.00000E+00
         0.00000E+00
         0.00000E+00
         0.00000E+00
         0.00000E+00
         0.00000E+00
         0.00000E+00
         0.00000E+00
         0.00000E+00
         0.00000E+00
         0.00000E+00
         0.00000E+00
         0.00000E+00
         0.00000E+00
         0.00000E+00
         0.00000E+00
         0.00000E+00
         0.00000E+00
         0.00000E+00
         0.00000E+00
         0.00000E+00
         0.00000E+00
         0.00000E+00
         0.00000E+00
         0.00000E+00
         0.00000E+00
         0.00000E+00
         0.00000E+00
         0.00000E+00
         0.00000E+00
         0.00000E+00
         0.00000E+00
         0.00000E+00
         0.00000E+00
         0.00000E+00
         0.00000E+00
         0.00000E+00
         0.00000E+00
         0.00000E+00
         0.00000E+00
         0.00000E+00
         0.00000E+00
         0.00000E+00
         0.00000E+00
         0.00000E+00
         0.00000E+00
         0.00000E+00
         0.00000E+00
         0.00000E+00
         0.00000E+00
         0.00000E+00
         0.00000E+00
         0.00000E+00
         0.00000E+00
         0.00000E+00
         0.00000E+00
         0.00000E+00
         0.00000E+00
         0.00000E+00
         0.00000E+00
         0.00000E+00
         0.00000E+00
         0.00000E+00
         0.00000E+00
         0.00000E+00
         0.00000E+00
         0.00000E+00
         0.00000E+00
         0.00000E+00
         0.00000E+00
         0.00000E+00
         0.00000E+00
         0.00000E+00
         0.00000E+00
         0.00000E+00
         0.00000E+00
         0.00000E+00
         0.00000E+00
         0.00000E+00
         0.00000E+00
         0.00000E+00
         0.00000E+00
         0.00000E+00
         0.00000E+00
         0.00000E+00
         0.00000E+00
         0.00000E+00
         0.00000E+00
         0.00000E+00
         0.00000E+00
         0.00000E+00
         0.00000E+00
         0.00000E+00
         0.00000E+00
         0.00000E+00
         0.00000E+00
         0.00000E+00
         0.00000E+00
         0.00000E+00
         0.00000E+00
         0.00000E+00
         0.00000E+00
         0.00000E+00
         0.00000E+00
         0.00000E+00
         0.00000E+00
         0.00000E+00
         0.00000E+00
         0.00000E+00
         0.00000E+00
         0.00000E+00
         0.00000E+00
         0.00000E+00
         0.00000E+00
         0.00000E+00
         0.00000E+00
         0.00000E+00
         0.00000E+00
         0.00000E+00
         0.00000E+00
         0.00000E+00
         0.00000E+00
         0.00000E+00
         0.00000E+00
         0.00000E+00
         0.00000E+00
         0.00000E+00
         0.00000E+00
         0.00000E+00
         0.00000E+00
         0.00000E+00
         0.00000E+00
         0.00000E+00
         0.00000E+00
         0.00000E+00
         0.00000E+00
         0.00000E+00
         0.00000E+00
         0.00000E+00
         0.00000E+00
         0.00000E+00
         0.00000E+00
         0.00000E+00
         0.00000E+00
         0.00000E+00
         0.00000E+00
         0.00000E+00
         0.00000E+00
         0.00000E+00
         0.00000E+00
         0.00000E+00
         0.00000E+00
         0.00000E+00
         0.00000E+00
         0.00000E+00
         0.00000E+00
         0.00000E+00
         0.00000E+00
         0.00000E+00
         0.00000E+00
         0.00000E+00
         0.00000E+00
         0.00000E+00
         0.00000E+00
         0.00000E+00
         0.00000E+00
         0.00000E+00
         0.00000E+00
         0.00000E+00
         0.00000E+00
         0.00000E+00
         0.00000E+00
         0.00000E+00
         0.00000E+00
         0.00000E+00
         0.00000E+00
         0.00000E+00
         0.00000E+00
         0.00000E+00
         0.00000E+00
         0.00000E+00
         0.00000E+00
         0.00000E+00
         0.00000E+00
         0.00000E+00
         0.00000E+00
         0.00000E+00
         0.00000E+00
         0.00000E+00
         0.00000E+00
         0.00000E+00
         0.00000E+00
         0.00000E+00
         0.00000E+00
         0.00000E+00
         0.00000E+00
         0.00000E+00
         0.00000E+00
         0.00000E+00
         0.00000E+00
         0.00000E+00
         0.00000E+00
         0.00000E+00
         0.00000E+00
         0.00000E+00
         0.00000E+00
         0.00000E+00
         0.00000E+00
         0.00000E+00
         0.00000E+00
         0.00000E+00
         0.00000E+00
         0.00000E+00
         0.00000E+00
         0.00000E+00
         0.00000E+00
         0.00000E+00
         0.00000E+00
         0.00000E+00
         0.00000E+00
         0.00000E+00
         0.00000E+00
         0.00000E+00
         0.00000E+00
         0.00000E+00
         0.00000E+00
         0.00000E+00
         0.00000E+00
         0.00000E+00
         0.00000E+00
         0.00000E+00
         0.00000E+00
         0.00000E+00
         0.00000E+00
         0.00000E+00
         0.00000E+00
         0.00000E+00
         0.00000E+00
         0.00000E+00
         0.00000E+00
         0.00000E+00
         0.00000E+00
         0.00000E+00
         0.00000E+00
         0.00000E+00
         0.00000E+00
         0.00000E+00
         0.00000E+00
         0.00000E+00
         0.00000E+00
         0.00000E+00
         0.00000E+00
         0.00000E+00
         0.00000E+00
         0.00000E+00
         0.00000E+00
         0.00000E+00
         0.00000E+00
         0.00000E+00
         0.00000E+00
         0.00000E+00
         0.00000E+00
         0.00000E+00
         0.00000E+00
         0.00000E+00
         0.00000E+00
         0.00000E+00
         0.00000E+00
         0.00000E+00
         0.00000E+00
         0.00000E+00
         0.00000E+00
         0.00000E+00
         0.00000E+00
         0.00000E+00
         0.00000E+00
         0.00000E+00
         0.00000E+00
         0.00000E+00
         0.00000E+00
         0.00000E+00
         0.00000E+00
         0.00000E+00
         0.00000E+00
         0.00000E+00
         0.00000E+00
         0.00000E+00
         0.00000E+00
         0.00000E+00
         0.00000E+00
         0.00000E+00
         0.00000E+00
         0.00000E+00
         0.00000E+00
         0.00000E+00
         0.00000E+00
         0.00000E+00
         0.00000E+00
         0.00000E+00
         0.00000E+00
         0.00000E+00
         0.00000E+00
         0.00000E+00
         0.00000E+00
         0.00000E+00
         0.00000E+00
         0.00000E+00
         0.00000E+00
         0.00000E+00
         0.00000E+00
         0.00000E+00
         0.00000E+00
         0.00000E+00
         0.00000E+00
         0.00000E+00
         0.00000E+00
         0.00000E+00
         0.00000E+00
         0.00000E+00
         0.00000E+00
         0.00000E+00
         0.00000E+00
         0.00000E+00
         0.00000E+00
         0.00000E+00
         0.00000E+00
         0.00000E+00
         0.00000E+00
         0.00000E+00
         0.00000E+00
         0.00000E+00
         0.00000E+00
         0.00000E+00
         0.00000E+00
         0.00000E+00
         0.00000E+00
         0.00000E+00
         0.00000E+00
         0.00000E+00
         0.00000E+00
         0.00000E+00
         0.00000E+00
         0.00000E+00
         0.00000E+00
         0.00000E+00
         0.00000E+00
         0.00000E+00
         0.00000E+00
         0.00000E+00
         0.00000E+00
         0.00000E+00
         0.00000E+00
         0.00000E+00
         0.00000E+00
         0.00000E+00
         0.00000E+00
         0.00000E+00
         0.00000E+00
         0.00000E+00
         0.00000E+00
         0.00000E+00
         0.00000E+00
         0.00000E+00
         0.00000E+00
         0.00000E+00
         0.00000E+00
         0.00000E+00
         0.00000E+00
         0.00000E+00
         0.00000E+00
         0.00000E+00
         0.00000E+00
         0.00000E+00
         0.00000E+00
         0.00000E+00
         0.00000E+00
         0.00000E+00
         0.00000E+00
         0.00000E+00
         0.00000E+00
         0.00000E+00
         0.00000E+00
         0.00000E+00
         0.00000E+00
         0.00000E+00
         0.00000E+00
         0.00000E+00
         0.00000E+00
         0.00000E+00
         0.00000E+00
         0.00000E+00
         0.00000E+00
         0.00000E+00
         0.00000E+00
         0.00000E+00
         0.00000E+00
         0.00000E+00
         0.00000E+00
         0.00000E+00
         0.00000E+00
         0.00000E+00
         0.00000E+00
         0.00000E+00
         0.00000E+00
         0.00000E+00
         0.00000E+00
         0.00000E+00
         0.00000E+00
         0.00000E+00
         0.00000E+00
         0.00000E+00
         0.00000E+00
         0.00000E+00
         0.00000E+00
         0.00000E+00
         0.00000E+00
         0.00000E+00
         0.00000E+00
         0.00000E+00
         0.00000E+00
         0.00000E+00
         0.00000E+00
         0.00000E+00
         0.00000E+00
         0.00000E+00
         0.00000E+00
         0.00000E+00
         0.00000E+00
         0.00000E+00
         0.00000E+00
         0.00000E+00
         0.00000E+00
         0.00000E+00
         0.00000E+00
         0.00000E+00
         0.00000E+00
         0.00000E+00
         0.00000E+00
         0.00000E+00
         0.00000E+00
         0.00000E+00
         0.00000E+00
         0.00000E+00
         0.00000E+00
         0.00000E+00
         0.00000E+00
         0.00000E+00
         0.00000E+00
         0.00000E+00
         0.00000E+00
         0.00000E+00
         0.00000E+00
         0.00000E+00
         0.00000E+00
         0.00000E+00
         0.00000E+00
         0.00000E+00
         0.00000E+00
         0.00000E+00
         0.00000E+00
         0.00000E+00
         0.00000E+00
         0.00000E+00
         0.00000E+00
         0.00000E+00
         0.00000E+00
         0.00000E+00
         0.00000E+00
         0.00000E+00
         0.00000E+00
         0.00000E+00
         0.00000E+00
         0.00000E+00
         0.00000E+00
         0.00000E+00
         0.00000E+00
         0.00000E+00
         0.00000E+00
         0.00000E+00
         0.00000E+00
         0.00000E+00
         0.00000E+00
         0.00000E+00
         0.00000E+00
         0.00000E+00
         0.00000E+00
         0.00000E+00
         0.00000E+00
         0.00000E+00
         0.00000E+00
         0.00000E+00
         0.00000E+00
         0.00000E+00
         0.00000E+00
         0.00000E+00
         0.00000E+00
         0.00000E+00
         0.00000E+00
         0.00000E+00
         0.00000E+00
         0.00000E+00
         0.00000E+00
         0.00000E+00
         0.00000E+00
         0.00000E+00
         0.00000E+00
         0.00000E+00
         0.00000E+00
         0.00000E+00
         0.00000E+00
         0.00000E+00
         0.00000E+00
         0.00000E+00
         0.00000E+00
         0.00000E+00
         0.00000E+00
         0.00000E+00
         0.00000E+00
         0.00000E+00
         0.00000E+00
         0.00000E+00
         0.00000E+00
         0.00000E+00
         0.00000E+00
         0.00000E+00
         0.00000E+00
         0.00000E+00
         0.00000E+00
         0.00000E+00
         0.00000E+00
         0.00000E+00
         0.00000E+00
         0.00000E+00
         0.00000E+00
         0.00000E+00
         0.00000E+00
         0.00000E+00
         0.00000E+00
         0.00000E+00
         0.00000E+00
         0.00000E+00
         0.00000E+00
         0.00000E+00
         0.00000E+00
         0.00000E+00
         0.00000E+00
         0.00000E+00
         0.00000E+00
         0.00000E+00
         0.00000E+00
         0.00000E+00
         0.00000E+00
         0.00000E+00
         0.00000E+00
         0.00000E+00
         0.00000E+00
         0.00000E+00
         0.00000E+00
         0.00000E+00
         0.00000E+00
         0.00000E+00
         0.00000E+00
         0.00000E+00
         0.00000E+00
         0.00000E+00
         0.00000E+00
         0.00000E+00
         0.00000E+00
         0.00000E+00
         0.00000E+00
         0.00000E+00
         0.00000E+00
         0.00000E+00
         0.00000E+00
         0.00000E+00
         0.00000E+00
         0.00000E+00
         0.00000E+00
         0.00000E+00
         0.00000E+00
         0.00000E+00
         0.00000E+00
         0.00000E+00
         0.00000E+00
         0.00000E+00
         0.00000E+00
         0.00000E+00
         0.00000E+00
         0.00000E+00
         0.00000E+00
         0.00000E+00
         0.00000E+00
         0.00000E+00
         0.00000E+00
         0.00000E+00
         0.00000E+00
         0.00000E+00
         0.00000E+00
         0.00000E+00
         0.00000E+00
         0.00000E+00
         0.00000E+00
         0.00000E+00
         0.00000E+00
         0.00000E+00
         0.00000E+00
         0.00000E+00
         0.00000E+00
         0.00000E+00
         0.00000E+00
         0.00000E+00
         0.00000E+00
         0.00000E+00
         0.00000E+00
         0.00000E+00
         0.00000E+00
         0.00000E+00
         0.00000E+00
         0.00000E+00
         0.00000E+00
         0.00000E+00
         0.00000E+00
         0.00000E+00
         0.00000E+00
         0.00000E+00
         0.00000E+00
         0.00000E+00
         0.00000E+00
         0.00000E+00
         0.00000E+00
         0.00000E+00
         0.00000E+00
         0.00000E+00
         0.00000E+00
         0.00000E+00
         0.00000E+00
         0.00000E+00
         0.00000E+00
         0.00000E+00
         0.00000E+00
         0.00000E+00
         0.00000E+00
         0.00000E+00
         0.00000E+00
         0.00000E+00
         0.00000E+00
         0.00000E+00
         0.00000E+00
         0.00000E+00
         0.00000E+00
         0.00000E+00
         0.00000E+00
         0.00000E+00
         0.00000E+00
         0.00000E+00
         0.00000E+00
         0.00000E+00
         0.00000E+00
         0.00000E+00
         0.00000E+00
         0.00000E+00
         0.00000E+00
         0.00000E+00
         0.00000E+00
         0.00000E+00
         0.00000E+00
         0.00000E+00
         0.00000E+00
         0.00000E+00
         0.00000E+00
         0.00000E+00
         0.00000E+00
         0.00000E+00
         0.00000E+00
         0.00000E+00
         0.00000E+00
         0.00000E+00
         0.00000E+00
         0.00000E+00
         0.00000E+00
         0.00000E+00
         0.00000E+00
         0.00000E+00
         0.00000E+00
         0.00000E+00
         0.00000E+00
         0.00000E+00
         0.00000E+00
         0.00000E+00
         0.00000E+00
         0.00000E+00
         0.00000E+00
         0.00000E+00
         0.00000E+00
         0.00000E+00
         0.00000E+00
         0.00000E+00
         0.00000E+00
         0.00000E+00
         0.00000E+00
         0.00000E+00
         0.00000E+00
         0.00000E+00
         0.00000E+00
         0.00000E+00
         0.00000E+00
         0.00000E+00
         0.00000E+00
         0.00000E+00
         0.00000E+00
         0.00000E+00
         0.00000E+00
         0.00000E+00
         0.00000E+00
         0.00000E+00
         0.00000E+00
         0.00000E+00
         0.00000E+00
         0.00000E+00
         0.00000E+00
         0.00000E+00
         0.00000E+00
         0.00000E+00
         0.00000E+00
         0.00000E+00
         0.00000E+00
         0.00000E+00
         0.00000E+00
         0.00000E+00
         0.00000E+00
         0.00000E+00
         0.00000E+00
         0.00000E+00
         0.00000E+00
         0.00000E+00
         0.00000E+00
         0.00000E+00
         0.00000E+00
         0.00000E+00
         0.00000E+00
         0.00000E+00
         0.00000E+00
         0.00000E+00
         0.00000E+00
         0.00000E+00
         0.00000E+00
         0.00000E+00
         0.00000E+00
         0.00000E+00
         0.00000E+00
         0.00000E+00
         0.00000E+00
         0.00000E+00
         0.00000E+00
         0.00000E+00
         0.00000E+00
         0.00000E+00
         0.00000E+00
         0.00000E+00
         0.00000E+00
         0.00000E+00
         0.00000E+00
         0.00000E+00
         0.00000E+00
         0.00000E+00
         0.00000E+00
         0.00000E+00
         0.00000E+00
         0.00000E+00
         0.00000E+00
         0.00000E+00
         0.00000E+00
         0.00000E+00
         0.00000E+00
         0.00000E+00
         0.00000E+00
         0.00000E+00
         0.00000E+00
         0.00000E+00
         0.00000E+00
         0.00000E+00
         0.00000E+00
         0.00000E+00
         0.00000E+00
         0.00000E+00
         0.00000E+00
         0.00000E+00
         0.00000E+00
         0.00000E+00
         0.00000E+00
         0.00000E+00
         0.00000E+00
         0.00000E+00
         0.00000E+00
         0.00000E+00
         0.00000E+00
         0.00000E+00
         0.00000E+00
         0.00000E+00
         0.00000E+00
         0.00000E+00
         0.00000E+00
         0.00000E+00
         0.00000E+00
         0.00000E+00
         0.00000E+00
         0.00000E+00
         0.00000E+00
         0.00000E+00
         0.00000E+00
         0.00000E+00
         0.00000E+00
         0.00000E+00
         0.00000E+00
         0.00000E+00
         0.00000E+00
         0.00000E+00
         0.00000E+00
         0.00000E+00
         0.00000E+00
         0.00000E+00
         0.00000E+00
         0.00000E+00
         0.00000E+00
         0.00000E+00
         0.00000E+00
         0.00000E+00
         0.00000E+00
         0.00000E+00
         0.00000E+00
         0.00000E+00
         0.00000E+00
         0.00000E+00
         0.00000E+00
         0.00000E+00
         0.00000E+00
         0.00000E+00
         0.00000E+00
         0.00000E+00
         0.00000E+00
         0.00000E+00
         0.00000E+00
         0.00000E+00
         0.00000E+00
         0.00000E+00
         0.00000E+00
         0.00000E+00
         0.00000E+00
         0.00000E+00
         0.00000E+00
         0.00000E+00
         0.00000E+00
         0.00000E+00
         0.00000E+00
         0.00000E+00
         0.00000E+00
         0.00000E+00
         0.00000E+00
         0.00000E+00
         0.00000E+00
         0.00000E+00
         0.00000E+00
         0.00000E+00
         0.00000E+00
         0.00000E+00
         0.00000E+00
         0.00000E+00
         0.00000E+00
         0.00000E+00
         0.00000E+00
         0.00000E+00
         0.00000E+00
         0.00000E+00
         0.00000E+00
         0.00000E+00
         0.00000E+00
         0.00000E+00
         0.00000E+00
         0.00000E+00
         0.00000E+00
         0.00000E+00
         0.00000E+00
         0.00000E+00
         0.00000E+00
         0.00000E+00
         0.00000E+00
         0.00000E+00
         0.00000E+00
         0.00000E+00
         0.00000E+00
         0.00000E+00
         0.00000E+00
         0.00000E+00
         0.00000E+00
         0.00000E+00
         0.00000E+00
         0.00000E+00
         0.00000E+00
         0.00000E+00
         0.00000E+00
         0.00000E+00
         0.00000E+00
         0.00000E+00
         0.00000E+00
         0.00000E+00
         0.00000E+00
         0.00000E+00
         0.00000E+00
         0.00000E+00
         0.00000E+00
         0.00000E+00
         0.00000E+00
         0.00000E+00
         0.00000E+00
         0.00000E+00
         0.00000E+00
         0.00000E+00
         0.00000E+00
         0.00000E+00
         0.00000E+00
         0.00000E+00
         0.00000E+00
         0.00000E+00
         0.00000E+00
         0.00000E+00
         0.00000E+00
         0.00000E+00
         0.00000E+00
         0.00000E+00
         0.00000E+00
         0.00000E+00
         0.00000E+00
         0.00000E+00
         0.00000E+00
         0.00000E+00
         0.00000E+00
         0.00000E+00
         0.00000E+00
         0.00000E+00
         0.00000E+00
         0.00000E+00
         0.00000E+00
         0.00000E+00
         0.00000E+00
         0.00000E+00
         0.00000E+00
         0.00000E+00
         0.00000E+00
         0.00000E+00
         0.00000E+00
         0.00000E+00
         0.00000E+00
         0.00000E+00
         0.00000E+00
         0.00000E+00
         0.00000E+00
         0.00000E+00
         0.00000E+00
         0.00000E+00
         0.00000E+00
         0.00000E+00
         0.00000E+00
         0.00000E+00
         0.00000E+00
         0.00000E+00
         0.00000E+00
         0.00000E+00
         0.00000E+00
         0.00000E+00
         0.00000E+00
         0.00000E+00
         0.00000E+00
         0.00000E+00
         0.00000E+00
         0.00000E+00
         0.00000E+00
         0.00000E+00
         0.00000E+00
         0.00000E+00
         0.00000E+00
         0.00000E+00
         0.00000E+00
         0.00000E+00
         0.00000E+00
         0.00000E+00
         0.00000E+00
         0.00000E+00
         0.00000E+00
         0.00000E+00
         0.00000E+00
         0.00000E+00
         0.00000E+00
         0.00000E+00
         0.00000E+00
         0.00000E+00
         0.00000E+00
         0.00000E+00
         0.00000E+00
         0.00000E+00
         0.00000E+00
         0.00000E+00
         0.00000E+00
         0.00000E+00
         0.00000E+00
         0.00000E+00
         0.00000E+00
         0.00000E+00
         0.00000E+00
         0.00000E+00
         0.00000E+00
         0.00000E+00
         0.00000E+00
         0.00000E+00
         0.00000E+00
         0.00000E+00
         0.00000E+00
         0.00000E+00
         0.00000E+00
         0.00000E+00
         0.00000E+00
         0.00000E+00
         0.00000E+00
         0.00000E+00
         0.00000E+00
         0.00000E+00
         0.00000E+00
         0.00000E+00
         0.00000E+00
         0.00000E+00
         0.00000E+00
         0.00000E+00
         0.00000E+00
         0.00000E+00
         0.00000E+00
         0.00000E+00
         0.00000E+00
         0.00000E+00
         0.00000E+00
         0.00000E+00
         0.00000E+00
         0.00000E+00
         0.00000E+00
         0.00000E+00
         0.00000E+00
         0.00000E+00
         0.00000E+00
         0.00000E+00
         0.00000E+00
         0.00000E+00
         0.00000E+00
         0.00000E+00
         0.00000E+00
         0.00000E+00
         0.00000E+00
         0.00000E+00
         0.00000E+00
         0.00000E+00
         0.00000E+00
         0.00000E+00
         0.00000E+00
         0.00000E+00
         0.00000E+00
         0.00000E+00
         0.00000E+00
         0.00000E+00
         0.00000E+00
         0.00000E+00
         0.00000E+00
         0.00000E+00
         0.00000E+00
         0.00000E+00
         0.00000E+00
         0.00000E+00
         0.00000E+00
         0.00000E+00
         0.00000E+00
         0.00000E+00
         0.00000E+00
         0.00000E+00
         0.00000E+00
         0.00000E+00
         0.00000E+00
         0.00000E+00
         0.00000E+00
         0.00000E+00
         0.00000E+00
         0.00000E+00
         0.00000E+00
         0.00000E+00
         0.00000E+00
         0.00000E+00
         0.00000E+00
         0.00000E+00
         0.00000E+00
         0.00000E+00
         0.00000E+00
         0.00000E+00
         0.00000E+00
         0.00000E+00
         0.00000E+00
         0.00000E+00
         0.00000E+00
         0.00000E+00
         0.00000E+00
         0.00000E+00
         0.00000E+00
         0.00000E+00
         0.00000E+00
         0.00000E+00
         0.00000E+00
         0.00000E+00
         0.00000E+00
         0.00000E+00
         0.00000E+00
         0.00000E+00
         0.00000E+00
         0.00000E+00
         0.00000E+00
         0.00000E+00
         0.00000E+00
         0.00000E+00
         0.00000E+00
         0.00000E+00
         0.00000E+00
         0.00000E+00
         0.00000E+00
         0.00000E+00
         0.00000E+00
         0.00000E+00
         0.00000E+00
         0.00000E+00
         0.00000E+00
         0.00000E+00
         0.00000E+00
         0.00000E+00
         0.00000E+00
         0.00000E+00
         0.00000E+00
         0.00000E+00
         0.00000E+00
         0.00000E+00
         0.00000E+00
         0.00000E+00
         0.00000E+00
         0.00000E+00
         0.00000E+00
         0.00000E+00
         0.00000E+00
         0.00000E+00
         0.00000E+00
         0.00000E+00
         0.00000E+00
         0.00000E+00
         0.00000E+00
         0.00000E+00
         0.00000E+00
         0.00000E+00
         0.00000E+00
         0.00000E+00
         0.00000E+00
         0.00000E+00
         0.00000E+00
         0.00000E+00
         0.00000E+00
         0.00000E+00
         0.00000E+00
         0.00000E+00
         0.00000E+00
         0.00000E+00
         0.00000E+00
         0.00000E+00
         0.00000E+00
         0.00000E+00
         0.00000E+00
         0.00000E+00
         0.00000E+00
         0.00000E+00
         0.00000E+00
         0.00000E+00
         0.00000E+00
         0.00000E+00
         0.00000E+00
         0.00000E+00
         0.00000E+00
         0.00000E+00
         0.00000E+00
         0.00000E+00
         0.00000E+00
         0.00000E+00
         0.00000E+00
         0.00000E+00
         0.00000E+00
         0.00000E+00
         0.00000E+00
         0.00000E+00
         0.00000E+00
         0.00000E+00
         0.00000E+00
         0.00000E+00
         0.00000E+00
         0.00000E+00
         0.00000E+00
         0.00000E+00
         0.00000E+00
         0.00000E+00
         0.00000E+00
         0.00000E+00
         0.00000E+00
         0.00000E+00
         0.00000E+00
         0.00000E+00
         0.00000E+00
         0.00000E+00
         0.00000E+00
         0.00000E+00
         0.00000E+00
         0.00000E+00
         0.00000E+00
         0.00000E+00
         0.00000E+00
         0.00000E+00
         0.00000E+00
         0.00000E+00
         0.00000E+00
         0.00000E+00
         0.00000E+00
         0.00000E+00
         0.00000E+00
         0.00000E+00
         0.00000E+00
         0.00000E+00
         0.00000E+00
         0.00000E+00
         0.00000E+00
         0.00000E+00
         0.00000E+00
         0.00000E+00
         0.00000E+00
         0.00000E+00
         0.00000E+00
         0.00000E+00
         0.00000E+00
         0.00000E+00
         0.00000E+00
         0.00000E+00
         0.00000E+00
         0.00000E+00
         0.00000E+00
         0.00000E+00
         0.00000E+00
         0.00000E+00
         0.00000E+00
         0.00000E+00
         0.00000E+00
         0.00000E+00
         0.00000E+00
         0.00000E+00
         0.00000E+00
         0.00000E+00
         0.00000E+00
         0.00000E+00
         0.00000E+00
         0.00000E+00
         0.00000E+00
         0.00000E+00
         0.00000E+00
         0.00000E+00
         0.00000E+00
         0.00000E+00
         0.00000E+00
         0.00000E+00
         0.00000E+00
         0.00000E+00
         0.00000E+00
         0.00000E+00
         0.00000E+00
         0.00000E+00
         0.00000E+00
         0.00000E+00
         0.00000E+00
         0.00000E+00
         0.00000E+00
         0.00000E+00
         0.00000E+00
         0.00000E+00
         0.00000E+00
         0.00000E+00
         0.00000E+00
         0.00000E+00
         0.00000E+00
         0.00000E+00
         0.00000E+00
         0.00000E+00
         0.00000E+00
         0.00000E+00
         0.00000E+00
         0.00000E+00
         0.00000E+00
         0.00000E+00
         0.00000E+00
         0.00000E+00
         0.00000E+00
         0.00000E+00
         0.00000E+00
         0.00000E+00
         0.00000E+00
         0.00000E+00
         0.00000E+00
         0.00000E+00
         0.00000E+00
         0.00000E+00
         0.00000E+00
         0.00000E+00
         0.00000E+00
         0.00000E+00
         0.00000E+00
         0.00000E+00
         0.00000E+00
         0.00000E+00
         0.00000E+00
         0.00000E+00
         0.00000E+00
         0.00000E+00
         0.00000E+00
         0.00000E+00
         0.00000E+00
         0.00000E+00
         0.00000E+00
         0.00000E+00
         0.00000E+00
         0.00000E+00
         0.00000E+00
         0.00000E+00
         0.00000E+00
         0.00000E+00
         0.00000E+00
         0.00000E+00
         0.00000E+00
         0.00000E+00
         0.00000E+00
         0.00000E+00
         0.00000E+00
         0.00000E+00
         0.00000E+00
         0.00000E+00
         0.00000E+00
         0.00000E+00
         0.00000E+00
         0.00000E+00
         0.00000E+00
         0.00000E+00
         0.00000E+00
         0.00000E+00
         0.00000E+00
         0.00000E+00
         0.00000E+00
         0.00000E+00
         0.00000E+00
         0.00000E+00
         0.00000E+00
         0.00000E+00
         0.00000E+00
         0.00000E+00
         0.00000E+00
         0.00000E+00
         0.00000E+00
         0.00000E+00
         0.00000E+00
         0.00000E+00
         0.00000E+00
         0.00000E+00
         0.00000E+00
         0.00000E+00
         0.00000E+00
         0.00000E+00
         0.00000E+00
         0.00000E+00
         0.00000E+00
         0.00000E+00
         0.00000E+00
         0.00000E+00
         0.00000E+00
         0.00000E+00
         0.00000E+00
         0.00000E+00
         0.00000E+00
         0.00000E+00
         0.00000E+00
         0.00000E+00
         0.00000E+00
         0.00000E+00
         0.00000E+00
         0.00000E+00
         0.00000E+00
         0.00000E+00
         0.00000E+00
         0.00000E+00
         0.00000E+00
         0.00000E+00
         0.00000E+00
         0.00000E+00
         0.00000E+00
         0.00000E+00
         0.00000E+00
         0.00000E+00
         0.00000E+00
         0.00000E+00
         0.00000E+00
         0.00000E+00
         0.00000E+00
         0.00000E+00
         0.00000E+00
         0.00000E+00
         0.00000E+00
         0.00000E+00
         0.00000E+00
         0.00000E+00
         0.00000E+00
         0.00000E+00
         0.00000E+00
         0.00000E+00
         0.00000E+00
         0.00000E+00
         0.00000E+00
         0.00000E+00
         0.00000E+00
         0.00000E+00
         0.00000E+00
         0.00000E+00
         0.00000E+00
         0.00000E+00
         0.00000E+00
         0.00000E+00
         0.00000E+00
         0.00000E+00
         0.00000E+00
         0.00000E+00
         0.00000E+00
         0.00000E+00
         0.00000E+00
         0.00000E+00
         0.00000E+00
         0.00000E+00
         0.00000E+00
         0.00000E+00
         0.00000E+00
         0.00000E+00
         0.00000E+00
         0.00000E+00
         0.00000E+00
         0.00000E+00
         0.00000E+00
         0.00000E+00
         0.00000E+00
         0.00000E+00
         0.00000E+00
         0.00000E+00
         0.00000E+00
         0.00000E+00
         0.00000E+00
         0.00000E+00
         0.00000E+00
         0.00000E+00
         0.00000E+00
         0.00000E+00
         0.00000E+00
         0.00000E+00
         0.00000E+00
         0.00000E+00
         0.00000E+00
         0.00000E+00
         0.00000E+00
         0.00000E+00
         0.00000E+00
         0.00000E+00
         0.00000E+00
         0.00000E+00
         0.00000E+00
         0.00000E+00
         0.00000E+00
         0.00000E+00
         0.00000E+00
         0.00000E+00
         0.00000E+00
         0.00000E+00
         0.00000E+00
         0.00000E+00
         0.00000E+00
         0.00000E+00
         0.00000E+00
         0.00000E+00
         0.00000E+00
         0.00000E+00
         0.00000E+00
         0.00000E+00
         0.00000E+00
         0.00000E+00
         0.00000E+00
         0.00000E+00
         0.00000E+00
         0.00000E+00
         0.00000E+00
         0.00000E+00
         0.00000E+00
         0.00000E+00
         0.00000E+00
         0.00000E+00
         0.00000E+00
         0.00000E+00
         0.00000E+00
         0.00000E+00
         0.00000E+00
         0.00000E+00
         0.00000E+00
         0.00000E+00
         0.00000E+00
         0.00000E+00
         0.00000E+00
         0.00000E+00
         0.00000E+00
         0.00000E+00
         0.00000E+00
         0.00000E+00
         0.00000E+00
         0.00000E+00
         0.00000E+00
         0.00000E+00
         0.00000E+00
         0.00000E+00
         0.00000E+00
         0.00000E+00
         0.00000E+00
         0.00000E+00
         0.00000E+00
         0.00000E+00
         0.00000E+00
         0.00000E+00
         0.00000E+00
         0.00000E+00
         0.00000E+00
         0.00000E+00
         0.00000E+00
         0.00000E+00
         0.00000E+00
         0.00000E+00
         0.00000E+00
         0.00000E+00
         0.00000E+00
         0.00000E+00
         0.00000E+00
         0.00000E+00
         0.00000E+00
         0.00000E+00
         0.00000E+00
         0.00000E+00
         0.00000E+00
         0.00000E+00
         0.00000E+00
         0.00000E+00
         0.00000E+00
         0.00000E+00
         0.00000E+00
         0.00000E+00
         0.00000E+00
         0.00000E+00
         0.00000E+00
         0.00000E+00
         0.00000E+00
         0.00000E+00
         0.00000E+00
         0.00000E+00
         0.00000E+00
         0.00000E+00
         0.00000E+00
         0.00000E+00
         0.00000E+00
         0.00000E+00
         0.00000E+00
         0.00000E+00
         0.00000E+00
         0.00000E+00
         0.00000E+00
         0.00000E+00
         0.00000E+00
         0.00000E+00
         0.00000E+00
         0.00000E+00
         0.00000E+00
         0.00000E+00
         0.00000E+00
         0.00000E+00
         0.00000E+00
         0.00000E+00
         0.00000E+00
         0.00000E+00
         0.00000E+00
         0.00000E+00
         0.00000E+00
         0.00000E+00
         0.00000E+00
         0.00000E+00
         0.00000E+00
         0.00000E+00
         0.00000E+00
         0.00000E+00
         0.00000E+00
         0.00000E+00
         0.00000E+00
         0.00000E+00
         0.00000E+00
         0.00000E+00
         0.00000E+00
         0.00000E+00
         0.00000E+00
         0.00000E+00
         0.00000E+00
         0.00000E+00
         0.00000E+00
         0.00000E+00
         0.00000E+00
         0.00000E+00
         0.00000E+00
         0.00000E+00
         0.00000E+00
         0.00000E+00
         0.00000E+00
         0.00000E+00
         0.00000E+00
         0.00000E+00
         0.00000E+00
         0.00000E+00
         0.00000E+00
         0.00000E+00
         0.00000E+00
         0.00000E+00
         0.00000E+00
         0.00000E+00
         0.00000E+00
         0.00000E+00
         0.00000E+00
         0.00000E+00
         0.00000E+00
         0.00000E+00
         0.00000E+00
         0.00000E+00
         0.00000E+00
         0.00000E+00
         0.00000E+00
         0.00000E+00
         0.00000E+00
         0.00000E+00
         0.00000E+00
         0.00000E+00
         0.00000E+00
         0.00000E+00
         0.00000E+00
         0.00000E+00
         0.00000E+00
         0.00000E+00
         0.00000E+00
         0.00000E+00
         0.00000E+00
         0.00000E+00
         0.00000E+00
         0.00000E+00
         0.00000E+00
         0.00000E+00
         0.00000E+00
         0.00000E+00
         0.00000E+00
         0.00000E+00
         0.00000E+00
         0.00000E+00
         0.00000E+00
         0.00000E+00
         0.00000E+00
         0.00000E+00
         0.00000E+00
         0.00000E+00
         0.00000E+00
         0.00000E+00
         0.00000E+00
         0.00000E+00
         0.00000E+00
         0.00000E+00
         0.00000E+00
         0.00000E+00
         0.00000E+00
         0.00000E+00
         0.00000E+00
         0.00000E+00
         0.00000E+00
         0.00000E+00
         0.00000E+00
         0.00000E+00
         0.00000E+00
         0.00000E+00
         0.00000E+00
         0.00000E+00
         0.00000E+00
         0.00000E+00
         0.00000E+00
         0.00000E+00
         0.00000E+00
         0.00000E+00
         0.00000E+00
         0.00000E+00
         0.00000E+00
         0.00000E+00
         0.00000E+00
         0.00000E+00
         0.00000E+00
         0.00000E+00
         0.00000E+00
         0.00000E+00
         0.00000E+00
         0.00000E+00
         0.00000E+00
         0.00000E+00
         0.00000E+00
         0.00000E+00
         0.00000E+00
         0.00000E+00
         0.00000E+00
         0.00000E+00
         0.00000E+00
         0.00000E+00
         0.00000E+00
         0.00000E+00
         0.00000E+00
         0.00000E+00
         0.00000E+00
         0.00000E+00
         0.00000E+00
         0.00000E+00
         0.00000E+00
         0.00000E+00
         0.00000E+00
         0.00000E+00
         0.00000E+00
         0.00000E+00
         0.00000E+00
         0.00000E+00
         0.00000E+00
         0.00000E+00
         0.00000E+00
         0.00000E+00
         0.00000E+00
         0.00000E+00
         0.00000E+00
         0.00000E+00
         0.00000E+00
         0.00000E+00
         0.00000E+00
         0.00000E+00
         0.00000E+00
         0.00000E+00
         0.00000E+00
         0.00000E+00
         0.00000E+00
         0.00000E+00
         0.00000E+00
         0.00000E+00
         0.00000E+00
         0.00000E+00
         0.00000E+00
         0.00000E+00
         0.00000E+00
         0.00000E+00
         0.00000E+00
         0.00000E+00
         0.00000E+00
         0.00000E+00
         0.00000E+00
         0.00000E+00
         0.00000E+00
         0.00000E+00
         0.00000E+00
         0.00000E+00
         0.00000E+00
         0.00000E+00
         0.00000E+00
         0.00000E+00
         0.00000E+00
         0.00000E+00
         0.00000E+00
         0.00000E+00
         0.00000E+00
         0.00000E+00
         0.00000E+00
         0.00000E+00
         0.00000E+00
         0.00000E+00
         0.00000E+00
         0.00000E+00
         0.00000E+00
         0.00000E+00
         0.00000E+00
         0.00000E+00
         0.00000E+00
         0.00000E+00
         0.00000E+00
         0.00000E+00
         0.00000E+00
         0.00000E+00
         0.00000E+00
         0.00000E+00
         0.00000E+00
         0.00000E+00
         0.00000E+00
         0.00000E+00
         0.00000E+00
         0.00000E+00
         0.00000E+00
         0.00000E+00
         0.00000E+00
         0.00000E+00
         0.00000E+00
         0.00000E+00
         0.00000E+00
         0.00000E+00
         0.00000E+00
         0.00000E+00
         0.00000E+00
         0.00000E+00
         0.00000E+00
         0.00000E+00
         0.00000E+00
         0.00000E+00
         0.00000E+00
         0.00000E+00
         0.00000E+00
         0.00000E+00
         0.00000E+00
         0.00000E+00
         0.00000E+00
         0.00000E+00
         0.00000E+00
         0.00000E+00
         0.00000E+00
         0.00000E+00
         0.00000E+00
         0.00000E+00
         0.00000E+00
         0.00000E+00
         0.00000E+00
         0.00000E+00
         0.00000E+00
         0.00000E+00
         0.00000E+00
         0.00000E+00
         0.00000E+00
         0.00000E+00
         0.00000E+00
         0.00000E+00
         0.00000E+00
         0.00000E+00
         0.00000E+00
         0.00000E+00
         0.00000E+00
         0.00000E+00
         0.00000E+00
         0.00000E+00
         0.00000E+00
         0.00000E+00
         0.00000E+00
         0.00000E+00
         0.00000E+00
         0.00000E+00
         0.00000E+00
         0.00000E+00
         0.00000E+00
         0.00000E+00
         0.00000E+00
         0.00000E+00
         0.00000E+00
         0.00000E+00
         0.00000E+00
         0.00000E+00
         0.00000E+00
         0.00000E+00
         0.00000E+00
         0.00000E+00
         0.00000E+00
         0.00000E+00
         0.00000E+00
         0.00000E+00
         0.00000E+00
         0.00000E+00
         0.00000E+00
         0.00000E+00
         0.00000E+00
         0.00000E+00
         0.00000E+00
         0.00000E+00
         0.00000E+00
         0.00000E+00
         0.00000E+00
         0.00000E+00
         0.00000E+00
         0.00000E+00
         0.00000E+00
         0.00000E+00
         0.00000E+00
         0.00000E+00
         0.00000E+00
         0.00000E+00
         0.00000E+00
         0.00000E+00
         0.00000E+00
         0.00000E+00
         0.00000E+00
         0.00000E+00
         0.00000E+00
         0.00000E+00
         0.00000E+00
         0.00000E+00
         0.00000E+00
         0.00000E+00
         0.00000E+00
         0.00000E+00
         0.00000E+00
         0.00000E+00
         0.00000E+00
         0.00000E+00
         0.00000E+00
         0.00000E+00
         0.00000E+00
         0.00000E+00
         0.00000E+00
         0.00000E+00
         0.00000E+00
         0.00000E+00
         0.00000E+00
         0.00000E+00
         0.00000E+00
  
SCALARS                init_velocity_z  double 1
LOOKUP_TABLE default
        -0.37300E+03
        -0.37300E+03
        -0.37300E+03
        -0.37300E+03
        -0.37300E+03
        -0.37300E+03
        -0.37300E+03
        -0.37300E+03
        -0.37300E+03
        -0.37300E+03
        -0.37300E+03
        -0.37300E+03
        -0.37300E+03
        -0.37300E+03
        -0.37300E+03
        -0.37300E+03
        -0.37300E+03
        -0.37300E+03
        -0.37300E+03
        -0.37300E+03
        -0.37300E+03
        -0.37300E+03
        -0.37300E+03
        -0.37300E+03
        -0.37300E+03
        -0.37300E+03
        -0.37300E+03
        -0.37300E+03
        -0.37300E+03
        -0.37300E+03
        -0.37300E+03
        -0.37300E+03
        -0.37300E+03
        -0.37300E+03
        -0.37300E+03
        -0.37300E+03
        -0.37300E+03
        -0.37300E+03
        -0.37300E+03
        -0.37300E+03
        -0.37300E+03
        -0.37300E+03
        -0.37300E+03
        -0.37300E+03
        -0.37300E+03
        -0.37300E+03
        -0.37300E+03
        -0.37300E+03
        -0.37300E+03
        -0.37300E+03
        -0.37300E+03
        -0.37300E+03
        -0.37300E+03
        -0.37300E+03
        -0.37300E+03
        -0.37300E+03
        -0.37300E+03
        -0.37300E+03
        -0.37300E+03
        -0.37300E+03
        -0.37300E+03
        -0.37300E+03
        -0.37300E+03
        -0.37300E+03
        -0.37300E+03
        -0.37300E+03
        -0.37300E+03
        -0.37300E+03
        -0.37300E+03
        -0.37300E+03
        -0.37300E+03
        -0.37300E+03
        -0.37300E+03
        -0.37300E+03
        -0.37300E+03
        -0.37300E+03
        -0.37300E+03
        -0.37300E+03
        -0.37300E+03
        -0.37300E+03
        -0.37300E+03
        -0.37300E+03
        -0.37300E+03
        -0.37300E+03
        -0.37300E+03
        -0.37300E+03
        -0.37300E+03
        -0.37300E+03
        -0.37300E+03
        -0.37300E+03
        -0.37300E+03
        -0.37300E+03
        -0.37300E+03
        -0.37300E+03
        -0.37300E+03
        -0.37300E+03
        -0.37300E+03
        -0.37300E+03
        -0.37300E+03
        -0.37300E+03
        -0.37300E+03
        -0.37300E+03
        -0.37300E+03
        -0.37300E+03
        -0.37300E+03
        -0.37300E+03
        -0.37300E+03
        -0.37300E+03
        -0.37300E+03
        -0.37300E+03
        -0.37300E+03
        -0.37300E+03
        -0.37300E+03
        -0.37300E+03
        -0.37300E+03
        -0.37300E+03
        -0.37300E+03
        -0.37300E+03
        -0.37300E+03
        -0.37300E+03
        -0.37300E+03
        -0.37300E+03
        -0.37300E+03
        -0.37300E+03
        -0.37300E+03
        -0.37300E+03
        -0.37300E+03
        -0.37300E+03
        -0.37300E+03
        -0.37300E+03
        -0.37300E+03
        -0.37300E+03
        -0.37300E+03
        -0.37300E+03
        -0.37300E+03
        -0.37300E+03
        -0.37300E+03
        -0.37300E+03
        -0.37300E+03
        -0.37300E+03
        -0.37300E+03
        -0.37300E+03
        -0.37300E+03
        -0.37300E+03
        -0.37300E+03
        -0.37300E+03
        -0.37300E+03
        -0.37300E+03
        -0.37300E+03
        -0.37300E+03
        -0.37300E+03
        -0.37300E+03
        -0.37300E+03
        -0.37300E+03
        -0.37300E+03
        -0.37300E+03
        -0.37300E+03
        -0.37300E+03
        -0.37300E+03
        -0.37300E+03
        -0.37300E+03
        -0.37300E+03
        -0.37300E+03
        -0.37300E+03
        -0.37300E+03
        -0.37300E+03
        -0.37300E+03
        -0.37300E+03
        -0.37300E+03
        -0.37300E+03
        -0.37300E+03
        -0.37300E+03
        -0.37300E+03
        -0.37300E+03
        -0.37300E+03
        -0.37300E+03
        -0.37300E+03
        -0.37300E+03
        -0.37300E+03
        -0.37300E+03
        -0.37300E+03
        -0.37300E+03
        -0.37300E+03
        -0.37300E+03
        -0.37300E+03
        -0.37300E+03
        -0.37300E+03
        -0.37300E+03
        -0.37300E+03
        -0.37300E+03
        -0.37300E+03
        -0.37300E+03
        -0.37300E+03
        -0.37300E+03
        -0.37300E+03
        -0.37300E+03
        -0.37300E+03
        -0.37300E+03
        -0.37300E+03
        -0.37300E+03
        -0.37300E+03
        -0.37300E+03
        -0.37300E+03
        -0.37300E+03
        -0.37300E+03
        -0.37300E+03
        -0.37300E+03
        -0.37300E+03
        -0.37300E+03
        -0.37300E+03
        -0.37300E+03
        -0.37300E+03
        -0.37300E+03
        -0.37300E+03
        -0.37300E+03
        -0.37300E+03
        -0.37300E+03
        -0.37300E+03
        -0.37300E+03
        -0.37300E+03
        -0.37300E+03
        -0.37300E+03
        -0.37300E+03
        -0.37300E+03
        -0.37300E+03
        -0.37300E+03
        -0.37300E+03
        -0.37300E+03
        -0.37300E+03
        -0.37300E+03
        -0.37300E+03
        -0.37300E+03
        -0.37300E+03
        -0.37300E+03
        -0.37300E+03
        -0.37300E+03
        -0.37300E+03
        -0.37300E+03
        -0.37300E+03
        -0.37300E+03
        -0.37300E+03
        -0.37300E+03
        -0.37300E+03
        -0.37300E+03
        -0.37300E+03
        -0.37300E+03
        -0.37300E+03
        -0.37300E+03
        -0.37300E+03
        -0.37300E+03
        -0.37300E+03
        -0.37300E+03
        -0.37300E+03
        -0.37300E+03
        -0.37300E+03
        -0.37300E+03
        -0.37300E+03
        -0.37300E+03
        -0.37300E+03
        -0.37300E+03
        -0.37300E+03
        -0.37300E+03
        -0.37300E+03
        -0.37300E+03
        -0.37300E+03
        -0.37300E+03
        -0.37300E+03
        -0.37300E+03
        -0.37300E+03
        -0.37300E+03
        -0.37300E+03
        -0.37300E+03
        -0.37300E+03
        -0.37300E+03
        -0.37300E+03
        -0.37300E+03
        -0.37300E+03
        -0.37300E+03
        -0.37300E+03
        -0.37300E+03
        -0.37300E+03
        -0.37300E+03
        -0.37300E+03
        -0.37300E+03
        -0.37300E+03
        -0.37300E+03
        -0.37300E+03
        -0.37300E+03
        -0.37300E+03
        -0.37300E+03
        -0.37300E+03
        -0.37300E+03
        -0.37300E+03
        -0.37300E+03
        -0.37300E+03
        -0.37300E+03
        -0.37300E+03
        -0.37300E+03
        -0.37300E+03
        -0.37300E+03
        -0.37300E+03
        -0.37300E+03
        -0.37300E+03
        -0.37300E+03
        -0.37300E+03
        -0.37300E+03
        -0.37300E+03
        -0.37300E+03
        -0.37300E+03
        -0.37300E+03
        -0.37300E+03
        -0.37300E+03
        -0.37300E+03
        -0.37300E+03
        -0.37300E+03
        -0.37300E+03
        -0.37300E+03
        -0.37300E+03
        -0.37300E+03
        -0.37300E+03
        -0.37300E+03
        -0.37300E+03
        -0.37300E+03
        -0.37300E+03
        -0.37300E+03
        -0.37300E+03
        -0.37300E+03
        -0.37300E+03
        -0.37300E+03
        -0.37300E+03
        -0.37300E+03
        -0.37300E+03
        -0.37300E+03
        -0.37300E+03
        -0.37300E+03
        -0.37300E+03
        -0.37300E+03
        -0.37300E+03
        -0.37300E+03
        -0.37300E+03
        -0.37300E+03
        -0.37300E+03
        -0.37300E+03
        -0.37300E+03
        -0.37300E+03
        -0.37300E+03
        -0.37300E+03
        -0.37300E+03
        -0.37300E+03
        -0.37300E+03
        -0.37300E+03
        -0.37300E+03
        -0.37300E+03
        -0.37300E+03
        -0.37300E+03
        -0.37300E+03
        -0.37300E+03
        -0.37300E+03
        -0.37300E+03
        -0.37300E+03
        -0.37300E+03
        -0.37300E+03
        -0.37300E+03
        -0.37300E+03
        -0.37300E+03
        -0.37300E+03
        -0.37300E+03
        -0.37300E+03
        -0.37300E+03
        -0.37300E+03
        -0.37300E+03
        -0.37300E+03
        -0.37300E+03
        -0.37300E+03
        -0.37300E+03
        -0.37300E+03
        -0.37300E+03
        -0.37300E+03
        -0.37300E+03
        -0.37300E+03
        -0.37300E+03
        -0.37300E+03
        -0.37300E+03
        -0.37300E+03
        -0.37300E+03
        -0.37300E+03
        -0.37300E+03
        -0.37300E+03
        -0.37300E+03
        -0.37300E+03
        -0.37300E+03
        -0.37300E+03
        -0.37300E+03
        -0.37300E+03
        -0.37300E+03
        -0.37300E+03
        -0.37300E+03
        -0.37300E+03
        -0.37300E+03
        -0.37300E+03
        -0.37300E+03
        -0.37300E+03
        -0.37300E+03
        -0.37300E+03
        -0.37300E+03
        -0.37300E+03
        -0.37300E+03
        -0.37300E+03
        -0.37300E+03
        -0.37300E+03
        -0.37300E+03
        -0.37300E+03
        -0.37300E+03
        -0.37300E+03
        -0.37300E+03
        -0.37300E+03
        -0.37300E+03
        -0.37300E+03
        -0.37300E+03
        -0.37300E+03
        -0.37300E+03
        -0.37300E+03
        -0.37300E+03
        -0.37300E+03
        -0.37300E+03
        -0.37300E+03
        -0.37300E+03
        -0.37300E+03
        -0.37300E+03
        -0.37300E+03
        -0.37300E+03
        -0.37300E+03
        -0.37300E+03
        -0.37300E+03
        -0.37300E+03
        -0.37300E+03
        -0.37300E+03
        -0.37300E+03
        -0.37300E+03
        -0.37300E+03
        -0.37300E+03
        -0.37300E+03
        -0.37300E+03
        -0.37300E+03
        -0.37300E+03
        -0.37300E+03
        -0.37300E+03
        -0.37300E+03
        -0.37300E+03
        -0.37300E+03
        -0.37300E+03
        -0.37300E+03
        -0.37300E+03
        -0.37300E+03
        -0.37300E+03
        -0.37300E+03
        -0.37300E+03
        -0.37300E+03
        -0.37300E+03
        -0.37300E+03
        -0.37300E+03
        -0.37300E+03
        -0.37300E+03
        -0.37300E+03
        -0.37300E+03
        -0.37300E+03
        -0.37300E+03
        -0.37300E+03
        -0.37300E+03
        -0.37300E+03
        -0.37300E+03
        -0.37300E+03
        -0.37300E+03
        -0.37300E+03
        -0.37300E+03
        -0.37300E+03
        -0.37300E+03
        -0.37300E+03
        -0.37300E+03
        -0.37300E+03
        -0.37300E+03
        -0.37300E+03
        -0.37300E+03
        -0.37300E+03
        -0.37300E+03
        -0.37300E+03
        -0.37300E+03
        -0.37300E+03
        -0.37300E+03
        -0.37300E+03
        -0.37300E+03
        -0.37300E+03
        -0.37300E+03
        -0.37300E+03
        -0.37300E+03
        -0.37300E+03
        -0.37300E+03
        -0.37300E+03
        -0.37300E+03
        -0.37300E+03
        -0.37300E+03
        -0.37300E+03
        -0.37300E+03
        -0.37300E+03
        -0.37300E+03
        -0.37300E+03
        -0.37300E+03
        -0.37300E+03
        -0.37300E+03
        -0.37300E+03
        -0.37300E+03
        -0.37300E+03
        -0.37300E+03
        -0.37300E+03
        -0.37300E+03
        -0.37300E+03
        -0.37300E+03
        -0.37300E+03
        -0.37300E+03
        -0.37300E+03
        -0.37300E+03
        -0.37300E+03
        -0.37300E+03
        -0.37300E+03
        -0.37300E+03
        -0.37300E+03
        -0.37300E+03
        -0.37300E+03
        -0.37300E+03
        -0.37300E+03
        -0.37300E+03
        -0.37300E+03
        -0.37300E+03
        -0.37300E+03
        -0.37300E+03
        -0.37300E+03
        -0.37300E+03
        -0.37300E+03
        -0.37300E+03
        -0.37300E+03
        -0.37300E+03
        -0.37300E+03
        -0.37300E+03
        -0.37300E+03
        -0.37300E+03
        -0.37300E+03
        -0.37300E+03
        -0.37300E+03
        -0.37300E+03
        -0.37300E+03
        -0.37300E+03
        -0.37300E+03
        -0.37300E+03
        -0.37300E+03
        -0.37300E+03
        -0.37300E+03
        -0.37300E+03
        -0.37300E+03
        -0.37300E+03
        -0.37300E+03
        -0.37300E+03
        -0.37300E+03
        -0.37300E+03
        -0.37300E+03
        -0.37300E+03
        -0.37300E+03
        -0.37300E+03
        -0.37300E+03
        -0.37300E+03
        -0.37300E+03
        -0.37300E+03
        -0.37300E+03
        -0.37300E+03
        -0.37300E+03
        -0.37300E+03
        -0.37300E+03
        -0.37300E+03
        -0.37300E+03
        -0.37300E+03
        -0.37300E+03
        -0.37300E+03
        -0.37300E+03
        -0.37300E+03
        -0.37300E+03
        -0.37300E+03
        -0.37300E+03
        -0.37300E+03
        -0.37300E+03
        -0.37300E+03
        -0.37300E+03
        -0.37300E+03
        -0.37300E+03
        -0.37300E+03
        -0.37300E+03
        -0.37300E+03
        -0.37300E+03
        -0.37300E+03
        -0.37300E+03
        -0.37300E+03
        -0.37300E+03
        -0.37300E+03
        -0.37300E+03
        -0.37300E+03
        -0.37300E+03
        -0.37300E+03
        -0.37300E+03
        -0.37300E+03
        -0.37300E+03
        -0.37300E+03
        -0.37300E+03
        -0.37300E+03
        -0.37300E+03
        -0.37300E+03
        -0.37300E+03
        -0.37300E+03
        -0.37300E+03
        -0.37300E+03
        -0.37300E+03
        -0.37300E+03
        -0.37300E+03
        -0.37300E+03
        -0.37300E+03
        -0.37300E+03
        -0.37300E+03
        -0.37300E+03
        -0.37300E+03
        -0.37300E+03
        -0.37300E+03
        -0.37300E+03
        -0.37300E+03
        -0.37300E+03
        -0.37300E+03
        -0.37300E+03
        -0.37300E+03
        -0.37300E+03
        -0.37300E+03
        -0.37300E+03
        -0.37300E+03
        -0.37300E+03
        -0.37300E+03
        -0.37300E+03
        -0.37300E+03
        -0.37300E+03
        -0.37300E+03
        -0.37300E+03
        -0.37300E+03
        -0.37300E+03
        -0.37300E+03
        -0.37300E+03
        -0.37300E+03
        -0.37300E+03
        -0.37300E+03
        -0.37300E+03
        -0.37300E+03
        -0.37300E+03
        -0.37300E+03
        -0.37300E+03
        -0.37300E+03
        -0.37300E+03
        -0.37300E+03
        -0.37300E+03
        -0.37300E+03
        -0.37300E+03
        -0.37300E+03
        -0.37300E+03
        -0.37300E+03
        -0.37300E+03
        -0.37300E+03
        -0.37300E+03
        -0.37300E+03
        -0.37300E+03
        -0.37300E+03
        -0.37300E+03
        -0.37300E+03
        -0.37300E+03
        -0.37300E+03
        -0.37300E+03
        -0.37300E+03
        -0.37300E+03
        -0.37300E+03
        -0.37300E+03
        -0.37300E+03
        -0.37300E+03
        -0.37300E+03
        -0.37300E+03
        -0.37300E+03
        -0.37300E+03
        -0.37300E+03
        -0.37300E+03
        -0.37300E+03
        -0.37300E+03
        -0.37300E+03
        -0.37300E+03
        -0.37300E+03
        -0.37300E+03
        -0.37300E+03
        -0.37300E+03
        -0.37300E+03
        -0.37300E+03
        -0.37300E+03
        -0.37300E+03
        -0.37300E+03
        -0.37300E+03
        -0.37300E+03
        -0.37300E+03
        -0.37300E+03
        -0.37300E+03
        -0.37300E+03
        -0.37300E+03
        -0.37300E+03
        -0.37300E+03
        -0.37300E+03
        -0.37300E+03
        -0.37300E+03
        -0.37300E+03
        -0.37300E+03
        -0.37300E+03
        -0.37300E+03
        -0.37300E+03
        -0.37300E+03
        -0.37300E+03
        -0.37300E+03
        -0.37300E+03
        -0.37300E+03
        -0.37300E+03
        -0.37300E+03
        -0.37300E+03
        -0.37300E+03
        -0.37300E+03
        -0.37300E+03
        -0.37300E+03
        -0.37300E+03
        -0.37300E+03
        -0.37300E+03
        -0.37300E+03
        -0.37300E+03
        -0.37300E+03
        -0.37300E+03
        -0.37300E+03
        -0.37300E+03
        -0.37300E+03
        -0.37300E+03
        -0.37300E+03
        -0.37300E+03
        -0.37300E+03
        -0.37300E+03
        -0.37300E+03
        -0.37300E+03
        -0.37300E+03
        -0.37300E+03
        -0.37300E+03
        -0.37300E+03
        -0.37300E+03
        -0.37300E+03
        -0.37300E+03
        -0.37300E+03
        -0.37300E+03
        -0.37300E+03
        -0.37300E+03
        -0.37300E+03
        -0.37300E+03
        -0.37300E+03
        -0.37300E+03
        -0.37300E+03
        -0.37300E+03
        -0.37300E+03
        -0.37300E+03
        -0.37300E+03
        -0.37300E+03
        -0.37300E+03
        -0.37300E+03
        -0.37300E+03
        -0.37300E+03
        -0.37300E+03
        -0.37300E+03
        -0.37300E+03
        -0.37300E+03
        -0.37300E+03
        -0.37300E+03
        -0.37300E+03
        -0.37300E+03
        -0.37300E+03
        -0.37300E+03
        -0.37300E+03
        -0.37300E+03
        -0.37300E+03
        -0.37300E+03
        -0.37300E+03
        -0.37300E+03
        -0.37300E+03
        -0.37300E+03
        -0.37300E+03
        -0.37300E+03
        -0.37300E+03
        -0.37300E+03
        -0.37300E+03
        -0.37300E+03
        -0.37300E+03
        -0.37300E+03
        -0.37300E+03
        -0.37300E+03
        -0.37300E+03
        -0.37300E+03
        -0.37300E+03
        -0.37300E+03
        -0.37300E+03
        -0.37300E+03
        -0.37300E+03
        -0.37300E+03
        -0.37300E+03
        -0.37300E+03
        -0.37300E+03
        -0.37300E+03
        -0.37300E+03
        -0.37300E+03
        -0.37300E+03
        -0.37300E+03
        -0.37300E+03
        -0.37300E+03
        -0.37300E+03
        -0.37300E+03
        -0.37300E+03
        -0.37300E+03
        -0.37300E+03
        -0.37300E+03
        -0.37300E+03
        -0.37300E+03
        -0.37300E+03
        -0.37300E+03
        -0.37300E+03
        -0.37300E+03
        -0.37300E+03
        -0.37300E+03
        -0.37300E+03
        -0.37300E+03
        -0.37300E+03
        -0.37300E+03
        -0.37300E+03
        -0.37300E+03
        -0.37300E+03
        -0.37300E+03
        -0.37300E+03
        -0.37300E+03
        -0.37300E+03
        -0.37300E+03
        -0.37300E+03
        -0.37300E+03
        -0.37300E+03
        -0.37300E+03
        -0.37300E+03
        -0.37300E+03
        -0.37300E+03
        -0.37300E+03
        -0.37300E+03
        -0.37300E+03
        -0.37300E+03
        -0.37300E+03
        -0.37300E+03
        -0.37300E+03
        -0.37300E+03
        -0.37300E+03
        -0.37300E+03
        -0.37300E+03
        -0.37300E+03
        -0.37300E+03
        -0.37300E+03
        -0.37300E+03
        -0.37300E+03
        -0.37300E+03
        -0.37300E+03
        -0.37300E+03
        -0.37300E+03
        -0.37300E+03
        -0.37300E+03
        -0.37300E+03
        -0.37300E+03
        -0.37300E+03
        -0.37300E+03
        -0.37300E+03
        -0.37300E+03
        -0.37300E+03
        -0.37300E+03
        -0.37300E+03
        -0.37300E+03
        -0.37300E+03
        -0.37300E+03
        -0.37300E+03
        -0.37300E+03
        -0.37300E+03
        -0.37300E+03
        -0.37300E+03
        -0.37300E+03
        -0.37300E+03
        -0.37300E+03
        -0.37300E+03
        -0.37300E+03
        -0.37300E+03
        -0.37300E+03
        -0.37300E+03
        -0.37300E+03
        -0.37300E+03
        -0.37300E+03
        -0.37300E+03
        -0.37300E+03
        -0.37300E+03
        -0.37300E+03
        -0.37300E+03
        -0.37300E+03
        -0.37300E+03
        -0.37300E+03
        -0.37300E+03
        -0.37300E+03
        -0.37300E+03
        -0.37300E+03
        -0.37300E+03
        -0.37300E+03
        -0.37300E+03
        -0.37300E+03
        -0.37300E+03
        -0.37300E+03
        -0.37300E+03
        -0.37300E+03
        -0.37300E+03
        -0.37300E+03
        -0.37300E+03
        -0.37300E+03
        -0.37300E+03
        -0.37300E+03
        -0.37300E+03
        -0.37300E+03
        -0.37300E+03
        -0.37300E+03
        -0.37300E+03
        -0.37300E+03
        -0.37300E+03
        -0.37300E+03
        -0.37300E+03
        -0.37300E+03
        -0.37300E+03
        -0.37300E+03
        -0.37300E+03
        -0.37300E+03
        -0.37300E+03
        -0.37300E+03
        -0.37300E+03
        -0.37300E+03
        -0.37300E+03
        -0.37300E+03
        -0.37300E+03
        -0.37300E+03
        -0.37300E+03
        -0.37300E+03
        -0.37300E+03
        -0.37300E+03
        -0.37300E+03
        -0.37300E+03
        -0.37300E+03
        -0.37300E+03
        -0.37300E+03
        -0.37300E+03
        -0.37300E+03
        -0.37300E+03
        -0.37300E+03
        -0.37300E+03
        -0.37300E+03
        -0.37300E+03
        -0.37300E+03
        -0.37300E+03
        -0.37300E+03
        -0.37300E+03
        -0.37300E+03
        -0.37300E+03
        -0.37300E+03
        -0.37300E+03
        -0.37300E+03
        -0.37300E+03
        -0.37300E+03
        -0.37300E+03
        -0.37300E+03
        -0.37300E+03
        -0.37300E+03
        -0.37300E+03
        -0.37300E+03
        -0.37300E+03
        -0.37300E+03
        -0.37300E+03
        -0.37300E+03
        -0.37300E+03
        -0.37300E+03
        -0.37300E+03
        -0.37300E+03
        -0.37300E+03
        -0.37300E+03
        -0.37300E+03
        -0.37300E+03
        -0.37300E+03
        -0.37300E+03
        -0.37300E+03
        -0.37300E+03
        -0.37300E+03
        -0.37300E+03
        -0.37300E+03
        -0.37300E+03
        -0.37300E+03
        -0.37300E+03
        -0.37300E+03
        -0.37300E+03
        -0.37300E+03
        -0.37300E+03
        -0.37300E+03
        -0.37300E+03
        -0.37300E+03
        -0.37300E+03
        -0.37300E+03
        -0.37300E+03
        -0.37300E+03
        -0.37300E+03
        -0.37300E+03
        -0.37300E+03
        -0.37300E+03
        -0.37300E+03
        -0.37300E+03
        -0.37300E+03
        -0.37300E+03
        -0.37300E+03
        -0.37300E+03
        -0.37300E+03
        -0.37300E+03
        -0.37300E+03
        -0.37300E+03
        -0.37300E+03
        -0.37300E+03
        -0.37300E+03
        -0.37300E+03
        -0.37300E+03
        -0.37300E+03
        -0.37300E+03
        -0.37300E+03
        -0.37300E+03
        -0.37300E+03
        -0.37300E+03
        -0.37300E+03
        -0.37300E+03
        -0.37300E+03
        -0.37300E+03
        -0.37300E+03
        -0.37300E+03
        -0.37300E+03
        -0.37300E+03
        -0.37300E+03
        -0.37300E+03
        -0.37300E+03
        -0.37300E+03
        -0.37300E+03
        -0.37300E+03
        -0.37300E+03
        -0.37300E+03
        -0.37300E+03
        -0.37300E+03
        -0.37300E+03
        -0.37300E+03
        -0.37300E+03
        -0.37300E+03
        -0.37300E+03
        -0.37300E+03
        -0.37300E+03
        -0.37300E+03
        -0.37300E+03
        -0.37300E+03
        -0.37300E+03
        -0.37300E+03
        -0.37300E+03
        -0.37300E+03
        -0.37300E+03
        -0.37300E+03
        -0.37300E+03
        -0.37300E+03
        -0.37300E+03
        -0.37300E+03
        -0.37300E+03
        -0.37300E+03
        -0.37300E+03
        -0.37300E+03
        -0.37300E+03
        -0.37300E+03
        -0.37300E+03
        -0.37300E+03
        -0.37300E+03
        -0.37300E+03
        -0.37300E+03
        -0.37300E+03
        -0.37300E+03
        -0.37300E+03
        -0.37300E+03
        -0.37300E+03
        -0.37300E+03
        -0.37300E+03
        -0.37300E+03
        -0.37300E+03
        -0.37300E+03
        -0.37300E+03
        -0.37300E+03
        -0.37300E+03
        -0.37300E+03
        -0.37300E+03
        -0.37300E+03
        -0.37300E+03
        -0.37300E+03
        -0.37300E+03
        -0.37300E+03
        -0.37300E+03
        -0.37300E+03
        -0.37300E+03
        -0.37300E+03
        -0.37300E+03
        -0.37300E+03
        -0.37300E+03
        -0.37300E+03
        -0.37300E+03
        -0.37300E+03
        -0.37300E+03
        -0.37300E+03
        -0.37300E+03
        -0.37300E+03
        -0.37300E+03
        -0.37300E+03
        -0.37300E+03
        -0.37300E+03
        -0.37300E+03
        -0.37300E+03
        -0.37300E+03
        -0.37300E+03
        -0.37300E+03
        -0.37300E+03
        -0.37300E+03
        -0.37300E+03
        -0.37300E+03
        -0.37300E+03
        -0.37300E+03
        -0.37300E+03
        -0.37300E+03
        -0.37300E+03
        -0.37300E+03
        -0.37300E+03
        -0.37300E+03
        -0.37300E+03
        -0.37300E+03
        -0.37300E+03
        -0.37300E+03
        -0.37300E+03
        -0.37300E+03
        -0.37300E+03
        -0.37300E+03
        -0.37300E+03
        -0.37300E+03
        -0.37300E+03
        -0.37300E+03
        -0.37300E+03
        -0.37300E+03
        -0.37300E+03
        -0.37300E+03
        -0.37300E+03
        -0.37300E+03
        -0.37300E+03
        -0.37300E+03
        -0.37300E+03
        -0.37300E+03
        -0.37300E+03
        -0.37300E+03
        -0.37300E+03
        -0.37300E+03
        -0.37300E+03
        -0.37300E+03
        -0.37300E+03
        -0.37300E+03
        -0.37300E+03
        -0.37300E+03
        -0.37300E+03
        -0.37300E+03
        -0.37300E+03
        -0.37300E+03
        -0.37300E+03
        -0.37300E+03
        -0.37300E+03
        -0.37300E+03
        -0.37300E+03
        -0.37300E+03
        -0.37300E+03
        -0.37300E+03
        -0.37300E+03
        -0.37300E+03
        -0.37300E+03
        -0.37300E+03
        -0.37300E+03
        -0.37300E+03
        -0.37300E+03
        -0.37300E+03
        -0.37300E+03
        -0.37300E+03
        -0.37300E+03
        -0.37300E+03
        -0.37300E+03
        -0.37300E+03
        -0.37300E+03
        -0.37300E+03
        -0.37300E+03
        -0.37300E+03
        -0.37300E+03
        -0.37300E+03
        -0.37300E+03
        -0.37300E+03
        -0.37300E+03
        -0.37300E+03
        -0.37300E+03
        -0.37300E+03
        -0.37300E+03
        -0.37300E+03
        -0.37300E+03
        -0.37300E+03
        -0.37300E+03
        -0.37300E+03
        -0.37300E+03
        -0.37300E+03
        -0.37300E+03
        -0.37300E+03
        -0.37300E+03
        -0.37300E+03
        -0.37300E+03
        -0.37300E+03
        -0.37300E+03
        -0.37300E+03
        -0.37300E+03
        -0.37300E+03
        -0.37300E+03
        -0.37300E+03
        -0.37300E+03
        -0.37300E+03
        -0.37300E+03
        -0.37300E+03
        -0.37300E+03
        -0.37300E+03
        -0.37300E+03
        -0.37300E+03
        -0.37300E+03
        -0.37300E+03
        -0.37300E+03
        -0.37300E+03
        -0.37300E+03
        -0.37300E+03
        -0.37300E+03
        -0.37300E+03
        -0.37300E+03
        -0.37300E+03
        -0.37300E+03
        -0.37300E+03
        -0.37300E+03
        -0.37300E+03
        -0.37300E+03
        -0.37300E+03
        -0.37300E+03
        -0.37300E+03
        -0.37300E+03
        -0.37300E+03
        -0.37300E+03
        -0.37300E+03
        -0.37300E+03
        -0.37300E+03
        -0.37300E+03
        -0.37300E+03
        -0.37300E+03
        -0.37300E+03
        -0.37300E+03
        -0.37300E+03
        -0.37300E+03
        -0.37300E+03
        -0.37300E+03
        -0.37300E+03
        -0.37300E+03
        -0.37300E+03
        -0.37300E+03
        -0.37300E+03
        -0.37300E+03
        -0.37300E+03
        -0.37300E+03
        -0.37300E+03
        -0.37300E+03
        -0.37300E+03
        -0.37300E+03
        -0.37300E+03
        -0.37300E+03
        -0.37300E+03
        -0.37300E+03
        -0.37300E+03
        -0.37300E+03
        -0.37300E+03
        -0.37300E+03
        -0.37300E+03
        -0.37300E+03
        -0.37300E+03
        -0.37300E+03
        -0.37300E+03
        -0.37300E+03
        -0.37300E+03
        -0.37300E+03
        -0.37300E+03
        -0.37300E+03
        -0.37300E+03
        -0.37300E+03
        -0.37300E+03
        -0.37300E+03
        -0.37300E+03
        -0.37300E+03
        -0.37300E+03
        -0.37300E+03
        -0.37300E+03
        -0.37300E+03
        -0.37300E+03
        -0.37300E+03
        -0.37300E+03
        -0.37300E+03
        -0.37300E+03
        -0.37300E+03
        -0.37300E+03
        -0.37300E+03
        -0.37300E+03
        -0.37300E+03
        -0.37300E+03
        -0.37300E+03
        -0.37300E+03
        -0.37300E+03
        -0.37300E+03
        -0.37300E+03
        -0.37300E+03
        -0.37300E+03
        -0.37300E+03
        -0.37300E+03
        -0.37300E+03
        -0.37300E+03
        -0.37300E+03
        -0.37300E+03
        -0.37300E+03
        -0.37300E+03
        -0.37300E+03
        -0.37300E+03
        -0.37300E+03
        -0.37300E+03
        -0.37300E+03
        -0.37300E+03
        -0.37300E+03
        -0.37300E+03
        -0.37300E+03
        -0.37300E+03
        -0.37300E+03
        -0.37300E+03
        -0.37300E+03
        -0.37300E+03
        -0.37300E+03
        -0.37300E+03
        -0.37300E+03
        -0.37300E+03
        -0.37300E+03
        -0.37300E+03
        -0.37300E+03
        -0.37300E+03
        -0.37300E+03
        -0.37300E+03
        -0.37300E+03
        -0.37300E+03
        -0.37300E+03
        -0.37300E+03
        -0.37300E+03
        -0.37300E+03
        -0.37300E+03
        -0.37300E+03
        -0.37300E+03
        -0.37300E+03
        -0.37300E+03
        -0.37300E+03
        -0.37300E+03
        -0.37300E+03
        -0.37300E+03
        -0.37300E+03
        -0.37300E+03
        -0.37300E+03
        -0.37300E+03
        -0.37300E+03
        -0.37300E+03
        -0.37300E+03
        -0.37300E+03
        -0.37300E+03
        -0.37300E+03
        -0.37300E+03
        -0.37300E+03
        -0.37300E+03
        -0.37300E+03
        -0.37300E+03
        -0.37300E+03
        -0.37300E+03
        -0.37300E+03
        -0.37300E+03
        -0.37300E+03
        -0.37300E+03
        -0.37300E+03
        -0.37300E+03
        -0.37300E+03
        -0.37300E+03
        -0.37300E+03
        -0.37300E+03
        -0.37300E+03
        -0.37300E+03
        -0.37300E+03
        -0.37300E+03
        -0.37300E+03
        -0.37300E+03
        -0.37300E+03
        -0.37300E+03
        -0.37300E+03
        -0.37300E+03
        -0.37300E+03
        -0.37300E+03
        -0.37300E+03
        -0.37300E+03
        -0.37300E+03
        -0.37300E+03
        -0.37300E+03
        -0.37300E+03
        -0.37300E+03
        -0.37300E+03
        -0.37300E+03
        -0.37300E+03
        -0.37300E+03
        -0.37300E+03
        -0.37300E+03
        -0.37300E+03
        -0.37300E+03
        -0.37300E+03
        -0.37300E+03
        -0.37300E+03
        -0.37300E+03
        -0.37300E+03
        -0.37300E+03
        -0.37300E+03
        -0.37300E+03
        -0.37300E+03
        -0.37300E+03
        -0.37300E+03
        -0.37300E+03
        -0.37300E+03
        -0.37300E+03
        -0.37300E+03
        -0.37300E+03
        -0.37300E+03
        -0.37300E+03
        -0.37300E+03
        -0.37300E+03
        -0.37300E+03
        -0.37300E+03
        -0.37300E+03
        -0.37300E+03
        -0.37300E+03
        -0.37300E+03
        -0.37300E+03
        -0.37300E+03
        -0.37300E+03
        -0.37300E+03
        -0.37300E+03
        -0.37300E+03
        -0.37300E+03
        -0.37300E+03
        -0.37300E+03
        -0.37300E+03
        -0.37300E+03
        -0.37300E+03
        -0.37300E+03
        -0.37300E+03
        -0.37300E+03
        -0.37300E+03
        -0.37300E+03
        -0.37300E+03
        -0.37300E+03
        -0.37300E+03
        -0.37300E+03
        -0.37300E+03
        -0.37300E+03
        -0.37300E+03
        -0.37300E+03
        -0.37300E+03
        -0.37300E+03
        -0.37300E+03
        -0.37300E+03
        -0.37300E+03
        -0.37300E+03
        -0.37300E+03
        -0.37300E+03
        -0.37300E+03
        -0.37300E+03
        -0.37300E+03
        -0.37300E+03
        -0.37300E+03
        -0.37300E+03
        -0.37300E+03
        -0.37300E+03
        -0.37300E+03
        -0.37300E+03
        -0.37300E+03
        -0.37300E+03
        -0.37300E+03
        -0.37300E+03
        -0.37300E+03
        -0.37300E+03
        -0.37300E+03
        -0.37300E+03
        -0.37300E+03
        -0.37300E+03
        -0.37300E+03
        -0.37300E+03
        -0.37300E+03
        -0.37300E+03
        -0.37300E+03
        -0.37300E+03
        -0.37300E+03
        -0.37300E+03
        -0.37300E+03
        -0.37300E+03
        -0.37300E+03
        -0.37300E+03
        -0.37300E+03
        -0.37300E+03
        -0.37300E+03
        -0.37300E+03
        -0.37300E+03
        -0.37300E+03
        -0.37300E+03
        -0.37300E+03
        -0.37300E+03
        -0.37300E+03
        -0.37300E+03
        -0.37300E+03
        -0.37300E+03
        -0.37300E+03
        -0.37300E+03
        -0.37300E+03
        -0.37300E+03
        -0.37300E+03
        -0.37300E+03
        -0.37300E+03
        -0.37300E+03
        -0.37300E+03
        -0.37300E+03
        -0.37300E+03
        -0.37300E+03
        -0.37300E+03
        -0.37300E+03
        -0.37300E+03
        -0.37300E+03
        -0.37300E+03
        -0.37300E+03
        -0.37300E+03
        -0.37300E+03
        -0.37300E+03
        -0.37300E+03
        -0.37300E+03
        -0.37300E+03
        -0.37300E+03
        -0.37300E+03
        -0.37300E+03
        -0.37300E+03
        -0.37300E+03
        -0.37300E+03
        -0.37300E+03
        -0.37300E+03
        -0.37300E+03
        -0.37300E+03
        -0.37300E+03
        -0.37300E+03
        -0.37300E+03
        -0.37300E+03
        -0.37300E+03
        -0.37300E+03
        -0.37300E+03
        -0.37300E+03
        -0.37300E+03
        -0.37300E+03
        -0.37300E+03
        -0.37300E+03
        -0.37300E+03
        -0.37300E+03
        -0.37300E+03
        -0.37300E+03
        -0.37300E+03
        -0.37300E+03
        -0.37300E+03
        -0.37300E+03
        -0.37300E+03
        -0.37300E+03
        -0.37300E+03
        -0.37300E+03
        -0.37300E+03
        -0.37300E+03
        -0.37300E+03
        -0.37300E+03
        -0.37300E+03
        -0.37300E+03
        -0.37300E+03
        -0.37300E+03
        -0.37300E+03
        -0.37300E+03
        -0.37300E+03
        -0.37300E+03
        -0.37300E+03
        -0.37300E+03
        -0.37300E+03
        -0.37300E+03
        -0.37300E+03
        -0.37300E+03
        -0.37300E+03
        -0.37300E+03
        -0.37300E+03
        -0.37300E+03
        -0.37300E+03
        -0.37300E+03
        -0.37300E+03
        -0.37300E+03
        -0.37300E+03
        -0.37300E+03
        -0.37300E+03
        -0.37300E+03
        -0.37300E+03
        -0.37300E+03
        -0.37300E+03
        -0.37300E+03
        -0.37300E+03
        -0.37300E+03
        -0.37300E+03
        -0.37300E+03
        -0.37300E+03
        -0.37300E+03
        -0.37300E+03
        -0.37300E+03
        -0.37300E+03
        -0.37300E+03
        -0.37300E+03
        -0.37300E+03
        -0.37300E+03
        -0.37300E+03
        -0.37300E+03
        -0.37300E+03
        -0.37300E+03
        -0.37300E+03
        -0.37300E+03
        -0.37300E+03
        -0.37300E+03
        -0.37300E+03
        -0.37300E+03
        -0.37300E+03
        -0.37300E+03
        -0.37300E+03
        -0.37300E+03
        -0.37300E+03
        -0.37300E+03
        -0.37300E+03
        -0.37300E+03
        -0.37300E+03
        -0.37300E+03
        -0.37300E+03
        -0.37300E+03
        -0.37300E+03
        -0.37300E+03
        -0.37300E+03
        -0.37300E+03
        -0.37300E+03
        -0.37300E+03
        -0.37300E+03
        -0.37300E+03
        -0.37300E+03
        -0.37300E+03
        -0.37300E+03
        -0.37300E+03
        -0.37300E+03
        -0.37300E+03
        -0.37300E+03
        -0.37300E+03
        -0.37300E+03
        -0.37300E+03
        -0.37300E+03
        -0.37300E+03
        -0.37300E+03
        -0.37300E+03
        -0.37300E+03
        -0.37300E+03
        -0.37300E+03
        -0.37300E+03
        -0.37300E+03
        -0.37300E+03
        -0.37300E+03
        -0.37300E+03
        -0.37300E+03
        -0.37300E+03
        -0.37300E+03
        -0.37300E+03
        -0.37300E+03
        -0.37300E+03
        -0.37300E+03
        -0.37300E+03
        -0.37300E+03
        -0.37300E+03
        -0.37300E+03
        -0.37300E+03
        -0.37300E+03
        -0.37300E+03
        -0.37300E+03
        -0.37300E+03
        -0.37300E+03
        -0.37300E+03
        -0.37300E+03
        -0.37300E+03
        -0.37300E+03
        -0.37300E+03
        -0.37300E+03
        -0.37300E+03
        -0.37300E+03
        -0.37300E+03
        -0.37300E+03
        -0.37300E+03
        -0.37300E+03
        -0.37300E+03
        -0.37300E+03
        -0.37300E+03
        -0.37300E+03
        -0.37300E+03
        -0.37300E+03
        -0.37300E+03
        -0.37300E+03
        -0.37300E+03
        -0.37300E+03
        -0.37300E+03
        -0.37300E+03
        -0.37300E+03
        -0.37300E+03
        -0.37300E+03
        -0.37300E+03
        -0.37300E+03
        -0.37300E+03
        -0.37300E+03
        -0.37300E+03
        -0.37300E+03
        -0.37300E+03
        -0.37300E+03
        -0.37300E+03
        -0.37300E+03
        -0.37300E+03
        -0.37300E+03
        -0.37300E+03
        -0.37300E+03
        -0.37300E+03
        -0.37300E+03
        -0.37300E+03
        -0.37300E+03
        -0.37300E+03
        -0.37300E+03
        -0.37300E+03
        -0.37300E+03
        -0.37300E+03
        -0.37300E+03
        -0.37300E+03
        -0.37300E+03
        -0.37300E+03
        -0.37300E+03
        -0.37300E+03
        -0.37300E+03
        -0.37300E+03
        -0.37300E+03
        -0.37300E+03
        -0.37300E+03
        -0.37300E+03
        -0.37300E+03
        -0.37300E+03
        -0.37300E+03
        -0.37300E+03
        -0.37300E+03
        -0.37300E+03
        -0.37300E+03
        -0.37300E+03
        -0.37300E+03
        -0.37300E+03
        -0.37300E+03
        -0.37300E+03
        -0.37300E+03
        -0.37300E+03
        -0.37300E+03
        -0.37300E+03
        -0.37300E+03
        -0.37300E+03
        -0.37300E+03
        -0.37300E+03
        -0.37300E+03
        -0.37300E+03
        -0.37300E+03
        -0.37300E+03
        -0.37300E+03
        -0.37300E+03
        -0.37300E+03
        -0.37300E+03
        -0.37300E+03
        -0.37300E+03
        -0.37300E+03
        -0.37300E+03
        -0.37300E+03
        -0.37300E+03
        -0.37300E+03
        -0.37300E+03
        -0.37300E+03
        -0.37300E+03
        -0.37300E+03
        -0.37300E+03
        -0.37300E+03
        -0.37300E+03
        -0.37300E+03
        -0.37300E+03
        -0.37300E+03
        -0.37300E+03
        -0.37300E+03
        -0.37300E+03
        -0.37300E+03
        -0.37300E+03
        -0.37300E+03
        -0.37300E+03
        -0.37300E+03
        -0.37300E+03
        -0.37300E+03
        -0.37300E+03
        -0.37300E+03
        -0.37300E+03
        -0.37300E+03
        -0.37300E+03
        -0.37300E+03
        -0.37300E+03
        -0.37300E+03
        -0.37300E+03
        -0.37300E+03
        -0.37300E+03
        -0.37300E+03
        -0.37300E+03
        -0.37300E+03
        -0.37300E+03
        -0.37300E+03
        -0.37300E+03
        -0.37300E+03
        -0.37300E+03
        -0.37300E+03
        -0.37300E+03
        -0.37300E+03
        -0.37300E+03
        -0.37300E+03
        -0.37300E+03
        -0.37300E+03
        -0.37300E+03
        -0.37300E+03
        -0.37300E+03
        -0.37300E+03
        -0.37300E+03
        -0.37300E+03
        -0.37300E+03
        -0.37300E+03
        -0.37300E+03
        -0.37300E+03
        -0.37300E+03
        -0.37300E+03
        -0.37300E+03
        -0.37300E+03
        -0.37300E+03
        -0.37300E+03
        -0.37300E+03
        -0.37300E+03
        -0.37300E+03
        -0.37300E+03
        -0.37300E+03
        -0.37300E+03
        -0.37300E+03
        -0.37300E+03
        -0.37300E+03
        -0.37300E+03
        -0.37300E+03
        -0.37300E+03
        -0.37300E+03
        -0.37300E+03
        -0.37300E+03
        -0.37300E+03
        -0.37300E+03
        -0.37300E+03
        -0.37300E+03
        -0.37300E+03
        -0.37300E+03
        -0.37300E+03
        -0.37300E+03
        -0.37300E+03
        -0.37300E+03
        -0.37300E+03
        -0.37300E+03
        -0.37300E+03
        -0.37300E+03
        -0.37300E+03
        -0.37300E+03
        -0.37300E+03
        -0.37300E+03
        -0.37300E+03
        -0.37300E+03
        -0.37300E+03
        -0.37300E+03
        -0.37300E+03
        -0.37300E+03
        -0.37300E+03
        -0.37300E+03
        -0.37300E+03
        -0.37300E+03
        -0.37300E+03
        -0.37300E+03
        -0.37300E+03
        -0.37300E+03
        -0.37300E+03
        -0.37300E+03
        -0.37300E+03
        -0.37300E+03
        -0.37300E+03
        -0.37300E+03
        -0.37300E+03
        -0.37300E+03
        -0.37300E+03
        -0.37300E+03
        -0.37300E+03
        -0.37300E+03
        -0.37300E+03
        -0.37300E+03
        -0.37300E+03
        -0.37300E+03
        -0.37300E+03
        -0.37300E+03
        -0.37300E+03
        -0.37300E+03
        -0.37300E+03
        -0.37300E+03
        -0.37300E+03
        -0.37300E+03
        -0.37300E+03
        -0.37300E+03
        -0.37300E+03
        -0.37300E+03
        -0.37300E+03
        -0.37300E+03
        -0.37300E+03
  
SCALARS              normalized_window  double 1
LOOKUP_TABLE default
         0.27500E+01
         0.27500E+01
         0.27500E+01
         0.27500E+01
         0.27500E+01
         0.27500E+01
         0.27500E+01
         0.27500E+01
         0.27500E+01
         0.27500E+01
         0.27500E+01
         0.27500E+01
         0.27500E+01
         0.27500E+01
         0.27500E+01
         0.27500E+01
         0.27500E+01
         0.27500E+01
         0.27500E+01
         0.27500E+01
         0.27500E+01
         0.27500E+01
         0.27500E+01
         0.27500E+01
         0.27500E+01
         0.27500E+01
         0.27500E+01
         0.27500E+01
         0.27500E+01
         0.27500E+01
         0.27500E+01
         0.27500E+01
         0.27500E+01
         0.27500E+01
         0.27500E+01
         0.27500E+01
         0.27500E+01
         0.27500E+01
         0.27500E+01
         0.27500E+01
         0.27500E+01
         0.27500E+01
         0.27500E+01
         0.27500E+01
         0.27500E+01
         0.27500E+01
         0.27500E+01
         0.27500E+01
         0.27500E+01
         0.27500E+01
         0.27500E+01
         0.27500E+01
         0.27500E+01
         0.27500E+01
         0.27500E+01
         0.27500E+01
         0.27500E+01
         0.27500E+01
         0.27500E+01
         0.27500E+01
         0.27500E+01
         0.27500E+01
         0.27500E+01
         0.27500E+01
         0.27500E+01
         0.27500E+01
         0.27500E+01
         0.27500E+01
         0.27500E+01
         0.27500E+01
         0.27500E+01
         0.27500E+01
         0.27500E+01
         0.27500E+01
         0.27500E+01
         0.27500E+01
         0.27500E+01
         0.27500E+01
         0.27500E+01
         0.27500E+01
         0.27500E+01
         0.27500E+01
         0.27500E+01
         0.27500E+01
         0.27500E+01
         0.27500E+01
         0.27500E+01
         0.27500E+01
         0.27500E+01
         0.27500E+01
         0.27500E+01
         0.27500E+01
         0.27500E+01
         0.27500E+01
         0.27500E+01
         0.27500E+01
         0.27500E+01
         0.27500E+01
         0.27500E+01
         0.27500E+01
         0.27500E+01
         0.27500E+01
         0.27500E+01
         0.27500E+01
         0.27500E+01
         0.27500E+01
         0.27500E+01
         0.27500E+01
         0.27500E+01
         0.27500E+01
         0.27500E+01
         0.27500E+01
         0.27500E+01
         0.27500E+01
         0.27500E+01
         0.27500E+01
         0.27500E+01
         0.27500E+01
         0.27500E+01
         0.27500E+01
         0.27500E+01
         0.27500E+01
         0.27500E+01
         0.27500E+01
         0.27500E+01
         0.27500E+01
         0.27500E+01
         0.27500E+01
         0.27500E+01
         0.27500E+01
         0.27500E+01
         0.27500E+01
         0.27500E+01
         0.27500E+01
         0.27500E+01
         0.27500E+01
         0.27500E+01
         0.27500E+01
         0.27500E+01
         0.27500E+01
         0.27500E+01
         0.27500E+01
         0.27500E+01
         0.27500E+01
         0.27500E+01
         0.27500E+01
         0.27500E+01
         0.27500E+01
         0.27500E+01
         0.27500E+01
         0.27500E+01
         0.27500E+01
         0.27500E+01
         0.27500E+01
         0.27500E+01
         0.27500E+01
         0.27500E+01
         0.27500E+01
         0.27500E+01
         0.27500E+01
         0.27500E+01
         0.27500E+01
         0.27500E+01
         0.27500E+01
         0.27500E+01
         0.27500E+01
         0.27500E+01
         0.27500E+01
         0.27500E+01
         0.27500E+01
         0.27500E+01
         0.27500E+01
         0.27500E+01
         0.27500E+01
         0.27500E+01
         0.27500E+01
         0.27500E+01
         0.27500E+01
         0.27500E+01
         0.27500E+01
         0.27500E+01
         0.27500E+01
         0.27500E+01
         0.27500E+01
         0.27500E+01
         0.27500E+01
         0.27500E+01
         0.27500E+01
         0.27500E+01
         0.27500E+01
         0.27500E+01
         0.27500E+01
         0.27500E+01
         0.27500E+01
         0.27500E+01
         0.27500E+01
         0.27500E+01
         0.27500E+01
         0.27500E+01
         0.27500E+01
         0.27500E+01
         0.27500E+01
         0.27500E+01
         0.27500E+01
         0.27500E+01
         0.27500E+01
         0.27500E+01
         0.27500E+01
         0.27500E+01
         0.27500E+01
         0.27500E+01
         0.27500E+01
         0.27500E+01
         0.27500E+01
         0.27500E+01
         0.27500E+01
         0.27500E+01
         0.27500E+01
         0.27500E+01
         0.27500E+01
         0.27500E+01
         0.27500E+01
         0.27500E+01
         0.27500E+01
         0.27500E+01
         0.27500E+01
         0.27500E+01
         0.27500E+01
         0.27500E+01
         0.27500E+01
         0.27500E+01
         0.27500E+01
         0.27500E+01
         0.27500E+01
         0.27500E+01
         0.27500E+01
         0.27500E+01
         0.27500E+01
         0.27500E+01
         0.27500E+01
         0.27500E+01
         0.27500E+01
         0.27500E+01
         0.27500E+01
         0.27500E+01
         0.27500E+01
         0.27500E+01
         0.27500E+01
         0.27500E+01
         0.27500E+01
         0.27500E+01
         0.27500E+01
         0.27500E+01
         0.27500E+01
         0.27500E+01
         0.27500E+01
         0.27500E+01
         0.27500E+01
         0.27500E+01
         0.27500E+01
         0.27500E+01
         0.27500E+01
         0.27500E+01
         0.27500E+01
         0.27500E+01
         0.27500E+01
         0.27500E+01
         0.27500E+01
         0.27500E+01
         0.27500E+01
         0.27500E+01
         0.27500E+01
         0.27500E+01
         0.27500E+01
         0.27500E+01
         0.27500E+01
         0.27500E+01
         0.27500E+01
         0.27500E+01
         0.27500E+01
         0.27500E+01
         0.27500E+01
         0.27500E+01
         0.27500E+01
         0.27500E+01
         0.27500E+01
         0.27500E+01
         0.27500E+01
         0.27500E+01
         0.27500E+01
         0.27500E+01
         0.27500E+01
         0.27500E+01
         0.27500E+01
         0.27500E+01
         0.27500E+01
         0.27500E+01
         0.27500E+01
         0.27500E+01
         0.27500E+01
         0.27500E+01
         0.27500E+01
         0.27500E+01
         0.27500E+01
         0.27500E+01
         0.27500E+01
         0.27500E+01
         0.27500E+01
         0.27500E+01
         0.27500E+01
         0.27500E+01
         0.27500E+01
         0.27500E+01
         0.27500E+01
         0.27500E+01
         0.27500E+01
         0.27500E+01
         0.27500E+01
         0.27500E+01
         0.27500E+01
         0.27500E+01
         0.27500E+01
         0.27500E+01
         0.27500E+01
         0.27500E+01
         0.27500E+01
         0.27500E+01
         0.27500E+01
         0.27500E+01
         0.27500E+01
         0.27500E+01
         0.27500E+01
         0.27500E+01
         0.27500E+01
         0.27500E+01
         0.27500E+01
         0.27500E+01
         0.27500E+01
         0.27500E+01
         0.27500E+01
         0.27500E+01
         0.27500E+01
         0.27500E+01
         0.27500E+01
         0.27500E+01
         0.27500E+01
         0.27500E+01
         0.27500E+01
         0.27500E+01
         0.27500E+01
         0.27500E+01
         0.27500E+01
         0.27500E+01
         0.27500E+01
         0.27500E+01
         0.27500E+01
         0.27500E+01
         0.27500E+01
         0.27500E+01
         0.27500E+01
         0.27500E+01
         0.27500E+01
         0.27500E+01
         0.27500E+01
         0.27500E+01
         0.27500E+01
         0.27500E+01
         0.27500E+01
         0.27500E+01
         0.27500E+01
         0.27500E+01
         0.27500E+01
         0.27500E+01
         0.27500E+01
         0.27500E+01
         0.27500E+01
         0.27500E+01
         0.27500E+01
         0.27500E+01
         0.27500E+01
         0.27500E+01
         0.27500E+01
         0.27500E+01
         0.27500E+01
         0.27500E+01
         0.27500E+01
         0.27500E+01
         0.27500E+01
         0.27500E+01
         0.27500E+01
         0.27500E+01
         0.27500E+01
         0.27500E+01
         0.27500E+01
         0.27500E+01
         0.27500E+01
         0.27500E+01
         0.27500E+01
         0.27500E+01
         0.27500E+01
         0.27500E+01
         0.27500E+01
         0.27500E+01
         0.27500E+01
         0.27500E+01
         0.27500E+01
         0.27500E+01
         0.27500E+01
         0.27500E+01
         0.27500E+01
         0.27500E+01
         0.27500E+01
         0.27500E+01
         0.27500E+01
         0.27500E+01
         0.27500E+01
         0.27500E+01
         0.27500E+01
         0.27500E+01
         0.27500E+01
         0.27500E+01
         0.27500E+01
         0.27500E+01
         0.27500E+01
         0.27500E+01
         0.27500E+01
         0.27500E+01
         0.27500E+01
         0.27500E+01
         0.27500E+01
         0.27500E+01
         0.27500E+01
         0.27500E+01
         0.27500E+01
         0.27500E+01
         0.27500E+01
         0.27500E+01
         0.27500E+01
         0.27500E+01
         0.27500E+01
         0.27500E+01
         0.27500E+01
         0.27500E+01
         0.27500E+01
         0.27500E+01
         0.27500E+01
         0.27500E+01
         0.27500E+01
         0.27500E+01
         0.27500E+01
         0.27500E+01
         0.27500E+01
         0.27500E+01
         0.27500E+01
         0.27500E+01
         0.27500E+01
         0.27500E+01
         0.27500E+01
         0.27500E+01
         0.27500E+01
         0.27500E+01
         0.27500E+01
         0.27500E+01
         0.27500E+01
         0.27500E+01
         0.27500E+01
         0.27500E+01
         0.27500E+01
         0.27500E+01
         0.27500E+01
         0.27500E+01
         0.27500E+01
         0.27500E+01
         0.27500E+01
         0.27500E+01
         0.27500E+01
         0.27500E+01
         0.27500E+01
         0.27500E+01
         0.27500E+01
         0.27500E+01
         0.27500E+01
         0.27500E+01
         0.27500E+01
         0.27500E+01
         0.27500E+01
         0.27500E+01
         0.27500E+01
         0.27500E+01
         0.27500E+01
         0.27500E+01
         0.27500E+01
         0.27500E+01
         0.27500E+01
         0.27500E+01
         0.27500E+01
         0.27500E+01
         0.27500E+01
         0.27500E+01
         0.27500E+01
         0.27500E+01
         0.27500E+01
         0.27500E+01
         0.27500E+01
         0.27500E+01
         0.27500E+01
         0.27500E+01
         0.27500E+01
         0.27500E+01
         0.27500E+01
         0.27500E+01
         0.27500E+01
         0.27500E+01
         0.27500E+01
         0.27500E+01
         0.27500E+01
         0.27500E+01
         0.27500E+01
         0.27500E+01
         0.27500E+01
         0.27500E+01
         0.27500E+01
         0.27500E+01
         0.27500E+01
         0.27500E+01
         0.27500E+01
         0.27500E+01
         0.27500E+01
         0.27500E+01
         0.27500E+01
         0.27500E+01
         0.27500E+01
         0.27500E+01
         0.27500E+01
         0.27500E+01
         0.27500E+01
         0.27500E+01
         0.27500E+01
         0.27500E+01
         0.27500E+01
         0.27500E+01
         0.27500E+01
         0.27500E+01
         0.27500E+01
         0.27500E+01
         0.27500E+01
         0.27500E+01
         0.27500E+01
         0.27500E+01
         0.27500E+01
         0.27500E+01
         0.27500E+01
         0.27500E+01
         0.27500E+01
         0.27500E+01
         0.27500E+01
         0.27500E+01
         0.27500E+01
         0.27500E+01
         0.27500E+01
         0.27500E+01
         0.27500E+01
         0.27500E+01
         0.27500E+01
         0.27500E+01
         0.27500E+01
         0.27500E+01
         0.27500E+01
         0.27500E+01
         0.27500E+01
         0.27500E+01
         0.27500E+01
         0.27500E+01
         0.27500E+01
         0.27500E+01
         0.27500E+01
         0.27500E+01
         0.27500E+01
         0.27500E+01
         0.27500E+01
         0.27500E+01
         0.27500E+01
         0.27500E+01
         0.27500E+01
         0.27500E+01
         0.27500E+01
         0.27500E+01
         0.27500E+01
         0.27500E+01
         0.27500E+01
         0.27500E+01
         0.27500E+01
         0.27500E+01
         0.27500E+01
         0.27500E+01
         0.27500E+01
         0.27500E+01
         0.27500E+01
         0.27500E+01
         0.27500E+01
         0.27500E+01
         0.27500E+01
         0.27500E+01
         0.27500E+01
         0.27500E+01
         0.27500E+01
         0.27500E+01
         0.27500E+01
         0.27500E+01
         0.27500E+01
         0.27500E+01
         0.27500E+01
         0.27500E+01
         0.27500E+01
         0.27500E+01
         0.27500E+01
         0.27500E+01
         0.27500E+01
         0.27500E+01
         0.27500E+01
         0.27500E+01
         0.27500E+01
         0.27500E+01
         0.27500E+01
         0.27500E+01
         0.27500E+01
         0.27500E+01
         0.27500E+01
         0.27500E+01
         0.27500E+01
         0.27500E+01
         0.27500E+01
         0.27500E+01
         0.27500E+01
         0.27500E+01
         0.27500E+01
         0.27500E+01
         0.27500E+01
         0.27500E+01
         0.27500E+01
         0.27500E+01
         0.27500E+01
         0.27500E+01
         0.27500E+01
         0.27500E+01
         0.27500E+01
         0.27500E+01
         0.27500E+01
         0.27500E+01
         0.27500E+01
         0.27500E+01
         0.27500E+01
         0.27500E+01
         0.27500E+01
         0.27500E+01
         0.27500E+01
         0.27500E+01
         0.27500E+01
         0.27500E+01
         0.27500E+01
         0.27500E+01
         0.27500E+01
         0.27500E+01
         0.27500E+01
         0.27500E+01
         0.27500E+01
         0.27500E+01
         0.27500E+01
         0.27500E+01
         0.27500E+01
         0.27500E+01
         0.27500E+01
         0.27500E+01
         0.27500E+01
         0.27500E+01
         0.27500E+01
         0.27500E+01
         0.27500E+01
         0.27500E+01
         0.27500E+01
         0.27500E+01
         0.27500E+01
         0.27500E+01
         0.27500E+01
         0.27500E+01
         0.27500E+01
         0.27500E+01
         0.27500E+01
         0.27500E+01
         0.27500E+01
         0.27500E+01
         0.27500E+01
         0.27500E+01
         0.27500E+01
         0.27500E+01
         0.27500E+01
         0.27500E+01
         0.27500E+01
         0.27500E+01
         0.27500E+01
         0.27500E+01
         0.27500E+01
         0.27500E+01
         0.27500E+01
         0.27500E+01
         0.27500E+01
         0.27500E+01
         0.27500E+01
         0.27500E+01
         0.27500E+01
         0.27500E+01
         0.27500E+01
         0.27500E+01
         0.27500E+01
         0.27500E+01
         0.27500E+01
         0.27500E+01
         0.27500E+01
         0.27500E+01
         0.27500E+01
         0.27500E+01
         0.27500E+01
         0.27500E+01
         0.27500E+01
         0.27500E+01
         0.27500E+01
         0.27500E+01
         0.27500E+01
         0.27500E+01
         0.27500E+01
         0.27500E+01
         0.27500E+01
         0.27500E+01
         0.27500E+01
         0.27500E+01
         0.27500E+01
         0.27500E+01
         0.27500E+01
         0.27500E+01
         0.27500E+01
         0.27500E+01
         0.27500E+01
         0.27500E+01
         0.27500E+01
         0.27500E+01
         0.27500E+01
         0.27500E+01
         0.27500E+01
         0.27500E+01
         0.27500E+01
         0.27500E+01
         0.27500E+01
         0.27500E+01
         0.27500E+01
         0.27500E+01
         0.27500E+01
         0.27500E+01
         0.27500E+01
         0.27500E+01
         0.27500E+01
         0.27500E+01
         0.27500E+01
         0.27500E+01
         0.27500E+01
         0.27500E+01
         0.27500E+01
         0.27500E+01
         0.27500E+01
         0.27500E+01
         0.27500E+01
         0.27500E+01
         0.27500E+01
         0.27500E+01
         0.27500E+01
         0.27500E+01
         0.27500E+01
         0.27500E+01
         0.27500E+01
         0.27500E+01
         0.27500E+01
         0.27500E+01
         0.27500E+01
         0.27500E+01
         0.27500E+01
         0.27500E+01
         0.27500E+01
         0.27500E+01
         0.27500E+01
         0.27500E+01
         0.27500E+01
         0.27500E+01
         0.27500E+01
         0.27500E+01
         0.27500E+01
         0.27500E+01
         0.27500E+01
         0.27500E+01
         0.27500E+01
         0.27500E+01
         0.27500E+01
         0.27500E+01
         0.27500E+01
         0.27500E+01
         0.27500E+01
         0.27500E+01
         0.27500E+01
         0.27500E+01
         0.27500E+01
         0.27500E+01
         0.27500E+01
         0.27500E+01
         0.27500E+01
         0.27500E+01
         0.27500E+01
         0.27500E+01
         0.27500E+01
         0.27500E+01
         0.27500E+01
         0.27500E+01
         0.27500E+01
         0.27500E+01
         0.27500E+01
         0.27500E+01
         0.27500E+01
         0.27500E+01
         0.27500E+01
         0.27500E+01
         0.27500E+01
         0.27500E+01
         0.27500E+01
         0.27500E+01
         0.27500E+01
         0.27500E+01
         0.27500E+01
         0.27500E+01
         0.27500E+01
         0.27500E+01
         0.27500E+01
         0.27500E+01
         0.27500E+01
         0.27500E+01
         0.27500E+01
         0.27500E+01
         0.27500E+01
         0.27500E+01
         0.27500E+01
         0.27500E+01
         0.27500E+01
         0.27500E+01
         0.27500E+01
         0.27500E+01
         0.27500E+01
         0.27500E+01
         0.27500E+01
         0.27500E+01
         0.27500E+01
         0.27500E+01
         0.27500E+01
         0.27500E+01
         0.27500E+01
         0.27500E+01
         0.27500E+01
         0.27500E+01
         0.27500E+01
         0.27500E+01
         0.27500E+01
         0.27500E+01
         0.27500E+01
         0.27500E+01
         0.27500E+01
         0.27500E+01
         0.27500E+01
         0.27500E+01
         0.27500E+01
         0.27500E+01
         0.27500E+01
         0.27500E+01
         0.27500E+01
         0.27500E+01
         0.27500E+01
         0.27500E+01
         0.27500E+01
         0.27500E+01
         0.27500E+01
         0.27500E+01
         0.27500E+01
         0.27500E+01
         0.27500E+01
         0.27500E+01
         0.27500E+01
         0.27500E+01
         0.27500E+01
         0.27500E+01
         0.27500E+01
         0.27500E+01
         0.27500E+01
         0.27500E+01
         0.27500E+01
         0.27500E+01
         0.27500E+01
         0.27500E+01
         0.27500E+01
         0.27500E+01
         0.27500E+01
         0.27500E+01
         0.27500E+01
         0.27500E+01
         0.27500E+01
         0.27500E+01
         0.27500E+01
         0.27500E+01
         0.27500E+01
         0.27500E+01
         0.27500E+01
         0.27500E+01
         0.27500E+01
         0.27500E+01
         0.27500E+01
         0.27500E+01
         0.27500E+01
         0.27500E+01
         0.27500E+01
         0.27500E+01
         0.27500E+01
         0.27500E+01
         0.27500E+01
         0.27500E+01
         0.27500E+01
         0.27500E+01
         0.27500E+01
         0.27500E+01
         0.27500E+01
         0.27500E+01
         0.27500E+01
         0.27500E+01
         0.27500E+01
         0.27500E+01
         0.27500E+01
         0.27500E+01
         0.27500E+01
         0.27500E+01
         0.27500E+01
         0.27500E+01
         0.27500E+01
         0.27500E+01
         0.27500E+01
         0.27500E+01
         0.27500E+01
         0.27500E+01
         0.27500E+01
         0.27500E+01
         0.27500E+01
         0.27500E+01
         0.27500E+01
         0.27500E+01
         0.27500E+01
         0.27500E+01
         0.27500E+01
         0.27500E+01
         0.27500E+01
         0.27500E+01
         0.27500E+01
         0.27500E+01
         0.27500E+01
         0.27500E+01
         0.27500E+01
         0.27500E+01
         0.27500E+01
         0.27500E+01
         0.27500E+01
         0.27500E+01
         0.27500E+01
         0.27500E+01
         0.27500E+01
         0.27500E+01
         0.27500E+01
         0.27500E+01
         0.27500E+01
         0.27500E+01
         0.27500E+01
         0.27500E+01
         0.27500E+01
         0.27500E+01
         0.27500E+01
         0.27500E+01
         0.27500E+01
         0.27500E+01
         0.27500E+01
         0.27500E+01
         0.27500E+01
         0.27500E+01
         0.27500E+01
         0.27500E+01
         0.27500E+01
         0.27500E+01
         0.27500E+01
         0.27500E+01
         0.27500E+01
         0.27500E+01
         0.27500E+01
         0.27500E+01
         0.27500E+01
         0.27500E+01
         0.27500E+01
         0.27500E+01
         0.27500E+01
         0.27500E+01
         0.27500E+01
         0.27500E+01
         0.27500E+01
         0.27500E+01
         0.27500E+01
         0.27500E+01
         0.27500E+01
         0.27500E+01
         0.27500E+01
         0.27500E+01
         0.27500E+01
         0.27500E+01
         0.27500E+01
         0.27500E+01
         0.27500E+01
         0.27500E+01
         0.27500E+01
         0.27500E+01
         0.27500E+01
         0.27500E+01
         0.27500E+01
         0.27500E+01
         0.27500E+01
         0.27500E+01
         0.27500E+01
         0.27500E+01
         0.27500E+01
         0.27500E+01
         0.27500E+01
         0.27500E+01
         0.27500E+01
         0.27500E+01
         0.27500E+01
         0.27500E+01
         0.27500E+01
         0.27500E+01
         0.27500E+01
         0.27500E+01
         0.27500E+01
         0.27500E+01
         0.27500E+01
         0.27500E+01
         0.27500E+01
         0.27500E+01
         0.27500E+01
         0.27500E+01
         0.27500E+01
         0.27500E+01
         0.27500E+01
         0.27500E+01
         0.27500E+01
         0.27500E+01
         0.27500E+01
         0.27500E+01
         0.27500E+01
         0.27500E+01
         0.27500E+01
         0.27500E+01
         0.27500E+01
         0.27500E+01
         0.27500E+01
         0.27500E+01
         0.27500E+01
         0.27500E+01
         0.27500E+01
         0.27500E+01
         0.27500E+01
         0.27500E+01
         0.27500E+01
         0.27500E+01
         0.27500E+01
         0.27500E+01
         0.27500E+01
         0.27500E+01
         0.27500E+01
         0.27500E+01
         0.27500E+01
         0.27500E+01
         0.27500E+01
         0.27500E+01
         0.27500E+01
         0.27500E+01
         0.27500E+01
         0.27500E+01
         0.27500E+01
         0.27500E+01
         0.27500E+01
         0.27500E+01
         0.27500E+01
         0.27500E+01
         0.27500E+01
         0.27500E+01
         0.27500E+01
         0.27500E+01
         0.27500E+01
         0.27500E+01
         0.27500E+01
         0.27500E+01
         0.27500E+01
         0.27500E+01
         0.27500E+01
         0.27500E+01
         0.27500E+01
         0.27500E+01
         0.27500E+01
         0.27500E+01
         0.27500E+01
         0.27500E+01
         0.27500E+01
         0.27500E+01
         0.27500E+01
         0.27500E+01
         0.27500E+01
         0.27500E+01
         0.27500E+01
         0.27500E+01
         0.27500E+01
         0.27500E+01
         0.27500E+01
         0.27500E+01
         0.27500E+01
         0.27500E+01
         0.27500E+01
         0.27500E+01
         0.27500E+01
         0.27500E+01
         0.27500E+01
         0.27500E+01
         0.27500E+01
         0.27500E+01
         0.27500E+01
         0.27500E+01
         0.27500E+01
         0.27500E+01
         0.27500E+01
         0.27500E+01
         0.27500E+01
         0.27500E+01
         0.27500E+01
         0.27500E+01
         0.27500E+01
         0.27500E+01
         0.27500E+01
         0.27500E+01
         0.27500E+01
         0.27500E+01
         0.27500E+01
         0.27500E+01
         0.27500E+01
         0.27500E+01
         0.27500E+01
         0.27500E+01
         0.27500E+01
         0.27500E+01
         0.27500E+01
         0.27500E+01
         0.27500E+01
         0.27500E+01
         0.27500E+01
         0.27500E+01
         0.27500E+01
         0.27500E+01
         0.27500E+01
         0.27500E+01
         0.27500E+01
         0.27500E+01
         0.27500E+01
         0.27500E+01
         0.27500E+01
         0.27500E+01
         0.27500E+01
         0.27500E+01
         0.27500E+01
         0.27500E+01
         0.27500E+01
         0.27500E+01
         0.27500E+01
         0.27500E+01
         0.27500E+01
         0.27500E+01
         0.27500E+01
         0.27500E+01
         0.27500E+01
         0.27500E+01
         0.27500E+01
         0.27500E+01
         0.27500E+01
         0.27500E+01
         0.27500E+01
         0.27500E+01
         0.27500E+01
         0.27500E+01
         0.27500E+01
         0.27500E+01
         0.27500E+01
         0.27500E+01
         0.27500E+01
         0.27500E+01
         0.27500E+01
         0.27500E+01
         0.27500E+01
         0.27500E+01
         0.27500E+01
         0.27500E+01
         0.27500E+01
         0.27500E+01
         0.27500E+01
         0.27500E+01
         0.27500E+01
         0.27500E+01
         0.27500E+01
         0.27500E+01
         0.27500E+01
         0.27500E+01
         0.27500E+01
         0.27500E+01
         0.27500E+01
         0.27500E+01
         0.27500E+01
         0.27500E+01
         0.27500E+01
         0.27500E+01
         0.27500E+01
         0.27500E+01
         0.27500E+01
         0.27500E+01
         0.27500E+01
         0.27500E+01
         0.27500E+01
         0.27500E+01
         0.27500E+01
         0.27500E+01
         0.27500E+01
         0.27500E+01
         0.27500E+01
         0.27500E+01
         0.27500E+01
         0.27500E+01
         0.27500E+01
         0.27500E+01
         0.27500E+01
         0.27500E+01
         0.27500E+01
         0.27500E+01
         0.27500E+01
         0.27500E+01
         0.27500E+01
         0.27500E+01
         0.27500E+01
         0.27500E+01
         0.27500E+01
         0.27500E+01
         0.27500E+01
         0.27500E+01
         0.27500E+01
         0.27500E+01
         0.27500E+01
         0.27500E+01
         0.27500E+01
         0.27500E+01
         0.27500E+01
         0.27500E+01
         0.27500E+01
         0.27500E+01
         0.27500E+01
         0.27500E+01
         0.27500E+01
         0.27500E+01
         0.27500E+01
         0.27500E+01
         0.27500E+01
         0.27500E+01
         0.27500E+01
         0.27500E+01
         0.27500E+01
         0.27500E+01
         0.27500E+01
         0.27500E+01
         0.27500E+01
         0.27500E+01
         0.27500E+01
         0.27500E+01
         0.27500E+01
         0.27500E+01
         0.27500E+01
         0.27500E+01
         0.27500E+01
         0.27500E+01
         0.27500E+01
         0.27500E+01
         0.27500E+01
         0.27500E+01
         0.27500E+01
         0.27500E+01
         0.27500E+01
         0.27500E+01
         0.27500E+01
         0.27500E+01
         0.27500E+01
         0.27500E+01
         0.27500E+01
         0.27500E+01
         0.27500E+01
         0.27500E+01
         0.27500E+01
         0.27500E+01
         0.27500E+01
         0.27500E+01
         0.27500E+01
         0.27500E+01
         0.27500E+01
         0.27500E+01
         0.27500E+01
         0.27500E+01
         0.27500E+01
         0.27500E+01
         0.27500E+01
         0.27500E+01
         0.27500E+01
         0.27500E+01
         0.27500E+01
         0.27500E+01
         0.27500E+01
         0.27500E+01
         0.27500E+01
         0.27500E+01
         0.27500E+01
         0.27500E+01
         0.27500E+01
         0.27500E+01
         0.27500E+01
         0.27500E+01
         0.27500E+01
         0.27500E+01
         0.27500E+01
         0.27500E+01
         0.27500E+01
         0.27500E+01
         0.27500E+01
         0.27500E+01
         0.27500E+01
         0.27500E+01
         0.27500E+01
         0.27500E+01
         0.27500E+01
         0.27500E+01
         0.27500E+01
         0.27500E+01
         0.27500E+01
         0.27500E+01
         0.27500E+01
         0.27500E+01
         0.27500E+01
         0.27500E+01
         0.27500E+01
         0.27500E+01
         0.27500E+01
         0.27500E+01
         0.27500E+01
         0.27500E+01
         0.27500E+01
         0.27500E+01
         0.27500E+01
         0.27500E+01
         0.27500E+01
         0.27500E+01
         0.27500E+01
         0.27500E+01
         0.27500E+01
         0.27500E+01
         0.27500E+01
         0.27500E+01
         0.27500E+01
         0.27500E+01
         0.27500E+01
         0.27500E+01
         0.27500E+01
         0.27500E+01
         0.27500E+01
         0.27500E+01
         0.27500E+01
         0.27500E+01
         0.27500E+01
         0.27500E+01
         0.27500E+01
         0.27500E+01
         0.27500E+01
         0.27500E+01
         0.27500E+01
         0.27500E+01
         0.27500E+01
         0.27500E+01
         0.27500E+01
         0.27500E+01
         0.27500E+01
         0.27500E+01
         0.27500E+01
         0.27500E+01
         0.27500E+01
         0.27500E+01
         0.27500E+01
         0.27500E+01
         0.27500E+01
         0.27500E+01
         0.27500E+01
         0.27500E+01
         0.27500E+01
         0.27500E+01
         0.27500E+01
         0.27500E+01
         0.27500E+01
         0.27500E+01
         0.27500E+01
         0.27500E+01
         0.27500E+01
         0.27500E+01
         0.27500E+01
         0.27500E+01
         0.27500E+01
         0.27500E+01
         0.27500E+01
         0.27500E+01
         0.27500E+01
         0.27500E+01
         0.27500E+01
         0.27500E+01
         0.27500E+01
         0.27500E+01
         0.27500E+01
         0.27500E+01
         0.27500E+01
         0.27500E+01
         0.27500E+01
         0.27500E+01
         0.27500E+01
         0.27500E+01
         0.27500E+01
         0.27500E+01
         0.27500E+01
         0.27500E+01
         0.27500E+01
         0.27500E+01
         0.27500E+01
         0.27500E+01
         0.27500E+01
         0.27500E+01
         0.27500E+01
         0.27500E+01
         0.27500E+01
         0.27500E+01
         0.27500E+01
         0.27500E+01
         0.27500E+01
         0.27500E+01
         0.27500E+01
         0.27500E+01
         0.27500E+01
         0.27500E+01
         0.27500E+01
         0.27500E+01
         0.27500E+01
         0.27500E+01
         0.27500E+01
         0.27500E+01
         0.27500E+01
         0.27500E+01
         0.27500E+01
         0.27500E+01
         0.27500E+01
         0.27500E+01
         0.27500E+01
         0.27500E+01
         0.27500E+01
         0.27500E+01
         0.27500E+01
         0.27500E+01
         0.27500E+01
         0.27500E+01
         0.27500E+01
         0.27500E+01
         0.27500E+01
         0.27500E+01
         0.27500E+01
         0.27500E+01
         0.27500E+01
         0.27500E+01
         0.27500E+01
         0.27500E+01
         0.27500E+01
         0.27500E+01
         0.27500E+01
         0.27500E+01
         0.27500E+01
         0.27500E+01
         0.27500E+01
         0.27500E+01
         0.27500E+01
         0.27500E+01
         0.27500E+01
         0.27500E+01
         0.27500E+01
         0.27500E+01
         0.27500E+01
         0.27500E+01
         0.27500E+01
         0.27500E+01
         0.27500E+01
         0.27500E+01
         0.27500E+01
         0.27500E+01
         0.27500E+01
         0.27500E+01
         0.27500E+01
         0.27500E+01
         0.27500E+01
         0.27500E+01
         0.27500E+01
         0.27500E+01
         0.27500E+01
         0.27500E+01
         0.27500E+01
         0.27500E+01
         0.27500E+01
         0.27500E+01
         0.27500E+01
         0.27500E+01
         0.27500E+01
         0.27500E+01
         0.27500E+01
         0.27500E+01
         0.27500E+01
         0.27500E+01
         0.27500E+01
         0.27500E+01
         0.27500E+01
         0.27500E+01
         0.27500E+01
         0.27500E+01
         0.27500E+01
         0.27500E+01
         0.27500E+01
         0.27500E+01
         0.27500E+01
         0.27500E+01
         0.27500E+01
         0.27500E+01
         0.27500E+01
         0.27500E+01
         0.27500E+01
         0.27500E+01
         0.27500E+01
         0.27500E+01
         0.27500E+01
         0.27500E+01
         0.27500E+01
         0.27500E+01
         0.27500E+01
         0.27500E+01
         0.27500E+01
         0.27500E+01
         0.27500E+01
         0.27500E+01
         0.27500E+01
         0.27500E+01
         0.27500E+01
         0.27500E+01
         0.27500E+01
         0.27500E+01
         0.27500E+01
         0.27500E+01
         0.27500E+01
         0.27500E+01
         0.27500E+01
         0.27500E+01
         0.27500E+01
         0.27500E+01
         0.27500E+01
         0.27500E+01
         0.27500E+01
         0.27500E+01
         0.27500E+01
         0.27500E+01
         0.27500E+01
         0.27500E+01
         0.27500E+01
         0.27500E+01
         0.27500E+01
         0.27500E+01
         0.27500E+01
         0.27500E+01
         0.27500E+01
         0.27500E+01
         0.27500E+01
         0.27500E+01
         0.27500E+01
         0.27500E+01
         0.27500E+01
         0.27500E+01
         0.27500E+01
         0.27500E+01
         0.27500E+01
         0.27500E+01
         0.27500E+01
         0.27500E+01
         0.27500E+01
         0.27500E+01
         0.27500E+01
         0.27500E+01
         0.27500E+01
         0.27500E+01
         0.27500E+01
         0.27500E+01
         0.27500E+01
         0.27500E+01
         0.27500E+01
         0.27500E+01
         0.27500E+01
         0.27500E+01
         0.27500E+01
         0.27500E+01
         0.27500E+01
         0.27500E+01
         0.27500E+01
         0.27500E+01
         0.27500E+01
         0.27500E+01
         0.27500E+01
         0.27500E+01
         0.27500E+01
         0.27500E+01
         0.27500E+01
         0.27500E+01
         0.27500E+01
         0.27500E+01
         0.27500E+01
         0.27500E+01
         0.27500E+01
         0.27500E+01
         0.27500E+01
         0.27500E+01
         0.27500E+01
         0.27500E+01
         0.27500E+01
         0.27500E+01
         0.27500E+01
         0.27500E+01
         0.27500E+01
         0.27500E+01
         0.27500E+01
         0.27500E+01
         0.27500E+01
         0.27500E+01
         0.27500E+01
         0.27500E+01
         0.27500E+01
         0.27500E+01
         0.27500E+01
         0.27500E+01
         0.27500E+01
         0.27500E+01
         0.27500E+01
         0.27500E+01
         0.27500E+01
         0.27500E+01
         0.27500E+01
         0.27500E+01
         0.27500E+01
         0.27500E+01
         0.27500E+01
         0.27500E+01
         0.27500E+01
         0.27500E+01
         0.27500E+01
         0.27500E+01
         0.27500E+01
         0.27500E+01
         0.27500E+01
         0.27500E+01
         0.27500E+01
         0.27500E+01
         0.27500E+01
         0.27500E+01
         0.27500E+01
         0.27500E+01
         0.27500E+01
         0.27500E+01
         0.27500E+01
         0.27500E+01
         0.27500E+01
         0.27500E+01
         0.27500E+01
         0.27500E+01
         0.27500E+01
         0.27500E+01
         0.27500E+01
         0.27500E+01
         0.27500E+01
         0.27500E+01
         0.27500E+01
         0.27500E+01
         0.27500E+01
         0.27500E+01
         0.27500E+01
         0.27500E+01
         0.27500E+01
         0.27500E+01
         0.27500E+01
         0.27500E+01
         0.27500E+01
         0.27500E+01
         0.27500E+01
         0.27500E+01
         0.27500E+01
         0.27500E+01
         0.27500E+01
         0.27500E+01
         0.27500E+01
         0.27500E+01
         0.27500E+01
         0.27500E+01
         0.27500E+01
         0.27500E+01
         0.27500E+01
         0.27500E+01
         0.27500E+01
         0.27500E+01
         0.27500E+01
         0.27500E+01
         0.27500E+01
         0.27500E+01
         0.27500E+01
         0.27500E+01
         0.27500E+01
         0.27500E+01
         0.27500E+01
         0.27500E+01
         0.27500E+01
         0.27500E+01
         0.27500E+01
         0.27500E+01
         0.27500E+01
         0.27500E+01
         0.27500E+01
         0.27500E+01
         0.27500E+01
         0.27500E+01
         0.27500E+01
         0.27500E+01
         0.27500E+01
         0.27500E+01
         0.27500E+01
         0.27500E+01
         0.27500E+01
         0.27500E+01
         0.27500E+01
         0.27500E+01
         0.27500E+01
         0.27500E+01
         0.27500E+01
         0.27500E+01
         0.27500E+01
         0.27500E+01
         0.27500E+01
         0.27500E+01
         0.27500E+01
         0.27500E+01
         0.27500E+01
         0.27500E+01
         0.27500E+01
         0.27500E+01
         0.27500E+01
         0.27500E+01
         0.27500E+01
         0.27500E+01
         0.27500E+01
         0.27500E+01
         0.27500E+01
         0.27500E+01
         0.27500E+01
         0.27500E+01
         0.27500E+01
         0.27500E+01
         0.27500E+01
         0.27500E+01
         0.27500E+01
         0.27500E+01
         0.27500E+01
         0.27500E+01
         0.27500E+01
         0.27500E+01
         0.27500E+01
         0.27500E+01
         0.27500E+01
         0.27500E+01
         0.27500E+01
         0.27500E+01
         0.27500E+01
         0.27500E+01
         0.27500E+01
         0.27500E+01
         0.27500E+01
         0.27500E+01
         0.27500E+01
         0.27500E+01
         0.27500E+01
         0.27500E+01
         0.27500E+01
         0.27500E+01
         0.27500E+01
         0.27500E+01
         0.27500E+01
         0.27500E+01
         0.27500E+01
         0.27500E+01
         0.27500E+01
         0.27500E+01
         0.27500E+01
         0.27500E+01
         0.27500E+01
         0.27500E+01
         0.27500E+01
         0.27500E+01
         0.27500E+01
         0.27500E+01
         0.27500E+01
         0.27500E+01
         0.27500E+01
         0.27500E+01
         0.27500E+01
         0.27500E+01
         0.27500E+01
         0.27500E+01
         0.27500E+01
         0.27500E+01
         0.27500E+01
         0.27500E+01
         0.27500E+01
         0.27500E+01
         0.27500E+01
         0.27500E+01
         0.27500E+01
         0.27500E+01
         0.27500E+01
         0.27500E+01
         0.27500E+01
         0.27500E+01
         0.27500E+01
         0.27500E+01
         0.27500E+01
         0.27500E+01
         0.27500E+01
         0.27500E+01
         0.27500E+01
         0.27500E+01
         0.27500E+01
         0.27500E+01
         0.27500E+01
         0.27500E+01
         0.27500E+01
         0.27500E+01
         0.27500E+01
         0.27500E+01
         0.27500E+01
         0.27500E+01
         0.27500E+01
         0.27500E+01
         0.27500E+01
         0.27500E+01
         0.27500E+01
         0.27500E+01
         0.27500E+01
         0.27500E+01
         0.27500E+01
         0.27500E+01
         0.27500E+01
         0.27500E+01
         0.27500E+01
         0.27500E+01
         0.27500E+01
         0.27500E+01
         0.27500E+01
         0.27500E+01
         0.27500E+01
         0.27500E+01
         0.27500E+01
         0.27500E+01
         0.27500E+01
         0.27500E+01
         0.27500E+01
         0.27500E+01
         0.27500E+01
         0.27500E+01
         0.27500E+01
         0.27500E+01
         0.27500E+01
         0.27500E+01
         0.27500E+01
         0.27500E+01
         0.27500E+01
         0.27500E+01
         0.27500E+01
         0.27500E+01
         0.27500E+01
         0.27500E+01
         0.27500E+01
         0.27500E+01
         0.27500E+01
         0.27500E+01
         0.27500E+01
         0.27500E+01
         0.27500E+01
         0.27500E+01
         0.27500E+01
         0.27500E+01
         0.27500E+01
         0.27500E+01
         0.27500E+01
         0.27500E+01
         0.27500E+01
         0.27500E+01
         0.27500E+01
         0.27500E+01
         0.27500E+01
         0.27500E+01
         0.27500E+01
         0.27500E+01
         0.27500E+01
         0.27500E+01
         0.27500E+01
         0.27500E+01
         0.27500E+01
         0.27500E+01
         0.27500E+01
         0.27500E+01
         0.27500E+01
         0.27500E+01
         0.27500E+01
         0.27500E+01
         0.27500E+01
         0.27500E+01
         0.27500E+01
         0.27500E+01
         0.27500E+01
  
SCALARS              physical_window_x  double 1
LOOKUP_TABLE default
         0.42419E-02
         0.35201E-02
         0.37624E-02
         0.42419E-02
         0.42417E-02
         0.35201E-02
         0.37618E-02
         0.42417E-02
         0.37624E-02
         0.37624E-02
         0.37618E-02
         0.37618E-02
         0.30086E-02
         0.32069E-02
         0.30084E-02
         0.32067E-02
         0.42419E-02
         0.32069E-02
         0.42417E-02
         0.32067E-02
         0.24180E-02
         0.29942E-02
         0.32396E-02
         0.24180E-02
         0.29933E-02
         0.32385E-02
         0.26608E-02
         0.27190E-02
         0.26608E-02
         0.27190E-02
         0.42687E-02
         0.36511E-02
         0.42687E-02
         0.42687E-02
         0.36511E-02
         0.42687E-02
         0.32069E-02
         0.29739E-02
         0.32066E-02
         0.29739E-02
         0.34652E-02
         0.32621E-02
         0.34652E-02
         0.32621E-02
         0.37123E-02
         0.32069E-02
         0.37123E-02
         0.32066E-02
         0.30844E-02
         0.30844E-02
         0.35191E-02
         0.35189E-02
         0.26925E-02
         0.26925E-02
         0.26925E-02
         0.26925E-02
         0.24643E-02
         0.27651E-02
         0.24643E-02
         0.27651E-02
         0.42687E-02
         0.35191E-02
         0.42687E-02
         0.35189E-02
         0.42687E-02
         0.42687E-02
         0.34658E-02
         0.34648E-02
         0.27274E-02
         0.31799E-02
         0.27273E-02
         0.31796E-02
         0.32396E-02
         0.32385E-02
         0.26964E-02
         0.26960E-02
         0.27828E-02
         0.27828E-02
         0.27828E-02
         0.27828E-02
         0.27004E-02
         0.31883E-02
         0.27003E-02
         0.31880E-02
         0.31883E-02
         0.31880E-02
         0.37123E-02
         0.37123E-02
         0.36245E-02
         0.36245E-02
         0.28253E-02
         0.31642E-02
         0.28253E-02
         0.31636E-02
         0.33485E-02
         0.33485E-02
         0.33485E-02
         0.33485E-02
         0.31978E-02
         0.31969E-02
         0.29849E-02
         0.32843E-02
         0.29849E-02
         0.32843E-02
         0.27274E-02
         0.31109E-02
         0.27273E-02
         0.31109E-02
         0.31799E-02
         0.31796E-02
         0.32396E-02
         0.32385E-02
         0.32396E-02
         0.32385E-02
         0.29942E-02
         0.29933E-02
         0.27190E-02
         0.27190E-02
         0.26964E-02
         0.26960E-02
         0.27828E-02
         0.27828E-02
         0.27828E-02
         0.27828E-02
         0.27004E-02
         0.27003E-02
         0.31883E-02
         0.31880E-02
         0.31883E-02
         0.31880E-02
         0.32621E-02
         0.32621E-02
         0.34652E-02
         0.34652E-02
         0.37123E-02
         0.37123E-02
         0.37123E-02
         0.37123E-02
         0.36245E-02
         0.36245E-02
         0.28253E-02
         0.28253E-02
         0.29097E-02
         0.29087E-02
         0.32389E-02
         0.32378E-02
         0.32389E-02
         0.32378E-02
         0.31978E-02
         0.31969E-02
         0.29849E-02
         0.29849E-02
         0.32843E-02
         0.32843E-02
         0.32843E-02
         0.32843E-02
         0.42420E-02
         0.35201E-02
         0.37629E-02
         0.42420E-02
         0.37629E-02
         0.37629E-02
         0.30087E-02
         0.32071E-02
         0.42420E-02
         0.32071E-02
         0.24178E-02
         0.29952E-02
         0.32407E-02
         0.26596E-02
         0.27191E-02
         0.42679E-02
         0.36502E-02
         0.42679E-02
         0.32071E-02
         0.29727E-02
         0.34648E-02
         0.32622E-02
         0.37119E-02
         0.32071E-02
         0.30833E-02
         0.35193E-02
         0.26910E-02
         0.26910E-02
         0.24638E-02
         0.27644E-02
         0.42679E-02
         0.35193E-02
         0.42679E-02
         0.34670E-02
         0.27274E-02
         0.31802E-02
         0.32407E-02
         0.26968E-02
         0.27828E-02
         0.27828E-02
         0.27005E-02
         0.31885E-02
         0.31885E-02
         0.37119E-02
         0.36244E-02
         0.28250E-02
         0.31647E-02
         0.33484E-02
         0.33484E-02
         0.31986E-02
         0.29848E-02
         0.32841E-02
         0.27274E-02
         0.31099E-02
         0.31802E-02
         0.32407E-02
         0.32407E-02
         0.29952E-02
         0.27191E-02
         0.26968E-02
         0.27828E-02
         0.27828E-02
         0.27005E-02
         0.31885E-02
         0.31885E-02
         0.32622E-02
         0.34648E-02
         0.37119E-02
         0.37119E-02
         0.36244E-02
         0.28250E-02
         0.29106E-02
         0.32401E-02
         0.32401E-02
         0.31986E-02
         0.29848E-02
         0.32841E-02
         0.32841E-02
         0.42421E-02
         0.35201E-02
         0.37634E-02
         0.42421E-02
         0.37634E-02
         0.37634E-02
         0.30089E-02
         0.32073E-02
         0.42421E-02
         0.32073E-02
         0.24177E-02
         0.29961E-02
         0.32418E-02
         0.26584E-02
         0.27191E-02
         0.42670E-02
         0.36493E-02
         0.42670E-02
         0.32073E-02
         0.29714E-02
         0.34644E-02
         0.32623E-02
         0.37115E-02
         0.32073E-02
         0.30822E-02
         0.35195E-02
         0.26896E-02
         0.26896E-02
         0.24633E-02
         0.27638E-02
         0.42670E-02
         0.35195E-02
         0.42670E-02
         0.34681E-02
         0.27275E-02
         0.31805E-02
         0.32418E-02
         0.26972E-02
         0.27828E-02
         0.27828E-02
         0.27006E-02
         0.31888E-02
         0.31888E-02
         0.37115E-02
         0.36243E-02
         0.28247E-02
         0.31652E-02
         0.33483E-02
         0.33483E-02
         0.31995E-02
         0.29847E-02
         0.32839E-02
         0.27275E-02
         0.31090E-02
         0.31805E-02
         0.32418E-02
         0.32418E-02
         0.29961E-02
         0.27191E-02
         0.26972E-02
         0.27828E-02
         0.27828E-02
         0.27006E-02
         0.31888E-02
         0.31888E-02
         0.32623E-02
         0.34644E-02
         0.37115E-02
         0.37115E-02
         0.36243E-02
         0.28247E-02
         0.29116E-02
         0.32412E-02
         0.32412E-02
         0.31995E-02
         0.29847E-02
         0.32839E-02
         0.32839E-02
         0.42423E-02
         0.35200E-02
         0.37639E-02
         0.42423E-02
         0.37639E-02
         0.37639E-02
         0.30091E-02
         0.32075E-02
         0.42423E-02
         0.32075E-02
         0.24176E-02
         0.29970E-02
         0.32428E-02
         0.26572E-02
         0.27192E-02
         0.42662E-02
         0.36483E-02
         0.42662E-02
         0.32075E-02
         0.29702E-02
         0.34639E-02
         0.32624E-02
         0.37111E-02
         0.32075E-02
         0.30811E-02
         0.35197E-02
         0.26881E-02
         0.26881E-02
         0.24628E-02
         0.27631E-02
         0.42662E-02
         0.35197E-02
         0.42662E-02
         0.34692E-02
         0.27276E-02
         0.31808E-02
         0.32428E-02
         0.26975E-02
         0.27828E-02
         0.27828E-02
         0.27007E-02
         0.31890E-02
         0.31890E-02
         0.37111E-02
         0.36242E-02
         0.28243E-02
         0.31658E-02
         0.33482E-02
         0.33482E-02
         0.32003E-02
         0.29846E-02
         0.32837E-02
         0.27276E-02
         0.31081E-02
         0.31808E-02
         0.32428E-02
         0.32428E-02
         0.29970E-02
         0.27192E-02
         0.26975E-02
         0.27828E-02
         0.27828E-02
         0.27007E-02
         0.31890E-02
         0.31890E-02
         0.32624E-02
         0.34639E-02
         0.37111E-02
         0.37111E-02
         0.36242E-02
         0.28243E-02
         0.29125E-02
         0.32423E-02
         0.32423E-02
         0.32003E-02
         0.29846E-02
         0.32837E-02
         0.32837E-02
         0.42424E-02
         0.35200E-02
         0.37644E-02
         0.42424E-02
         0.37644E-02
         0.37644E-02
         0.30093E-02
         0.32077E-02
         0.42424E-02
         0.32077E-02
         0.24174E-02
         0.29979E-02
         0.32439E-02
         0.26559E-02
         0.27192E-02
         0.42653E-02
         0.36474E-02
         0.42653E-02
         0.32077E-02
         0.29690E-02
         0.34635E-02
         0.32624E-02
         0.37108E-02
         0.32077E-02
         0.30799E-02
         0.35199E-02
         0.26867E-02
         0.26867E-02
         0.24623E-02
         0.27625E-02
         0.42653E-02
         0.35199E-02
         0.42653E-02
         0.34703E-02
         0.27276E-02
         0.31812E-02
         0.32439E-02
         0.26979E-02
         0.27828E-02
         0.27828E-02
         0.27008E-02
         0.31893E-02
         0.31893E-02
         0.37108E-02
         0.36241E-02
         0.28240E-02
         0.31663E-02
         0.33481E-02
         0.33481E-02
         0.32012E-02
         0.29844E-02
         0.32835E-02
         0.27276E-02
         0.31071E-02
         0.31812E-02
         0.32439E-02
         0.32439E-02
         0.29979E-02
         0.27192E-02
         0.26979E-02
         0.27828E-02
         0.27828E-02
         0.27008E-02
         0.31893E-02
         0.31893E-02
         0.32624E-02
         0.34635E-02
         0.37108E-02
         0.37108E-02
         0.36241E-02
         0.28240E-02
         0.29135E-02
         0.32434E-02
         0.32434E-02
         0.32012E-02
         0.29844E-02
         0.32835E-02
         0.32835E-02
         0.42425E-02
         0.35200E-02
         0.37649E-02
         0.42425E-02
         0.37649E-02
         0.37649E-02
         0.30095E-02
         0.32079E-02
         0.42425E-02
         0.32079E-02
         0.24173E-02
         0.29989E-02
         0.32450E-02
         0.26547E-02
         0.27193E-02
         0.42645E-02
         0.36465E-02
         0.42645E-02
         0.32079E-02
         0.29677E-02
         0.34631E-02
         0.32625E-02
         0.37104E-02
         0.32079E-02
         0.30788E-02
         0.35201E-02
         0.26852E-02
         0.26852E-02
         0.24618E-02
         0.27618E-02
         0.42645E-02
         0.35201E-02
         0.42645E-02
         0.34715E-02
         0.27277E-02
         0.31815E-02
         0.32450E-02
         0.26983E-02
         0.27828E-02
         0.27828E-02
         0.27009E-02
         0.31895E-02
         0.31895E-02
         0.37104E-02
         0.36239E-02
         0.28237E-02
         0.31668E-02
         0.33480E-02
         0.33480E-02
         0.32020E-02
         0.29843E-02
         0.32833E-02
         0.27277E-02
         0.31062E-02
         0.31815E-02
         0.32450E-02
         0.32450E-02
         0.29989E-02
         0.27193E-02
         0.26983E-02
         0.27828E-02
         0.27828E-02
         0.27009E-02
         0.31895E-02
         0.31895E-02
         0.32625E-02
         0.34631E-02
         0.37104E-02
         0.37104E-02
         0.36239E-02
         0.28237E-02
         0.29145E-02
         0.32445E-02
         0.32445E-02
         0.32020E-02
         0.29843E-02
         0.32833E-02
         0.32833E-02
         0.42427E-02
         0.35200E-02
         0.37654E-02
         0.42427E-02
         0.37654E-02
         0.37654E-02
         0.30097E-02
         0.32081E-02
         0.42427E-02
         0.32081E-02
         0.24171E-02
         0.29998E-02
         0.32461E-02
         0.26535E-02
         0.27193E-02
         0.42636E-02
         0.36455E-02
         0.42636E-02
         0.32081E-02
         0.29665E-02
         0.34626E-02
         0.32626E-02
         0.37100E-02
         0.32081E-02
         0.30777E-02
         0.35203E-02
         0.26838E-02
         0.26838E-02
         0.24613E-02
         0.27611E-02
         0.42636E-02
         0.35203E-02
         0.42636E-02
         0.34726E-02
         0.27278E-02
         0.31818E-02
         0.32461E-02
         0.26987E-02
         0.27827E-02
         0.27827E-02
         0.27010E-02
         0.31898E-02
         0.31898E-02
         0.37100E-02
         0.36238E-02
         0.28234E-02
         0.31673E-02
         0.33479E-02
         0.33479E-02
         0.32029E-02
         0.29842E-02
         0.32831E-02
         0.27278E-02
         0.31052E-02
         0.31818E-02
         0.32461E-02
         0.32461E-02
         0.29998E-02
         0.27193E-02
         0.26987E-02
         0.27827E-02
         0.27827E-02
         0.27010E-02
         0.31898E-02
         0.31898E-02
         0.32626E-02
         0.34626E-02
         0.37100E-02
         0.37100E-02
         0.36238E-02
         0.28234E-02
         0.29154E-02
         0.32457E-02
         0.32457E-02
         0.32029E-02
         0.29842E-02
         0.32831E-02
         0.32831E-02
         0.42428E-02
         0.35199E-02
         0.37660E-02
         0.42428E-02
         0.37660E-02
         0.37660E-02
         0.30099E-02
         0.32083E-02
         0.42428E-02
         0.32083E-02
         0.24170E-02
         0.30007E-02
         0.32471E-02
         0.26523E-02
         0.27194E-02
         0.42628E-02
         0.36446E-02
         0.42628E-02
         0.32083E-02
         0.29652E-02
         0.34622E-02
         0.32627E-02
         0.37096E-02
         0.32083E-02
         0.30766E-02
         0.35205E-02
         0.26823E-02
         0.26823E-02
         0.24608E-02
         0.27605E-02
         0.42628E-02
         0.35205E-02
         0.42628E-02
         0.34737E-02
         0.27279E-02
         0.31821E-02
         0.32471E-02
         0.26991E-02
         0.27827E-02
         0.27827E-02
         0.27011E-02
         0.31900E-02
         0.31900E-02
         0.37096E-02
         0.36237E-02
         0.28231E-02
         0.31679E-02
         0.33478E-02
         0.33478E-02
         0.32038E-02
         0.29841E-02
         0.32829E-02
         0.27279E-02
         0.31043E-02
         0.31821E-02
         0.32471E-02
         0.32471E-02
         0.30007E-02
         0.27194E-02
         0.26991E-02
         0.27827E-02
         0.27827E-02
         0.27011E-02
         0.31900E-02
         0.31900E-02
         0.32627E-02
         0.34622E-02
         0.37096E-02
         0.37096E-02
         0.36237E-02
         0.28231E-02
         0.29164E-02
         0.32468E-02
         0.32468E-02
         0.32038E-02
         0.29841E-02
         0.32829E-02
         0.32829E-02
         0.42429E-02
         0.35199E-02
         0.37665E-02
         0.42429E-02
         0.37665E-02
         0.37665E-02
         0.30101E-02
         0.32085E-02
         0.42429E-02
         0.32085E-02
         0.24168E-02
         0.30017E-02
         0.32482E-02
         0.26510E-02
         0.27194E-02
         0.42619E-02
         0.36437E-02
         0.42619E-02
         0.32085E-02
         0.29640E-02
         0.34618E-02
         0.32627E-02
         0.37092E-02
         0.32085E-02
         0.30755E-02
         0.35207E-02
         0.26808E-02
         0.26808E-02
         0.24603E-02
         0.27599E-02
         0.42619E-02
         0.35207E-02
         0.42619E-02
         0.34748E-02
         0.27279E-02
         0.31824E-02
         0.32482E-02
         0.26994E-02
         0.27827E-02
         0.27827E-02
         0.27012E-02
         0.31902E-02
         0.31902E-02
         0.37092E-02
         0.36236E-02
         0.28227E-02
         0.31684E-02
         0.33477E-02
         0.33477E-02
         0.32046E-02
         0.29840E-02
         0.32827E-02
         0.27279E-02
         0.31034E-02
         0.31824E-02
         0.32482E-02
         0.32482E-02
         0.30017E-02
         0.27194E-02
         0.26994E-02
         0.27827E-02
         0.27827E-02
         0.27012E-02
         0.31902E-02
         0.31902E-02
         0.32627E-02
         0.34618E-02
         0.37092E-02
         0.37092E-02
         0.36236E-02
         0.28227E-02
         0.29173E-02
         0.32479E-02
         0.32479E-02
         0.32046E-02
         0.29840E-02
         0.32827E-02
         0.32827E-02
         0.42431E-02
         0.35199E-02
         0.37670E-02
         0.42431E-02
         0.37670E-02
         0.37670E-02
         0.30102E-02
         0.32087E-02
         0.42431E-02
         0.32087E-02
         0.24167E-02
         0.30026E-02
         0.32493E-02
         0.26498E-02
         0.27194E-02
         0.42611E-02
         0.36427E-02
         0.42611E-02
         0.32087E-02
         0.29628E-02
         0.34613E-02
         0.32628E-02
         0.37089E-02
         0.32087E-02
         0.30744E-02
         0.35209E-02
         0.26794E-02
         0.26794E-02
         0.24598E-02
         0.27592E-02
         0.42611E-02
         0.35209E-02
         0.42611E-02
         0.34759E-02
         0.27280E-02
         0.31827E-02
         0.32493E-02
         0.26998E-02
         0.27827E-02
         0.27827E-02
         0.27013E-02
         0.31905E-02
         0.31905E-02
         0.37089E-02
         0.36235E-02
         0.28224E-02
         0.31689E-02
         0.33476E-02
         0.33476E-02
         0.32055E-02
         0.29839E-02
         0.32825E-02
         0.27280E-02
         0.31024E-02
         0.31827E-02
         0.32493E-02
         0.32493E-02
         0.30026E-02
         0.27194E-02
         0.26998E-02
         0.27827E-02
         0.27827E-02
         0.27013E-02
         0.31905E-02
         0.31905E-02
         0.32628E-02
         0.34613E-02
         0.37089E-02
         0.37089E-02
         0.36235E-02
         0.28224E-02
         0.29183E-02
         0.32490E-02
         0.32490E-02
         0.32055E-02
         0.29839E-02
         0.32825E-02
         0.32825E-02
         0.42432E-02
         0.35199E-02
         0.37675E-02
         0.42432E-02
         0.37675E-02
         0.37675E-02
         0.30104E-02
         0.32089E-02
         0.42432E-02
         0.32089E-02
         0.24166E-02
         0.30035E-02
         0.32504E-02
         0.26486E-02
         0.27195E-02
         0.42603E-02
         0.36418E-02
         0.42603E-02
         0.32089E-02
         0.29615E-02
         0.34609E-02
         0.32629E-02
         0.37085E-02
         0.32089E-02
         0.30732E-02
         0.35211E-02
         0.26779E-02
         0.26779E-02
         0.24593E-02
         0.27585E-02
         0.42603E-02
         0.35211E-02
         0.42603E-02
         0.34771E-02
         0.27281E-02
         0.31830E-02
         0.32504E-02
         0.27002E-02
         0.27827E-02
         0.27827E-02
         0.27014E-02
         0.31907E-02
         0.31907E-02
         0.37085E-02
         0.36233E-02
         0.28221E-02
         0.31694E-02
         0.33475E-02
         0.33475E-02
         0.32063E-02
         0.29838E-02
         0.32823E-02
         0.27281E-02
         0.31015E-02
         0.31830E-02
         0.32504E-02
         0.32504E-02
         0.30035E-02
         0.27195E-02
         0.27002E-02
         0.27827E-02
         0.27827E-02
         0.27014E-02
         0.31907E-02
         0.31907E-02
         0.32629E-02
         0.34609E-02
         0.37085E-02
         0.37085E-02
         0.36233E-02
         0.28221E-02
         0.29193E-02
         0.32501E-02
         0.32501E-02
         0.32063E-02
         0.29838E-02
         0.32823E-02
         0.32823E-02
         0.42433E-02
         0.35199E-02
         0.37680E-02
         0.42433E-02
         0.37680E-02
         0.37680E-02
         0.30106E-02
         0.32091E-02
         0.42433E-02
         0.32091E-02
         0.24164E-02
         0.30045E-02
         0.32514E-02
         0.26474E-02
         0.27195E-02
         0.42594E-02
         0.36409E-02
         0.42594E-02
         0.32091E-02
         0.29603E-02
         0.34605E-02
         0.32630E-02
         0.37081E-02
         0.32091E-02
         0.30721E-02
         0.35213E-02
         0.26765E-02
         0.26765E-02
         0.24588E-02
         0.27579E-02
         0.42594E-02
         0.35213E-02
         0.42594E-02
         0.34782E-02
         0.27281E-02
         0.31833E-02
         0.32514E-02
         0.27006E-02
         0.27826E-02
         0.27826E-02
         0.27015E-02
         0.31910E-02
         0.31910E-02
         0.37081E-02
         0.36232E-02
         0.28218E-02
         0.31700E-02
         0.33474E-02
         0.33474E-02
         0.32072E-02
         0.29836E-02
         0.32821E-02
         0.27281E-02
         0.31005E-02
         0.31833E-02
         0.32514E-02
         0.32514E-02
         0.30045E-02
         0.27195E-02
         0.27006E-02
         0.27826E-02
         0.27826E-02
         0.27015E-02
         0.31910E-02
         0.31910E-02
         0.32630E-02
         0.34605E-02
         0.37081E-02
         0.37081E-02
         0.36232E-02
         0.28218E-02
         0.29202E-02
         0.32512E-02
         0.32512E-02
         0.32072E-02
         0.29836E-02
         0.32821E-02
         0.32821E-02
         0.42435E-02
         0.35199E-02
         0.37685E-02
         0.42435E-02
         0.37685E-02
         0.37685E-02
         0.30108E-02
         0.32093E-02
         0.42435E-02
         0.32093E-02
         0.24163E-02
         0.30054E-02
         0.32525E-02
         0.26461E-02
         0.27196E-02
         0.42586E-02
         0.36399E-02
         0.42586E-02
         0.32093E-02
         0.29591E-02
         0.34601E-02
         0.32630E-02
         0.37077E-02
         0.32093E-02
         0.30710E-02
         0.35215E-02
         0.26750E-02
         0.26750E-02
         0.24583E-02
         0.27572E-02
         0.42586E-02
         0.35215E-02
         0.42586E-02
         0.34793E-02
         0.27282E-02
         0.31836E-02
         0.32525E-02
         0.27010E-02
         0.27826E-02
         0.27826E-02
         0.27016E-02
         0.31912E-02
         0.31912E-02
         0.37077E-02
         0.36231E-02
         0.28215E-02
         0.31705E-02
         0.33473E-02
         0.33473E-02
         0.32080E-02
         0.29835E-02
         0.32819E-02
         0.27282E-02
         0.30996E-02
         0.31836E-02
         0.32525E-02
         0.32525E-02
         0.30054E-02
         0.27196E-02
         0.27010E-02
         0.27826E-02
         0.27826E-02
         0.27016E-02
         0.31912E-02
         0.31912E-02
         0.32630E-02
         0.34601E-02
         0.37077E-02
         0.37077E-02
         0.36231E-02
         0.28215E-02
         0.29212E-02
         0.32524E-02
         0.32524E-02
         0.32080E-02
         0.29835E-02
         0.32819E-02
         0.32819E-02
         0.42436E-02
         0.35198E-02
         0.37690E-02
         0.42436E-02
         0.37690E-02
         0.37690E-02
         0.30110E-02
         0.32095E-02
         0.42436E-02
         0.32095E-02
         0.24162E-02
         0.30064E-02
         0.32536E-02
         0.26449E-02
         0.27196E-02
         0.42577E-02
         0.36390E-02
         0.42577E-02
         0.32096E-02
         0.29578E-02
         0.34596E-02
         0.32631E-02
         0.37074E-02
         0.32096E-02
         0.30699E-02
         0.35217E-02
         0.26735E-02
         0.26735E-02
         0.24578E-02
         0.27566E-02
         0.42577E-02
         0.35217E-02
         0.42577E-02
         0.34804E-02
         0.27283E-02
         0.31839E-02
         0.32536E-02
         0.27013E-02
         0.27826E-02
         0.27826E-02
         0.27017E-02
         0.31915E-02
         0.31915E-02
         0.37074E-02
         0.36230E-02
         0.28211E-02
         0.31710E-02
         0.33472E-02
         0.33472E-02
         0.32089E-02
         0.29834E-02
         0.32817E-02
         0.27283E-02
         0.30986E-02
         0.31839E-02
         0.32536E-02
         0.32536E-02
         0.30064E-02
         0.27196E-02
         0.27013E-02
         0.27826E-02
         0.27826E-02
         0.27017E-02
         0.31915E-02
         0.31915E-02
         0.32631E-02
         0.34596E-02
         0.37074E-02
         0.37074E-02
         0.36230E-02
         0.28211E-02
         0.29221E-02
         0.32535E-02
         0.32535E-02
         0.32089E-02
         0.29834E-02
         0.32817E-02
         0.32817E-02
         0.42437E-02
         0.35198E-02
         0.37695E-02
         0.42437E-02
         0.37695E-02
         0.37695E-02
         0.30112E-02
         0.32097E-02
         0.42437E-02
         0.32097E-02
         0.24160E-02
         0.30073E-02
         0.32547E-02
         0.26437E-02
         0.27197E-02
         0.42569E-02
         0.36381E-02
         0.42569E-02
         0.32098E-02
         0.29566E-02
         0.34592E-02
         0.32632E-02
         0.37070E-02
         0.32098E-02
         0.30688E-02
         0.35219E-02
         0.26721E-02
         0.26721E-02
         0.24573E-02
         0.27560E-02
         0.42569E-02
         0.35219E-02
         0.42569E-02
         0.34815E-02
         0.27284E-02
         0.31843E-02
         0.32547E-02
         0.27017E-02
         0.27826E-02
         0.27826E-02
         0.27018E-02
         0.31917E-02
         0.31917E-02
         0.37070E-02
         0.36229E-02
         0.28208E-02
         0.31716E-02
         0.33471E-02
         0.33471E-02
         0.32097E-02
         0.29833E-02
         0.32815E-02
         0.27284E-02
         0.30977E-02
         0.31843E-02
         0.32547E-02
         0.32547E-02
         0.30073E-02
         0.27197E-02
         0.27017E-02
         0.27826E-02
         0.27826E-02
         0.27018E-02
         0.31917E-02
         0.31917E-02
         0.32632E-02
         0.34592E-02
         0.37070E-02
         0.37070E-02
         0.36229E-02
         0.28208E-02
         0.29231E-02
         0.32546E-02
         0.32546E-02
         0.32097E-02
         0.29833E-02
         0.32815E-02
         0.32815E-02
         0.42439E-02
         0.35198E-02
         0.37701E-02
         0.42439E-02
         0.37701E-02
         0.37701E-02
         0.30113E-02
         0.32099E-02
         0.42439E-02
         0.32099E-02
         0.24159E-02
         0.30082E-02
         0.32558E-02
         0.26425E-02
         0.27197E-02
         0.42560E-02
         0.36371E-02
         0.42560E-02
         0.32100E-02
         0.29554E-02
         0.34588E-02
         0.32633E-02
         0.37066E-02
         0.32100E-02
         0.30677E-02
         0.35221E-02
         0.26706E-02
         0.26706E-02
         0.24568E-02
         0.27553E-02
         0.42560E-02
         0.35221E-02
         0.42560E-02
         0.34827E-02
         0.27284E-02
         0.31846E-02
         0.32558E-02
         0.27021E-02
         0.27826E-02
         0.27826E-02
         0.27019E-02
         0.31920E-02
         0.31920E-02
         0.37066E-02
         0.36227E-02
         0.28205E-02
         0.31721E-02
         0.33470E-02
         0.33470E-02
         0.32106E-02
         0.29831E-02
         0.32813E-02
         0.27284E-02
         0.30968E-02
         0.31846E-02
         0.32558E-02
         0.32558E-02
         0.30082E-02
         0.27197E-02
         0.27021E-02
         0.27826E-02
         0.27826E-02
         0.27019E-02
         0.31920E-02
         0.31920E-02
         0.32633E-02
         0.34588E-02
         0.37066E-02
         0.37066E-02
         0.36227E-02
         0.28205E-02
         0.29241E-02
         0.32557E-02
         0.32557E-02
         0.32106E-02
         0.29831E-02
         0.32813E-02
         0.32813E-02
         0.42440E-02
         0.35198E-02
         0.37706E-02
         0.42440E-02
         0.37706E-02
         0.37706E-02
         0.30115E-02
         0.32101E-02
         0.42440E-02
         0.32101E-02
         0.24158E-02
         0.30091E-02
         0.32568E-02
         0.26412E-02
         0.27198E-02
         0.42552E-02
         0.36362E-02
         0.42552E-02
         0.32102E-02
         0.29541E-02
         0.34583E-02
         0.32633E-02
         0.37062E-02
         0.32102E-02
         0.30665E-02
         0.35223E-02
         0.26692E-02
         0.26692E-02
         0.24563E-02
         0.27546E-02
         0.42552E-02
         0.35223E-02
         0.42552E-02
         0.34838E-02
         0.27285E-02
         0.31849E-02
         0.32568E-02
         0.27025E-02
         0.27826E-02
         0.27826E-02
         0.27020E-02
         0.31922E-02
         0.31922E-02
         0.37062E-02
         0.36226E-02
         0.28202E-02
         0.31726E-02
         0.33469E-02
         0.33469E-02
         0.32114E-02
         0.29830E-02
         0.32811E-02
         0.27285E-02
         0.30958E-02
         0.31849E-02
         0.32568E-02
         0.32568E-02
         0.30091E-02
         0.27198E-02
         0.27025E-02
         0.27826E-02
         0.27826E-02
         0.27020E-02
         0.31922E-02
         0.31922E-02
         0.32633E-02
         0.34583E-02
         0.37062E-02
         0.37062E-02
         0.36226E-02
         0.28202E-02
         0.29250E-02
         0.32568E-02
         0.32568E-02
         0.32114E-02
         0.29830E-02
         0.32811E-02
         0.32811E-02
         0.42441E-02
         0.35198E-02
         0.37711E-02
         0.42441E-02
         0.37711E-02
         0.37711E-02
         0.30117E-02
         0.32103E-02
         0.42441E-02
         0.32103E-02
         0.24156E-02
         0.30101E-02
         0.32579E-02
         0.26400E-02
         0.27198E-02
         0.42543E-02
         0.36353E-02
         0.42543E-02
         0.32104E-02
         0.29529E-02
         0.34579E-02
         0.32634E-02
         0.37058E-02
         0.32104E-02
         0.30654E-02
         0.35225E-02
         0.26677E-02
         0.26677E-02
         0.24558E-02
         0.27540E-02
         0.42543E-02
         0.35225E-02
         0.42543E-02
         0.34849E-02
         0.27286E-02
         0.31852E-02
         0.32579E-02
         0.27029E-02
         0.27826E-02
         0.27826E-02
         0.27021E-02
         0.31924E-02
         0.31924E-02
         0.37058E-02
         0.36225E-02
         0.28198E-02
         0.31731E-02
         0.33468E-02
         0.33468E-02
         0.32123E-02
         0.29829E-02
         0.32809E-02
         0.27286E-02
         0.30949E-02
         0.31852E-02
         0.32579E-02
         0.32579E-02
         0.30101E-02
         0.27198E-02
         0.27029E-02
         0.27826E-02
         0.27826E-02
         0.27021E-02
         0.31924E-02
         0.31924E-02
         0.32634E-02
         0.34579E-02
         0.37058E-02
         0.37058E-02
         0.36225E-02
         0.28198E-02
         0.29260E-02
         0.32579E-02
         0.32579E-02
         0.32123E-02
         0.29829E-02
         0.32809E-02
         0.32809E-02
         0.42443E-02
         0.35197E-02
         0.37716E-02
         0.42443E-02
         0.37716E-02
         0.37716E-02
         0.30119E-02
         0.32105E-02
         0.42443E-02
         0.32105E-02
         0.24155E-02
         0.30110E-02
         0.32590E-02
         0.26388E-02
         0.27199E-02
         0.42535E-02
         0.36343E-02
         0.42535E-02
         0.32106E-02
         0.29517E-02
         0.34575E-02
         0.32635E-02
         0.37055E-02
         0.32106E-02
         0.30643E-02
         0.35227E-02
         0.26663E-02
         0.26663E-02
         0.24553E-02
         0.27533E-02
         0.42535E-02
         0.35227E-02
         0.42535E-02
         0.34860E-02
         0.27286E-02
         0.31855E-02
         0.32590E-02
         0.27032E-02
         0.27826E-02
         0.27826E-02
         0.27022E-02
         0.31927E-02
         0.31927E-02
         0.37055E-02
         0.36224E-02
         0.28195E-02
         0.31737E-02
         0.33467E-02
         0.33467E-02
         0.32132E-02
         0.29828E-02
         0.32807E-02
         0.27286E-02
         0.30939E-02
         0.31855E-02
         0.32590E-02
         0.32590E-02
         0.30110E-02
         0.27199E-02
         0.27032E-02
         0.27826E-02
         0.27826E-02
         0.27022E-02
         0.31927E-02
         0.31927E-02
         0.32635E-02
         0.34575E-02
         0.37055E-02
         0.37055E-02
         0.36224E-02
         0.28195E-02
         0.29269E-02
         0.32591E-02
         0.32591E-02
         0.32132E-02
         0.29828E-02
         0.32807E-02
         0.32807E-02
         0.42444E-02
         0.35197E-02
         0.37721E-02
         0.42444E-02
         0.37721E-02
         0.37721E-02
         0.30121E-02
         0.32107E-02
         0.42444E-02
         0.32107E-02
         0.24154E-02
         0.30119E-02
         0.32601E-02
         0.26376E-02
         0.27199E-02
         0.42527E-02
         0.36334E-02
         0.42527E-02
         0.32108E-02
         0.29504E-02
         0.34571E-02
         0.32636E-02
         0.37051E-02
         0.32108E-02
         0.30632E-02
         0.35229E-02
         0.26648E-02
         0.26648E-02
         0.24552E-02
         0.27527E-02
         0.42527E-02
         0.35229E-02
         0.42527E-02
         0.34871E-02
         0.27287E-02
         0.31858E-02
         0.32601E-02
         0.27036E-02
         0.27825E-02
         0.27825E-02
         0.27023E-02
         0.31929E-02
         0.31929E-02
         0.37051E-02
         0.36223E-02
         0.28192E-02
         0.31742E-02
         0.33466E-02
         0.33466E-02
         0.32140E-02
         0.29827E-02
         0.32805E-02
         0.27287E-02
         0.30930E-02
         0.31858E-02
         0.32601E-02
         0.32601E-02
         0.30119E-02
         0.27199E-02
         0.27036E-02
         0.27825E-02
         0.27825E-02
         0.27023E-02
         0.31929E-02
         0.31929E-02
         0.32636E-02
         0.34571E-02
         0.37051E-02
         0.37051E-02
         0.36223E-02
         0.28192E-02
         0.29279E-02
         0.32602E-02
         0.32602E-02
         0.32140E-02
         0.29827E-02
         0.32805E-02
         0.32805E-02
         0.42445E-02
         0.35197E-02
         0.37726E-02
         0.42445E-02
         0.37726E-02
         0.37726E-02
         0.30123E-02
         0.32108E-02
         0.42445E-02
         0.32108E-02
         0.24152E-02
         0.30129E-02
         0.32611E-02
         0.26363E-02
         0.27200E-02
         0.42518E-02
         0.36325E-02
         0.42518E-02
         0.32110E-02
         0.29492E-02
         0.34566E-02
         0.32636E-02
         0.37047E-02
         0.32110E-02
         0.30621E-02
         0.35231E-02
         0.26633E-02
         0.26633E-02
         0.24554E-02
         0.27520E-02
         0.42518E-02
         0.35231E-02
         0.42518E-02
         0.34882E-02
         0.27288E-02
         0.31861E-02
         0.32611E-02
         0.27040E-02
         0.27825E-02
         0.27825E-02
         0.27024E-02
         0.31932E-02
         0.31932E-02
         0.37047E-02
         0.36222E-02
         0.28189E-02
         0.31747E-02
         0.33465E-02
         0.33465E-02
         0.32149E-02
         0.29826E-02
         0.32803E-02
         0.27288E-02
         0.30921E-02
         0.31861E-02
         0.32611E-02
         0.32611E-02
         0.30129E-02
         0.27200E-02
         0.27040E-02
         0.27825E-02
         0.27825E-02
         0.27024E-02
         0.31932E-02
         0.31932E-02
         0.32636E-02
         0.34566E-02
         0.37047E-02
         0.37047E-02
         0.36222E-02
         0.28189E-02
         0.29289E-02
         0.32613E-02
         0.32613E-02
         0.32149E-02
         0.29826E-02
         0.32803E-02
         0.32803E-02
         0.42447E-02
         0.35196E-02
         0.37732E-02
         0.42447E-02
         0.37732E-02
         0.37732E-02
         0.30125E-02
         0.32111E-02
         0.42447E-02
         0.32111E-02
         0.24151E-02
         0.30138E-02
         0.32622E-02
         0.26351E-02
         0.27200E-02
         0.42510E-02
         0.36315E-02
         0.42510E-02
         0.32112E-02
         0.29480E-02
         0.34562E-02
         0.32637E-02
         0.37043E-02
         0.32112E-02
         0.30610E-02
         0.35233E-02
         0.26619E-02
         0.26619E-02
         0.24557E-02
         0.27514E-02
         0.42510E-02
         0.35233E-02
         0.42510E-02
         0.34894E-02
         0.27289E-02
         0.31864E-02
         0.32622E-02
         0.27044E-02
         0.27825E-02
         0.27825E-02
         0.27025E-02
         0.31934E-02
         0.31934E-02
         0.37043E-02
         0.36220E-02
         0.28186E-02
         0.31753E-02
         0.33464E-02
         0.33464E-02
         0.32157E-02
         0.29824E-02
         0.32801E-02
         0.27289E-02
         0.30911E-02
         0.31864E-02
         0.32622E-02
         0.32622E-02
         0.30138E-02
         0.27200E-02
         0.27044E-02
         0.27825E-02
         0.27825E-02
         0.27025E-02
         0.31934E-02
         0.31934E-02
         0.32637E-02
         0.34562E-02
         0.37043E-02
         0.37043E-02
         0.36220E-02
         0.28186E-02
         0.29298E-02
         0.32624E-02
         0.32624E-02
         0.32157E-02
         0.29824E-02
         0.32801E-02
         0.32801E-02
         0.42448E-02
         0.35196E-02
         0.37737E-02
         0.42448E-02
         0.37737E-02
         0.37737E-02
         0.30126E-02
         0.32112E-02
         0.42448E-02
         0.32112E-02
         0.24150E-02
         0.30147E-02
         0.32633E-02
         0.26339E-02
         0.27200E-02
         0.42501E-02
         0.36306E-02
         0.42501E-02
         0.32114E-02
         0.29467E-02
         0.34558E-02
         0.32638E-02
         0.37039E-02
         0.32114E-02
         0.30598E-02
         0.35235E-02
         0.26604E-02
         0.26604E-02
         0.24559E-02
         0.27507E-02
         0.42501E-02
         0.35235E-02
         0.42501E-02
         0.34905E-02
         0.27289E-02
         0.31867E-02
         0.32633E-02
         0.27048E-02
         0.27825E-02
         0.27825E-02
         0.27026E-02
         0.31937E-02
         0.31937E-02
         0.37039E-02
         0.36219E-02
         0.28183E-02
         0.31758E-02
         0.33463E-02
         0.33463E-02
         0.32166E-02
         0.29823E-02
         0.32799E-02
         0.27289E-02
         0.30902E-02
         0.31867E-02
         0.32633E-02
         0.32633E-02
         0.30147E-02
         0.27200E-02
         0.27048E-02
         0.27825E-02
         0.27825E-02
         0.27026E-02
         0.31937E-02
         0.31937E-02
         0.32638E-02
         0.34558E-02
         0.37039E-02
         0.37039E-02
         0.36219E-02
         0.28183E-02
         0.29308E-02
         0.32635E-02
         0.32635E-02
         0.32166E-02
         0.29823E-02
         0.32799E-02
         0.32799E-02
         0.42448E-02
         0.35196E-02
         0.37737E-02
         0.42448E-02
         0.37737E-02
         0.37737E-02
         0.30126E-02
         0.32112E-02
         0.42448E-02
         0.32112E-02
         0.24148E-02
         0.30147E-02
         0.32633E-02
         0.26327E-02
         0.27200E-02
         0.42493E-02
         0.36297E-02
         0.42493E-02
         0.32114E-02
         0.29455E-02
         0.34553E-02
         0.32638E-02
         0.37036E-02
         0.32114E-02
         0.30587E-02
         0.35235E-02
         0.26590E-02
         0.26590E-02
         0.24559E-02
         0.27501E-02
         0.42493E-02
         0.35235E-02
         0.42493E-02
         0.34905E-02
         0.27289E-02
         0.31867E-02
         0.32633E-02
         0.27048E-02
         0.27825E-02
         0.27825E-02
         0.27026E-02
         0.31937E-02
         0.31937E-02
         0.37036E-02
         0.36218E-02
         0.28180E-02
         0.31758E-02
         0.33462E-02
         0.33462E-02
         0.32166E-02
         0.29822E-02
         0.32797E-02
         0.27289E-02
         0.30892E-02
         0.31867E-02
         0.32633E-02
         0.32633E-02
         0.30147E-02
         0.27200E-02
         0.27048E-02
         0.27825E-02
         0.27825E-02
         0.27026E-02
         0.31937E-02
         0.31937E-02
         0.32638E-02
         0.34553E-02
         0.37036E-02
         0.37036E-02
         0.36218E-02
         0.28180E-02
         0.29308E-02
         0.32635E-02
         0.32635E-02
         0.32166E-02
         0.29822E-02
         0.32797E-02
         0.32797E-02
  
SCALARS              physical_window_y  double 1
LOOKUP_TABLE default
         0.43155E-02
         0.43155E-02
         0.43155E-02
         0.43155E-02
         0.43155E-02
         0.43155E-02
         0.43155E-02
         0.43155E-02
         0.34883E-02
         0.34883E-02
         0.34882E-02
         0.34882E-02
         0.32826E-02
         0.32142E-02
         0.32826E-02
         0.32142E-02
         0.37863E-02
         0.31884E-02
         0.37863E-02
         0.31884E-02
         0.27172E-02
         0.33887E-02
         0.37164E-02
         0.27172E-02
         0.33887E-02
         0.37164E-02
         0.27582E-02
         0.28966E-02
         0.27582E-02
         0.28954E-02
         0.37007E-02
         0.35859E-02
         0.37863E-02
         0.37007E-02
         0.35824E-02
         0.37863E-02
         0.29875E-02
         0.29875E-02
         0.29867E-02
         0.29867E-02
         0.28561E-02
         0.26860E-02
         0.28556E-02
         0.26852E-02
         0.29518E-02
         0.28068E-02
         0.29517E-02
         0.28066E-02
         0.29975E-02
         0.29949E-02
         0.37007E-02
         0.37007E-02
         0.28693E-02
         0.28693E-02
         0.28693E-02
         0.28693E-02
         0.27602E-02
         0.26193E-02
         0.27602E-02
         0.26193E-02
         0.37007E-02
         0.37007E-02
         0.37007E-02
         0.37007E-02
         0.37685E-02
         0.37665E-02
         0.37685E-02
         0.37665E-02
         0.30230E-02
         0.37003E-02
         0.30229E-02
         0.37003E-02
         0.37164E-02
         0.37164E-02
         0.31934E-02
         0.31921E-02
         0.32777E-02
         0.32771E-02
         0.32777E-02
         0.32771E-02
         0.27006E-02
         0.25920E-02
         0.27006E-02
         0.25920E-02
         0.25916E-02
         0.25916E-02
         0.29715E-02
         0.29715E-02
         0.29715E-02
         0.29715E-02
         0.26477E-02
         0.29102E-02
         0.26477E-02
         0.29102E-02
         0.34085E-02
         0.34085E-02
         0.35350E-02
         0.35350E-02
         0.35350E-02
         0.35350E-02
         0.29766E-02
         0.32272E-02
         0.29763E-02
         0.32254E-02
         0.29087E-02
         0.29835E-02
         0.29087E-02
         0.29825E-02
         0.37003E-02
         0.37003E-02
         0.37164E-02
         0.37164E-02
         0.37164E-02
         0.37164E-02
         0.33887E-02
         0.33887E-02
         0.28966E-02
         0.28954E-02
         0.31934E-02
         0.31921E-02
         0.32777E-02
         0.32771E-02
         0.32777E-02
         0.32771E-02
         0.27006E-02
         0.27006E-02
         0.25920E-02
         0.25920E-02
         0.25916E-02
         0.25916E-02
         0.26860E-02
         0.26852E-02
         0.28561E-02
         0.28556E-02
         0.29518E-02
         0.29517E-02
         0.29715E-02
         0.29715E-02
         0.29715E-02
         0.29715E-02
         0.26477E-02
         0.26477E-02
         0.27685E-02
         0.27685E-02
         0.34085E-02
         0.34085E-02
         0.35350E-02
         0.35350E-02
         0.35350E-02
         0.35350E-02
         0.29766E-02
         0.29763E-02
         0.31381E-02
         0.31368E-02
         0.31381E-02
         0.31368E-02
         0.43153E-02
         0.43153E-02
         0.43153E-02
         0.43153E-02
         0.34883E-02
         0.34883E-02
         0.32812E-02
         0.32132E-02
         0.37858E-02
         0.31880E-02
         0.27155E-02
         0.33883E-02
         0.37163E-02
         0.27535E-02
         0.28978E-02
         0.37004E-02
         0.35894E-02
         0.37858E-02
         0.29882E-02
         0.29882E-02
         0.28566E-02
         0.26867E-02
         0.29519E-02
         0.28071E-02
         0.30001E-02
         0.37004E-02
         0.28667E-02
         0.28667E-02
         0.27589E-02
         0.26183E-02
         0.37004E-02
         0.37004E-02
         0.37706E-02
         0.37706E-02
         0.30232E-02
         0.36991E-02
         0.37163E-02
         0.31947E-02
         0.32784E-02
         0.32784E-02
         0.27006E-02
         0.25920E-02
         0.25909E-02
         0.29715E-02
         0.29715E-02
         0.26476E-02
         0.29101E-02
         0.34078E-02
         0.35344E-02
         0.35344E-02
         0.29769E-02
         0.32290E-02
         0.29059E-02
         0.29845E-02
         0.36991E-02
         0.37163E-02
         0.37163E-02
         0.33883E-02
         0.28978E-02
         0.31947E-02
         0.32784E-02
         0.32784E-02
         0.27006E-02
         0.25920E-02
         0.25909E-02
         0.26867E-02
         0.28566E-02
         0.29519E-02
         0.29715E-02
         0.29715E-02
         0.26476E-02
         0.27685E-02
         0.34078E-02
         0.35344E-02
         0.35344E-02
         0.29769E-02
         0.31395E-02
         0.31395E-02
         0.43150E-02
         0.43150E-02
         0.43150E-02
         0.43150E-02
         0.34884E-02
         0.34884E-02
         0.32798E-02
         0.32122E-02
         0.37853E-02
         0.31876E-02
         0.27137E-02
         0.33879E-02
         0.37162E-02
         0.27488E-02
         0.28990E-02
         0.37001E-02
         0.35930E-02
         0.37853E-02
         0.29889E-02
         0.29889E-02
         0.28571E-02
         0.26875E-02
         0.29521E-02
         0.28074E-02
         0.30027E-02
         0.37001E-02
         0.28641E-02
         0.28641E-02
         0.27576E-02
         0.26173E-02
         0.37001E-02
         0.37001E-02
         0.37727E-02
         0.37727E-02
         0.30234E-02
         0.36979E-02
         0.37162E-02
         0.31960E-02
         0.32790E-02
         0.32790E-02
         0.27006E-02
         0.25920E-02
         0.25902E-02
         0.29715E-02
         0.29715E-02
         0.26476E-02
         0.29100E-02
         0.34071E-02
         0.35339E-02
         0.35339E-02
         0.29772E-02
         0.32307E-02
         0.29032E-02
         0.29855E-02
         0.36979E-02
         0.37162E-02
         0.37162E-02
         0.33879E-02
         0.28990E-02
         0.31960E-02
         0.32790E-02
         0.32790E-02
         0.27006E-02
         0.25920E-02
         0.25902E-02
         0.26875E-02
         0.28571E-02
         0.29521E-02
         0.29715E-02
         0.29715E-02
         0.26476E-02
         0.27684E-02
         0.34071E-02
         0.35339E-02
         0.35339E-02
         0.29772E-02
         0.31408E-02
         0.31408E-02
         0.43148E-02
         0.43148E-02
         0.43148E-02
         0.43148E-02
         0.34885E-02
         0.34885E-02
         0.32783E-02
         0.32112E-02
         0.37849E-02
         0.31872E-02
         0.27120E-02
         0.33875E-02
         0.37161E-02
         0.27441E-02
         0.29003E-02
         0.36998E-02
         0.35965E-02
         0.37849E-02
         0.29896E-02
         0.29896E-02
         0.28575E-02
         0.26882E-02
         0.29522E-02
         0.28077E-02
         0.30053E-02
         0.36998E-02
         0.28615E-02
         0.28615E-02
         0.27563E-02
         0.26163E-02
         0.36998E-02
         0.36998E-02
         0.37747E-02
         0.37747E-02
         0.30236E-02
         0.36967E-02
         0.37161E-02
         0.31973E-02
         0.32796E-02
         0.32796E-02
         0.27006E-02
         0.25920E-02
         0.25895E-02
         0.29714E-02
         0.29714E-02
         0.26475E-02
         0.29099E-02
         0.34063E-02
         0.35333E-02
         0.35333E-02
         0.29775E-02
         0.32325E-02
         0.29004E-02
         0.29865E-02
         0.36967E-02
         0.37161E-02
         0.37161E-02
         0.33875E-02
         0.29003E-02
         0.31973E-02
         0.32796E-02
         0.32796E-02
         0.27006E-02
         0.25920E-02
         0.25895E-02
         0.26882E-02
         0.28575E-02
         0.29522E-02
         0.29714E-02
         0.29714E-02
         0.26475E-02
         0.27684E-02
         0.34063E-02
         0.35333E-02
         0.35333E-02
         0.29775E-02
         0.31422E-02
         0.31422E-02
         0.43145E-02
         0.43145E-02
         0.43145E-02
         0.43145E-02
         0.34886E-02
         0.34886E-02
         0.32769E-02
         0.32102E-02
         0.37844E-02
         0.31868E-02
         0.27103E-02
         0.33871E-02
         0.37160E-02
         0.27394E-02
         0.29015E-02
         0.36995E-02
         0.36000E-02
         0.37844E-02
         0.29903E-02
         0.29903E-02
         0.28580E-02
         0.26890E-02
         0.29523E-02
         0.28079E-02
         0.30079E-02
         0.36995E-02
         0.28589E-02
         0.28589E-02
         0.27550E-02
         0.26152E-02
         0.36995E-02
         0.36995E-02
         0.37768E-02
         0.37768E-02
         0.30238E-02
         0.36956E-02
         0.37160E-02
         0.31986E-02
         0.32802E-02
         0.32802E-02
         0.27006E-02
         0.25920E-02
         0.25887E-02
         0.29714E-02
         0.29714E-02
         0.26475E-02
         0.29098E-02
         0.34056E-02
         0.35327E-02
         0.35327E-02
         0.29778E-02
         0.32342E-02
         0.28977E-02
         0.29875E-02
         0.36956E-02
         0.37160E-02
         0.37160E-02
         0.33871E-02
         0.29015E-02
         0.31986E-02
         0.32802E-02
         0.32802E-02
         0.27006E-02
         0.25920E-02
         0.25887E-02
         0.26890E-02
         0.28580E-02
         0.29523E-02
         0.29714E-02
         0.29714E-02
         0.26475E-02
         0.27683E-02
         0.34056E-02
         0.35327E-02
         0.35327E-02
         0.29778E-02
         0.31435E-02
         0.31435E-02
         0.43143E-02
         0.43143E-02
         0.43143E-02
         0.43143E-02
         0.34887E-02
         0.34887E-02
         0.32755E-02
         0.32091E-02
         0.37839E-02
         0.31864E-02
         0.27086E-02
         0.33867E-02
         0.37159E-02
         0.27347E-02
         0.29027E-02
         0.36991E-02
         0.36036E-02
         0.37839E-02
         0.29920E-02
         0.29920E-02
         0.28585E-02
         0.26897E-02
         0.29525E-02
         0.28082E-02
         0.30105E-02
         0.36991E-02
         0.28563E-02
         0.28563E-02
         0.27537E-02
         0.26142E-02
         0.36991E-02
         0.36991E-02
         0.37789E-02
         0.37789E-02
         0.30240E-02
         0.36944E-02
         0.37159E-02
         0.31999E-02
         0.32808E-02
         0.32808E-02
         0.27006E-02
         0.25920E-02
         0.25880E-02
         0.29714E-02
         0.29714E-02
         0.26474E-02
         0.29097E-02
         0.34049E-02
         0.35322E-02
         0.35322E-02
         0.29781E-02
         0.32360E-02
         0.28949E-02
         0.29885E-02
         0.36944E-02
         0.37159E-02
         0.37159E-02
         0.33867E-02
         0.29027E-02
         0.31999E-02
         0.32808E-02
         0.32808E-02
         0.27006E-02
         0.25920E-02
         0.25880E-02
         0.26897E-02
         0.28585E-02
         0.29525E-02
         0.29714E-02
         0.29714E-02
         0.26474E-02
         0.27683E-02
         0.34049E-02
         0.35322E-02
         0.35322E-02
         0.29781E-02
         0.31449E-02
         0.31449E-02
         0.43140E-02
         0.43140E-02
         0.43140E-02
         0.43140E-02
         0.34888E-02
         0.34888E-02
         0.32740E-02
         0.32081E-02
         0.37834E-02
         0.31860E-02
         0.27069E-02
         0.33863E-02
         0.37158E-02
         0.27299E-02
         0.29039E-02
         0.36988E-02
         0.36071E-02
         0.37834E-02
         0.29946E-02
         0.29946E-02
         0.28589E-02
         0.26905E-02
         0.29526E-02
         0.28085E-02
         0.30131E-02
         0.36988E-02
         0.28538E-02
         0.28538E-02
         0.27524E-02
         0.26132E-02
         0.36988E-02
         0.36988E-02
         0.37809E-02
         0.37809E-02
         0.30241E-02
         0.36932E-02
         0.37158E-02
         0.32012E-02
         0.32814E-02
         0.32814E-02
         0.27006E-02
         0.25920E-02
         0.25873E-02
         0.29714E-02
         0.29714E-02
         0.26473E-02
         0.29097E-02
         0.34041E-02
         0.35316E-02
         0.35316E-02
         0.29784E-02
         0.32378E-02
         0.28921E-02
         0.29895E-02
         0.36932E-02
         0.37158E-02
         0.37158E-02
         0.33863E-02
         0.29039E-02
         0.32012E-02
         0.32814E-02
         0.32814E-02
         0.27006E-02
         0.25920E-02
         0.25873E-02
         0.26905E-02
         0.28589E-02
         0.29526E-02
         0.29714E-02
         0.29714E-02
         0.26473E-02
         0.27683E-02
         0.34041E-02
         0.35316E-02
         0.35316E-02
         0.29784E-02
         0.31463E-02
         0.31463E-02
         0.43138E-02
         0.43138E-02
         0.43138E-02
         0.43138E-02
         0.34888E-02
         0.34888E-02
         0.32726E-02
         0.32071E-02
         0.37830E-02
         0.31856E-02
         0.27051E-02
         0.33859E-02
         0.37157E-02
         0.27252E-02
         0.29051E-02
         0.36985E-02
         0.36106E-02
         0.37830E-02
         0.29972E-02
         0.29972E-02
         0.28594E-02
         0.26912E-02
         0.29528E-02
         0.28087E-02
         0.30156E-02
         0.36985E-02
         0.28512E-02
         0.28512E-02
         0.27512E-02
         0.26122E-02
         0.36985E-02
         0.36985E-02
         0.37830E-02
         0.37830E-02
         0.30243E-02
         0.36920E-02
         0.37157E-02
         0.32025E-02
         0.32821E-02
         0.32821E-02
         0.27006E-02
         0.25920E-02
         0.25866E-02
         0.29714E-02
         0.29714E-02
         0.26473E-02
         0.29096E-02
         0.34034E-02
         0.35310E-02
         0.35310E-02
         0.29787E-02
         0.32396E-02
         0.28894E-02
         0.29905E-02
         0.36920E-02
         0.37157E-02
         0.37157E-02
         0.33859E-02
         0.29051E-02
         0.32025E-02
         0.32821E-02
         0.32821E-02
         0.27006E-02
         0.25920E-02
         0.25866E-02
         0.26912E-02
         0.28594E-02
         0.29528E-02
         0.29714E-02
         0.29714E-02
         0.26473E-02
         0.27682E-02
         0.34034E-02
         0.35310E-02
         0.35310E-02
         0.29787E-02
         0.31476E-02
         0.31476E-02
         0.43135E-02
         0.43135E-02
         0.43135E-02
         0.43135E-02
         0.34889E-02
         0.34889E-02
         0.32712E-02
         0.32061E-02
         0.37825E-02
         0.31852E-02
         0.27034E-02
         0.33856E-02
         0.37156E-02
         0.27205E-02
         0.29063E-02
         0.36982E-02
         0.36142E-02
         0.37851E-02
         0.29998E-02
         0.29998E-02
         0.28599E-02
         0.26920E-02
         0.29529E-02
         0.28090E-02
         0.30182E-02
         0.36982E-02
         0.28486E-02
         0.28486E-02
         0.27499E-02
         0.26112E-02
         0.36982E-02
         0.36982E-02
         0.37851E-02
         0.37851E-02
         0.30245E-02
         0.36908E-02
         0.37156E-02
         0.32038E-02
         0.32827E-02
         0.32827E-02
         0.27006E-02
         0.25920E-02
         0.25859E-02
         0.29714E-02
         0.29714E-02
         0.26472E-02
         0.29095E-02
         0.34027E-02
         0.35304E-02
         0.35304E-02
         0.29790E-02
         0.32413E-02
         0.28866E-02
         0.29915E-02
         0.36908E-02
         0.37156E-02
         0.37156E-02
         0.33856E-02
         0.29063E-02
         0.32038E-02
         0.32827E-02
         0.32827E-02
         0.27006E-02
         0.25920E-02
         0.25859E-02
         0.26920E-02
         0.28599E-02
         0.29529E-02
         0.29714E-02
         0.29714E-02
         0.26472E-02
         0.27682E-02
         0.34027E-02
         0.35304E-02
         0.35304E-02
         0.29790E-02
         0.31490E-02
         0.31490E-02
         0.43133E-02
         0.43133E-02
         0.43133E-02
         0.43133E-02
         0.34890E-02
         0.34890E-02
         0.32698E-02
         0.32051E-02
         0.37820E-02
         0.31848E-02
         0.27017E-02
         0.33851E-02
         0.37155E-02
         0.27158E-02
         0.29075E-02
         0.36979E-02
         0.36177E-02
         0.37871E-02
         0.30024E-02
         0.30024E-02
         0.28603E-02
         0.26927E-02
         0.29530E-02
         0.28093E-02
         0.30208E-02
         0.36979E-02
         0.28460E-02
         0.28460E-02
         0.27486E-02
         0.26101E-02
         0.36979E-02
         0.36979E-02
         0.37871E-02
         0.37871E-02
         0.30247E-02
         0.36896E-02
         0.37155E-02
         0.32051E-02
         0.32833E-02
         0.32833E-02
         0.27006E-02
         0.25920E-02
         0.25851E-02
         0.29714E-02
         0.29714E-02
         0.26472E-02
         0.29094E-02
         0.34019E-02
         0.35299E-02
         0.35299E-02
         0.29793E-02
         0.32431E-02
         0.28838E-02
         0.29925E-02
         0.36896E-02
         0.37155E-02
         0.37155E-02
         0.33851E-02
         0.29075E-02
         0.32051E-02
         0.32833E-02
         0.32833E-02
         0.27006E-02
         0.25920E-02
         0.25851E-02
         0.26927E-02
         0.28603E-02
         0.29530E-02
         0.29714E-02
         0.29714E-02
         0.26472E-02
         0.27681E-02
         0.34019E-02
         0.35299E-02
         0.35299E-02
         0.29793E-02
         0.31503E-02
         0.31503E-02
         0.43130E-02
         0.43130E-02
         0.43130E-02
         0.43130E-02
         0.34891E-02
         0.34891E-02
         0.32683E-02
         0.32041E-02
         0.37816E-02
         0.31844E-02
         0.27000E-02
         0.33848E-02
         0.37154E-02
         0.27111E-02
         0.29087E-02
         0.36976E-02
         0.36213E-02
         0.37892E-02
         0.30050E-02
         0.30050E-02
         0.28608E-02
         0.26935E-02
         0.29532E-02
         0.28096E-02
         0.30234E-02
         0.36976E-02
         0.28434E-02
         0.28434E-02
         0.27472E-02
         0.26091E-02
         0.36976E-02
         0.36976E-02
         0.37892E-02
         0.37892E-02
         0.30249E-02
         0.36885E-02
         0.37154E-02
         0.32064E-02
         0.32839E-02
         0.32839E-02
         0.27006E-02
         0.25920E-02
         0.25844E-02
         0.29714E-02
         0.29714E-02
         0.26471E-02
         0.29094E-02
         0.34012E-02
         0.35293E-02
         0.35293E-02
         0.29797E-02
         0.32449E-02
         0.28811E-02
         0.29935E-02
         0.36885E-02
         0.37154E-02
         0.37154E-02
         0.33848E-02
         0.29087E-02
         0.32064E-02
         0.32839E-02
         0.32839E-02
         0.27006E-02
         0.25920E-02
         0.25844E-02
         0.26935E-02
         0.28608E-02
         0.29532E-02
         0.29714E-02
         0.29714E-02
         0.26471E-02
         0.27681E-02
         0.34012E-02
         0.35293E-02
         0.35293E-02
         0.29797E-02
         0.31517E-02
         0.31517E-02
         0.43128E-02
         0.43128E-02
         0.43128E-02
         0.43128E-02
         0.34892E-02
         0.34892E-02
         0.32669E-02
         0.32031E-02
         0.37811E-02
         0.31840E-02
         0.26982E-02
         0.33844E-02
         0.37152E-02
         0.27063E-02
         0.29099E-02
         0.36973E-02
         0.36248E-02
         0.37913E-02
         0.30076E-02
         0.30076E-02
         0.28613E-02
         0.26942E-02
         0.29533E-02
         0.28099E-02
         0.30260E-02
         0.36973E-02
         0.28408E-02
         0.28408E-02
         0.27460E-02
         0.26081E-02
         0.36973E-02
         0.36973E-02
         0.37913E-02
         0.37913E-02
         0.30250E-02
         0.36873E-02
         0.37152E-02
         0.32077E-02
         0.32845E-02
         0.32845E-02
         0.27006E-02
         0.25920E-02
         0.25837E-02
         0.29714E-02
         0.29714E-02
         0.26471E-02
         0.29093E-02
         0.34005E-02
         0.35287E-02
         0.35287E-02
         0.29800E-02
         0.32467E-02
         0.28783E-02
         0.29945E-02
         0.36873E-02
         0.37152E-02
         0.37152E-02
         0.33844E-02
         0.29099E-02
         0.32077E-02
         0.32845E-02
         0.32845E-02
         0.27006E-02
         0.25920E-02
         0.25837E-02
         0.26942E-02
         0.28613E-02
         0.29533E-02
         0.29714E-02
         0.29714E-02
         0.26471E-02
         0.27681E-02
         0.34005E-02
         0.35287E-02
         0.35287E-02
         0.29800E-02
         0.31530E-02
         0.31530E-02
         0.43125E-02
         0.43125E-02
         0.43125E-02
         0.43125E-02
         0.34893E-02
         0.34893E-02
         0.32655E-02
         0.32021E-02
         0.37806E-02
         0.31836E-02
         0.26965E-02
         0.33840E-02
         0.37151E-02
         0.27016E-02
         0.29111E-02
         0.36969E-02
         0.36283E-02
         0.37933E-02
         0.30102E-02
         0.30102E-02
         0.28617E-02
         0.26950E-02
         0.29535E-02
         0.28101E-02
         0.30286E-02
         0.36969E-02
         0.28382E-02
         0.28382E-02
         0.27447E-02
         0.26071E-02
         0.36969E-02
         0.36969E-02
         0.37933E-02
         0.37933E-02
         0.30252E-02
         0.36861E-02
         0.37151E-02
         0.32090E-02
         0.32852E-02
         0.32852E-02
         0.27006E-02
         0.25920E-02
         0.25830E-02
         0.29714E-02
         0.29714E-02
         0.26470E-02
         0.29092E-02
         0.33997E-02
         0.35282E-02
         0.35282E-02
         0.29803E-02
         0.32484E-02
         0.28755E-02
         0.29955E-02
         0.36861E-02
         0.37151E-02
         0.37151E-02
         0.33840E-02
         0.29111E-02
         0.32090E-02
         0.32852E-02
         0.32852E-02
         0.27006E-02
         0.25920E-02
         0.25830E-02
         0.26950E-02
         0.28617E-02
         0.29535E-02
         0.29714E-02
         0.29714E-02
         0.26470E-02
         0.27680E-02
         0.33997E-02
         0.35282E-02
         0.35282E-02
         0.29803E-02
         0.31544E-02
         0.31544E-02
         0.43123E-02
         0.43123E-02
         0.43123E-02
         0.43123E-02
         0.34893E-02
         0.34893E-02
         0.32640E-02
         0.32011E-02
         0.37801E-02
         0.31832E-02
         0.26948E-02
         0.33836E-02
         0.37150E-02
         0.26969E-02
         0.29123E-02
         0.36966E-02
         0.36319E-02
         0.37954E-02
         0.30128E-02
         0.30128E-02
         0.28622E-02
         0.26957E-02
         0.29536E-02
         0.28104E-02
         0.30312E-02
         0.36966E-02
         0.28357E-02
         0.28357E-02
         0.27434E-02
         0.26061E-02
         0.36966E-02
         0.36966E-02
         0.37954E-02
         0.37954E-02
         0.30254E-02
         0.36849E-02
         0.37150E-02
         0.32103E-02
         0.32858E-02
         0.32858E-02
         0.27006E-02
         0.25920E-02
         0.25823E-02
         0.29714E-02
         0.29714E-02
         0.26470E-02
         0.29091E-02
         0.33990E-02
         0.35276E-02
         0.35276E-02
         0.29806E-02
         0.32502E-02
         0.28728E-02
         0.29965E-02
         0.36849E-02
         0.37150E-02
         0.37150E-02
         0.33836E-02
         0.29123E-02
         0.32103E-02
         0.32858E-02
         0.32858E-02
         0.27006E-02
         0.25920E-02
         0.25823E-02
         0.26957E-02
         0.28622E-02
         0.29536E-02
         0.29714E-02
         0.29714E-02
         0.26470E-02
         0.27680E-02
         0.33990E-02
         0.35276E-02
         0.35276E-02
         0.29806E-02
         0.31557E-02
         0.31557E-02
         0.43120E-02
         0.43120E-02
         0.43120E-02
         0.43120E-02
         0.34894E-02
         0.34894E-02
         0.32626E-02
         0.32001E-02
         0.37797E-02
         0.31828E-02
         0.26931E-02
         0.33832E-02
         0.37149E-02
         0.26922E-02
         0.29135E-02
         0.36963E-02
         0.36354E-02
         0.37975E-02
         0.30154E-02
         0.30154E-02
         0.28627E-02
         0.26965E-02
         0.29537E-02
         0.28107E-02
         0.30338E-02
         0.36963E-02
         0.28331E-02
         0.28331E-02
         0.27421E-02
         0.26051E-02
         0.36963E-02
         0.36963E-02
         0.37975E-02
         0.37975E-02
         0.30256E-02
         0.36838E-02
         0.37149E-02
         0.32116E-02
         0.32864E-02
         0.32864E-02
         0.27006E-02
         0.25920E-02
         0.25815E-02
         0.29714E-02
         0.29714E-02
         0.26469E-02
         0.29090E-02
         0.33983E-02
         0.35270E-02
         0.35270E-02
         0.29809E-02
         0.32519E-02
         0.28700E-02
         0.29975E-02
         0.36838E-02
         0.37149E-02
         0.37149E-02
         0.33832E-02
         0.29135E-02
         0.32116E-02
         0.32864E-02
         0.32864E-02
         0.27006E-02
         0.25920E-02
         0.25815E-02
         0.26965E-02
         0.28627E-02
         0.29537E-02
         0.29714E-02
         0.29714E-02
         0.26469E-02
         0.27680E-02
         0.33983E-02
         0.35270E-02
         0.35270E-02
         0.29809E-02
         0.31571E-02
         0.31571E-02
         0.43118E-02
         0.43118E-02
         0.43118E-02
         0.43118E-02
         0.34895E-02
         0.34895E-02
         0.32612E-02
         0.31990E-02
         0.37792E-02
         0.31824E-02
         0.26913E-02
         0.33828E-02
         0.37148E-02
         0.26875E-02
         0.29148E-02
         0.36960E-02
         0.36390E-02
         0.37995E-02
         0.30180E-02
         0.30180E-02
         0.28631E-02
         0.26972E-02
         0.29539E-02
         0.28110E-02
         0.30364E-02
         0.36960E-02
         0.28305E-02
         0.28305E-02
         0.27408E-02
         0.26040E-02
         0.36960E-02
         0.36960E-02
         0.37995E-02
         0.37995E-02
         0.30258E-02
         0.36826E-02
         0.37148E-02
         0.32129E-02
         0.32870E-02
         0.32870E-02
         0.27006E-02
         0.25920E-02
         0.25808E-02
         0.29713E-02
         0.29713E-02
         0.26468E-02
         0.29089E-02
         0.33975E-02
         0.35264E-02
         0.35264E-02
         0.29812E-02
         0.32537E-02
         0.28672E-02
         0.29985E-02
         0.36826E-02
         0.37148E-02
         0.37148E-02
         0.33828E-02
         0.29148E-02
         0.32129E-02
         0.32870E-02
         0.32870E-02
         0.27006E-02
         0.25920E-02
         0.25808E-02
         0.26972E-02
         0.28631E-02
         0.29539E-02
         0.29713E-02
         0.29713E-02
         0.26468E-02
         0.27679E-02
         0.33975E-02
         0.35264E-02
         0.35264E-02
         0.29812E-02
         0.31585E-02
         0.31585E-02
         0.43115E-02
         0.43115E-02
         0.43115E-02
         0.43115E-02
         0.34896E-02
         0.34896E-02
         0.32597E-02
         0.31980E-02
         0.37787E-02
         0.31820E-02
         0.26896E-02
         0.33824E-02
         0.37147E-02
         0.26827E-02
         0.29160E-02
         0.36957E-02
         0.36425E-02
         0.38016E-02
         0.30206E-02
         0.30206E-02
         0.28636E-02
         0.26980E-02
         0.29540E-02
         0.28112E-02
         0.30390E-02
         0.36957E-02
         0.28279E-02
         0.28279E-02
         0.27395E-02
         0.26030E-02
         0.36957E-02
         0.36957E-02
         0.38016E-02
         0.38016E-02
         0.30260E-02
         0.36814E-02
         0.37147E-02
         0.32141E-02
         0.32876E-02
         0.32876E-02
         0.27006E-02
         0.25920E-02
         0.25801E-02
         0.29713E-02
         0.29713E-02
         0.26468E-02
         0.29089E-02
         0.33968E-02
         0.35259E-02
         0.35259E-02
         0.29815E-02
         0.32555E-02
         0.28645E-02
         0.29995E-02
         0.36814E-02
         0.37147E-02
         0.37147E-02
         0.33824E-02
         0.29160E-02
         0.32141E-02
         0.32876E-02
         0.32876E-02
         0.27006E-02
         0.25920E-02
         0.25801E-02
         0.26980E-02
         0.28636E-02
         0.29540E-02
         0.29713E-02
         0.29713E-02
         0.26468E-02
         0.27679E-02
         0.33968E-02
         0.35259E-02
         0.35259E-02
         0.29815E-02
         0.31598E-02
         0.31598E-02
         0.43113E-02
         0.43113E-02
         0.43113E-02
         0.43113E-02
         0.34897E-02
         0.34897E-02
         0.32583E-02
         0.31970E-02
         0.37783E-02
         0.31816E-02
         0.26879E-02
         0.33820E-02
         0.37146E-02
         0.26780E-02
         0.29172E-02
         0.36954E-02
         0.36460E-02
         0.38037E-02
         0.30232E-02
         0.30232E-02
         0.28641E-02
         0.26987E-02
         0.29542E-02
         0.28115E-02
         0.30416E-02
         0.36954E-02
         0.28253E-02
         0.28253E-02
         0.27382E-02
         0.26020E-02
         0.36954E-02
         0.36954E-02
         0.38037E-02
         0.38037E-02
         0.30261E-02
         0.36802E-02
         0.37146E-02
         0.32154E-02
         0.32882E-02
         0.32882E-02
         0.27006E-02
         0.25921E-02
         0.25794E-02
         0.29713E-02
         0.29713E-02
         0.26467E-02
         0.29088E-02
         0.33961E-02
         0.35253E-02
         0.35253E-02
         0.29818E-02
         0.32573E-02
         0.28617E-02
         0.30005E-02
         0.36802E-02
         0.37146E-02
         0.37146E-02
         0.33820E-02
         0.29172E-02
         0.32154E-02
         0.32882E-02
         0.32882E-02
         0.27006E-02
         0.25921E-02
         0.25794E-02
         0.26987E-02
         0.28641E-02
         0.29542E-02
         0.29713E-02
         0.29713E-02
         0.26467E-02
         0.27678E-02
         0.33961E-02
         0.35253E-02
         0.35253E-02
         0.29818E-02
         0.31612E-02
         0.31612E-02
         0.43110E-02
         0.43110E-02
         0.43110E-02
         0.43110E-02
         0.34898E-02
         0.34898E-02
         0.32569E-02
         0.31960E-02
         0.37778E-02
         0.31812E-02
         0.26862E-02
         0.33816E-02
         0.37145E-02
         0.26733E-02
         0.29184E-02
         0.36950E-02
         0.36495E-02
         0.38057E-02
         0.30258E-02
         0.30258E-02
         0.28645E-02
         0.26995E-02
         0.29543E-02
         0.28118E-02
         0.30442E-02
         0.36950E-02
         0.28227E-02
         0.28227E-02
         0.27369E-02
         0.26010E-02
         0.36950E-02
         0.36950E-02
         0.38057E-02
         0.38057E-02
         0.30263E-02
         0.36790E-02
         0.37145E-02
         0.32167E-02
         0.32889E-02
         0.32889E-02
         0.27006E-02
         0.25921E-02
         0.25787E-02
         0.29713E-02
         0.29713E-02
         0.26467E-02
         0.29087E-02
         0.33953E-02
         0.35247E-02
         0.35247E-02
         0.29821E-02
         0.32590E-02
         0.28589E-02
         0.30015E-02
         0.36790E-02
         0.37145E-02
         0.37145E-02
         0.33816E-02
         0.29184E-02
         0.32167E-02
         0.32889E-02
         0.32889E-02
         0.27006E-02
         0.25921E-02
         0.25787E-02
         0.26995E-02
         0.28645E-02
         0.29543E-02
         0.29713E-02
         0.29713E-02
         0.26467E-02
         0.27678E-02
         0.33953E-02
         0.35247E-02
         0.35247E-02
         0.29821E-02
         0.31625E-02
         0.31625E-02
         0.43108E-02
         0.43108E-02
         0.43108E-02
         0.43108E-02
         0.34898E-02
         0.34898E-02
         0.32555E-02
         0.31950E-02
         0.37773E-02
         0.31808E-02
         0.26845E-02
         0.33812E-02
         0.37144E-02
         0.26686E-02
         0.29196E-02
         0.36948E-02
         0.36531E-02
         0.38078E-02
         0.30285E-02
         0.30285E-02
         0.28650E-02
         0.27002E-02
         0.29544E-02
         0.28120E-02
         0.30467E-02
         0.36948E-02
         0.28201E-02
         0.28201E-02
         0.27356E-02
         0.26000E-02
         0.36948E-02
         0.36948E-02
         0.38078E-02
         0.38078E-02
         0.30265E-02
         0.36779E-02
         0.37144E-02
         0.32181E-02
         0.32895E-02
         0.32895E-02
         0.27006E-02
         0.25921E-02
         0.25779E-02
         0.29713E-02
         0.29713E-02
         0.26466E-02
         0.29086E-02
         0.33946E-02
         0.35242E-02
         0.35242E-02
         0.29824E-02
         0.32608E-02
         0.28562E-02
         0.30025E-02
         0.36779E-02
         0.37144E-02
         0.37144E-02
         0.33812E-02
         0.29196E-02
         0.32181E-02
         0.32895E-02
         0.32895E-02
         0.27006E-02
         0.25921E-02
         0.25779E-02
         0.27002E-02
         0.28650E-02
         0.29544E-02
         0.29713E-02
         0.29713E-02
         0.26466E-02
         0.27678E-02
         0.33946E-02
         0.35242E-02
         0.35242E-02
         0.29824E-02
         0.31639E-02
         0.31639E-02
         0.43105E-02
         0.43105E-02
         0.43105E-02
         0.43105E-02
         0.34899E-02
         0.34899E-02
         0.32540E-02
         0.31940E-02
         0.37768E-02
         0.31804E-02
         0.26827E-02
         0.33808E-02
         0.37143E-02
         0.26639E-02
         0.29208E-02
         0.36944E-02
         0.36566E-02
         0.38099E-02
         0.30311E-02
         0.30311E-02
         0.28655E-02
         0.27010E-02
         0.29546E-02
         0.28123E-02
         0.30493E-02
         0.36944E-02
         0.28175E-02
         0.28175E-02
         0.27343E-02
         0.25990E-02
         0.36944E-02
         0.36944E-02
         0.38099E-02
         0.38099E-02
         0.30267E-02
         0.36767E-02
         0.37143E-02
         0.32193E-02
         0.32901E-02
         0.32901E-02
         0.27006E-02
         0.25921E-02
         0.25772E-02
         0.29713E-02
         0.29713E-02
         0.26466E-02
         0.29085E-02
         0.33939E-02
         0.35236E-02
         0.35236E-02
         0.29827E-02
         0.32626E-02
         0.28534E-02
         0.30035E-02
         0.36767E-02
         0.37143E-02
         0.37143E-02
         0.33808E-02
         0.29208E-02
         0.32193E-02
         0.32901E-02
         0.32901E-02
         0.27006E-02
         0.25921E-02
         0.25772E-02
         0.27010E-02
         0.28655E-02
         0.29546E-02
         0.29713E-02
         0.29713E-02
         0.26466E-02
         0.27677E-02
         0.33939E-02
         0.35236E-02
         0.35236E-02
         0.29827E-02
         0.31652E-02
         0.31652E-02
         0.43103E-02
         0.43103E-02
         0.43103E-02
         0.43103E-02
         0.34900E-02
         0.34900E-02
         0.32526E-02
         0.31930E-02
         0.37764E-02
         0.31800E-02
         0.26810E-02
         0.33804E-02
         0.37142E-02
         0.26591E-02
         0.29220E-02
         0.36941E-02
         0.36602E-02
         0.38119E-02
         0.30337E-02
         0.30337E-02
         0.28660E-02
         0.27017E-02
         0.29547E-02
         0.28126E-02
         0.30519E-02
         0.36941E-02
         0.28150E-02
         0.28150E-02
         0.27330E-02
         0.25979E-02
         0.36941E-02
         0.36941E-02
         0.38119E-02
         0.38119E-02
         0.30269E-02
         0.36755E-02
         0.37142E-02
         0.32206E-02
         0.32907E-02
         0.32907E-02
         0.27006E-02
         0.25921E-02
         0.25765E-02
         0.29713E-02
         0.29713E-02
         0.26465E-02
         0.29085E-02
         0.33931E-02
         0.35230E-02
         0.35230E-02
         0.29830E-02
         0.32643E-02
         0.28507E-02
         0.30045E-02
         0.36755E-02
         0.37142E-02
         0.37142E-02
         0.33804E-02
         0.29220E-02
         0.32206E-02
         0.32907E-02
         0.32907E-02
         0.27006E-02
         0.25921E-02
         0.25765E-02
         0.27017E-02
         0.28660E-02
         0.29547E-02
         0.29713E-02
         0.29713E-02
         0.26465E-02
         0.27677E-02
         0.33931E-02
         0.35230E-02
         0.35230E-02
         0.29830E-02
         0.31666E-02
         0.31666E-02
         0.43100E-02
         0.43100E-02
         0.43100E-02
         0.43100E-02
         0.34901E-02
         0.34901E-02
         0.32512E-02
         0.31920E-02
         0.37759E-02
         0.31796E-02
         0.26793E-02
         0.33800E-02
         0.37141E-02
         0.26544E-02
         0.29232E-02
         0.36938E-02
         0.36637E-02
         0.38140E-02
         0.30363E-02
         0.30363E-02
         0.28664E-02
         0.27025E-02
         0.29548E-02
         0.28129E-02
         0.30545E-02
         0.36938E-02
         0.28124E-02
         0.28124E-02
         0.27317E-02
         0.25969E-02
         0.36938E-02
         0.36938E-02
         0.38140E-02
         0.38140E-02
         0.30271E-02
         0.36743E-02
         0.37141E-02
         0.32219E-02
         0.32913E-02
         0.32913E-02
         0.27006E-02
         0.25921E-02
         0.25758E-02
         0.29713E-02
         0.29713E-02
         0.26465E-02
         0.29084E-02
         0.33924E-02
         0.35224E-02
         0.35224E-02
         0.29833E-02
         0.32661E-02
         0.28479E-02
         0.30055E-02
         0.36743E-02
         0.37141E-02
         0.37141E-02
         0.33800E-02
         0.29232E-02
         0.32219E-02
         0.32913E-02
         0.32913E-02
         0.27006E-02
         0.25921E-02
         0.25758E-02
         0.27025E-02
         0.28664E-02
         0.29548E-02
         0.29713E-02
         0.29713E-02
         0.26465E-02
         0.27677E-02
         0.33924E-02
         0.35224E-02
         0.35224E-02
         0.29833E-02
         0.31680E-02
         0.31680E-02
         0.43098E-02
         0.43098E-02
         0.43098E-02
         0.43098E-02
         0.34901E-02
         0.34901E-02
         0.32498E-02
         0.31910E-02
         0.37754E-02
         0.31792E-02
         0.26776E-02
         0.33796E-02
         0.37140E-02
         0.26497E-02
         0.29232E-02
         0.36935E-02
         0.36637E-02
         0.38140E-02
         0.30363E-02
         0.30363E-02
         0.28664E-02
         0.27025E-02
         0.29548E-02
         0.28129E-02
         0.30545E-02
         0.36935E-02
         0.28098E-02
         0.28098E-02
         0.27304E-02
         0.25959E-02
         0.36935E-02
         0.36935E-02
         0.38140E-02
         0.38140E-02
         0.30271E-02
         0.36731E-02
         0.37140E-02
         0.32219E-02
         0.32913E-02
         0.32913E-02
         0.27006E-02
         0.25921E-02
         0.25751E-02
         0.29713E-02
         0.29713E-02
         0.26464E-02
         0.29083E-02
         0.33916E-02
         0.35219E-02
         0.35219E-02
         0.29833E-02
         0.32661E-02
         0.28451E-02
         0.30055E-02
         0.36731E-02
         0.37140E-02
         0.37140E-02
         0.33796E-02
         0.29232E-02
         0.32219E-02
         0.32913E-02
         0.32913E-02
         0.27006E-02
         0.25921E-02
         0.25751E-02
         0.27025E-02
         0.28664E-02
         0.29548E-02
         0.29713E-02
         0.29713E-02
         0.26464E-02
         0.27676E-02
         0.33916E-02
         0.35219E-02
         0.35219E-02
         0.29833E-02
         0.31680E-02
         0.31680E-02
  
SCALARS              physical_window_z  double 1
LOOKUP_TABLE default
         0.26928E-02
         0.26928E-02
         0.26928E-02
         0.26928E-02
         0.26928E-02
         0.26928E-02
         0.26928E-02
         0.26928E-02
         0.26928E-02
         0.26928E-02
         0.26928E-02
         0.26928E-02
         0.26928E-02
         0.26928E-02
         0.26928E-02
         0.26928E-02
         0.26928E-02
         0.26928E-02
         0.26928E-02
         0.26928E-02
         0.26928E-02
         0.26928E-02
         0.26928E-02
         0.26928E-02
         0.26928E-02
         0.26928E-02
         0.26928E-02
         0.26928E-02
         0.26928E-02
         0.26928E-02
         0.26928E-02
         0.26928E-02
         0.26928E-02
         0.26928E-02
         0.26928E-02
         0.26928E-02
         0.26928E-02
         0.26928E-02
         0.26928E-02
         0.26928E-02
         0.26928E-02
         0.26928E-02
         0.26928E-02
         0.26928E-02
         0.26928E-02
         0.26928E-02
         0.26928E-02
         0.26928E-02
         0.26928E-02
         0.26928E-02
         0.26928E-02
         0.26928E-02
         0.26928E-02
         0.26928E-02
         0.26928E-02
         0.26928E-02
         0.26928E-02
         0.26928E-02
         0.26928E-02
         0.26928E-02
         0.26928E-02
         0.26928E-02
         0.26928E-02
         0.26928E-02
         0.26928E-02
         0.26928E-02
         0.26928E-02
         0.26928E-02
         0.26928E-02
         0.26928E-02
         0.26928E-02
         0.26928E-02
         0.26928E-02
         0.26928E-02
         0.26928E-02
         0.26928E-02
         0.26928E-02
         0.26928E-02
         0.26928E-02
         0.26928E-02
         0.26928E-02
         0.26928E-02
         0.26928E-02
         0.26928E-02
         0.26928E-02
         0.26928E-02
         0.26928E-02
         0.26928E-02
         0.26928E-02
         0.26928E-02
         0.26928E-02
         0.26928E-02
         0.26928E-02
         0.26928E-02
         0.26928E-02
         0.26928E-02
         0.26928E-02
         0.26928E-02
         0.26928E-02
         0.26928E-02
         0.26928E-02
         0.26928E-02
         0.26928E-02
         0.26928E-02
         0.26928E-02
         0.26928E-02
         0.26928E-02
         0.26928E-02
         0.26928E-02
         0.26928E-02
         0.26928E-02
         0.26928E-02
         0.26928E-02
         0.26928E-02
         0.26928E-02
         0.26928E-02
         0.26928E-02
         0.26928E-02
         0.26928E-02
         0.26928E-02
         0.26928E-02
         0.26928E-02
         0.26928E-02
         0.26928E-02
         0.26928E-02
         0.26928E-02
         0.26928E-02
         0.26928E-02
         0.26928E-02
         0.26928E-02
         0.26928E-02
         0.26928E-02
         0.26928E-02
         0.26928E-02
         0.26928E-02
         0.26928E-02
         0.26928E-02
         0.26928E-02
         0.26928E-02
         0.26928E-02
         0.26928E-02
         0.26928E-02
         0.26928E-02
         0.26928E-02
         0.26928E-02
         0.26928E-02
         0.26928E-02
         0.26928E-02
         0.26928E-02
         0.26928E-02
         0.26928E-02
         0.26928E-02
         0.26928E-02
         0.26928E-02
         0.26928E-02
         0.26928E-02
         0.26927E-02
         0.26927E-02
         0.26927E-02
         0.26927E-02
         0.26927E-02
         0.26927E-02
         0.26927E-02
         0.26927E-02
         0.26927E-02
         0.26927E-02
         0.26927E-02
         0.26927E-02
         0.26927E-02
         0.26927E-02
         0.26927E-02
         0.26927E-02
         0.26927E-02
         0.26927E-02
         0.26927E-02
         0.26927E-02
         0.26927E-02
         0.26927E-02
         0.26927E-02
         0.26927E-02
         0.26927E-02
         0.26927E-02
         0.26927E-02
         0.26927E-02
         0.26927E-02
         0.26927E-02
         0.26927E-02
         0.26927E-02
         0.26927E-02
         0.26927E-02
         0.26927E-02
         0.26927E-02
         0.26927E-02
         0.26927E-02
         0.26927E-02
         0.26927E-02
         0.26927E-02
         0.26927E-02
         0.26927E-02
         0.26927E-02
         0.26927E-02
         0.26927E-02
         0.26927E-02
         0.26927E-02
         0.26927E-02
         0.26927E-02
         0.26927E-02
         0.26927E-02
         0.26927E-02
         0.26927E-02
         0.26927E-02
         0.26927E-02
         0.26927E-02
         0.26927E-02
         0.26927E-02
         0.26927E-02
         0.26927E-02
         0.26927E-02
         0.26927E-02
         0.26927E-02
         0.26927E-02
         0.26927E-02
         0.26927E-02
         0.26927E-02
         0.26927E-02
         0.26927E-02
         0.26927E-02
         0.26927E-02
         0.26927E-02
         0.26927E-02
         0.26927E-02
         0.26927E-02
         0.26927E-02
         0.26927E-02
         0.26927E-02
         0.26927E-02
         0.26927E-02
         0.26927E-02
         0.26927E-02
         0.26927E-02
         0.26927E-02
         0.26927E-02
         0.26927E-02
         0.26927E-02
         0.26927E-02
         0.26927E-02
         0.26927E-02
         0.26927E-02
         0.26927E-02
         0.26927E-02
         0.26927E-02
         0.26927E-02
         0.26927E-02
         0.26927E-02
         0.26927E-02
         0.26927E-02
         0.26927E-02
         0.26927E-02
         0.26927E-02
         0.26927E-02
         0.26927E-02
         0.26927E-02
         0.26927E-02
         0.26927E-02
         0.26927E-02
         0.26927E-02
         0.26927E-02
         0.26927E-02
         0.26927E-02
         0.26927E-02
         0.26927E-02
         0.26927E-02
         0.26927E-02
         0.26927E-02
         0.26927E-02
         0.26927E-02
         0.26927E-02
         0.26927E-02
         0.26927E-02
         0.26927E-02
         0.26927E-02
         0.26927E-02
         0.26927E-02
         0.26927E-02
         0.26927E-02
         0.26927E-02
         0.26927E-02
         0.26927E-02
         0.26927E-02
         0.26927E-02
         0.26927E-02
         0.26927E-02
         0.26927E-02
         0.26927E-02
         0.26927E-02
         0.26927E-02
         0.26927E-02
         0.26927E-02
         0.26927E-02
         0.26927E-02
         0.26927E-02
         0.26927E-02
         0.26927E-02
         0.26927E-02
         0.26927E-02
         0.26927E-02
         0.26927E-02
         0.26927E-02
         0.26927E-02
         0.26927E-02
         0.26927E-02
         0.26927E-02
         0.26927E-02
         0.26927E-02
         0.26927E-02
         0.26927E-02
         0.26927E-02
         0.26927E-02
         0.26927E-02
         0.26927E-02
         0.26927E-02
         0.26927E-02
         0.26927E-02
         0.26927E-02
         0.26927E-02
         0.26927E-02
         0.26927E-02
         0.26927E-02
         0.26927E-02
         0.26927E-02
         0.26927E-02
         0.26927E-02
         0.26927E-02
         0.26927E-02
         0.26927E-02
         0.26927E-02
         0.26927E-02
         0.26927E-02
         0.26927E-02
         0.26927E-02
         0.26927E-02
         0.26927E-02
         0.26927E-02
         0.26927E-02
         0.26927E-02
         0.26927E-02
         0.26927E-02
         0.26927E-02
         0.26927E-02
         0.26927E-02
         0.26927E-02
         0.26927E-02
         0.26927E-02
         0.26927E-02
         0.26927E-02
         0.26927E-02
         0.26927E-02
         0.26927E-02
         0.26927E-02
         0.26927E-02
         0.26927E-02
         0.26927E-02
         0.26927E-02
         0.26927E-02
         0.26927E-02
         0.26927E-02
         0.26927E-02
         0.26927E-02
         0.26927E-02
         0.26927E-02
         0.26927E-02
         0.26927E-02
         0.26927E-02
         0.26927E-02
         0.26927E-02
         0.26927E-02
         0.26927E-02
         0.26927E-02
         0.26927E-02
         0.26927E-02
         0.26927E-02
         0.26927E-02
         0.26927E-02
         0.26927E-02
         0.26927E-02
         0.26927E-02
         0.26927E-02
         0.26927E-02
         0.26927E-02
         0.26927E-02
         0.26927E-02
         0.26927E-02
         0.26927E-02
         0.26927E-02
         0.26927E-02
         0.26927E-02
         0.26927E-02
         0.26927E-02
         0.26927E-02
         0.26927E-02
         0.26927E-02
         0.26927E-02
         0.26927E-02
         0.26927E-02
         0.26927E-02
         0.26927E-02
         0.26927E-02
         0.26927E-02
         0.26927E-02
         0.26927E-02
         0.26927E-02
         0.26927E-02
         0.26927E-02
         0.26927E-02
         0.26927E-02
         0.26927E-02
         0.26927E-02
         0.26927E-02
         0.26927E-02
         0.26927E-02
         0.26927E-02
         0.26927E-02
         0.26927E-02
         0.26927E-02
         0.26927E-02
         0.26927E-02
         0.26927E-02
         0.26927E-02
         0.26927E-02
         0.26927E-02
         0.26927E-02
         0.26927E-02
         0.26927E-02
         0.26927E-02
         0.26927E-02
         0.26927E-02
         0.26927E-02
         0.26927E-02
         0.26927E-02
         0.26927E-02
         0.26927E-02
         0.26927E-02
         0.26927E-02
         0.26927E-02
         0.26927E-02
         0.26927E-02
         0.26927E-02
         0.26927E-02
         0.26927E-02
         0.26927E-02
         0.26927E-02
         0.26927E-02
         0.26927E-02
         0.26927E-02
         0.26927E-02
         0.26927E-02
         0.26927E-02
         0.26927E-02
         0.26927E-02
         0.26927E-02
         0.26927E-02
         0.26927E-02
         0.26927E-02
         0.26927E-02
         0.26927E-02
         0.26927E-02
         0.26927E-02
         0.26927E-02
         0.26927E-02
         0.26927E-02
         0.26927E-02
         0.26927E-02
         0.26927E-02
         0.26927E-02
         0.26927E-02
         0.26927E-02
         0.26927E-02
         0.26927E-02
         0.26927E-02
         0.26927E-02
         0.26927E-02
         0.26927E-02
         0.26927E-02
         0.26927E-02
         0.26927E-02
         0.26927E-02
         0.26927E-02
         0.26927E-02
         0.26927E-02
         0.26927E-02
         0.26927E-02
         0.26927E-02
         0.26927E-02
         0.26927E-02
         0.26927E-02
         0.26927E-02
         0.26927E-02
         0.26927E-02
         0.26927E-02
         0.26927E-02
         0.26927E-02
         0.26927E-02
         0.26927E-02
         0.26927E-02
         0.26927E-02
         0.26927E-02
         0.26927E-02
         0.26927E-02
         0.26927E-02
         0.26927E-02
         0.26927E-02
         0.26927E-02
         0.26927E-02
         0.26927E-02
         0.26927E-02
         0.26927E-02
         0.26927E-02
         0.26927E-02
         0.26927E-02
         0.26927E-02
         0.26927E-02
         0.26927E-02
         0.26927E-02
         0.26927E-02
         0.26927E-02
         0.26927E-02
         0.26927E-02
         0.26927E-02
         0.26927E-02
         0.26927E-02
         0.26927E-02
         0.26927E-02
         0.26927E-02
         0.26927E-02
         0.26927E-02
         0.26927E-02
         0.26927E-02
         0.26927E-02
         0.26927E-02
         0.26927E-02
         0.26927E-02
         0.26927E-02
         0.26927E-02
         0.26927E-02
         0.26927E-02
         0.26927E-02
         0.26927E-02
         0.26927E-02
         0.26927E-02
         0.26927E-02
         0.26927E-02
         0.26927E-02
         0.26927E-02
         0.26927E-02
         0.26927E-02
         0.26927E-02
         0.26927E-02
         0.26927E-02
         0.26927E-02
         0.26927E-02
         0.26927E-02
         0.26927E-02
         0.26927E-02
         0.26927E-02
         0.26927E-02
         0.26927E-02
         0.26927E-02
         0.26927E-02
         0.26927E-02
         0.26927E-02
         0.26927E-02
         0.26927E-02
         0.26927E-02
         0.26927E-02
         0.26927E-02
         0.26927E-02
         0.26927E-02
         0.26927E-02
         0.26927E-02
         0.26927E-02
         0.26927E-02
         0.26927E-02
         0.26927E-02
         0.26927E-02
         0.26927E-02
         0.26927E-02
         0.26927E-02
         0.26927E-02
         0.26927E-02
         0.26927E-02
         0.26927E-02
         0.26927E-02
         0.26927E-02
         0.26927E-02
         0.26927E-02
         0.26927E-02
         0.26927E-02
         0.26927E-02
         0.26927E-02
         0.26927E-02
         0.26927E-02
         0.26927E-02
         0.26927E-02
         0.26927E-02
         0.26927E-02
         0.26927E-02
         0.26927E-02
         0.26927E-02
         0.26927E-02
         0.26927E-02
         0.26927E-02
         0.26927E-02
         0.26927E-02
         0.26927E-02
         0.26927E-02
         0.26927E-02
         0.26927E-02
         0.26927E-02
         0.26927E-02
         0.26927E-02
         0.26927E-02
         0.26927E-02
         0.26927E-02
         0.26927E-02
         0.26927E-02
         0.26927E-02
         0.26927E-02
         0.26927E-02
         0.26927E-02
         0.26927E-02
         0.26927E-02
         0.26927E-02
         0.26927E-02
         0.26927E-02
         0.26927E-02
         0.26927E-02
         0.26927E-02
         0.26927E-02
         0.26927E-02
         0.26927E-02
         0.26927E-02
         0.26927E-02
         0.26927E-02
         0.26927E-02
         0.26927E-02
         0.26927E-02
         0.26927E-02
         0.26927E-02
         0.26927E-02
         0.26927E-02
         0.26927E-02
         0.26927E-02
         0.26927E-02
         0.26927E-02
         0.26927E-02
         0.26927E-02
         0.26927E-02
         0.26927E-02
         0.26927E-02
         0.26927E-02
         0.26927E-02
         0.26927E-02
         0.26927E-02
         0.26927E-02
         0.26927E-02
         0.26927E-02
         0.26927E-02
         0.26927E-02
         0.26927E-02
         0.26927E-02
         0.26927E-02
         0.26927E-02
         0.26927E-02
         0.26927E-02
         0.26927E-02
         0.26927E-02
         0.26927E-02
         0.26927E-02
         0.26927E-02
         0.26927E-02
         0.26927E-02
         0.26927E-02
         0.26927E-02
         0.26927E-02
         0.26927E-02
         0.26927E-02
         0.26927E-02
         0.26927E-02
         0.26927E-02
         0.26927E-02
         0.26927E-02
         0.26927E-02
         0.26927E-02
         0.26927E-02
         0.26927E-02
         0.26927E-02
         0.26927E-02
         0.26927E-02
         0.26927E-02
         0.26927E-02
         0.26927E-02
         0.26927E-02
         0.26927E-02
         0.26927E-02
         0.26927E-02
         0.26927E-02
         0.26927E-02
         0.26927E-02
         0.26927E-02
         0.26927E-02
         0.26927E-02
         0.26927E-02
         0.26927E-02
         0.26927E-02
         0.26927E-02
         0.26927E-02
         0.26927E-02
         0.26927E-02
         0.26927E-02
         0.26927E-02
         0.26927E-02
         0.26927E-02
         0.26927E-02
         0.26927E-02
         0.26927E-02
         0.26927E-02
         0.26927E-02
         0.26927E-02
         0.26927E-02
         0.26927E-02
         0.26927E-02
         0.26927E-02
         0.26927E-02
         0.26927E-02
         0.26927E-02
         0.26927E-02
         0.26927E-02
         0.26927E-02
         0.26927E-02
         0.26927E-02
         0.26927E-02
         0.26927E-02
         0.26927E-02
         0.26927E-02
         0.26927E-02
         0.26927E-02
         0.26927E-02
         0.26927E-02
         0.26927E-02
         0.26927E-02
         0.26927E-02
         0.26927E-02
         0.26927E-02
         0.26927E-02
         0.26927E-02
         0.26927E-02
         0.26927E-02
         0.26927E-02
         0.26927E-02
         0.26927E-02
         0.26927E-02
         0.26927E-02
         0.26927E-02
         0.26927E-02
         0.26927E-02
         0.26927E-02
         0.26927E-02
         0.26927E-02
         0.26927E-02
         0.26927E-02
         0.26927E-02
         0.26927E-02
         0.26927E-02
         0.26927E-02
         0.26927E-02
         0.26927E-02
         0.26927E-02
         0.26927E-02
         0.26927E-02
         0.26927E-02
         0.26927E-02
         0.26927E-02
         0.26927E-02
         0.26927E-02
         0.26927E-02
         0.26927E-02
         0.26927E-02
         0.26927E-02
         0.26927E-02
         0.26927E-02
         0.26927E-02
         0.26927E-02
         0.26927E-02
         0.26927E-02
         0.26927E-02
         0.26927E-02
         0.26927E-02
         0.26927E-02
         0.26927E-02
         0.26927E-02
         0.26927E-02
         0.26927E-02
         0.26927E-02
         0.26927E-02
         0.26927E-02
         0.26927E-02
         0.26927E-02
         0.26927E-02
         0.26927E-02
         0.26927E-02
         0.26927E-02
         0.26927E-02
         0.26927E-02
         0.26927E-02
         0.26927E-02
         0.26927E-02
         0.26927E-02
         0.26927E-02
         0.26927E-02
         0.26927E-02
         0.26927E-02
         0.26927E-02
         0.26927E-02
         0.26927E-02
         0.26927E-02
         0.26927E-02
         0.26927E-02
         0.26927E-02
         0.26927E-02
         0.26927E-02
         0.26927E-02
         0.26927E-02
         0.26927E-02
         0.26927E-02
         0.26927E-02
         0.26927E-02
         0.26927E-02
         0.26927E-02
         0.26927E-02
         0.26927E-02
         0.26927E-02
         0.26927E-02
         0.26927E-02
         0.26927E-02
         0.26927E-02
         0.26927E-02
         0.26927E-02
         0.26927E-02
         0.26927E-02
         0.26927E-02
         0.26927E-02
         0.26927E-02
         0.26927E-02
         0.26927E-02
         0.26927E-02
         0.26927E-02
         0.26927E-02
         0.26927E-02
         0.26927E-02
         0.26927E-02
         0.26927E-02
         0.26927E-02
         0.26927E-02
         0.26927E-02
         0.26927E-02
         0.26927E-02
         0.26927E-02
         0.26927E-02
         0.26927E-02
         0.26927E-02
         0.26927E-02
         0.26927E-02
         0.26927E-02
         0.26927E-02
         0.26927E-02
         0.26927E-02
         0.26927E-02
         0.26927E-02
         0.26927E-02
         0.26927E-02
         0.26927E-02
         0.26927E-02
         0.26927E-02
         0.26927E-02
         0.26927E-02
         0.26927E-02
         0.26927E-02
         0.26927E-02
         0.26927E-02
         0.26927E-02
         0.26927E-02
         0.26927E-02
         0.26927E-02
         0.26927E-02
         0.26927E-02
         0.26927E-02
         0.26927E-02
         0.26927E-02
         0.26927E-02
         0.26927E-02
         0.26927E-02
         0.26927E-02
         0.26927E-02
         0.26927E-02
         0.26927E-02
         0.26927E-02
         0.26927E-02
         0.26927E-02
         0.26927E-02
         0.26927E-02
         0.26927E-02
         0.26927E-02
         0.26927E-02
         0.26927E-02
         0.26927E-02
         0.26927E-02
         0.26927E-02
         0.26927E-02
         0.26927E-02
         0.26927E-02
         0.26927E-02
         0.26927E-02
         0.26927E-02
         0.26927E-02
         0.26927E-02
         0.26927E-02
         0.26927E-02
         0.26927E-02
         0.26927E-02
         0.26927E-02
         0.26927E-02
         0.26927E-02
         0.26927E-02
         0.26927E-02
         0.26927E-02
         0.26927E-02
         0.26927E-02
         0.26927E-02
         0.26927E-02
         0.26927E-02
         0.26927E-02
         0.26927E-02
         0.26927E-02
         0.26927E-02
         0.26927E-02
         0.26927E-02
         0.26927E-02
         0.26927E-02
         0.26927E-02
         0.26927E-02
         0.26927E-02
         0.26927E-02
         0.26927E-02
         0.26927E-02
         0.26927E-02
         0.26927E-02
         0.26927E-02
         0.26927E-02
         0.26927E-02
         0.26927E-02
         0.26927E-02
         0.26927E-02
         0.26927E-02
         0.26927E-02
         0.26927E-02
         0.26927E-02
         0.26927E-02
         0.26927E-02
         0.26927E-02
         0.26927E-02
         0.26927E-02
         0.26927E-02
         0.26927E-02
         0.26927E-02
         0.26927E-02
         0.26927E-02
         0.26927E-02
         0.26927E-02
         0.26927E-02
         0.26927E-02
         0.26927E-02
         0.26927E-02
         0.26927E-02
         0.26927E-02
         0.26927E-02
         0.26927E-02
         0.26927E-02
         0.26927E-02
         0.26927E-02
         0.26927E-02
         0.26927E-02
         0.26927E-02
         0.26927E-02
         0.26927E-02
         0.26927E-02
         0.26927E-02
         0.26927E-02
         0.26927E-02
         0.26927E-02
         0.26927E-02
         0.26927E-02
         0.26927E-02
         0.26927E-02
         0.26927E-02
         0.26927E-02
         0.26927E-02
         0.26927E-02
         0.26927E-02
         0.26927E-02
         0.26927E-02
         0.26927E-02
         0.26927E-02
         0.26927E-02
         0.26927E-02
         0.26927E-02
         0.26927E-02
         0.26927E-02
         0.26927E-02
         0.26927E-02
         0.26927E-02
         0.26927E-02
         0.26927E-02
         0.26927E-02
         0.26927E-02
         0.26927E-02
         0.26927E-02
         0.26927E-02
         0.26927E-02
         0.26927E-02
         0.26927E-02
         0.26927E-02
         0.26927E-02
         0.26927E-02
         0.26927E-02
         0.26927E-02
         0.26927E-02
         0.26927E-02
         0.26927E-02
         0.26927E-02
         0.26927E-02
         0.26927E-02
         0.26927E-02
         0.26927E-02
         0.26927E-02
         0.26927E-02
         0.26927E-02
         0.26927E-02
         0.26927E-02
         0.26927E-02
         0.26927E-02
         0.26927E-02
         0.26927E-02
         0.26927E-02
         0.26927E-02
         0.26927E-02
         0.26927E-02
         0.26927E-02
         0.26927E-02
         0.26927E-02
         0.26927E-02
         0.26927E-02
         0.26927E-02
         0.26927E-02
         0.26927E-02
         0.26927E-02
         0.26927E-02
         0.26927E-02
         0.26927E-02
         0.26927E-02
         0.26927E-02
         0.26927E-02
         0.26927E-02
         0.26927E-02
         0.26927E-02
         0.26927E-02
         0.26927E-02
         0.26927E-02
         0.26927E-02
         0.26927E-02
         0.26927E-02
         0.26927E-02
         0.26927E-02
         0.26927E-02
         0.26927E-02
         0.26927E-02
         0.26927E-02
         0.26927E-02
         0.26927E-02
         0.26927E-02
         0.26927E-02
         0.26927E-02
         0.26927E-02
         0.26927E-02
         0.26927E-02
         0.26927E-02
         0.26927E-02
         0.26927E-02
         0.26927E-02
         0.26927E-02
         0.26927E-02
         0.26927E-02
         0.26927E-02
         0.26927E-02
         0.26927E-02
         0.26927E-02
         0.26927E-02
         0.26927E-02
         0.26927E-02
         0.26927E-02
         0.26927E-02
         0.26927E-02
         0.26927E-02
         0.26927E-02
         0.26927E-02
         0.26927E-02
         0.26927E-02
         0.26927E-02
         0.26927E-02
         0.26927E-02
         0.26927E-02
         0.26927E-02
         0.26927E-02
         0.26927E-02
         0.26927E-02
         0.26927E-02
         0.26927E-02
         0.26927E-02
         0.26927E-02
         0.26927E-02
         0.26927E-02
         0.26927E-02
         0.26927E-02
         0.26927E-02
         0.26927E-02
         0.26927E-02
         0.26927E-02
         0.26927E-02
         0.26927E-02
         0.26927E-02
         0.26927E-02
         0.26927E-02
         0.26927E-02
         0.26927E-02
         0.26927E-02
         0.26927E-02
         0.26927E-02
         0.26927E-02
         0.26927E-02
         0.26927E-02
         0.26927E-02
         0.26927E-02
         0.26927E-02
         0.26927E-02
         0.26927E-02
         0.26927E-02
         0.26927E-02
         0.26927E-02
         0.26927E-02
         0.26927E-02
         0.26927E-02
         0.26927E-02
         0.26927E-02
         0.26927E-02
         0.26927E-02
         0.26927E-02
         0.26927E-02
         0.26927E-02
         0.26927E-02
         0.26927E-02
         0.26927E-02
         0.26927E-02
         0.26927E-02
         0.26927E-02
         0.26927E-02
         0.26927E-02
         0.26927E-02
         0.26927E-02
         0.26927E-02
         0.26927E-02
         0.26927E-02
         0.26927E-02
         0.26927E-02
         0.26927E-02
         0.26927E-02
         0.26927E-02
         0.26927E-02
         0.26927E-02
         0.26927E-02
         0.26927E-02
         0.26927E-02
         0.26927E-02
         0.26927E-02
         0.26927E-02
         0.26927E-02
         0.26927E-02
         0.26927E-02
         0.26927E-02
         0.26927E-02
         0.26927E-02
         0.26927E-02
         0.26927E-02
         0.26927E-02
         0.26927E-02
         0.26927E-02
         0.26927E-02
         0.26927E-02
         0.26927E-02
         0.26927E-02
         0.26927E-02
         0.26927E-02
         0.26927E-02
         0.26927E-02
         0.26927E-02
         0.26927E-02
         0.26927E-02
         0.26927E-02
         0.26927E-02
         0.26927E-02
         0.26927E-02
         0.26927E-02
         0.26927E-02
         0.26927E-02
         0.26927E-02
         0.26927E-02
         0.26927E-02
         0.26927E-02
         0.26927E-02
         0.26927E-02
         0.26927E-02
         0.26927E-02
         0.26927E-02
         0.26927E-02
         0.26927E-02
         0.26927E-02
         0.26927E-02
         0.26927E-02
         0.26927E-02
         0.26927E-02
         0.26927E-02
         0.26927E-02
         0.26927E-02
         0.26927E-02
         0.26927E-02
         0.26927E-02
         0.26927E-02
         0.26927E-02
         0.26927E-02
         0.26927E-02
         0.26927E-02
         0.26927E-02
         0.26927E-02
         0.26927E-02
         0.26927E-02
         0.26927E-02
         0.26927E-02
         0.26927E-02
         0.26927E-02
         0.26927E-02
         0.26927E-02
         0.26927E-02
         0.26927E-02
         0.26927E-02
         0.26927E-02
         0.26927E-02
         0.26927E-02
         0.26927E-02
         0.26927E-02
         0.26927E-02
         0.26927E-02
         0.26927E-02
         0.26927E-02
         0.26927E-02
         0.26927E-02
         0.26927E-02
         0.26927E-02
         0.26927E-02
         0.26927E-02
         0.26927E-02
         0.26927E-02
         0.26927E-02
         0.26927E-02
         0.26927E-02
         0.26927E-02
         0.26927E-02
         0.26927E-02
         0.26927E-02
         0.26927E-02
         0.26927E-02
         0.26927E-02
         0.26927E-02
         0.26927E-02
         0.26927E-02
         0.26927E-02
         0.26927E-02
         0.26927E-02
         0.26927E-02
         0.26927E-02
         0.26927E-02
         0.26927E-02
         0.26927E-02
         0.26927E-02
         0.26927E-02
         0.26927E-02
         0.26927E-02
         0.26927E-02
         0.26927E-02
         0.26927E-02
         0.26927E-02
         0.26927E-02
         0.26927E-02
         0.26927E-02
         0.26927E-02
         0.26927E-02
         0.26927E-02
         0.26927E-02
         0.26927E-02
         0.26927E-02
         0.26927E-02
         0.26927E-02
         0.26927E-02
         0.26927E-02
         0.26927E-02
         0.26927E-02
         0.26927E-02
         0.26927E-02
         0.26927E-02
         0.26927E-02
         0.26927E-02
         0.26927E-02
         0.26927E-02
         0.26927E-02
         0.26927E-02
         0.26927E-02
         0.26927E-02
         0.26927E-02
         0.26927E-02
         0.26927E-02
         0.26927E-02
         0.26927E-02
         0.26927E-02
         0.26927E-02
         0.26927E-02
         0.26927E-02
         0.26927E-02
         0.26927E-02
         0.26927E-02
         0.26927E-02
         0.26927E-02
         0.26927E-02
         0.26927E-02
         0.26927E-02
         0.26927E-02
         0.26927E-02
         0.26927E-02
         0.26927E-02
         0.26927E-02
         0.26927E-02
         0.26927E-02
         0.26927E-02
         0.26927E-02
         0.26927E-02
         0.26927E-02
         0.26927E-02
         0.26927E-02
         0.26927E-02
         0.26927E-02
         0.26927E-02
         0.26927E-02
         0.26927E-02
         0.26927E-02
         0.26927E-02
         0.26927E-02
         0.26927E-02
         0.26927E-02
         0.26927E-02
         0.26927E-02
         0.26927E-02
         0.26927E-02
         0.26927E-02
         0.26927E-02
         0.26927E-02
         0.26927E-02
         0.26927E-02
         0.26927E-02
         0.26927E-02
         0.26927E-02
         0.26927E-02
         0.26927E-02
         0.26927E-02
         0.26927E-02
         0.26927E-02
         0.26927E-02
         0.26927E-02
         0.26927E-02
         0.26927E-02
         0.26927E-02
         0.26927E-02
         0.26927E-02
         0.26927E-02
         0.26927E-02
         0.26927E-02
         0.26927E-02
         0.26927E-02
         0.26927E-02
         0.26927E-02
         0.26927E-02
         0.26927E-02
         0.26927E-02
         0.26927E-02
         0.26927E-02
         0.26927E-02
         0.26927E-02
         0.26927E-02
         0.26927E-02
         0.26927E-02
         0.26927E-02
         0.26927E-02
         0.26927E-02
         0.26927E-02
         0.26927E-02
         0.26927E-02
         0.26927E-02
         0.26927E-02
         0.26927E-02
         0.26927E-02
         0.26927E-02
         0.26927E-02
         0.26927E-02
         0.26927E-02
         0.26927E-02
         0.26927E-02
         0.26927E-02
         0.26927E-02
         0.26927E-02
         0.26927E-02
         0.26927E-02
         0.26927E-02
         0.26927E-02
         0.26927E-02
         0.26927E-02
         0.26927E-02
         0.26927E-02
         0.26927E-02
         0.26927E-02
         0.26927E-02
         0.26927E-02
         0.26927E-02
         0.26927E-02
         0.26927E-02
         0.26927E-02
         0.26927E-02
         0.26927E-02
         0.26927E-02
         0.26927E-02
         0.26927E-02
         0.26927E-02
         0.26927E-02
         0.26927E-02
         0.26927E-02
         0.26927E-02
         0.26927E-02
         0.26927E-02
         0.26927E-02
         0.26927E-02
         0.26927E-02
         0.26927E-02
         0.26927E-02
         0.26927E-02
         0.26927E-02
         0.26927E-02
         0.26927E-02
         0.26927E-02
         0.26927E-02
         0.26927E-02
         0.26927E-02
         0.26927E-02
         0.26927E-02
         0.26927E-02
         0.26927E-02
         0.26927E-02
         0.26927E-02
         0.26927E-02
         0.26927E-02
         0.26927E-02
         0.26927E-02
         0.26927E-02
         0.26927E-02
         0.26927E-02
         0.26927E-02
         0.26927E-02
         0.26927E-02
         0.26927E-02
         0.26927E-02
         0.26927E-02
         0.26927E-02
         0.26927E-02
         0.26927E-02
         0.26927E-02
         0.26927E-02
         0.26927E-02
         0.26927E-02
         0.26927E-02
         0.26927E-02
         0.26927E-02
         0.26927E-02
         0.26927E-02
         0.26927E-02
         0.26927E-02
         0.26927E-02
         0.26927E-02
         0.26927E-02
         0.26927E-02
         0.26927E-02
         0.26927E-02
         0.26927E-02
         0.26927E-02
         0.26927E-02
         0.26927E-02
         0.26927E-02
         0.26927E-02
         0.26927E-02
         0.26927E-02
         0.26927E-02
         0.26927E-02
         0.26927E-02
         0.26927E-02
         0.26927E-02
         0.26927E-02
         0.26927E-02
         0.26927E-02
         0.26927E-02
         0.26927E-02
         0.26927E-02
         0.26927E-02
         0.26927E-02
         0.26927E-02
         0.26927E-02
         0.26927E-02
         0.26927E-02
         0.26927E-02
         0.26927E-02
         0.26927E-02
         0.26927E-02
         0.26927E-02
         0.26927E-02
         0.26927E-02
         0.26927E-02
         0.26927E-02
         0.26927E-02
         0.26927E-02
         0.26927E-02
         0.26927E-02
         0.26927E-02
         0.26927E-02
         0.26927E-02
         0.26927E-02
         0.26927E-02
         0.26927E-02
         0.26927E-02
         0.26927E-02
         0.26927E-02
         0.26927E-02
         0.26927E-02
         0.26927E-02
         0.26927E-02
         0.26927E-02
         0.26927E-02
         0.26927E-02
         0.26927E-02
         0.26927E-02
         0.26927E-02
         0.26927E-02
         0.26927E-02
         0.26927E-02
         0.26927E-02
         0.26927E-02
         0.26927E-02
         0.26927E-02
         0.26927E-02
         0.26927E-02
         0.26927E-02
         0.26927E-02
         0.26927E-02
         0.26927E-02
         0.26927E-02
         0.26927E-02
         0.26927E-02
         0.26927E-02
         0.26927E-02
         0.26927E-02
         0.26927E-02
         0.26927E-02
         0.26927E-02
         0.26927E-02
         0.26927E-02
         0.26927E-02
         0.26927E-02
         0.26927E-02
         0.26927E-02
         0.26927E-02
         0.26927E-02
         0.26927E-02
         0.26927E-02
         0.26927E-02
         0.26927E-02
         0.26927E-02
         0.26927E-02
         0.26927E-02
         0.26927E-02
         0.26927E-02
         0.26927E-02
         0.26927E-02
         0.26927E-02
         0.26927E-02
         0.26927E-02
         0.26927E-02
         0.26927E-02
         0.26927E-02
         0.26927E-02
         0.26927E-02
         0.26927E-02
         0.26927E-02
         0.26927E-02
         0.26927E-02
         0.26927E-02
         0.26927E-02
         0.26927E-02
         0.26927E-02
         0.26927E-02
         0.26927E-02
         0.26927E-02
         0.26927E-02
         0.26927E-02
         0.26927E-02
         0.26927E-02
         0.26927E-02
         0.26927E-02
         0.26927E-02
         0.26927E-02
         0.26927E-02
         0.26927E-02
         0.26927E-02
         0.26927E-02
         0.26927E-02
         0.26927E-02
         0.26927E-02
         0.26927E-02
         0.26927E-02
         0.26927E-02
         0.26927E-02
         0.26927E-02
         0.26927E-02
         0.26927E-02
         0.26927E-02
         0.26927E-02
         0.26927E-02
         0.26927E-02
         0.26927E-02
         0.26927E-02
         0.26927E-02
         0.26927E-02
         0.26927E-02
         0.26927E-02
         0.26927E-02
         0.26927E-02
         0.26927E-02
         0.26927E-02
         0.26927E-02
         0.26927E-02
         0.26927E-02
         0.26927E-02
         0.26927E-02
         0.26927E-02
         0.26927E-02
         0.26927E-02
         0.26927E-02
         0.26927E-02
         0.26927E-02
         0.26927E-02
         0.26927E-02
         0.26927E-02
         0.26927E-02
         0.26927E-02
         0.26927E-02
         0.26927E-02
         0.26927E-02
         0.26927E-02
         0.26927E-02
         0.26927E-02
         0.26927E-02
         0.26927E-02
         0.26927E-02
         0.26927E-02
         0.26927E-02
         0.26927E-02
         0.26927E-02
         0.26927E-02
         0.26927E-02
         0.26927E-02
         0.26927E-02
         0.26927E-02
         0.26927E-02
         0.26927E-02
         0.26927E-02
         0.26927E-02
         0.26927E-02
         0.26927E-02
         0.26927E-02
         0.26927E-02
         0.26927E-02
         0.26927E-02
         0.26927E-02
         0.26927E-02
         0.26927E-02
         0.26927E-02
         0.26927E-02
         0.26927E-02
         0.26927E-02
         0.26927E-02
         0.26927E-02
         0.26927E-02
         0.26927E-02
         0.26927E-02
         0.26927E-02
         0.26927E-02
         0.26927E-02
         0.26927E-02
         0.26927E-02
         0.26927E-02
         0.26927E-02
         0.26927E-02
         0.26927E-02
         0.26927E-02
         0.26927E-02
         0.26927E-02
         0.26927E-02
         0.26927E-02
         0.26927E-02
         0.26927E-02
         0.26927E-02
         0.26927E-02
         0.26927E-02
         0.26927E-02
         0.26927E-02
         0.26927E-02
         0.26927E-02
         0.26927E-02
         0.26927E-02
         0.26927E-02
         0.26927E-02
         0.26927E-02
         0.26927E-02
         0.26927E-02
         0.26927E-02
         0.26927E-02
         0.26927E-02
         0.26927E-02
         0.26927E-02
         0.26927E-02
         0.26927E-02
         0.26927E-02
         0.26927E-02
         0.26927E-02
         0.26927E-02
         0.26927E-02
         0.26927E-02
         0.26927E-02
         0.26927E-02
         0.26927E-02
         0.26927E-02
         0.26927E-02
         0.26927E-02
         0.26927E-02
         0.26927E-02
         0.26927E-02
         0.26927E-02
         0.26927E-02
         0.26927E-02
         0.26927E-02
         0.26927E-02
         0.26927E-02
         0.26927E-02
         0.26927E-02
         0.26927E-02
         0.26927E-02
         0.26927E-02
         0.26927E-02
         0.26927E-02
         0.26927E-02
         0.26927E-02
         0.26927E-02
         0.26927E-02
         0.26927E-02
         0.26927E-02
         0.26928E-02
         0.26928E-02
         0.26928E-02
         0.26928E-02
         0.26928E-02
         0.26928E-02
         0.26928E-02
         0.26928E-02
         0.26928E-02
         0.26928E-02
         0.26928E-02
         0.26928E-02
         0.26928E-02
         0.26928E-02
         0.26928E-02
         0.26928E-02
         0.26928E-02
         0.26928E-02
         0.26928E-02
         0.26928E-02
         0.26928E-02
         0.26928E-02
         0.26928E-02
         0.26928E-02
         0.26928E-02
         0.26928E-02
         0.26928E-02
         0.26928E-02
         0.26928E-02
         0.26928E-02
         0.26928E-02
         0.26928E-02
         0.26928E-02
         0.26928E-02
         0.26928E-02
         0.26928E-02
         0.26928E-02
         0.26928E-02
         0.26928E-02
         0.26928E-02
         0.26928E-02
         0.26928E-02
         0.26928E-02
         0.26928E-02
         0.26928E-02
         0.26928E-02
         0.26928E-02
         0.26928E-02
         0.26928E-02
         0.26928E-02
         0.26928E-02
         0.26928E-02
         0.26928E-02
         0.26928E-02
         0.26928E-02
         0.26928E-02
         0.26928E-02
         0.26928E-02
         0.26928E-02
         0.26928E-02
         0.26928E-02
         0.26928E-02
         0.26928E-02
         0.26928E-02
         0.26928E-02
         0.26928E-02
         0.26928E-02
         0.26928E-02
         0.26928E-02
         0.26928E-02
         0.26928E-02
         0.26928E-02
         0.26928E-02
         0.26928E-02
         0.26928E-02
         0.26928E-02
         0.26928E-02
         0.26928E-02
         0.26928E-02
         0.26928E-02
         0.26928E-02
         0.26928E-02
         0.26928E-02
         0.26928E-02
         0.26928E-02
         0.26928E-02
         0.26928E-02
         0.26928E-02
         0.26928E-02
         0.26928E-02
         0.26928E-02
         0.26928E-02
         0.26928E-02
         0.26928E-02
         0.26928E-02
         0.26928E-02
         0.26928E-02
         0.26928E-02
         0.26928E-02
         0.26928E-02
         0.26928E-02
         0.26928E-02
         0.26928E-02
         0.26928E-02
         0.26928E-02
         0.26928E-02
         0.26928E-02
         0.26928E-02
         0.26928E-02
         0.26928E-02
         0.26928E-02
         0.26928E-02
         0.26928E-02
         0.26928E-02
         0.26928E-02
         0.26928E-02
         0.26928E-02
         0.26928E-02
         0.26928E-02
         0.26928E-02
         0.26928E-02
         0.26928E-02
         0.26928E-02
         0.26928E-02
         0.26928E-02
         0.26928E-02
         0.26928E-02
         0.26928E-02
         0.26928E-02
         0.26928E-02
         0.26928E-02
         0.26928E-02
         0.26928E-02
         0.26928E-02
         0.26928E-02
         0.26928E-02
         0.26928E-02
         0.26928E-02
         0.26928E-02
         0.26928E-02
         0.26928E-02
         0.26928E-02
         0.26928E-02
         0.26928E-02
         0.26928E-02
         0.26928E-02
         0.26928E-02
         0.26928E-02
         0.26928E-02
         0.26928E-02
         0.26928E-02
         0.26928E-02
         0.26928E-02
         0.26928E-02
         0.26928E-02
         0.26928E-02
  
SCALARS                   nodal_volume  double 1
LOOKUP_TABLE default
         0.91140E-09
         0.72412E-09
         0.77574E-09
         0.13316E-08
         0.45570E-09
         0.36211E-09
         0.38787E-09
         0.66566E-09
         0.71537E-09
         0.91211E-09
         0.35767E-09
         0.45600E-09
         0.51195E-09
         0.61532E-09
         0.25605E-09
         0.30776E-09
         0.10101E-08
         0.74536E-09
         0.50500E-09
         0.37281E-09
         0.30273E-09
         0.57012E-09
         0.62699E-09
         0.15144E-09
         0.28509E-09
         0.31352E-09
         0.51329E-09
         0.64933E-09
         0.25683E-09
         0.32471E-09
         0.12026E-08
         0.93909E-09
         0.11935E-08
         0.60122E-09
         0.46945E-09
         0.59663E-09
         0.70296E-09
         0.80270E-09
         0.35149E-09
         0.40134E-09
         0.75859E-09
         0.84013E-09
         0.37932E-09
         0.42007E-09
         0.64542E-09
         0.40086E-09
         0.32274E-09
         0.20045E-09
         0.76288E-09
         0.38153E-09
         0.63346E-09
         0.31675E-09
         0.66583E-09
         0.33318E-09
         0.68008E-09
         0.34022E-09
         0.58930E-09
         0.71738E-09
         0.29472E-09
         0.35874E-09
         0.90938E-09
         0.64302E-09
         0.45469E-09
         0.32154E-09
         0.10152E-08
         0.50747E-09
         0.88120E-09
         0.44042E-09
         0.40077E-09
         0.61872E-09
         0.20039E-09
         0.30940E-09
         0.70206E-09
         0.35106E-09
         0.74172E-09
         0.37089E-09
         0.71539E-09
         0.35770E-09
         0.56226E-09
         0.28113E-09
         0.35349E-09
         0.58452E-09
         0.17675E-09
         0.29229E-09
         0.77354E-09
         0.38679E-09
         0.62469E-09
         0.31238E-09
         0.54957E-09
         0.27483E-09
         0.36009E-09
         0.61365E-09
         0.18007E-09
         0.30685E-09
         0.83268E-09
         0.41635E-09
         0.87287E-09
         0.43642E-09
         0.70438E-09
         0.35217E-09
         0.43365E-09
         0.74413E-09
         0.21683E-09
         0.37198E-09
         0.27660E-09
         0.35144E-09
         0.13833E-09
         0.17573E-09
         0.32921E-09
         0.16465E-09
         0.38764E-09
         0.19382E-09
         0.37797E-09
         0.18897E-09
         0.36707E-09
         0.18352E-09
         0.39112E-09
         0.19552E-09
         0.41268E-09
         0.20627E-09
         0.38876E-09
         0.19433E-09
         0.30402E-09
         0.15200E-09
         0.24796E-09
         0.12398E-09
         0.31999E-09
         0.16000E-09
         0.42608E-09
         0.21303E-09
         0.46805E-09
         0.23401E-09
         0.44933E-09
         0.22466E-09
         0.40550E-09
         0.20276E-09
         0.36826E-09
         0.18414E-09
         0.29911E-09
         0.14956E-09
         0.25178E-09
         0.12591E-09
         0.32888E-09
         0.16445E-09
         0.43529E-09
         0.21765E-09
         0.44963E-09
         0.22482E-09
         0.36384E-09
         0.18194E-09
         0.29543E-09
         0.14774E-09
         0.36126E-09
         0.18063E-09
         0.42771E-09
         0.21386E-09
         0.91143E-09
         0.72396E-09
         0.77579E-09
         0.13322E-08
         0.71547E-09
         0.91237E-09
         0.51167E-09
         0.61494E-09
         0.10105E-08
         0.74486E-09
         0.30244E-09
         0.57001E-09
         0.62694E-09
         0.51257E-09
         0.64918E-09
         0.12029E-08
         0.93950E-09
         0.11941E-08
         0.70298E-09
         0.80279E-09
         0.75855E-09
         0.84015E-09
         0.64535E-09
         0.40081E-09
         0.76254E-09
         0.63339E-09
         0.66483E-09
         0.67941E-09
         0.58904E-09
         0.71721E-09
         0.90946E-09
         0.64293E-09
         0.10157E-08
         0.88199E-09
         0.40076E-09
         0.61859E-09
         0.70195E-09
         0.74166E-09
         0.71543E-09
         0.56228E-09
         0.35349E-09
         0.58443E-09
         0.77349E-09
         0.62459E-09
         0.54943E-09
         0.35999E-09
         0.61359E-09
         0.83268E-09
         0.87299E-09
         0.70451E-09
         0.43366E-09
         0.74449E-09
         0.27651E-09
         0.35143E-09
         0.32904E-09
         0.38765E-09
         0.37805E-09
         0.36714E-09
         0.39129E-09
         0.41297E-09
         0.38899E-09
         0.30408E-09
         0.24798E-09
         0.31999E-09
         0.42613E-09
         0.46815E-09
         0.44938E-09
         0.40548E-09
         0.36823E-09
         0.29908E-09
         0.25174E-09
         0.32885E-09
         0.43527E-09
         0.44962E-09
         0.36376E-09
         0.29536E-09
         0.36130E-09
         0.42769E-09
         0.91151E-09
         0.72383E-09
         0.77587E-09
         0.13329E-08
         0.71560E-09
         0.91267E-09
         0.51142E-09
         0.61459E-09
         0.10109E-08
         0.74439E-09
         0.30216E-09
         0.56992E-09
         0.62691E-09
         0.51187E-09
         0.64906E-09
         0.12033E-08
         0.93995E-09
         0.11947E-08
         0.70302E-09
         0.80291E-09
         0.75853E-09
         0.84020E-09
         0.64530E-09
         0.40078E-09
         0.76223E-09
         0.63335E-09
         0.66385E-09
         0.67875E-09
         0.58880E-09
         0.71706E-09
         0.90957E-09
         0.64286E-09
         0.10162E-08
         0.88281E-09
         0.40076E-09
         0.61849E-09
         0.70188E-09
         0.74162E-09
         0.71550E-09
         0.56232E-09
         0.35350E-09
         0.58436E-09
         0.77347E-09
         0.62452E-09
         0.54931E-09
         0.35990E-09
         0.61355E-09
         0.83270E-09
         0.87315E-09
         0.70467E-09
         0.43368E-09
         0.74487E-09
         0.27643E-09
         0.35143E-09
         0.32889E-09
         0.38767E-09
         0.37814E-09
         0.36723E-09
         0.39147E-09
         0.41328E-09
         0.38923E-09
         0.30416E-09
         0.24800E-09
         0.32001E-09
         0.42620E-09
         0.46826E-09
         0.44944E-09
         0.40548E-09
         0.36821E-09
         0.29906E-09
         0.25171E-09
         0.32883E-09
         0.43527E-09
         0.44963E-09
         0.36369E-09
         0.29530E-09
         0.36135E-09
         0.42769E-09
         0.91156E-09
         0.72368E-09
         0.77594E-09
         0.13335E-08
         0.71571E-09
         0.91295E-09
         0.51115E-09
         0.61422E-09
         0.10112E-08
         0.74389E-09
         0.30187E-09
         0.56982E-09
         0.62686E-09
         0.51116E-09
         0.64892E-09
         0.12036E-08
         0.94038E-09
         0.11953E-08
         0.70304E-09
         0.80300E-09
         0.75850E-09
         0.84023E-09
         0.64523E-09
         0.40073E-09
         0.76190E-09
         0.63330E-09
         0.66285E-09
         0.67809E-09
         0.58855E-09
         0.71689E-09
         0.90966E-09
         0.64278E-09
         0.10168E-08
         0.88361E-09
         0.40076E-09
         0.61837E-09
         0.70178E-09
         0.74156E-09
         0.71554E-09
         0.56234E-09
         0.35350E-09
         0.58428E-09
         0.77343E-09
         0.62442E-09
         0.54918E-09
         0.35981E-09
         0.61349E-09
         0.83271E-09
         0.87328E-09
         0.70481E-09
         0.43369E-09
         0.74524E-09
         0.27634E-09
         0.35142E-09
         0.32873E-09
         0.38768E-09
         0.37823E-09
         0.36731E-09
         0.39163E-09
         0.41358E-09
         0.38945E-09
         0.30422E-09
         0.24802E-09
         0.32001E-09
         0.42625E-09
         0.46837E-09
         0.44949E-09
         0.40546E-09
         0.36819E-09
         0.29904E-09
         0.25167E-09
         0.32881E-09
         0.43526E-09
         0.44963E-09
         0.36362E-09
         0.29523E-09
         0.36139E-09
         0.42768E-09
         0.91161E-09
         0.72353E-09
         0.77600E-09
         0.13341E-08
         0.71583E-09
         0.91323E-09
         0.51088E-09
         0.61386E-09
         0.10116E-08
         0.74341E-09
         0.30158E-09
         0.56972E-09
         0.62682E-09
         0.51045E-09
         0.64879E-09
         0.12040E-08
         0.94081E-09
         0.11959E-08
         0.70307E-09
         0.80310E-09
         0.75847E-09
         0.84027E-09
         0.64517E-09
         0.40069E-09
         0.76158E-09
         0.63325E-09
         0.66186E-09
         0.67742E-09
         0.58831E-09
         0.71673E-09
         0.90975E-09
         0.64270E-09
         0.10173E-08
         0.88441E-09
         0.40075E-09
         0.61825E-09
         0.70169E-09
         0.74151E-09
         0.71559E-09
         0.56237E-09
         0.35350E-09
         0.58420E-09
         0.77339E-09
         0.62433E-09
         0.54905E-09
         0.35972E-09
         0.61344E-09
         0.83272E-09
         0.87341E-09
         0.70496E-09
         0.43370E-09
         0.74562E-09
         0.27626E-09
         0.35142E-09
         0.32857E-09
         0.38770E-09
         0.37832E-09
         0.36739E-09
         0.39181E-09
         0.41387E-09
         0.38968E-09
         0.30429E-09
         0.24804E-09
         0.32002E-09
         0.42631E-09
         0.46847E-09
         0.44954E-09
         0.40545E-09
         0.36816E-09
         0.29901E-09
         0.25163E-09
         0.32878E-09
         0.43525E-09
         0.44963E-09
         0.36354E-09
         0.29517E-09
         0.36144E-09
         0.42766E-09
         0.91167E-09
         0.72338E-09
         0.77607E-09
         0.13348E-08
         0.71594E-09
         0.91351E-09
         0.51062E-09
         0.61349E-09
         0.10119E-08
         0.74292E-09
         0.30129E-09
         0.56962E-09
         0.62678E-09
         0.50974E-09
         0.64865E-09
         0.12044E-08
         0.94125E-09
         0.11965E-08
         0.70310E-09
         0.80321E-09
         0.75844E-09
         0.84031E-09
         0.64511E-09
         0.40065E-09
         0.76125E-09
         0.63320E-09
         0.66087E-09
         0.67676E-09
         0.58806E-09
         0.71657E-09
         0.90984E-09
         0.64263E-09
         0.10179E-08
         0.88522E-09
         0.40075E-09
         0.61813E-09
         0.70160E-09
         0.74146E-09
         0.71564E-09
         0.56240E-09
         0.35350E-09
         0.58412E-09
         0.77336E-09
         0.62425E-09
         0.54892E-09
         0.35963E-09
         0.61339E-09
         0.83274E-09
         0.87355E-09
         0.70511E-09
         0.43371E-09
         0.74599E-09
         0.27618E-09
         0.35141E-09
         0.32841E-09
         0.38771E-09
         0.37841E-09
         0.36747E-09
         0.39198E-09
         0.41417E-09
         0.38992E-09
         0.30436E-09
         0.24806E-09
         0.32003E-09
         0.42637E-09
         0.46858E-09
         0.44960E-09
         0.40544E-09
         0.36814E-09
         0.29899E-09
         0.25159E-09
         0.32876E-09
         0.43525E-09
         0.44963E-09
         0.36347E-09
         0.29511E-09
         0.36148E-09
         0.42766E-09
         0.91171E-09
         0.72323E-09
         0.77613E-09
         0.13354E-08
         0.71606E-09
         0.91379E-09
         0.51035E-09
         0.61313E-09
         0.10123E-08
         0.74243E-09
         0.30101E-09
         0.56952E-09
         0.62674E-09
         0.50903E-09
         0.64851E-09
         0.12047E-08
         0.94167E-09
         0.11971E-08
         0.70312E-09
         0.80331E-09
         0.75840E-09
         0.84034E-09
         0.64504E-09
         0.40061E-09
         0.76092E-09
         0.63314E-09
         0.65988E-09
         0.67609E-09
         0.58781E-09
         0.71641E-09
         0.90993E-09
         0.64255E-09
         0.10184E-08
         0.88601E-09
         0.40075E-09
         0.61801E-09
         0.70151E-09
         0.74140E-09
         0.71569E-09
         0.56243E-09
         0.35350E-09
         0.58404E-09
         0.77332E-09
         0.62416E-09
         0.54879E-09
         0.35953E-09
         0.61334E-09
         0.83274E-09
         0.87368E-09
         0.70525E-09
         0.43372E-09
         0.74636E-09
         0.27609E-09
         0.35141E-09
         0.32825E-09
         0.38772E-09
         0.37849E-09
         0.36754E-09
         0.39215E-09
         0.41447E-09
         0.39014E-09
         0.30443E-09
         0.24808E-09
         0.32004E-09
         0.42642E-09
         0.46868E-09
         0.44965E-09
         0.40543E-09
         0.36812E-09
         0.29897E-09
         0.25155E-09
         0.32874E-09
         0.43524E-09
         0.44963E-09
         0.36340E-09
         0.29504E-09
         0.36153E-09
         0.42764E-09
         0.91176E-09
         0.72308E-09
         0.77620E-09
         0.13360E-08
         0.71617E-09
         0.91407E-09
         0.51008E-09
         0.61276E-09
         0.10126E-08
         0.74195E-09
         0.30072E-09
         0.56942E-09
         0.62670E-09
         0.50832E-09
         0.64838E-09
         0.12051E-08
         0.94210E-09
         0.11977E-08
         0.70314E-09
         0.80341E-09
         0.75837E-09
         0.84038E-09
         0.64498E-09
         0.40056E-09
         0.76060E-09
         0.63309E-09
         0.65888E-09
         0.67542E-09
         0.58756E-09
         0.71624E-09
         0.91002E-09
         0.64247E-09
         0.10189E-08
         0.88682E-09
         0.40074E-09
         0.61790E-09
         0.70142E-09
         0.74135E-09
         0.71574E-09
         0.56245E-09
         0.35351E-09
         0.58396E-09
         0.77328E-09
         0.62407E-09
         0.54866E-09
         0.35944E-09
         0.61329E-09
         0.83275E-09
         0.87382E-09
         0.70539E-09
         0.43373E-09
         0.74673E-09
         0.27601E-09
         0.35140E-09
         0.32809E-09
         0.38774E-09
         0.37858E-09
         0.36762E-09
         0.39232E-09
         0.41477E-09
         0.39037E-09
         0.30450E-09
         0.24810E-09
         0.32005E-09
         0.42648E-09
         0.46879E-09
         0.44970E-09
         0.40541E-09
         0.36809E-09
         0.29894E-09
         0.25151E-09
         0.32871E-09
         0.43523E-09
         0.44963E-09
         0.36333E-09
         0.29497E-09
         0.36157E-09
         0.42763E-09
         0.91182E-09
         0.72293E-09
         0.77627E-09
         0.13367E-08
         0.71629E-09
         0.91436E-09
         0.50982E-09
         0.61240E-09
         0.10130E-08
         0.74146E-09
         0.30043E-09
         0.56932E-09
         0.62666E-09
         0.50762E-09
         0.64825E-09
         0.12054E-08
         0.94253E-09
         0.11983E-08
         0.70317E-09
         0.80351E-09
         0.75834E-09
         0.84041E-09
         0.64491E-09
         0.40053E-09
         0.76028E-09
         0.63304E-09
         0.65790E-09
         0.67476E-09
         0.58731E-09
         0.71609E-09
         0.91012E-09
         0.64239E-09
         0.10195E-08
         0.88762E-09
         0.40074E-09
         0.61778E-09
         0.70133E-09
         0.74130E-09
         0.71579E-09
         0.56249E-09
         0.35351E-09
         0.58388E-09
         0.77324E-09
         0.62398E-09
         0.54853E-09
         0.35935E-09
         0.61324E-09
         0.83277E-09
         0.87396E-09
         0.70554E-09
         0.43375E-09
         0.74711E-09
         0.27592E-09
         0.35140E-09
         0.32793E-09
         0.38775E-09
         0.37867E-09
         0.36770E-09
         0.39249E-09
         0.41507E-09
         0.39061E-09
         0.30457E-09
         0.24812E-09
         0.32006E-09
         0.42654E-09
         0.46890E-09
         0.44975E-09
         0.40540E-09
         0.36807E-09
         0.29892E-09
         0.25148E-09
         0.32869E-09
         0.43522E-09
         0.44963E-09
         0.36325E-09
         0.29491E-09
         0.36162E-09
         0.42762E-09
         0.91187E-09
         0.72278E-09
         0.77633E-09
         0.13373E-08
         0.71640E-09
         0.91463E-09
         0.50955E-09
         0.61204E-09
         0.10134E-08
         0.74098E-09
         0.30015E-09
         0.56922E-09
         0.62662E-09
         0.50691E-09
         0.64811E-09
         0.12058E-08
         0.94296E-09
         0.11989E-08
         0.70320E-09
         0.80361E-09
         0.75831E-09
         0.84045E-09
         0.64485E-09
         0.40048E-09
         0.75995E-09
         0.63298E-09
         0.65690E-09
         0.67409E-09
         0.58706E-09
         0.71592E-09
         0.91020E-09
         0.64231E-09
         0.10200E-08
         0.88843E-09
         0.40074E-09
         0.61766E-09
         0.70124E-09
         0.74124E-09
         0.71584E-09
         0.56251E-09
         0.35351E-09
         0.58380E-09
         0.77320E-09
         0.62389E-09
         0.54840E-09
         0.35926E-09
         0.61318E-09
         0.83277E-09
         0.87409E-09
         0.70568E-09
         0.43376E-09
         0.74748E-09
         0.27584E-09
         0.35139E-09
         0.32777E-09
         0.38777E-09
         0.37876E-09
         0.36778E-09
         0.39266E-09
         0.41536E-09
         0.39084E-09
         0.30464E-09
         0.24814E-09
         0.32006E-09
         0.42659E-09
         0.46900E-09
         0.44980E-09
         0.40539E-09
         0.36805E-09
         0.29890E-09
         0.25144E-09
         0.32867E-09
         0.43521E-09
         0.44963E-09
         0.36318E-09
         0.29485E-09
         0.36166E-09
         0.42761E-09
         0.91192E-09
         0.72263E-09
         0.77640E-09
         0.13380E-08
         0.71652E-09
         0.91491E-09
         0.50928E-09
         0.61167E-09
         0.10137E-08
         0.74049E-09
         0.29986E-09
         0.56912E-09
         0.62657E-09
         0.50620E-09
         0.64797E-09
         0.12061E-08
         0.94339E-09
         0.11995E-08
         0.70322E-09
         0.80371E-09
         0.75827E-09
         0.84048E-09
         0.64478E-09
         0.40044E-09
         0.75962E-09
         0.63293E-09
         0.65591E-09
         0.67343E-09
         0.58681E-09
         0.71576E-09
         0.91029E-09
         0.64223E-09
         0.10205E-08
         0.88923E-09
         0.40073E-09
         0.61754E-09
         0.70114E-09
         0.74119E-09
         0.71588E-09
         0.56254E-09
         0.35351E-09
         0.58372E-09
         0.77316E-09
         0.62380E-09
         0.54827E-09
         0.35917E-09
         0.61313E-09
         0.83278E-09
         0.87422E-09
         0.70582E-09
         0.43377E-09
         0.74785E-09
         0.27575E-09
         0.35138E-09
         0.32761E-09
         0.38778E-09
         0.37885E-09
         0.36786E-09
         0.39283E-09
         0.41566E-09
         0.39107E-09
         0.30470E-09
         0.24816E-09
         0.32007E-09
         0.42665E-09
         0.46911E-09
         0.44985E-09
         0.40538E-09
         0.36802E-09
         0.29887E-09
         0.25140E-09
         0.32864E-09
         0.43520E-09
         0.44963E-09
         0.36310E-09
         0.29478E-09
         0.36170E-09
         0.42760E-09
         0.91198E-09
         0.72248E-09
         0.77646E-09
         0.13386E-08
         0.71663E-09
         0.91520E-09
         0.50901E-09
         0.61131E-09
         0.10141E-08
         0.74000E-09
         0.29957E-09
         0.56902E-09
         0.62653E-09
         0.50549E-09
         0.64784E-09
         0.12065E-08
         0.94382E-09
         0.12002E-08
         0.70325E-09
         0.80381E-09
         0.75824E-09
         0.84052E-09
         0.64472E-09
         0.40040E-09
         0.75929E-09
         0.63288E-09
         0.65492E-09
         0.67276E-09
         0.58657E-09
         0.71560E-09
         0.91038E-09
         0.64216E-09
         0.10211E-08
         0.89003E-09
         0.40073E-09
         0.61742E-09
         0.70105E-09
         0.74114E-09
         0.71593E-09
         0.56257E-09
         0.35351E-09
         0.58364E-09
         0.77313E-09
         0.62371E-09
         0.54814E-09
         0.35908E-09
         0.61308E-09
         0.83280E-09
         0.87436E-09
         0.70597E-09
         0.43378E-09
         0.74823E-09
         0.27567E-09
         0.35138E-09
         0.32745E-09
         0.38779E-09
         0.37893E-09
         0.36794E-09
         0.39300E-09
         0.41596E-09
         0.39130E-09
         0.30477E-09
         0.24818E-09
         0.32008E-09
         0.42671E-09
         0.46921E-09
         0.44991E-09
         0.40537E-09
         0.36800E-09
         0.29885E-09
         0.25136E-09
         0.32862E-09
         0.43520E-09
         0.44963E-09
         0.36303E-09
         0.29472E-09
         0.36175E-09
         0.42759E-09
         0.91203E-09
         0.72233E-09
         0.77653E-09
         0.13392E-08
         0.71675E-09
         0.91547E-09
         0.50875E-09
         0.61094E-09
         0.10144E-08
         0.73952E-09
         0.29928E-09
         0.56892E-09
         0.62649E-09
         0.50478E-09
         0.64770E-09
         0.12068E-08
         0.94424E-09
         0.12008E-08
         0.70327E-09
         0.80391E-09
         0.75821E-09
         0.84055E-09
         0.64465E-09
         0.40035E-09
         0.75896E-09
         0.63282E-09
         0.65393E-09
         0.67210E-09
         0.58632E-09
         0.71543E-09
         0.91047E-09
         0.64208E-09
         0.10216E-08
         0.89084E-09
         0.40073E-09
         0.61730E-09
         0.70096E-09
         0.74108E-09
         0.71598E-09
         0.56259E-09
         0.35351E-09
         0.58356E-09
         0.77309E-09
         0.62362E-09
         0.54801E-09
         0.35898E-09
         0.61303E-09
         0.83281E-09
         0.87449E-09
         0.70611E-09
         0.43379E-09
         0.74860E-09
         0.27558E-09
         0.35137E-09
         0.32729E-09
         0.38781E-09
         0.37902E-09
         0.36802E-09
         0.39317E-09
         0.41625E-09
         0.39153E-09
         0.30484E-09
         0.24820E-09
         0.32009E-09
         0.42677E-09
         0.46932E-09
         0.44996E-09
         0.40536E-09
         0.36798E-09
         0.29883E-09
         0.25132E-09
         0.32859E-09
         0.43519E-09
         0.44963E-09
         0.36296E-09
         0.29465E-09
         0.36179E-09
         0.42758E-09
         0.91208E-09
         0.72218E-09
         0.77659E-09
         0.13399E-08
         0.71686E-09
         0.91576E-09
         0.50848E-09
         0.61058E-09
         0.10148E-08
         0.73903E-09
         0.29900E-09
         0.56882E-09
         0.62645E-09
         0.50408E-09
         0.64757E-09
         0.12072E-08
         0.94467E-09
         0.12014E-08
         0.70330E-09
         0.80401E-09
         0.75818E-09
         0.84059E-09
         0.64459E-09
         0.40031E-09
         0.75864E-09
         0.63277E-09
         0.65294E-09
         0.67143E-09
         0.58607E-09
         0.71527E-09
         0.91057E-09
         0.64200E-09
         0.10221E-08
         0.89164E-09
         0.40072E-09
         0.61719E-09
         0.70087E-09
         0.74103E-09
         0.71603E-09
         0.56262E-09
         0.35352E-09
         0.58348E-09
         0.77305E-09
         0.62354E-09
         0.54788E-09
         0.35889E-09
         0.61298E-09
         0.83282E-09
         0.87463E-09
         0.70626E-09
         0.43380E-09
         0.74897E-09
         0.27550E-09
         0.35137E-09
         0.32713E-09
         0.38782E-09
         0.37911E-09
         0.36810E-09
         0.39334E-09
         0.41655E-09
         0.39176E-09
         0.30491E-09
         0.24822E-09
         0.32010E-09
         0.42682E-09
         0.46942E-09
         0.45001E-09
         0.40534E-09
         0.36796E-09
         0.29881E-09
         0.25128E-09
         0.32857E-09
         0.43518E-09
         0.44963E-09
         0.36288E-09
         0.29459E-09
         0.36184E-09
         0.42757E-09
         0.91214E-09
         0.72204E-09
         0.77666E-09
         0.13405E-08
         0.71698E-09
         0.91604E-09
         0.50822E-09
         0.61022E-09
         0.10151E-08
         0.73855E-09
         0.29871E-09
         0.56872E-09
         0.62641E-09
         0.50337E-09
         0.64743E-09
         0.12075E-08
         0.94510E-09
         0.12020E-08
         0.70333E-09
         0.80411E-09
         0.75815E-09
         0.84063E-09
         0.64453E-09
         0.40027E-09
         0.75831E-09
         0.63272E-09
         0.65196E-09
         0.67077E-09
         0.58582E-09
         0.71511E-09
         0.91066E-09
         0.64192E-09
         0.10227E-08
         0.89245E-09
         0.40072E-09
         0.61707E-09
         0.70078E-09
         0.74098E-09
         0.71608E-09
         0.56265E-09
         0.35352E-09
         0.58340E-09
         0.77301E-09
         0.62345E-09
         0.54775E-09
         0.35880E-09
         0.61293E-09
         0.83283E-09
         0.87476E-09
         0.70641E-09
         0.43382E-09
         0.74935E-09
         0.27541E-09
         0.35136E-09
         0.32697E-09
         0.38784E-09
         0.37920E-09
         0.36818E-09
         0.39352E-09
         0.41685E-09
         0.39199E-09
         0.30498E-09
         0.24824E-09
         0.32011E-09
         0.42688E-09
         0.46953E-09
         0.45007E-09
         0.40533E-09
         0.36793E-09
         0.29878E-09
         0.25124E-09
         0.32855E-09
         0.43517E-09
         0.44963E-09
         0.36281E-09
         0.29452E-09
         0.36188E-09
         0.42756E-09
         0.91219E-09
         0.72188E-09
         0.77672E-09
         0.13412E-08
         0.71709E-09
         0.91632E-09
         0.50795E-09
         0.60986E-09
         0.10155E-08
         0.73806E-09
         0.29842E-09
         0.56862E-09
         0.62636E-09
         0.50266E-09
         0.64730E-09
         0.12079E-08
         0.94552E-09
         0.12026E-08
         0.70335E-09
         0.80421E-09
         0.75811E-09
         0.84066E-09
         0.64446E-09
         0.40023E-09
         0.75798E-09
         0.63267E-09
         0.65096E-09
         0.67010E-09
         0.58557E-09
         0.71494E-09
         0.91074E-09
         0.64184E-09
         0.10232E-08
         0.89325E-09
         0.40072E-09
         0.61695E-09
         0.70069E-09
         0.74092E-09
         0.71612E-09
         0.56268E-09
         0.35352E-09
         0.58332E-09
         0.77297E-09
         0.62336E-09
         0.54762E-09
         0.35871E-09
         0.61287E-09
         0.83284E-09
         0.87489E-09
         0.70655E-09
         0.43383E-09
         0.74972E-09
         0.27533E-09
         0.35136E-09
         0.32681E-09
         0.38785E-09
         0.37929E-09
         0.36825E-09
         0.39369E-09
         0.41715E-09
         0.39222E-09
         0.30505E-09
         0.24826E-09
         0.32011E-09
         0.42694E-09
         0.46963E-09
         0.45011E-09
         0.40532E-09
         0.36791E-09
         0.29876E-09
         0.25120E-09
         0.32853E-09
         0.43516E-09
         0.44962E-09
         0.36274E-09
         0.29445E-09
         0.36192E-09
         0.42755E-09
         0.91224E-09
         0.72173E-09
         0.77679E-09
         0.13418E-08
         0.71720E-09
         0.91660E-09
         0.50768E-09
         0.60949E-09
         0.10158E-08
         0.73758E-09
         0.29814E-09
         0.56852E-09
         0.62632E-09
         0.50195E-09
         0.64716E-09
         0.12082E-08
         0.94595E-09
         0.12032E-08
         0.70337E-09
         0.80431E-09
         0.75808E-09
         0.84069E-09
         0.64440E-09
         0.40018E-09
         0.75766E-09
         0.63262E-09
         0.64998E-09
         0.66943E-09
         0.58532E-09
         0.71478E-09
         0.91083E-09
         0.64176E-09
         0.10238E-08
         0.89406E-09
         0.40071E-09
         0.61683E-09
         0.70059E-09
         0.74087E-09
         0.71617E-09
         0.56270E-09
         0.35352E-09
         0.58324E-09
         0.77294E-09
         0.62327E-09
         0.54749E-09
         0.35861E-09
         0.61282E-09
         0.83284E-09
         0.87503E-09
         0.70669E-09
         0.43384E-09
         0.75009E-09
         0.27524E-09
         0.35135E-09
         0.32665E-09
         0.38786E-09
         0.37937E-09
         0.36833E-09
         0.39386E-09
         0.41745E-09
         0.39245E-09
         0.30512E-09
         0.24828E-09
         0.32012E-09
         0.42699E-09
         0.46974E-09
         0.45017E-09
         0.40531E-09
         0.36788E-09
         0.29873E-09
         0.25117E-09
         0.32850E-09
         0.43515E-09
         0.44962E-09
         0.36266E-09
         0.29439E-09
         0.36197E-09
         0.42754E-09
         0.91230E-09
         0.72159E-09
         0.77686E-09
         0.13425E-08
         0.71732E-09
         0.91688E-09
         0.50742E-09
         0.60913E-09
         0.10162E-08
         0.73710E-09
         0.29785E-09
         0.56842E-09
         0.62628E-09
         0.50125E-09
         0.64703E-09
         0.12086E-08
         0.94638E-09
         0.12038E-08
         0.70340E-09
         0.80441E-09
         0.75805E-09
         0.84073E-09
         0.64433E-09
         0.40014E-09
         0.75733E-09
         0.63257E-09
         0.64899E-09
         0.66877E-09
         0.58508E-09
         0.71462E-09
         0.91093E-09
         0.64169E-09
         0.10243E-08
         0.89487E-09
         0.40071E-09
         0.61671E-09
         0.70051E-09
         0.74082E-09
         0.71622E-09
         0.56273E-09
         0.35352E-09
         0.58316E-09
         0.77290E-09
         0.62318E-09
         0.54737E-09
         0.35852E-09
         0.61277E-09
         0.83286E-09
         0.87517E-09
         0.70684E-09
         0.43385E-09
         0.75047E-09
         0.27516E-09
         0.35135E-09
         0.32649E-09
         0.38788E-09
         0.37946E-09
         0.36841E-09
         0.39403E-09
         0.41775E-09
         0.39268E-09
         0.30519E-09
         0.24830E-09
         0.32013E-09
         0.42705E-09
         0.46985E-09
         0.45022E-09
         0.40530E-09
         0.36786E-09
         0.29871E-09
         0.25113E-09
         0.32848E-09
         0.43515E-09
         0.44962E-09
         0.36259E-09
         0.29433E-09
         0.36201E-09
         0.42753E-09
         0.91235E-09
         0.72143E-09
         0.77692E-09
         0.13431E-08
         0.71743E-09
         0.91716E-09
         0.50715E-09
         0.60877E-09
         0.10165E-08
         0.73661E-09
         0.29757E-09
         0.56832E-09
         0.62624E-09
         0.50054E-09
         0.64689E-09
         0.12089E-08
         0.94680E-09
         0.12044E-08
         0.70342E-09
         0.80450E-09
         0.75802E-09
         0.84076E-09
         0.64427E-09
         0.40010E-09
         0.75700E-09
         0.63251E-09
         0.64800E-09
         0.66810E-09
         0.58482E-09
         0.71445E-09
         0.91101E-09
         0.64161E-09
         0.10248E-08
         0.89567E-09
         0.40071E-09
         0.61659E-09
         0.70041E-09
         0.74077E-09
         0.71627E-09
         0.56276E-09
         0.35352E-09
         0.58308E-09
         0.77286E-09
         0.62309E-09
         0.54723E-09
         0.35843E-09
         0.61272E-09
         0.83287E-09
         0.87530E-09
         0.70698E-09
         0.43386E-09
         0.75084E-09
         0.27507E-09
         0.35134E-09
         0.32633E-09
         0.38789E-09
         0.37955E-09
         0.36849E-09
         0.39420E-09
         0.41804E-09
         0.39291E-09
         0.30525E-09
         0.24832E-09
         0.32014E-09
         0.42711E-09
         0.46995E-09
         0.45027E-09
         0.40528E-09
         0.36784E-09
         0.29869E-09
         0.25109E-09
         0.32845E-09
         0.43514E-09
         0.44962E-09
         0.36252E-09
         0.29426E-09
         0.36206E-09
         0.42751E-09
         0.91240E-09
         0.72128E-09
         0.77698E-09
         0.13437E-08
         0.71755E-09
         0.91744E-09
         0.50688E-09
         0.60841E-09
         0.10169E-08
         0.73612E-09
         0.29728E-09
         0.56822E-09
         0.62619E-09
         0.49984E-09
         0.64676E-09
         0.12093E-08
         0.94723E-09
         0.12050E-08
         0.70345E-09
         0.80460E-09
         0.75798E-09
         0.84080E-09
         0.64420E-09
         0.40006E-09
         0.75667E-09
         0.63246E-09
         0.64701E-09
         0.66744E-09
         0.58457E-09
         0.71429E-09
         0.91110E-09
         0.64153E-09
         0.10254E-08
         0.89648E-09
         0.40070E-09
         0.61647E-09
         0.70032E-09
         0.74071E-09
         0.71632E-09
         0.56279E-09
         0.35353E-09
         0.58300E-09
         0.77282E-09
         0.62300E-09
         0.54710E-09
         0.35834E-09
         0.61266E-09
         0.83288E-09
         0.87543E-09
         0.70713E-09
         0.43387E-09
         0.75122E-09
         0.27499E-09
         0.35133E-09
         0.32617E-09
         0.38790E-09
         0.37964E-09
         0.36857E-09
         0.39437E-09
         0.41834E-09
         0.39314E-09
         0.30532E-09
         0.24834E-09
         0.32014E-09
         0.42716E-09
         0.47005E-09
         0.45032E-09
         0.40527E-09
         0.36781E-09
         0.29866E-09
         0.25105E-09
         0.32843E-09
         0.43513E-09
         0.44962E-09
         0.36244E-09
         0.29419E-09
         0.36210E-09
         0.42750E-09
         0.91246E-09
         0.72114E-09
         0.77705E-09
         0.13444E-08
         0.71767E-09
         0.91773E-09
         0.50662E-09
         0.60805E-09
         0.10173E-08
         0.73564E-09
         0.29700E-09
         0.56812E-09
         0.62616E-09
         0.49914E-09
         0.64663E-09
         0.12097E-08
         0.94766E-09
         0.12056E-08
         0.70348E-09
         0.80471E-09
         0.75796E-09
         0.84084E-09
         0.64414E-09
         0.40002E-09
         0.75635E-09
         0.63241E-09
         0.64603E-09
         0.66678E-09
         0.58433E-09
         0.71413E-09
         0.91120E-09
         0.64146E-09
         0.10259E-08
         0.89729E-09
         0.40070E-09
         0.61636E-09
         0.70023E-09
         0.74067E-09
         0.71637E-09
         0.56282E-09
         0.35353E-09
         0.58293E-09
         0.77279E-09
         0.62291E-09
         0.54698E-09
         0.35825E-09
         0.61261E-09
         0.83289E-09
         0.87557E-09
         0.70728E-09
         0.43389E-09
         0.75160E-09
         0.27491E-09
         0.35133E-09
         0.32601E-09
         0.38792E-09
         0.37972E-09
         0.36865E-09
         0.39454E-09
         0.41864E-09
         0.39337E-09
         0.30539E-09
         0.24836E-09
         0.32015E-09
         0.42722E-09
         0.47016E-09
         0.45038E-09
         0.40526E-09
         0.36779E-09
         0.29864E-09
         0.25101E-09
         0.32841E-09
         0.43512E-09
         0.44962E-09
         0.36237E-09
         0.29413E-09
         0.36215E-09
         0.42750E-09
         0.91249E-09
         0.72097E-09
         0.77710E-09
         0.13450E-08
         0.71777E-09
         0.91799E-09
         0.50634E-09
         0.60767E-09
         0.10176E-08
         0.73514E-09
         0.29670E-09
         0.56801E-09
         0.62610E-09
         0.49842E-09
         0.64648E-09
         0.12100E-08
         0.94806E-09
         0.12062E-08
         0.70349E-09
         0.80479E-09
         0.75791E-09
         0.84086E-09
         0.64406E-09
         0.39997E-09
         0.75600E-09
         0.63234E-09
         0.64503E-09
         0.66610E-09
         0.58407E-09
         0.71395E-09
         0.91127E-09
         0.64136E-09
         0.10264E-08
         0.89808E-09
         0.40069E-09
         0.61622E-09
         0.70012E-09
         0.74060E-09
         0.71641E-09
         0.56283E-09
         0.35352E-09
         0.58283E-09
         0.77273E-09
         0.62281E-09
         0.54684E-09
         0.35815E-09
         0.61255E-09
         0.83288E-09
         0.87569E-09
         0.70741E-09
         0.43389E-09
         0.75195E-09
         0.27482E-09
         0.35132E-09
         0.32584E-09
         0.38793E-09
         0.37980E-09
         0.36872E-09
         0.39470E-09
         0.41893E-09
         0.39360E-09
         0.30545E-09
         0.24837E-09
         0.32016E-09
         0.42727E-09
         0.47026E-09
         0.45042E-09
         0.40524E-09
         0.36776E-09
         0.29861E-09
         0.25097E-09
         0.32838E-09
         0.43510E-09
         0.44961E-09
         0.36229E-09
         0.29406E-09
         0.36218E-09
         0.42748E-09
         0.91256E-09
         0.72083E-09
         0.77718E-09
         0.13457E-08
         0.71789E-09
         0.91829E-09
         0.50608E-09
         0.60732E-09
         0.10180E-08
         0.73467E-09
         0.29642E-09
         0.56792E-09
         0.62607E-09
         0.49772E-09
         0.64636E-09
         0.12103E-08
         0.94850E-09
         0.12068E-08
         0.70352E-09
         0.80490E-09
         0.75789E-09
         0.84091E-09
         0.64401E-09
         0.39993E-09
         0.75569E-09
         0.63230E-09
         0.64405E-09
         0.66544E-09
         0.58382E-09
         0.71379E-09
         0.91137E-09
         0.64129E-09
         0.10270E-08
         0.89890E-09
         0.40069E-09
         0.61611E-09
         0.70004E-09
         0.74056E-09
         0.71646E-09
         0.56287E-09
         0.35353E-09
         0.58276E-09
         0.77271E-09
         0.62273E-09
         0.54672E-09
         0.35806E-09
         0.61251E-09
         0.83291E-09
         0.87583E-09
         0.70756E-09
         0.43391E-09
         0.75234E-09
         0.27474E-09
         0.35132E-09
         0.32569E-09
         0.38794E-09
         0.37990E-09
         0.36881E-09
         0.39488E-09
         0.41923E-09
         0.39383E-09
         0.30553E-09
         0.24840E-09
         0.32017E-09
         0.42734E-09
         0.47037E-09
         0.45048E-09
         0.40524E-09
         0.36774E-09
         0.29859E-09
         0.25093E-09
         0.32836E-09
         0.43510E-09
         0.44962E-09
         0.36222E-09
         0.29400E-09
         0.36223E-09
         0.42747E-09
         0.45631E-09
         0.36039E-09
         0.38862E-09
         0.67302E-09
         0.35899E-09
         0.45923E-09
         0.25298E-09
         0.30358E-09
         0.50909E-09
         0.36723E-09
         0.14815E-09
         0.28394E-09
         0.31303E-09
         0.24869E-09
         0.32316E-09
         0.60528E-09
         0.47437E-09
         0.60357E-09
         0.35178E-09
         0.40249E-09
         0.37895E-09
         0.42048E-09
         0.32200E-09
         0.19996E-09
         0.37777E-09
         0.31615E-09
         0.32179E-09
         0.33257E-09
         0.29186E-09
         0.35687E-09
         0.45572E-09
         0.32064E-09
         0.51365E-09
         0.44967E-09
         0.20035E-09
         0.30804E-09
         0.35001E-09
         0.37028E-09
         0.35826E-09
         0.28145E-09
         0.17677E-09
         0.29137E-09
         0.38636E-09
         0.31135E-09
         0.27333E-09
         0.17901E-09
         0.30625E-09
         0.41647E-09
         0.43797E-09
         0.35383E-09
         0.21697E-09
         0.37628E-09
         0.13735E-09
         0.17566E-09
         0.16281E-09
         0.19398E-09
         0.18998E-09
         0.18443E-09
         0.19749E-09
         0.20970E-09
         0.19698E-09
         0.15279E-09
         0.12421E-09
         0.16009E-09
         0.21369E-09
         0.23522E-09
         0.22526E-09
         0.20262E-09
         0.18387E-09
         0.14930E-09
         0.12546E-09
         0.16418E-09
         0.21756E-09
         0.22482E-09
         0.18110E-09
         0.14699E-09
         0.18113E-09
         0.21374E-09
  
SCALARS               pre_disp_force_x  double 1
LOOKUP_TABLE default
         0.00000E+00
         0.00000E+00
         0.00000E+00
         0.00000E+00
         0.00000E+00
         0.00000E+00
         0.00000E+00
         0.00000E+00
         0.00000E+00
         0.00000E+00
         0.00000E+00
         0.00000E+00
         0.00000E+00
         0.00000E+00
         0.00000E+00
         0.00000E+00
         0.00000E+00
         0.00000E+00
         0.00000E+00
         0.00000E+00
         0.00000E+00
         0.00000E+00
         0.00000E+00
         0.00000E+00
         0.00000E+00
         0.00000E+00
         0.00000E+00
         0.00000E+00
         0.00000E+00
         0.00000E+00
         0.00000E+00
         0.00000E+00
         0.00000E+00
         0.00000E+00
         0.00000E+00
         0.00000E+00
         0.00000E+00
         0.00000E+00
         0.00000E+00
         0.00000E+00
         0.00000E+00
         0.00000E+00
         0.00000E+00
         0.00000E+00
         0.00000E+00
         0.00000E+00
         0.00000E+00
         0.00000E+00
         0.00000E+00
         0.00000E+00
         0.00000E+00
         0.00000E+00
         0.00000E+00
         0.00000E+00
         0.00000E+00
         0.00000E+00
         0.00000E+00
         0.00000E+00
         0.00000E+00
         0.00000E+00
         0.00000E+00
         0.00000E+00
         0.00000E+00
         0.00000E+00
         0.00000E+00
         0.00000E+00
         0.00000E+00
         0.00000E+00
         0.00000E+00
         0.00000E+00
         0.00000E+00
         0.00000E+00
         0.00000E+00
         0.00000E+00
         0.00000E+00
         0.00000E+00
         0.00000E+00
         0.00000E+00
         0.00000E+00
         0.00000E+00
         0.00000E+00
         0.00000E+00
         0.00000E+00
         0.00000E+00
         0.00000E+00
         0.00000E+00
         0.00000E+00
         0.00000E+00
         0.00000E+00
         0.00000E+00
         0.00000E+00
         0.00000E+00
         0.00000E+00
         0.00000E+00
         0.00000E+00
         0.00000E+00
         0.00000E+00
         0.00000E+00
         0.00000E+00
         0.00000E+00
         0.00000E+00
         0.00000E+00
         0.00000E+00
         0.00000E+00
         0.00000E+00
         0.00000E+00
         0.00000E+00
         0.00000E+00
         0.00000E+00
         0.00000E+00
         0.00000E+00
         0.00000E+00
         0.00000E+00
         0.00000E+00
         0.00000E+00
         0.00000E+00
         0.00000E+00
         0.00000E+00
         0.00000E+00
         0.00000E+00
         0.00000E+00
         0.00000E+00
         0.00000E+00
         0.00000E+00
         0.00000E+00
         0.00000E+00
         0.00000E+00
         0.00000E+00
         0.00000E+00
         0.00000E+00
         0.00000E+00
         0.00000E+00
         0.00000E+00
         0.00000E+00
         0.00000E+00
         0.00000E+00
         0.00000E+00
         0.00000E+00
         0.00000E+00
         0.00000E+00
         0.00000E+00
         0.00000E+00
         0.00000E+00
         0.00000E+00
         0.00000E+00
         0.00000E+00
         0.00000E+00
         0.00000E+00
         0.00000E+00
         0.00000E+00
         0.00000E+00
         0.00000E+00
         0.00000E+00
         0.00000E+00
         0.00000E+00
         0.00000E+00
         0.00000E+00
         0.00000E+00
         0.00000E+00
         0.00000E+00
         0.00000E+00
         0.00000E+00
         0.00000E+00
         0.00000E+00
         0.00000E+00
         0.00000E+00
         0.00000E+00
         0.00000E+00
         0.00000E+00
         0.00000E+00
         0.00000E+00
         0.00000E+00
         0.00000E+00
         0.00000E+00
         0.00000E+00
         0.00000E+00
         0.00000E+00
         0.00000E+00
         0.00000E+00
         0.00000E+00
         0.00000E+00
         0.00000E+00
         0.00000E+00
         0.00000E+00
         0.00000E+00
         0.00000E+00
         0.00000E+00
         0.00000E+00
         0.00000E+00
         0.00000E+00
         0.00000E+00
         0.00000E+00
         0.00000E+00
         0.00000E+00
         0.00000E+00
         0.00000E+00
         0.00000E+00
         0.00000E+00
         0.00000E+00
         0.00000E+00
         0.00000E+00
         0.00000E+00
         0.00000E+00
         0.00000E+00
         0.00000E+00
         0.00000E+00
         0.00000E+00
         0.00000E+00
         0.00000E+00
         0.00000E+00
         0.00000E+00
         0.00000E+00
         0.00000E+00
         0.00000E+00
         0.00000E+00
         0.00000E+00
         0.00000E+00
         0.00000E+00
         0.00000E+00
         0.00000E+00
         0.00000E+00
         0.00000E+00
         0.00000E+00
         0.00000E+00
         0.00000E+00
         0.00000E+00
         0.00000E+00
         0.00000E+00
         0.00000E+00
         0.00000E+00
         0.00000E+00
         0.00000E+00
         0.00000E+00
         0.00000E+00
         0.00000E+00
         0.00000E+00
         0.00000E+00
         0.00000E+00
         0.00000E+00
         0.00000E+00
         0.00000E+00
         0.00000E+00
         0.00000E+00
         0.00000E+00
         0.00000E+00
         0.00000E+00
         0.00000E+00
         0.00000E+00
         0.00000E+00
         0.00000E+00
         0.00000E+00
         0.00000E+00
         0.00000E+00
         0.00000E+00
         0.00000E+00
         0.00000E+00
         0.00000E+00
         0.00000E+00
         0.00000E+00
         0.00000E+00
         0.00000E+00
         0.00000E+00
         0.00000E+00
         0.00000E+00
         0.00000E+00
         0.00000E+00
         0.00000E+00
         0.00000E+00
         0.00000E+00
         0.00000E+00
         0.00000E+00
         0.00000E+00
         0.00000E+00
         0.00000E+00
         0.00000E+00
         0.00000E+00
         0.00000E+00
         0.00000E+00
         0.00000E+00
         0.00000E+00
         0.00000E+00
         0.00000E+00
         0.00000E+00
         0.00000E+00
         0.00000E+00
         0.00000E+00
         0.00000E+00
         0.00000E+00
         0.00000E+00
         0.00000E+00
         0.00000E+00
         0.00000E+00
         0.00000E+00
         0.00000E+00
         0.00000E+00
         0.00000E+00
         0.00000E+00
         0.00000E+00
         0.00000E+00
         0.00000E+00
         0.00000E+00
         0.00000E+00
         0.00000E+00
         0.00000E+00
         0.00000E+00
         0.00000E+00
         0.00000E+00
         0.00000E+00
         0.00000E+00
         0.00000E+00
         0.00000E+00
         0.00000E+00
         0.00000E+00
         0.00000E+00
         0.00000E+00
         0.00000E+00
         0.00000E+00
         0.00000E+00
         0.00000E+00
         0.00000E+00
         0.00000E+00
         0.00000E+00
         0.00000E+00
         0.00000E+00
         0.00000E+00
         0.00000E+00
         0.00000E+00
         0.00000E+00
         0.00000E+00
         0.00000E+00
         0.00000E+00
         0.00000E+00
         0.00000E+00
         0.00000E+00
         0.00000E+00
         0.00000E+00
         0.00000E+00
         0.00000E+00
         0.00000E+00
         0.00000E+00
         0.00000E+00
         0.00000E+00
         0.00000E+00
         0.00000E+00
         0.00000E+00
         0.00000E+00
         0.00000E+00
         0.00000E+00
         0.00000E+00
         0.00000E+00
         0.00000E+00
         0.00000E+00
         0.00000E+00
         0.00000E+00
         0.00000E+00
         0.00000E+00
         0.00000E+00
         0.00000E+00
         0.00000E+00
         0.00000E+00
         0.00000E+00
         0.00000E+00
         0.00000E+00
         0.00000E+00
         0.00000E+00
         0.00000E+00
         0.00000E+00
         0.00000E+00
         0.00000E+00
         0.00000E+00
         0.00000E+00
         0.00000E+00
         0.00000E+00
         0.00000E+00
         0.00000E+00
         0.00000E+00
         0.00000E+00
         0.00000E+00
         0.00000E+00
         0.00000E+00
         0.00000E+00
         0.00000E+00
         0.00000E+00
         0.00000E+00
         0.00000E+00
         0.00000E+00
         0.00000E+00
         0.00000E+00
         0.00000E+00
         0.00000E+00
         0.00000E+00
         0.00000E+00
         0.00000E+00
         0.00000E+00
         0.00000E+00
         0.00000E+00
         0.00000E+00
         0.00000E+00
         0.00000E+00
         0.00000E+00
         0.00000E+00
         0.00000E+00
         0.00000E+00
         0.00000E+00
         0.00000E+00
         0.00000E+00
         0.00000E+00
         0.00000E+00
         0.00000E+00
         0.00000E+00
         0.00000E+00
         0.00000E+00
         0.00000E+00
         0.00000E+00
         0.00000E+00
         0.00000E+00
         0.00000E+00
         0.00000E+00
         0.00000E+00
         0.00000E+00
         0.00000E+00
         0.00000E+00
         0.00000E+00
         0.00000E+00
         0.00000E+00
         0.00000E+00
         0.00000E+00
         0.00000E+00
         0.00000E+00
         0.00000E+00
         0.00000E+00
         0.00000E+00
         0.00000E+00
         0.00000E+00
         0.00000E+00
         0.00000E+00
         0.00000E+00
         0.00000E+00
         0.00000E+00
         0.00000E+00
         0.00000E+00
         0.00000E+00
         0.00000E+00
         0.00000E+00
         0.00000E+00
         0.00000E+00
         0.00000E+00
         0.00000E+00
         0.00000E+00
         0.00000E+00
         0.00000E+00
         0.00000E+00
         0.00000E+00
         0.00000E+00
         0.00000E+00
         0.00000E+00
         0.00000E+00
         0.00000E+00
         0.00000E+00
         0.00000E+00
         0.00000E+00
         0.00000E+00
         0.00000E+00
         0.00000E+00
         0.00000E+00
         0.00000E+00
         0.00000E+00
         0.00000E+00
         0.00000E+00
         0.00000E+00
         0.00000E+00
         0.00000E+00
         0.00000E+00
         0.00000E+00
         0.00000E+00
         0.00000E+00
         0.00000E+00
         0.00000E+00
         0.00000E+00
         0.00000E+00
         0.00000E+00
         0.00000E+00
         0.00000E+00
         0.00000E+00
         0.00000E+00
         0.00000E+00
         0.00000E+00
         0.00000E+00
         0.00000E+00
         0.00000E+00
         0.00000E+00
         0.00000E+00
         0.00000E+00
         0.00000E+00
         0.00000E+00
         0.00000E+00
         0.00000E+00
         0.00000E+00
         0.00000E+00
         0.00000E+00
         0.00000E+00
         0.00000E+00
         0.00000E+00
         0.00000E+00
         0.00000E+00
         0.00000E+00
         0.00000E+00
         0.00000E+00
         0.00000E+00
         0.00000E+00
         0.00000E+00
         0.00000E+00
         0.00000E+00
         0.00000E+00
         0.00000E+00
         0.00000E+00
         0.00000E+00
         0.00000E+00
         0.00000E+00
         0.00000E+00
         0.00000E+00
         0.00000E+00
         0.00000E+00
         0.00000E+00
         0.00000E+00
         0.00000E+00
         0.00000E+00
         0.00000E+00
         0.00000E+00
         0.00000E+00
         0.00000E+00
         0.00000E+00
         0.00000E+00
         0.00000E+00
         0.00000E+00
         0.00000E+00
         0.00000E+00
         0.00000E+00
         0.00000E+00
         0.00000E+00
         0.00000E+00
         0.00000E+00
         0.00000E+00
         0.00000E+00
         0.00000E+00
         0.00000E+00
         0.00000E+00
         0.00000E+00
         0.00000E+00
         0.00000E+00
         0.00000E+00
         0.00000E+00
         0.00000E+00
         0.00000E+00
         0.00000E+00
         0.00000E+00
         0.00000E+00
         0.00000E+00
         0.00000E+00
         0.00000E+00
         0.00000E+00
         0.00000E+00
         0.00000E+00
         0.00000E+00
         0.00000E+00
         0.00000E+00
         0.00000E+00
         0.00000E+00
         0.00000E+00
         0.00000E+00
         0.00000E+00
         0.00000E+00
         0.00000E+00
         0.00000E+00
         0.00000E+00
         0.00000E+00
         0.00000E+00
         0.00000E+00
         0.00000E+00
         0.00000E+00
         0.00000E+00
         0.00000E+00
         0.00000E+00
         0.00000E+00
         0.00000E+00
         0.00000E+00
         0.00000E+00
         0.00000E+00
         0.00000E+00
         0.00000E+00
         0.00000E+00
         0.00000E+00
         0.00000E+00
         0.00000E+00
         0.00000E+00
         0.00000E+00
         0.00000E+00
         0.00000E+00
         0.00000E+00
         0.00000E+00
         0.00000E+00
         0.00000E+00
         0.00000E+00
         0.00000E+00
         0.00000E+00
         0.00000E+00
         0.00000E+00
         0.00000E+00
         0.00000E+00
         0.00000E+00
         0.00000E+00
         0.00000E+00
         0.00000E+00
         0.00000E+00
         0.00000E+00
         0.00000E+00
         0.00000E+00
         0.00000E+00
         0.00000E+00
         0.00000E+00
         0.00000E+00
         0.00000E+00
         0.00000E+00
         0.00000E+00
         0.00000E+00
         0.00000E+00
         0.00000E+00
         0.00000E+00
         0.00000E+00
         0.00000E+00
         0.00000E+00
         0.00000E+00
         0.00000E+00
         0.00000E+00
         0.00000E+00
         0.00000E+00
         0.00000E+00
         0.00000E+00
         0.00000E+00
         0.00000E+00
         0.00000E+00
         0.00000E+00
         0.00000E+00
         0.00000E+00
         0.00000E+00
         0.00000E+00
         0.00000E+00
         0.00000E+00
         0.00000E+00
         0.00000E+00
         0.00000E+00
         0.00000E+00
         0.00000E+00
         0.00000E+00
         0.00000E+00
         0.00000E+00
         0.00000E+00
         0.00000E+00
         0.00000E+00
         0.00000E+00
         0.00000E+00
         0.00000E+00
         0.00000E+00
         0.00000E+00
         0.00000E+00
         0.00000E+00
         0.00000E+00
         0.00000E+00
         0.00000E+00
         0.00000E+00
         0.00000E+00
         0.00000E+00
         0.00000E+00
         0.00000E+00
         0.00000E+00
         0.00000E+00
         0.00000E+00
         0.00000E+00
         0.00000E+00
         0.00000E+00
         0.00000E+00
         0.00000E+00
         0.00000E+00
         0.00000E+00
         0.00000E+00
         0.00000E+00
         0.00000E+00
         0.00000E+00
         0.00000E+00
         0.00000E+00
         0.00000E+00
         0.00000E+00
         0.00000E+00
         0.00000E+00
         0.00000E+00
         0.00000E+00
         0.00000E+00
         0.00000E+00
         0.00000E+00
         0.00000E+00
         0.00000E+00
         0.00000E+00
         0.00000E+00
         0.00000E+00
         0.00000E+00
         0.00000E+00
         0.00000E+00
         0.00000E+00
         0.00000E+00
         0.00000E+00
         0.00000E+00
         0.00000E+00
         0.00000E+00
         0.00000E+00
         0.00000E+00
         0.00000E+00
         0.00000E+00
         0.00000E+00
         0.00000E+00
         0.00000E+00
         0.00000E+00
         0.00000E+00
         0.00000E+00
         0.00000E+00
         0.00000E+00
         0.00000E+00
         0.00000E+00
         0.00000E+00
         0.00000E+00
         0.00000E+00
         0.00000E+00
         0.00000E+00
         0.00000E+00
         0.00000E+00
         0.00000E+00
         0.00000E+00
         0.00000E+00
         0.00000E+00
         0.00000E+00
         0.00000E+00
         0.00000E+00
         0.00000E+00
         0.00000E+00
         0.00000E+00
         0.00000E+00
         0.00000E+00
         0.00000E+00
         0.00000E+00
         0.00000E+00
         0.00000E+00
         0.00000E+00
         0.00000E+00
         0.00000E+00
         0.00000E+00
         0.00000E+00
         0.00000E+00
         0.00000E+00
         0.00000E+00
         0.00000E+00
         0.00000E+00
         0.00000E+00
         0.00000E+00
         0.00000E+00
         0.00000E+00
         0.00000E+00
         0.00000E+00
         0.00000E+00
         0.00000E+00
         0.00000E+00
         0.00000E+00
         0.00000E+00
         0.00000E+00
         0.00000E+00
         0.00000E+00
         0.00000E+00
         0.00000E+00
         0.00000E+00
         0.00000E+00
         0.00000E+00
         0.00000E+00
         0.00000E+00
         0.00000E+00
         0.00000E+00
         0.00000E+00
         0.00000E+00
         0.00000E+00
         0.00000E+00
         0.00000E+00
         0.00000E+00
         0.00000E+00
         0.00000E+00
         0.00000E+00
         0.00000E+00
         0.00000E+00
         0.00000E+00
         0.00000E+00
         0.00000E+00
         0.00000E+00
         0.00000E+00
         0.00000E+00
         0.00000E+00
         0.00000E+00
         0.00000E+00
         0.00000E+00
         0.00000E+00
         0.00000E+00
         0.00000E+00
         0.00000E+00
         0.00000E+00
         0.00000E+00
         0.00000E+00
         0.00000E+00
         0.00000E+00
         0.00000E+00
         0.00000E+00
         0.00000E+00
         0.00000E+00
         0.00000E+00
         0.00000E+00
         0.00000E+00
         0.00000E+00
         0.00000E+00
         0.00000E+00
         0.00000E+00
         0.00000E+00
         0.00000E+00
         0.00000E+00
         0.00000E+00
         0.00000E+00
         0.00000E+00
         0.00000E+00
         0.00000E+00
         0.00000E+00
         0.00000E+00
         0.00000E+00
         0.00000E+00
         0.00000E+00
         0.00000E+00
         0.00000E+00
         0.00000E+00
         0.00000E+00
         0.00000E+00
         0.00000E+00
         0.00000E+00
         0.00000E+00
         0.00000E+00
         0.00000E+00
         0.00000E+00
         0.00000E+00
         0.00000E+00
         0.00000E+00
         0.00000E+00
         0.00000E+00
         0.00000E+00
         0.00000E+00
         0.00000E+00
         0.00000E+00
         0.00000E+00
         0.00000E+00
         0.00000E+00
         0.00000E+00
         0.00000E+00
         0.00000E+00
         0.00000E+00
         0.00000E+00
         0.00000E+00
         0.00000E+00
         0.00000E+00
         0.00000E+00
         0.00000E+00
         0.00000E+00
         0.00000E+00
         0.00000E+00
         0.00000E+00
         0.00000E+00
         0.00000E+00
         0.00000E+00
         0.00000E+00
         0.00000E+00
         0.00000E+00
         0.00000E+00
         0.00000E+00
         0.00000E+00
         0.00000E+00
         0.00000E+00
         0.00000E+00
         0.00000E+00
         0.00000E+00
         0.00000E+00
         0.00000E+00
         0.00000E+00
         0.00000E+00
         0.00000E+00
         0.00000E+00
         0.00000E+00
         0.00000E+00
         0.00000E+00
         0.00000E+00
         0.00000E+00
         0.00000E+00
         0.00000E+00
         0.00000E+00
         0.00000E+00
         0.00000E+00
         0.00000E+00
         0.00000E+00
         0.00000E+00
         0.00000E+00
         0.00000E+00
         0.00000E+00
         0.00000E+00
         0.00000E+00
         0.00000E+00
         0.00000E+00
         0.00000E+00
         0.00000E+00
         0.00000E+00
         0.00000E+00
         0.00000E+00
         0.00000E+00
         0.00000E+00
         0.00000E+00
         0.00000E+00
         0.00000E+00
         0.00000E+00
         0.00000E+00
         0.00000E+00
         0.00000E+00
         0.00000E+00
         0.00000E+00
         0.00000E+00
         0.00000E+00
         0.00000E+00
         0.00000E+00
         0.00000E+00
         0.00000E+00
         0.00000E+00
         0.00000E+00
         0.00000E+00
         0.00000E+00
         0.00000E+00
         0.00000E+00
         0.00000E+00
         0.00000E+00
         0.00000E+00
         0.00000E+00
         0.00000E+00
         0.00000E+00
         0.00000E+00
         0.00000E+00
         0.00000E+00
         0.00000E+00
         0.00000E+00
         0.00000E+00
         0.00000E+00
         0.00000E+00
         0.00000E+00
         0.00000E+00
         0.00000E+00
         0.00000E+00
         0.00000E+00
         0.00000E+00
         0.00000E+00
         0.00000E+00
         0.00000E+00
         0.00000E+00
         0.00000E+00
         0.00000E+00
         0.00000E+00
         0.00000E+00
         0.00000E+00
         0.00000E+00
         0.00000E+00
         0.00000E+00
         0.00000E+00
         0.00000E+00
         0.00000E+00
         0.00000E+00
         0.00000E+00
         0.00000E+00
         0.00000E+00
         0.00000E+00
         0.00000E+00
         0.00000E+00
         0.00000E+00
         0.00000E+00
         0.00000E+00
         0.00000E+00
         0.00000E+00
         0.00000E+00
         0.00000E+00
         0.00000E+00
         0.00000E+00
         0.00000E+00
         0.00000E+00
         0.00000E+00
         0.00000E+00
         0.00000E+00
         0.00000E+00
         0.00000E+00
         0.00000E+00
         0.00000E+00
         0.00000E+00
         0.00000E+00
         0.00000E+00
         0.00000E+00
         0.00000E+00
         0.00000E+00
         0.00000E+00
         0.00000E+00
         0.00000E+00
         0.00000E+00
         0.00000E+00
         0.00000E+00
         0.00000E+00
         0.00000E+00
         0.00000E+00
         0.00000E+00
         0.00000E+00
         0.00000E+00
         0.00000E+00
         0.00000E+00
         0.00000E+00
         0.00000E+00
         0.00000E+00
         0.00000E+00
         0.00000E+00
         0.00000E+00
         0.00000E+00
         0.00000E+00
         0.00000E+00
         0.00000E+00
         0.00000E+00
         0.00000E+00
         0.00000E+00
         0.00000E+00
         0.00000E+00
         0.00000E+00
         0.00000E+00
         0.00000E+00
         0.00000E+00
         0.00000E+00
         0.00000E+00
         0.00000E+00
         0.00000E+00
         0.00000E+00
         0.00000E+00
         0.00000E+00
         0.00000E+00
         0.00000E+00
         0.00000E+00
         0.00000E+00
         0.00000E+00
         0.00000E+00
         0.00000E+00
         0.00000E+00
         0.00000E+00
         0.00000E+00
         0.00000E+00
         0.00000E+00
         0.00000E+00
         0.00000E+00
         0.00000E+00
         0.00000E+00
         0.00000E+00
         0.00000E+00
         0.00000E+00
         0.00000E+00
         0.00000E+00
         0.00000E+00
         0.00000E+00
         0.00000E+00
         0.00000E+00
         0.00000E+00
         0.00000E+00
         0.00000E+00
         0.00000E+00
         0.00000E+00
         0.00000E+00
         0.00000E+00
         0.00000E+00
         0.00000E+00
         0.00000E+00
         0.00000E+00
         0.00000E+00
         0.00000E+00
         0.00000E+00
         0.00000E+00
         0.00000E+00
         0.00000E+00
         0.00000E+00
         0.00000E+00
         0.00000E+00
         0.00000E+00
         0.00000E+00
         0.00000E+00
         0.00000E+00
         0.00000E+00
         0.00000E+00
         0.00000E+00
         0.00000E+00
         0.00000E+00
         0.00000E+00
         0.00000E+00
         0.00000E+00
         0.00000E+00
         0.00000E+00
         0.00000E+00
         0.00000E+00
         0.00000E+00
         0.00000E+00
         0.00000E+00
         0.00000E+00
         0.00000E+00
         0.00000E+00
         0.00000E+00
         0.00000E+00
         0.00000E+00
         0.00000E+00
         0.00000E+00
         0.00000E+00
         0.00000E+00
         0.00000E+00
         0.00000E+00
         0.00000E+00
         0.00000E+00
         0.00000E+00
         0.00000E+00
         0.00000E+00
         0.00000E+00
         0.00000E+00
         0.00000E+00
         0.00000E+00
         0.00000E+00
         0.00000E+00
         0.00000E+00
         0.00000E+00
         0.00000E+00
         0.00000E+00
         0.00000E+00
         0.00000E+00
         0.00000E+00
         0.00000E+00
         0.00000E+00
         0.00000E+00
         0.00000E+00
         0.00000E+00
         0.00000E+00
         0.00000E+00
         0.00000E+00
         0.00000E+00
         0.00000E+00
         0.00000E+00
         0.00000E+00
         0.00000E+00
         0.00000E+00
         0.00000E+00
         0.00000E+00
         0.00000E+00
         0.00000E+00
         0.00000E+00
         0.00000E+00
         0.00000E+00
         0.00000E+00
         0.00000E+00
         0.00000E+00
         0.00000E+00
         0.00000E+00
         0.00000E+00
         0.00000E+00
         0.00000E+00
         0.00000E+00
         0.00000E+00
         0.00000E+00
         0.00000E+00
         0.00000E+00
         0.00000E+00
         0.00000E+00
         0.00000E+00
         0.00000E+00
         0.00000E+00
         0.00000E+00
         0.00000E+00
         0.00000E+00
         0.00000E+00
         0.00000E+00
         0.00000E+00
         0.00000E+00
         0.00000E+00
         0.00000E+00
         0.00000E+00
         0.00000E+00
         0.00000E+00
         0.00000E+00
         0.00000E+00
         0.00000E+00
         0.00000E+00
         0.00000E+00
         0.00000E+00
         0.00000E+00
         0.00000E+00
         0.00000E+00
         0.00000E+00
         0.00000E+00
         0.00000E+00
         0.00000E+00
         0.00000E+00
         0.00000E+00
         0.00000E+00
         0.00000E+00
         0.00000E+00
         0.00000E+00
         0.00000E+00
         0.00000E+00
         0.00000E+00
         0.00000E+00
         0.00000E+00
         0.00000E+00
         0.00000E+00
         0.00000E+00
         0.00000E+00
         0.00000E+00
         0.00000E+00
         0.00000E+00
         0.00000E+00
         0.00000E+00
         0.00000E+00
         0.00000E+00
         0.00000E+00
         0.00000E+00
         0.00000E+00
         0.00000E+00
         0.00000E+00
         0.00000E+00
         0.00000E+00
         0.00000E+00
         0.00000E+00
         0.00000E+00
         0.00000E+00
         0.00000E+00
         0.00000E+00
         0.00000E+00
         0.00000E+00
         0.00000E+00
         0.00000E+00
         0.00000E+00
         0.00000E+00
         0.00000E+00
         0.00000E+00
         0.00000E+00
         0.00000E+00
         0.00000E+00
         0.00000E+00
         0.00000E+00
         0.00000E+00
         0.00000E+00
         0.00000E+00
         0.00000E+00
         0.00000E+00
         0.00000E+00
         0.00000E+00
         0.00000E+00
         0.00000E+00
         0.00000E+00
         0.00000E+00
         0.00000E+00
         0.00000E+00
         0.00000E+00
         0.00000E+00
         0.00000E+00
         0.00000E+00
         0.00000E+00
         0.00000E+00
         0.00000E+00
         0.00000E+00
         0.00000E+00
         0.00000E+00
         0.00000E+00
         0.00000E+00
         0.00000E+00
         0.00000E+00
         0.00000E+00
         0.00000E+00
         0.00000E+00
         0.00000E+00
         0.00000E+00
         0.00000E+00
         0.00000E+00
         0.00000E+00
         0.00000E+00
         0.00000E+00
         0.00000E+00
         0.00000E+00
         0.00000E+00
         0.00000E+00
         0.00000E+00
         0.00000E+00
         0.00000E+00
         0.00000E+00
         0.00000E+00
         0.00000E+00
         0.00000E+00
         0.00000E+00
         0.00000E+00
         0.00000E+00
         0.00000E+00
         0.00000E+00
         0.00000E+00
         0.00000E+00
         0.00000E+00
         0.00000E+00
         0.00000E+00
         0.00000E+00
         0.00000E+00
         0.00000E+00
         0.00000E+00
         0.00000E+00
         0.00000E+00
         0.00000E+00
         0.00000E+00
         0.00000E+00
         0.00000E+00
         0.00000E+00
         0.00000E+00
         0.00000E+00
         0.00000E+00
         0.00000E+00
         0.00000E+00
         0.00000E+00
         0.00000E+00
         0.00000E+00
         0.00000E+00
         0.00000E+00
         0.00000E+00
         0.00000E+00
         0.00000E+00
         0.00000E+00
         0.00000E+00
         0.00000E+00
         0.00000E+00
         0.00000E+00
         0.00000E+00
         0.00000E+00
         0.00000E+00
         0.00000E+00
         0.00000E+00
         0.00000E+00
         0.00000E+00
         0.00000E+00
         0.00000E+00
         0.00000E+00
         0.00000E+00
         0.00000E+00
         0.00000E+00
         0.00000E+00
         0.00000E+00
         0.00000E+00
         0.00000E+00
         0.00000E+00
         0.00000E+00
         0.00000E+00
         0.00000E+00
         0.00000E+00
         0.00000E+00
         0.00000E+00
         0.00000E+00
         0.00000E+00
         0.00000E+00
         0.00000E+00
         0.00000E+00
         0.00000E+00
         0.00000E+00
         0.00000E+00
         0.00000E+00
         0.00000E+00
         0.00000E+00
         0.00000E+00
         0.00000E+00
         0.00000E+00
         0.00000E+00
         0.00000E+00
         0.00000E+00
         0.00000E+00
         0.00000E+00
         0.00000E+00
         0.00000E+00
         0.00000E+00
         0.00000E+00
         0.00000E+00
         0.00000E+00
         0.00000E+00
         0.00000E+00
         0.00000E+00
         0.00000E+00
         0.00000E+00
         0.00000E+00
         0.00000E+00
         0.00000E+00
         0.00000E+00
         0.00000E+00
         0.00000E+00
         0.00000E+00
         0.00000E+00
         0.00000E+00
         0.00000E+00
         0.00000E+00
         0.00000E+00
         0.00000E+00
         0.00000E+00
         0.00000E+00
         0.00000E+00
         0.00000E+00
         0.00000E+00
         0.00000E+00
         0.00000E+00
         0.00000E+00
         0.00000E+00
         0.00000E+00
         0.00000E+00
         0.00000E+00
         0.00000E+00
         0.00000E+00
         0.00000E+00
         0.00000E+00
         0.00000E+00
         0.00000E+00
         0.00000E+00
         0.00000E+00
         0.00000E+00
         0.00000E+00
         0.00000E+00
         0.00000E+00
         0.00000E+00
         0.00000E+00
         0.00000E+00
         0.00000E+00
         0.00000E+00
         0.00000E+00
         0.00000E+00
         0.00000E+00
         0.00000E+00
         0.00000E+00
         0.00000E+00
         0.00000E+00
         0.00000E+00
         0.00000E+00
         0.00000E+00
         0.00000E+00
         0.00000E+00
         0.00000E+00
         0.00000E+00
         0.00000E+00
         0.00000E+00
         0.00000E+00
         0.00000E+00
         0.00000E+00
         0.00000E+00
         0.00000E+00
         0.00000E+00
         0.00000E+00
         0.00000E+00
         0.00000E+00
         0.00000E+00
         0.00000E+00
         0.00000E+00
         0.00000E+00
         0.00000E+00
         0.00000E+00
         0.00000E+00
         0.00000E+00
         0.00000E+00
         0.00000E+00
         0.00000E+00
         0.00000E+00
         0.00000E+00
         0.00000E+00
         0.00000E+00
         0.00000E+00
         0.00000E+00
         0.00000E+00
         0.00000E+00
         0.00000E+00
         0.00000E+00
         0.00000E+00
         0.00000E+00
         0.00000E+00
         0.00000E+00
         0.00000E+00
         0.00000E+00
         0.00000E+00
         0.00000E+00
         0.00000E+00
         0.00000E+00
         0.00000E+00
         0.00000E+00
         0.00000E+00
         0.00000E+00
         0.00000E+00
         0.00000E+00
         0.00000E+00
         0.00000E+00
         0.00000E+00
         0.00000E+00
         0.00000E+00
         0.00000E+00
         0.00000E+00
         0.00000E+00
         0.00000E+00
         0.00000E+00
         0.00000E+00
         0.00000E+00
         0.00000E+00
         0.00000E+00
         0.00000E+00
         0.00000E+00
         0.00000E+00
         0.00000E+00
         0.00000E+00
         0.00000E+00
         0.00000E+00
         0.00000E+00
         0.00000E+00
         0.00000E+00
         0.00000E+00
         0.00000E+00
         0.00000E+00
         0.00000E+00
         0.00000E+00
         0.00000E+00
         0.00000E+00
         0.00000E+00
         0.00000E+00
         0.00000E+00
         0.00000E+00
         0.00000E+00
         0.00000E+00
         0.00000E+00
         0.00000E+00
         0.00000E+00
         0.00000E+00
         0.00000E+00
         0.00000E+00
         0.00000E+00
         0.00000E+00
         0.00000E+00
         0.00000E+00
         0.00000E+00
         0.00000E+00
         0.00000E+00
         0.00000E+00
         0.00000E+00
         0.00000E+00
         0.00000E+00
         0.00000E+00
         0.00000E+00
         0.00000E+00
         0.00000E+00
         0.00000E+00
         0.00000E+00
         0.00000E+00
         0.00000E+00
         0.00000E+00
         0.00000E+00
         0.00000E+00
         0.00000E+00
         0.00000E+00
         0.00000E+00
         0.00000E+00
         0.00000E+00
         0.00000E+00
         0.00000E+00
         0.00000E+00
         0.00000E+00
         0.00000E+00
         0.00000E+00
         0.00000E+00
         0.00000E+00
         0.00000E+00
         0.00000E+00
         0.00000E+00
         0.00000E+00
         0.00000E+00
         0.00000E+00
         0.00000E+00
         0.00000E+00
         0.00000E+00
         0.00000E+00
         0.00000E+00
         0.00000E+00
         0.00000E+00
         0.00000E+00
         0.00000E+00
         0.00000E+00
         0.00000E+00
         0.00000E+00
         0.00000E+00
         0.00000E+00
         0.00000E+00
         0.00000E+00
         0.00000E+00
         0.00000E+00
         0.00000E+00
         0.00000E+00
         0.00000E+00
         0.00000E+00
         0.00000E+00
         0.00000E+00
         0.00000E+00
         0.00000E+00
         0.00000E+00
         0.00000E+00
         0.00000E+00
         0.00000E+00
         0.00000E+00
         0.00000E+00
         0.00000E+00
         0.00000E+00
         0.00000E+00
         0.00000E+00
         0.00000E+00
         0.00000E+00
         0.00000E+00
         0.00000E+00
         0.00000E+00
         0.00000E+00
         0.00000E+00
         0.00000E+00
         0.00000E+00
         0.00000E+00
         0.00000E+00
         0.00000E+00
         0.00000E+00
         0.00000E+00
         0.00000E+00
         0.00000E+00
         0.00000E+00
         0.00000E+00
         0.00000E+00
         0.00000E+00
         0.00000E+00
         0.00000E+00
         0.00000E+00
         0.00000E+00
         0.00000E+00
         0.00000E+00
         0.00000E+00
         0.00000E+00
         0.00000E+00
         0.00000E+00
         0.00000E+00
         0.00000E+00
         0.00000E+00
         0.00000E+00
         0.00000E+00
         0.00000E+00
         0.00000E+00
         0.00000E+00
         0.00000E+00
         0.00000E+00
         0.00000E+00
         0.00000E+00
         0.00000E+00
         0.00000E+00
         0.00000E+00
         0.00000E+00
         0.00000E+00
         0.00000E+00
         0.00000E+00
         0.00000E+00
         0.00000E+00
         0.00000E+00
         0.00000E+00
         0.00000E+00
         0.00000E+00
         0.00000E+00
         0.00000E+00
         0.00000E+00
         0.00000E+00
         0.00000E+00
         0.00000E+00
         0.00000E+00
         0.00000E+00
         0.00000E+00
         0.00000E+00
         0.00000E+00
         0.00000E+00
         0.00000E+00
         0.00000E+00
         0.00000E+00
         0.00000E+00
         0.00000E+00
         0.00000E+00
         0.00000E+00
         0.00000E+00
         0.00000E+00
         0.00000E+00
         0.00000E+00
         0.00000E+00
         0.00000E+00
         0.00000E+00
         0.00000E+00
         0.00000E+00
         0.00000E+00
         0.00000E+00
         0.00000E+00
         0.00000E+00
         0.00000E+00
         0.00000E+00
         0.00000E+00
         0.00000E+00
         0.00000E+00
         0.00000E+00
         0.00000E+00
         0.00000E+00
         0.00000E+00
         0.00000E+00
         0.00000E+00
         0.00000E+00
         0.00000E+00
         0.00000E+00
         0.00000E+00
         0.00000E+00
         0.00000E+00
         0.00000E+00
         0.00000E+00
         0.00000E+00
         0.00000E+00
         0.00000E+00
         0.00000E+00
         0.00000E+00
         0.00000E+00
         0.00000E+00
         0.00000E+00
         0.00000E+00
         0.00000E+00
         0.00000E+00
         0.00000E+00
         0.00000E+00
         0.00000E+00
         0.00000E+00
         0.00000E+00
         0.00000E+00
         0.00000E+00
         0.00000E+00
         0.00000E+00
         0.00000E+00
         0.00000E+00
         0.00000E+00
         0.00000E+00
         0.00000E+00
         0.00000E+00
         0.00000E+00
         0.00000E+00
         0.00000E+00
         0.00000E+00
         0.00000E+00
         0.00000E+00
         0.00000E+00
         0.00000E+00
         0.00000E+00
         0.00000E+00
         0.00000E+00
         0.00000E+00
         0.00000E+00
         0.00000E+00
         0.00000E+00
         0.00000E+00
         0.00000E+00
         0.00000E+00
         0.00000E+00
         0.00000E+00
         0.00000E+00
         0.00000E+00
         0.00000E+00
         0.00000E+00
         0.00000E+00
         0.00000E+00
         0.00000E+00
         0.00000E+00
         0.00000E+00
         0.00000E+00
         0.00000E+00
         0.00000E+00
         0.00000E+00
         0.00000E+00
         0.00000E+00
         0.00000E+00
         0.00000E+00
         0.00000E+00
         0.00000E+00
         0.00000E+00
         0.00000E+00
         0.00000E+00
         0.00000E+00
         0.00000E+00
         0.00000E+00
         0.00000E+00
         0.00000E+00
         0.00000E+00
         0.00000E+00
         0.00000E+00
         0.00000E+00
         0.00000E+00
         0.00000E+00
         0.00000E+00
         0.00000E+00
         0.00000E+00
         0.00000E+00
         0.00000E+00
         0.00000E+00
         0.00000E+00
         0.00000E+00
         0.00000E+00
         0.00000E+00
         0.00000E+00
         0.00000E+00
         0.00000E+00
         0.00000E+00
         0.00000E+00
         0.00000E+00
         0.00000E+00
         0.00000E+00
         0.00000E+00
         0.00000E+00
         0.00000E+00
         0.00000E+00
         0.00000E+00
         0.00000E+00
         0.00000E+00
         0.00000E+00
         0.00000E+00
         0.00000E+00
         0.00000E+00
         0.00000E+00
         0.00000E+00
         0.00000E+00
         0.00000E+00
         0.00000E+00
         0.00000E+00
         0.00000E+00
         0.00000E+00
         0.00000E+00
         0.00000E+00
         0.00000E+00
         0.00000E+00
         0.00000E+00
         0.00000E+00
         0.00000E+00
         0.00000E+00
         0.00000E+00
         0.00000E+00
         0.00000E+00
         0.00000E+00
         0.00000E+00
         0.00000E+00
         0.00000E+00
         0.00000E+00
         0.00000E+00
         0.00000E+00
         0.00000E+00
         0.00000E+00
         0.00000E+00
         0.00000E+00
         0.00000E+00
         0.00000E+00
         0.00000E+00
         0.00000E+00
         0.00000E+00
         0.00000E+00
         0.00000E+00
         0.00000E+00
         0.00000E+00
         0.00000E+00
         0.00000E+00
         0.00000E+00
         0.00000E+00
         0.00000E+00
         0.00000E+00
         0.00000E+00
         0.00000E+00
         0.00000E+00
         0.00000E+00
         0.00000E+00
         0.00000E+00
         0.00000E+00
         0.00000E+00
         0.00000E+00
         0.00000E+00
         0.00000E+00
         0.00000E+00
         0.00000E+00
         0.00000E+00
         0.00000E+00
         0.00000E+00
         0.00000E+00
         0.00000E+00
         0.00000E+00
         0.00000E+00
         0.00000E+00
         0.00000E+00
         0.00000E+00
         0.00000E+00
         0.00000E+00
         0.00000E+00
         0.00000E+00
         0.00000E+00
         0.00000E+00
         0.00000E+00
         0.00000E+00
         0.00000E+00
         0.00000E+00
         0.00000E+00
         0.00000E+00
         0.00000E+00
         0.00000E+00
         0.00000E+00
         0.00000E+00
         0.00000E+00
         0.00000E+00
         0.00000E+00
         0.00000E+00
         0.00000E+00
         0.00000E+00
         0.00000E+00
         0.00000E+00
         0.00000E+00
         0.00000E+00
         0.00000E+00
         0.00000E+00
         0.00000E+00
         0.00000E+00
         0.00000E+00
         0.00000E+00
         0.00000E+00
         0.00000E+00
         0.00000E+00
         0.00000E+00
         0.00000E+00
         0.00000E+00
         0.00000E+00
         0.00000E+00
         0.00000E+00
         0.00000E+00
         0.00000E+00
         0.00000E+00
         0.00000E+00
         0.00000E+00
         0.00000E+00
         0.00000E+00
         0.00000E+00
  
SCALARS               pre_disp_force_y  double 1
LOOKUP_TABLE default
         0.00000E+00
         0.00000E+00
         0.00000E+00
         0.00000E+00
         0.00000E+00
         0.00000E+00
         0.00000E+00
         0.00000E+00
         0.00000E+00
         0.00000E+00
         0.00000E+00
         0.00000E+00
         0.00000E+00
         0.00000E+00
         0.00000E+00
         0.00000E+00
         0.00000E+00
         0.00000E+00
         0.00000E+00
         0.00000E+00
         0.00000E+00
         0.00000E+00
         0.00000E+00
         0.00000E+00
         0.00000E+00
         0.00000E+00
         0.00000E+00
         0.00000E+00
         0.00000E+00
         0.00000E+00
         0.00000E+00
         0.00000E+00
         0.00000E+00
         0.00000E+00
         0.00000E+00
         0.00000E+00
         0.00000E+00
         0.00000E+00
         0.00000E+00
         0.00000E+00
         0.00000E+00
         0.00000E+00
         0.00000E+00
         0.00000E+00
         0.00000E+00
         0.00000E+00
         0.00000E+00
         0.00000E+00
         0.00000E+00
         0.00000E+00
         0.00000E+00
         0.00000E+00
         0.00000E+00
         0.00000E+00
         0.00000E+00
         0.00000E+00
         0.00000E+00
         0.00000E+00
         0.00000E+00
         0.00000E+00
         0.00000E+00
         0.00000E+00
         0.00000E+00
         0.00000E+00
         0.00000E+00
         0.00000E+00
         0.00000E+00
         0.00000E+00
         0.00000E+00
         0.00000E+00
         0.00000E+00
         0.00000E+00
         0.00000E+00
         0.00000E+00
         0.00000E+00
         0.00000E+00
         0.00000E+00
         0.00000E+00
         0.00000E+00
         0.00000E+00
         0.00000E+00
         0.00000E+00
         0.00000E+00
         0.00000E+00
         0.00000E+00
         0.00000E+00
         0.00000E+00
         0.00000E+00
         0.00000E+00
         0.00000E+00
         0.00000E+00
         0.00000E+00
         0.00000E+00
         0.00000E+00
         0.00000E+00
         0.00000E+00
         0.00000E+00
         0.00000E+00
         0.00000E+00
         0.00000E+00
         0.00000E+00
         0.00000E+00
         0.00000E+00
         0.00000E+00
         0.00000E+00
         0.00000E+00
         0.00000E+00
         0.00000E+00
         0.00000E+00
         0.00000E+00
         0.00000E+00
         0.00000E+00
         0.00000E+00
         0.00000E+00
         0.00000E+00
         0.00000E+00
         0.00000E+00
         0.00000E+00
         0.00000E+00
         0.00000E+00
         0.00000E+00
         0.00000E+00
         0.00000E+00
         0.00000E+00
         0.00000E+00
         0.00000E+00
         0.00000E+00
         0.00000E+00
         0.00000E+00
         0.00000E+00
         0.00000E+00
         0.00000E+00
         0.00000E+00
         0.00000E+00
         0.00000E+00
         0.00000E+00
         0.00000E+00
         0.00000E+00
         0.00000E+00
         0.00000E+00
         0.00000E+00
         0.00000E+00
         0.00000E+00
         0.00000E+00
         0.00000E+00
         0.00000E+00
         0.00000E+00
         0.00000E+00
         0.00000E+00
         0.00000E+00
         0.00000E+00
         0.00000E+00
         0.00000E+00
         0.00000E+00
         0.00000E+00
         0.00000E+00
         0.00000E+00
         0.00000E+00
         0.00000E+00
         0.00000E+00
         0.00000E+00
         0.00000E+00
         0.00000E+00
         0.00000E+00
         0.00000E+00
         0.00000E+00
         0.00000E+00
         0.00000E+00
         0.00000E+00
         0.00000E+00
         0.00000E+00
         0.00000E+00
         0.00000E+00
         0.00000E+00
         0.00000E+00
         0.00000E+00
         0.00000E+00
         0.00000E+00
         0.00000E+00
         0.00000E+00
         0.00000E+00
         0.00000E+00
         0.00000E+00
         0.00000E+00
         0.00000E+00
         0.00000E+00
         0.00000E+00
         0.00000E+00
         0.00000E+00
         0.00000E+00
         0.00000E+00
         0.00000E+00
         0.00000E+00
         0.00000E+00
         0.00000E+00
         0.00000E+00
         0.00000E+00
         0.00000E+00
         0.00000E+00
         0.00000E+00
         0.00000E+00
         0.00000E+00
         0.00000E+00
         0.00000E+00
         0.00000E+00
         0.00000E+00
         0.00000E+00
         0.00000E+00
         0.00000E+00
         0.00000E+00
         0.00000E+00
         0.00000E+00
         0.00000E+00
         0.00000E+00
         0.00000E+00
         0.00000E+00
         0.00000E+00
         0.00000E+00
         0.00000E+00
         0.00000E+00
         0.00000E+00
         0.00000E+00
         0.00000E+00
         0.00000E+00
         0.00000E+00
         0.00000E+00
         0.00000E+00
         0.00000E+00
         0.00000E+00
         0.00000E+00
         0.00000E+00
         0.00000E+00
         0.00000E+00
         0.00000E+00
         0.00000E+00
         0.00000E+00
         0.00000E+00
         0.00000E+00
         0.00000E+00
         0.00000E+00
         0.00000E+00
         0.00000E+00
         0.00000E+00
         0.00000E+00
         0.00000E+00
         0.00000E+00
         0.00000E+00
         0.00000E+00
         0.00000E+00
         0.00000E+00
         0.00000E+00
         0.00000E+00
         0.00000E+00
         0.00000E+00
         0.00000E+00
         0.00000E+00
         0.00000E+00
         0.00000E+00
         0.00000E+00
         0.00000E+00
         0.00000E+00
         0.00000E+00
         0.00000E+00
         0.00000E+00
         0.00000E+00
         0.00000E+00
         0.00000E+00
         0.00000E+00
         0.00000E+00
         0.00000E+00
         0.00000E+00
         0.00000E+00
         0.00000E+00
         0.00000E+00
         0.00000E+00
         0.00000E+00
         0.00000E+00
         0.00000E+00
         0.00000E+00
         0.00000E+00
         0.00000E+00
         0.00000E+00
         0.00000E+00
         0.00000E+00
         0.00000E+00
         0.00000E+00
         0.00000E+00
         0.00000E+00
         0.00000E+00
         0.00000E+00
         0.00000E+00
         0.00000E+00
         0.00000E+00
         0.00000E+00
         0.00000E+00
         0.00000E+00
         0.00000E+00
         0.00000E+00
         0.00000E+00
         0.00000E+00
         0.00000E+00
         0.00000E+00
         0.00000E+00
         0.00000E+00
         0.00000E+00
         0.00000E+00
         0.00000E+00
         0.00000E+00
         0.00000E+00
         0.00000E+00
         0.00000E+00
         0.00000E+00
         0.00000E+00
         0.00000E+00
         0.00000E+00
         0.00000E+00
         0.00000E+00
         0.00000E+00
         0.00000E+00
         0.00000E+00
         0.00000E+00
         0.00000E+00
         0.00000E+00
         0.00000E+00
         0.00000E+00
         0.00000E+00
         0.00000E+00
         0.00000E+00
         0.00000E+00
         0.00000E+00
         0.00000E+00
         0.00000E+00
         0.00000E+00
         0.00000E+00
         0.00000E+00
         0.00000E+00
         0.00000E+00
         0.00000E+00
         0.00000E+00
         0.00000E+00
         0.00000E+00
         0.00000E+00
         0.00000E+00
         0.00000E+00
         0.00000E+00
         0.00000E+00
         0.00000E+00
         0.00000E+00
         0.00000E+00
         0.00000E+00
         0.00000E+00
         0.00000E+00
         0.00000E+00
         0.00000E+00
         0.00000E+00
         0.00000E+00
         0.00000E+00
         0.00000E+00
         0.00000E+00
         0.00000E+00
         0.00000E+00
         0.00000E+00
         0.00000E+00
         0.00000E+00
         0.00000E+00
         0.00000E+00
         0.00000E+00
         0.00000E+00
         0.00000E+00
         0.00000E+00
         0.00000E+00
         0.00000E+00
         0.00000E+00
         0.00000E+00
         0.00000E+00
         0.00000E+00
         0.00000E+00
         0.00000E+00
         0.00000E+00
         0.00000E+00
         0.00000E+00
         0.00000E+00
         0.00000E+00
         0.00000E+00
         0.00000E+00
         0.00000E+00
         0.00000E+00
         0.00000E+00
         0.00000E+00
         0.00000E+00
         0.00000E+00
         0.00000E+00
         0.00000E+00
         0.00000E+00
         0.00000E+00
         0.00000E+00
         0.00000E+00
         0.00000E+00
         0.00000E+00
         0.00000E+00
         0.00000E+00
         0.00000E+00
         0.00000E+00
         0.00000E+00
         0.00000E+00
         0.00000E+00
         0.00000E+00
         0.00000E+00
         0.00000E+00
         0.00000E+00
         0.00000E+00
         0.00000E+00
         0.00000E+00
         0.00000E+00
         0.00000E+00
         0.00000E+00
         0.00000E+00
         0.00000E+00
         0.00000E+00
         0.00000E+00
         0.00000E+00
         0.00000E+00
         0.00000E+00
         0.00000E+00
         0.00000E+00
         0.00000E+00
         0.00000E+00
         0.00000E+00
         0.00000E+00
         0.00000E+00
         0.00000E+00
         0.00000E+00
         0.00000E+00
         0.00000E+00
         0.00000E+00
         0.00000E+00
         0.00000E+00
         0.00000E+00
         0.00000E+00
         0.00000E+00
         0.00000E+00
         0.00000E+00
         0.00000E+00
         0.00000E+00
         0.00000E+00
         0.00000E+00
         0.00000E+00
         0.00000E+00
         0.00000E+00
         0.00000E+00
         0.00000E+00
         0.00000E+00
         0.00000E+00
         0.00000E+00
         0.00000E+00
         0.00000E+00
         0.00000E+00
         0.00000E+00
         0.00000E+00
         0.00000E+00
         0.00000E+00
         0.00000E+00
         0.00000E+00
         0.00000E+00
         0.00000E+00
         0.00000E+00
         0.00000E+00
         0.00000E+00
         0.00000E+00
         0.00000E+00
         0.00000E+00
         0.00000E+00
         0.00000E+00
         0.00000E+00
         0.00000E+00
         0.00000E+00
         0.00000E+00
         0.00000E+00
         0.00000E+00
         0.00000E+00
         0.00000E+00
         0.00000E+00
         0.00000E+00
         0.00000E+00
         0.00000E+00
         0.00000E+00
         0.00000E+00
         0.00000E+00
         0.00000E+00
         0.00000E+00
         0.00000E+00
         0.00000E+00
         0.00000E+00
         0.00000E+00
         0.00000E+00
         0.00000E+00
         0.00000E+00
         0.00000E+00
         0.00000E+00
         0.00000E+00
         0.00000E+00
         0.00000E+00
         0.00000E+00
         0.00000E+00
         0.00000E+00
         0.00000E+00
         0.00000E+00
         0.00000E+00
         0.00000E+00
         0.00000E+00
         0.00000E+00
         0.00000E+00
         0.00000E+00
         0.00000E+00
         0.00000E+00
         0.00000E+00
         0.00000E+00
         0.00000E+00
         0.00000E+00
         0.00000E+00
         0.00000E+00
         0.00000E+00
         0.00000E+00
         0.00000E+00
         0.00000E+00
         0.00000E+00
         0.00000E+00
         0.00000E+00
         0.00000E+00
         0.00000E+00
         0.00000E+00
         0.00000E+00
         0.00000E+00
         0.00000E+00
         0.00000E+00
         0.00000E+00
         0.00000E+00
         0.00000E+00
         0.00000E+00
         0.00000E+00
         0.00000E+00
         0.00000E+00
         0.00000E+00
         0.00000E+00
         0.00000E+00
         0.00000E+00
         0.00000E+00
         0.00000E+00
         0.00000E+00
         0.00000E+00
         0.00000E+00
         0.00000E+00
         0.00000E+00
         0.00000E+00
         0.00000E+00
         0.00000E+00
         0.00000E+00
         0.00000E+00
         0.00000E+00
         0.00000E+00
         0.00000E+00
         0.00000E+00
         0.00000E+00
         0.00000E+00
         0.00000E+00
         0.00000E+00
         0.00000E+00
         0.00000E+00
         0.00000E+00
         0.00000E+00
         0.00000E+00
         0.00000E+00
         0.00000E+00
         0.00000E+00
         0.00000E+00
         0.00000E+00
         0.00000E+00
         0.00000E+00
         0.00000E+00
         0.00000E+00
         0.00000E+00
         0.00000E+00
         0.00000E+00
         0.00000E+00
         0.00000E+00
         0.00000E+00
         0.00000E+00
         0.00000E+00
         0.00000E+00
         0.00000E+00
         0.00000E+00
         0.00000E+00
         0.00000E+00
         0.00000E+00
         0.00000E+00
         0.00000E+00
         0.00000E+00
         0.00000E+00
         0.00000E+00
         0.00000E+00
         0.00000E+00
         0.00000E+00
         0.00000E+00
         0.00000E+00
         0.00000E+00
         0.00000E+00
         0.00000E+00
         0.00000E+00
         0.00000E+00
         0.00000E+00
         0.00000E+00
         0.00000E+00
         0.00000E+00
         0.00000E+00
         0.00000E+00
         0.00000E+00
         0.00000E+00
         0.00000E+00
         0.00000E+00
         0.00000E+00
         0.00000E+00
         0.00000E+00
         0.00000E+00
         0.00000E+00
         0.00000E+00
         0.00000E+00
         0.00000E+00
         0.00000E+00
         0.00000E+00
         0.00000E+00
         0.00000E+00
         0.00000E+00
         0.00000E+00
         0.00000E+00
         0.00000E+00
         0.00000E+00
         0.00000E+00
         0.00000E+00
         0.00000E+00
         0.00000E+00
         0.00000E+00
         0.00000E+00
         0.00000E+00
         0.00000E+00
         0.00000E+00
         0.00000E+00
         0.00000E+00
         0.00000E+00
         0.00000E+00
         0.00000E+00
         0.00000E+00
         0.00000E+00
         0.00000E+00
         0.00000E+00
         0.00000E+00
         0.00000E+00
         0.00000E+00
         0.00000E+00
         0.00000E+00
         0.00000E+00
         0.00000E+00
         0.00000E+00
         0.00000E+00
         0.00000E+00
         0.00000E+00
         0.00000E+00
         0.00000E+00
         0.00000E+00
         0.00000E+00
         0.00000E+00
         0.00000E+00
         0.00000E+00
         0.00000E+00
         0.00000E+00
         0.00000E+00
         0.00000E+00
         0.00000E+00
         0.00000E+00
         0.00000E+00
         0.00000E+00
         0.00000E+00
         0.00000E+00
         0.00000E+00
         0.00000E+00
         0.00000E+00
         0.00000E+00
         0.00000E+00
         0.00000E+00
         0.00000E+00
         0.00000E+00
         0.00000E+00
         0.00000E+00
         0.00000E+00
         0.00000E+00
         0.00000E+00
         0.00000E+00
         0.00000E+00
         0.00000E+00
         0.00000E+00
         0.00000E+00
         0.00000E+00
         0.00000E+00
         0.00000E+00
         0.00000E+00
         0.00000E+00
         0.00000E+00
         0.00000E+00
         0.00000E+00
         0.00000E+00
         0.00000E+00
         0.00000E+00
         0.00000E+00
         0.00000E+00
         0.00000E+00
         0.00000E+00
         0.00000E+00
         0.00000E+00
         0.00000E+00
         0.00000E+00
         0.00000E+00
         0.00000E+00
         0.00000E+00
         0.00000E+00
         0.00000E+00
         0.00000E+00
         0.00000E+00
         0.00000E+00
         0.00000E+00
         0.00000E+00
         0.00000E+00
         0.00000E+00
         0.00000E+00
         0.00000E+00
         0.00000E+00
         0.00000E+00
         0.00000E+00
         0.00000E+00
         0.00000E+00
         0.00000E+00
         0.00000E+00
         0.00000E+00
         0.00000E+00
         0.00000E+00
         0.00000E+00
         0.00000E+00
         0.00000E+00
         0.00000E+00
         0.00000E+00
         0.00000E+00
         0.00000E+00
         0.00000E+00
         0.00000E+00
         0.00000E+00
         0.00000E+00
         0.00000E+00
         0.00000E+00
         0.00000E+00
         0.00000E+00
         0.00000E+00
         0.00000E+00
         0.00000E+00
         0.00000E+00
         0.00000E+00
         0.00000E+00
         0.00000E+00
         0.00000E+00
         0.00000E+00
         0.00000E+00
         0.00000E+00
         0.00000E+00
         0.00000E+00
         0.00000E+00
         0.00000E+00
         0.00000E+00
         0.00000E+00
         0.00000E+00
         0.00000E+00
         0.00000E+00
         0.00000E+00
         0.00000E+00
         0.00000E+00
         0.00000E+00
         0.00000E+00
         0.00000E+00
         0.00000E+00
         0.00000E+00
         0.00000E+00
         0.00000E+00
         0.00000E+00
         0.00000E+00
         0.00000E+00
         0.00000E+00
         0.00000E+00
         0.00000E+00
         0.00000E+00
         0.00000E+00
         0.00000E+00
         0.00000E+00
         0.00000E+00
         0.00000E+00
         0.00000E+00
         0.00000E+00
         0.00000E+00
         0.00000E+00
         0.00000E+00
         0.00000E+00
         0.00000E+00
         0.00000E+00
         0.00000E+00
         0.00000E+00
         0.00000E+00
         0.00000E+00
         0.00000E+00
         0.00000E+00
         0.00000E+00
         0.00000E+00
         0.00000E+00
         0.00000E+00
         0.00000E+00
         0.00000E+00
         0.00000E+00
         0.00000E+00
         0.00000E+00
         0.00000E+00
         0.00000E+00
         0.00000E+00
         0.00000E+00
         0.00000E+00
         0.00000E+00
         0.00000E+00
         0.00000E+00
         0.00000E+00
         0.00000E+00
         0.00000E+00
         0.00000E+00
         0.00000E+00
         0.00000E+00
         0.00000E+00
         0.00000E+00
         0.00000E+00
         0.00000E+00
         0.00000E+00
         0.00000E+00
         0.00000E+00
         0.00000E+00
         0.00000E+00
         0.00000E+00
         0.00000E+00
         0.00000E+00
         0.00000E+00
         0.00000E+00
         0.00000E+00
         0.00000E+00
         0.00000E+00
         0.00000E+00
         0.00000E+00
         0.00000E+00
         0.00000E+00
         0.00000E+00
         0.00000E+00
         0.00000E+00
         0.00000E+00
         0.00000E+00
         0.00000E+00
         0.00000E+00
         0.00000E+00
         0.00000E+00
         0.00000E+00
         0.00000E+00
         0.00000E+00
         0.00000E+00
         0.00000E+00
         0.00000E+00
         0.00000E+00
         0.00000E+00
         0.00000E+00
         0.00000E+00
         0.00000E+00
         0.00000E+00
         0.00000E+00
         0.00000E+00
         0.00000E+00
         0.00000E+00
         0.00000E+00
         0.00000E+00
         0.00000E+00
         0.00000E+00
         0.00000E+00
         0.00000E+00
         0.00000E+00
         0.00000E+00
         0.00000E+00
         0.00000E+00
         0.00000E+00
         0.00000E+00
         0.00000E+00
         0.00000E+00
         0.00000E+00
         0.00000E+00
         0.00000E+00
         0.00000E+00
         0.00000E+00
         0.00000E+00
         0.00000E+00
         0.00000E+00
         0.00000E+00
         0.00000E+00
         0.00000E+00
         0.00000E+00
         0.00000E+00
         0.00000E+00
         0.00000E+00
         0.00000E+00
         0.00000E+00
         0.00000E+00
         0.00000E+00
         0.00000E+00
         0.00000E+00
         0.00000E+00
         0.00000E+00
         0.00000E+00
         0.00000E+00
         0.00000E+00
         0.00000E+00
         0.00000E+00
         0.00000E+00
         0.00000E+00
         0.00000E+00
         0.00000E+00
         0.00000E+00
         0.00000E+00
         0.00000E+00
         0.00000E+00
         0.00000E+00
         0.00000E+00
         0.00000E+00
         0.00000E+00
         0.00000E+00
         0.00000E+00
         0.00000E+00
         0.00000E+00
         0.00000E+00
         0.00000E+00
         0.00000E+00
         0.00000E+00
         0.00000E+00
         0.00000E+00
         0.00000E+00
         0.00000E+00
         0.00000E+00
         0.00000E+00
         0.00000E+00
         0.00000E+00
         0.00000E+00
         0.00000E+00
         0.00000E+00
         0.00000E+00
         0.00000E+00
         0.00000E+00
         0.00000E+00
         0.00000E+00
         0.00000E+00
         0.00000E+00
         0.00000E+00
         0.00000E+00
         0.00000E+00
         0.00000E+00
         0.00000E+00
         0.00000E+00
         0.00000E+00
         0.00000E+00
         0.00000E+00
         0.00000E+00
         0.00000E+00
         0.00000E+00
         0.00000E+00
         0.00000E+00
         0.00000E+00
         0.00000E+00
         0.00000E+00
         0.00000E+00
         0.00000E+00
         0.00000E+00
         0.00000E+00
         0.00000E+00
         0.00000E+00
         0.00000E+00
         0.00000E+00
         0.00000E+00
         0.00000E+00
         0.00000E+00
         0.00000E+00
         0.00000E+00
         0.00000E+00
         0.00000E+00
         0.00000E+00
         0.00000E+00
         0.00000E+00
         0.00000E+00
         0.00000E+00
         0.00000E+00
         0.00000E+00
         0.00000E+00
         0.00000E+00
         0.00000E+00
         0.00000E+00
         0.00000E+00
         0.00000E+00
         0.00000E+00
         0.00000E+00
         0.00000E+00
         0.00000E+00
         0.00000E+00
         0.00000E+00
         0.00000E+00
         0.00000E+00
         0.00000E+00
         0.00000E+00
         0.00000E+00
         0.00000E+00
         0.00000E+00
         0.00000E+00
         0.00000E+00
         0.00000E+00
         0.00000E+00
         0.00000E+00
         0.00000E+00
         0.00000E+00
         0.00000E+00
         0.00000E+00
         0.00000E+00
         0.00000E+00
         0.00000E+00
         0.00000E+00
         0.00000E+00
         0.00000E+00
         0.00000E+00
         0.00000E+00
         0.00000E+00
         0.00000E+00
         0.00000E+00
         0.00000E+00
         0.00000E+00
         0.00000E+00
         0.00000E+00
         0.00000E+00
         0.00000E+00
         0.00000E+00
         0.00000E+00
         0.00000E+00
         0.00000E+00
         0.00000E+00
         0.00000E+00
         0.00000E+00
         0.00000E+00
         0.00000E+00
         0.00000E+00
         0.00000E+00
         0.00000E+00
         0.00000E+00
         0.00000E+00
         0.00000E+00
         0.00000E+00
         0.00000E+00
         0.00000E+00
         0.00000E+00
         0.00000E+00
         0.00000E+00
         0.00000E+00
         0.00000E+00
         0.00000E+00
         0.00000E+00
         0.00000E+00
         0.00000E+00
         0.00000E+00
         0.00000E+00
         0.00000E+00
         0.00000E+00
         0.00000E+00
         0.00000E+00
         0.00000E+00
         0.00000E+00
         0.00000E+00
         0.00000E+00
         0.00000E+00
         0.00000E+00
         0.00000E+00
         0.00000E+00
         0.00000E+00
         0.00000E+00
         0.00000E+00
         0.00000E+00
         0.00000E+00
         0.00000E+00
         0.00000E+00
         0.00000E+00
         0.00000E+00
         0.00000E+00
         0.00000E+00
         0.00000E+00
         0.00000E+00
         0.00000E+00
         0.00000E+00
         0.00000E+00
         0.00000E+00
         0.00000E+00
         0.00000E+00
         0.00000E+00
         0.00000E+00
         0.00000E+00
         0.00000E+00
         0.00000E+00
         0.00000E+00
         0.00000E+00
         0.00000E+00
         0.00000E+00
         0.00000E+00
         0.00000E+00
         0.00000E+00
         0.00000E+00
         0.00000E+00
         0.00000E+00
         0.00000E+00
         0.00000E+00
         0.00000E+00
         0.00000E+00
         0.00000E+00
         0.00000E+00
         0.00000E+00
         0.00000E+00
         0.00000E+00
         0.00000E+00
         0.00000E+00
         0.00000E+00
         0.00000E+00
         0.00000E+00
         0.00000E+00
         0.00000E+00
         0.00000E+00
         0.00000E+00
         0.00000E+00
         0.00000E+00
         0.00000E+00
         0.00000E+00
         0.00000E+00
         0.00000E+00
         0.00000E+00
         0.00000E+00
         0.00000E+00
         0.00000E+00
         0.00000E+00
         0.00000E+00
         0.00000E+00
         0.00000E+00
         0.00000E+00
         0.00000E+00
         0.00000E+00
         0.00000E+00
         0.00000E+00
         0.00000E+00
         0.00000E+00
         0.00000E+00
         0.00000E+00
         0.00000E+00
         0.00000E+00
         0.00000E+00
         0.00000E+00
         0.00000E+00
         0.00000E+00
         0.00000E+00
         0.00000E+00
         0.00000E+00
         0.00000E+00
         0.00000E+00
         0.00000E+00
         0.00000E+00
         0.00000E+00
         0.00000E+00
         0.00000E+00
         0.00000E+00
         0.00000E+00
         0.00000E+00
         0.00000E+00
         0.00000E+00
         0.00000E+00
         0.00000E+00
         0.00000E+00
         0.00000E+00
         0.00000E+00
         0.00000E+00
         0.00000E+00
         0.00000E+00
         0.00000E+00
         0.00000E+00
         0.00000E+00
         0.00000E+00
         0.00000E+00
         0.00000E+00
         0.00000E+00
         0.00000E+00
         0.00000E+00
         0.00000E+00
         0.00000E+00
         0.00000E+00
         0.00000E+00
         0.00000E+00
         0.00000E+00
         0.00000E+00
         0.00000E+00
         0.00000E+00
         0.00000E+00
         0.00000E+00
         0.00000E+00
         0.00000E+00
         0.00000E+00
         0.00000E+00
         0.00000E+00
         0.00000E+00
         0.00000E+00
         0.00000E+00
         0.00000E+00
         0.00000E+00
         0.00000E+00
         0.00000E+00
         0.00000E+00
         0.00000E+00
         0.00000E+00
         0.00000E+00
         0.00000E+00
         0.00000E+00
         0.00000E+00
         0.00000E+00
         0.00000E+00
         0.00000E+00
         0.00000E+00
         0.00000E+00
         0.00000E+00
         0.00000E+00
         0.00000E+00
         0.00000E+00
         0.00000E+00
         0.00000E+00
         0.00000E+00
         0.00000E+00
         0.00000E+00
         0.00000E+00
         0.00000E+00
         0.00000E+00
         0.00000E+00
         0.00000E+00
         0.00000E+00
         0.00000E+00
         0.00000E+00
         0.00000E+00
         0.00000E+00
         0.00000E+00
         0.00000E+00
         0.00000E+00
         0.00000E+00
         0.00000E+00
         0.00000E+00
         0.00000E+00
         0.00000E+00
         0.00000E+00
         0.00000E+00
         0.00000E+00
         0.00000E+00
         0.00000E+00
         0.00000E+00
         0.00000E+00
         0.00000E+00
         0.00000E+00
         0.00000E+00
         0.00000E+00
         0.00000E+00
         0.00000E+00
         0.00000E+00
         0.00000E+00
         0.00000E+00
         0.00000E+00
         0.00000E+00
         0.00000E+00
         0.00000E+00
         0.00000E+00
         0.00000E+00
         0.00000E+00
         0.00000E+00
         0.00000E+00
         0.00000E+00
         0.00000E+00
         0.00000E+00
         0.00000E+00
         0.00000E+00
         0.00000E+00
         0.00000E+00
         0.00000E+00
         0.00000E+00
         0.00000E+00
         0.00000E+00
         0.00000E+00
         0.00000E+00
         0.00000E+00
         0.00000E+00
         0.00000E+00
         0.00000E+00
         0.00000E+00
         0.00000E+00
         0.00000E+00
         0.00000E+00
         0.00000E+00
         0.00000E+00
         0.00000E+00
         0.00000E+00
         0.00000E+00
         0.00000E+00
         0.00000E+00
         0.00000E+00
         0.00000E+00
         0.00000E+00
         0.00000E+00
         0.00000E+00
         0.00000E+00
         0.00000E+00
         0.00000E+00
         0.00000E+00
         0.00000E+00
         0.00000E+00
         0.00000E+00
         0.00000E+00
         0.00000E+00
         0.00000E+00
         0.00000E+00
         0.00000E+00
         0.00000E+00
         0.00000E+00
         0.00000E+00
         0.00000E+00
         0.00000E+00
         0.00000E+00
         0.00000E+00
         0.00000E+00
         0.00000E+00
         0.00000E+00
         0.00000E+00
         0.00000E+00
         0.00000E+00
         0.00000E+00
         0.00000E+00
         0.00000E+00
         0.00000E+00
         0.00000E+00
         0.00000E+00
         0.00000E+00
         0.00000E+00
         0.00000E+00
         0.00000E+00
         0.00000E+00
         0.00000E+00
         0.00000E+00
         0.00000E+00
         0.00000E+00
         0.00000E+00
         0.00000E+00
         0.00000E+00
         0.00000E+00
         0.00000E+00
         0.00000E+00
         0.00000E+00
         0.00000E+00
         0.00000E+00
         0.00000E+00
         0.00000E+00
         0.00000E+00
         0.00000E+00
         0.00000E+00
         0.00000E+00
         0.00000E+00
         0.00000E+00
         0.00000E+00
         0.00000E+00
         0.00000E+00
         0.00000E+00
         0.00000E+00
         0.00000E+00
         0.00000E+00
         0.00000E+00
         0.00000E+00
         0.00000E+00
         0.00000E+00
         0.00000E+00
         0.00000E+00
         0.00000E+00
         0.00000E+00
         0.00000E+00
         0.00000E+00
         0.00000E+00
         0.00000E+00
         0.00000E+00
         0.00000E+00
         0.00000E+00
         0.00000E+00
         0.00000E+00
         0.00000E+00
         0.00000E+00
         0.00000E+00
         0.00000E+00
         0.00000E+00
         0.00000E+00
         0.00000E+00
         0.00000E+00
         0.00000E+00
         0.00000E+00
         0.00000E+00
         0.00000E+00
         0.00000E+00
         0.00000E+00
         0.00000E+00
         0.00000E+00
         0.00000E+00
         0.00000E+00
         0.00000E+00
         0.00000E+00
         0.00000E+00
         0.00000E+00
         0.00000E+00
         0.00000E+00
         0.00000E+00
         0.00000E+00
         0.00000E+00
         0.00000E+00
         0.00000E+00
         0.00000E+00
         0.00000E+00
         0.00000E+00
         0.00000E+00
         0.00000E+00
         0.00000E+00
         0.00000E+00
         0.00000E+00
         0.00000E+00
         0.00000E+00
         0.00000E+00
         0.00000E+00
         0.00000E+00
         0.00000E+00
         0.00000E+00
         0.00000E+00
         0.00000E+00
         0.00000E+00
         0.00000E+00
         0.00000E+00
         0.00000E+00
         0.00000E+00
         0.00000E+00
         0.00000E+00
         0.00000E+00
         0.00000E+00
         0.00000E+00
         0.00000E+00
         0.00000E+00
         0.00000E+00
         0.00000E+00
         0.00000E+00
         0.00000E+00
         0.00000E+00
         0.00000E+00
         0.00000E+00
         0.00000E+00
         0.00000E+00
         0.00000E+00
         0.00000E+00
         0.00000E+00
         0.00000E+00
         0.00000E+00
         0.00000E+00
         0.00000E+00
         0.00000E+00
         0.00000E+00
         0.00000E+00
         0.00000E+00
         0.00000E+00
         0.00000E+00
         0.00000E+00
         0.00000E+00
         0.00000E+00
         0.00000E+00
         0.00000E+00
         0.00000E+00
         0.00000E+00
         0.00000E+00
         0.00000E+00
         0.00000E+00
         0.00000E+00
         0.00000E+00
         0.00000E+00
         0.00000E+00
         0.00000E+00
         0.00000E+00
         0.00000E+00
         0.00000E+00
         0.00000E+00
         0.00000E+00
         0.00000E+00
         0.00000E+00
         0.00000E+00
         0.00000E+00
         0.00000E+00
         0.00000E+00
         0.00000E+00
         0.00000E+00
         0.00000E+00
         0.00000E+00
         0.00000E+00
         0.00000E+00
         0.00000E+00
         0.00000E+00
         0.00000E+00
         0.00000E+00
         0.00000E+00
         0.00000E+00
         0.00000E+00
         0.00000E+00
         0.00000E+00
         0.00000E+00
         0.00000E+00
         0.00000E+00
         0.00000E+00
         0.00000E+00
         0.00000E+00
         0.00000E+00
         0.00000E+00
         0.00000E+00
         0.00000E+00
         0.00000E+00
         0.00000E+00
         0.00000E+00
         0.00000E+00
         0.00000E+00
         0.00000E+00
         0.00000E+00
         0.00000E+00
         0.00000E+00
         0.00000E+00
         0.00000E+00
         0.00000E+00
         0.00000E+00
         0.00000E+00
         0.00000E+00
         0.00000E+00
         0.00000E+00
         0.00000E+00
         0.00000E+00
         0.00000E+00
         0.00000E+00
         0.00000E+00
         0.00000E+00
         0.00000E+00
         0.00000E+00
         0.00000E+00
         0.00000E+00
         0.00000E+00
         0.00000E+00
         0.00000E+00
         0.00000E+00
         0.00000E+00
         0.00000E+00
         0.00000E+00
         0.00000E+00
         0.00000E+00
         0.00000E+00
         0.00000E+00
         0.00000E+00
         0.00000E+00
         0.00000E+00
         0.00000E+00
         0.00000E+00
         0.00000E+00
         0.00000E+00
         0.00000E+00
         0.00000E+00
         0.00000E+00
         0.00000E+00
         0.00000E+00
         0.00000E+00
         0.00000E+00
         0.00000E+00
         0.00000E+00
         0.00000E+00
         0.00000E+00
         0.00000E+00
         0.00000E+00
         0.00000E+00
         0.00000E+00
         0.00000E+00
         0.00000E+00
         0.00000E+00
         0.00000E+00
         0.00000E+00
         0.00000E+00
         0.00000E+00
         0.00000E+00
         0.00000E+00
         0.00000E+00
         0.00000E+00
         0.00000E+00
         0.00000E+00
         0.00000E+00
         0.00000E+00
         0.00000E+00
         0.00000E+00
         0.00000E+00
         0.00000E+00
         0.00000E+00
         0.00000E+00
         0.00000E+00
         0.00000E+00
         0.00000E+00
         0.00000E+00
         0.00000E+00
         0.00000E+00
         0.00000E+00
         0.00000E+00
         0.00000E+00
         0.00000E+00
         0.00000E+00
         0.00000E+00
         0.00000E+00
         0.00000E+00
         0.00000E+00
         0.00000E+00
         0.00000E+00
         0.00000E+00
         0.00000E+00
         0.00000E+00
         0.00000E+00
         0.00000E+00
         0.00000E+00
         0.00000E+00
         0.00000E+00
         0.00000E+00
         0.00000E+00
         0.00000E+00
         0.00000E+00
         0.00000E+00
         0.00000E+00
         0.00000E+00
         0.00000E+00
         0.00000E+00
         0.00000E+00
         0.00000E+00
         0.00000E+00
         0.00000E+00
         0.00000E+00
         0.00000E+00
         0.00000E+00
         0.00000E+00
         0.00000E+00
         0.00000E+00
         0.00000E+00
         0.00000E+00
         0.00000E+00
         0.00000E+00
         0.00000E+00
         0.00000E+00
         0.00000E+00
         0.00000E+00
         0.00000E+00
         0.00000E+00
         0.00000E+00
         0.00000E+00
         0.00000E+00
         0.00000E+00
         0.00000E+00
         0.00000E+00
         0.00000E+00
         0.00000E+00
         0.00000E+00
         0.00000E+00
         0.00000E+00
         0.00000E+00
         0.00000E+00
         0.00000E+00
         0.00000E+00
         0.00000E+00
         0.00000E+00
         0.00000E+00
         0.00000E+00
         0.00000E+00
         0.00000E+00
         0.00000E+00
         0.00000E+00
         0.00000E+00
         0.00000E+00
         0.00000E+00
         0.00000E+00
         0.00000E+00
         0.00000E+00
         0.00000E+00
         0.00000E+00
         0.00000E+00
         0.00000E+00
         0.00000E+00
         0.00000E+00
         0.00000E+00
         0.00000E+00
         0.00000E+00
         0.00000E+00
         0.00000E+00
         0.00000E+00
         0.00000E+00
         0.00000E+00
         0.00000E+00
         0.00000E+00
         0.00000E+00
         0.00000E+00
         0.00000E+00
         0.00000E+00
         0.00000E+00
         0.00000E+00
         0.00000E+00
         0.00000E+00
         0.00000E+00
         0.00000E+00
         0.00000E+00
         0.00000E+00
         0.00000E+00
         0.00000E+00
         0.00000E+00
         0.00000E+00
         0.00000E+00
         0.00000E+00
         0.00000E+00
         0.00000E+00
         0.00000E+00
         0.00000E+00
         0.00000E+00
         0.00000E+00
         0.00000E+00
         0.00000E+00
         0.00000E+00
         0.00000E+00
         0.00000E+00
         0.00000E+00
         0.00000E+00
         0.00000E+00
         0.00000E+00
         0.00000E+00
         0.00000E+00
         0.00000E+00
         0.00000E+00
         0.00000E+00
         0.00000E+00
         0.00000E+00
         0.00000E+00
         0.00000E+00
         0.00000E+00
         0.00000E+00
         0.00000E+00
         0.00000E+00
         0.00000E+00
         0.00000E+00
         0.00000E+00
         0.00000E+00
         0.00000E+00
         0.00000E+00
         0.00000E+00
         0.00000E+00
         0.00000E+00
         0.00000E+00
         0.00000E+00
         0.00000E+00
         0.00000E+00
         0.00000E+00
         0.00000E+00
         0.00000E+00
         0.00000E+00
         0.00000E+00
         0.00000E+00
         0.00000E+00
         0.00000E+00
         0.00000E+00
         0.00000E+00
         0.00000E+00
         0.00000E+00
         0.00000E+00
         0.00000E+00
         0.00000E+00
         0.00000E+00
         0.00000E+00
         0.00000E+00
         0.00000E+00
         0.00000E+00
         0.00000E+00
         0.00000E+00
         0.00000E+00
         0.00000E+00
         0.00000E+00
         0.00000E+00
         0.00000E+00
         0.00000E+00
         0.00000E+00
         0.00000E+00
         0.00000E+00
         0.00000E+00
         0.00000E+00
         0.00000E+00
         0.00000E+00
         0.00000E+00
         0.00000E+00
         0.00000E+00
         0.00000E+00
         0.00000E+00
         0.00000E+00
         0.00000E+00
         0.00000E+00
         0.00000E+00
         0.00000E+00
         0.00000E+00
         0.00000E+00
         0.00000E+00
         0.00000E+00
         0.00000E+00
         0.00000E+00
         0.00000E+00
         0.00000E+00
         0.00000E+00
         0.00000E+00
         0.00000E+00
         0.00000E+00
         0.00000E+00
         0.00000E+00
         0.00000E+00
         0.00000E+00
         0.00000E+00
         0.00000E+00
         0.00000E+00
         0.00000E+00
         0.00000E+00
         0.00000E+00
         0.00000E+00
         0.00000E+00
         0.00000E+00
         0.00000E+00
         0.00000E+00
         0.00000E+00
         0.00000E+00
         0.00000E+00
         0.00000E+00
         0.00000E+00
         0.00000E+00
         0.00000E+00
         0.00000E+00
         0.00000E+00
         0.00000E+00
         0.00000E+00
         0.00000E+00
         0.00000E+00
         0.00000E+00
         0.00000E+00
         0.00000E+00
         0.00000E+00
         0.00000E+00
         0.00000E+00
         0.00000E+00
         0.00000E+00
         0.00000E+00
         0.00000E+00
         0.00000E+00
         0.00000E+00
         0.00000E+00
         0.00000E+00
         0.00000E+00
         0.00000E+00
         0.00000E+00
         0.00000E+00
         0.00000E+00
         0.00000E+00
         0.00000E+00
         0.00000E+00
         0.00000E+00
         0.00000E+00
         0.00000E+00
         0.00000E+00
         0.00000E+00
         0.00000E+00
         0.00000E+00
         0.00000E+00
         0.00000E+00
         0.00000E+00
         0.00000E+00
         0.00000E+00
         0.00000E+00
         0.00000E+00
         0.00000E+00
         0.00000E+00
         0.00000E+00
         0.00000E+00
         0.00000E+00
         0.00000E+00
         0.00000E+00
         0.00000E+00
         0.00000E+00
         0.00000E+00
         0.00000E+00
         0.00000E+00
         0.00000E+00
         0.00000E+00
         0.00000E+00
         0.00000E+00
         0.00000E+00
         0.00000E+00
         0.00000E+00
         0.00000E+00
         0.00000E+00
         0.00000E+00
         0.00000E+00
         0.00000E+00
         0.00000E+00
         0.00000E+00
         0.00000E+00
         0.00000E+00
         0.00000E+00
         0.00000E+00
         0.00000E+00
         0.00000E+00
         0.00000E+00
         0.00000E+00
         0.00000E+00
         0.00000E+00
         0.00000E+00
         0.00000E+00
         0.00000E+00
         0.00000E+00
         0.00000E+00
         0.00000E+00
         0.00000E+00
         0.00000E+00
         0.00000E+00
         0.00000E+00
         0.00000E+00
         0.00000E+00
         0.00000E+00
         0.00000E+00
         0.00000E+00
         0.00000E+00
         0.00000E+00
         0.00000E+00
         0.00000E+00
         0.00000E+00
         0.00000E+00
  
SCALARS               pre_disp_force_z  double 1
LOOKUP_TABLE default
         0.00000E+00
         0.00000E+00
         0.00000E+00
         0.00000E+00
        -0.00000E+00
        -0.00000E+00
        -0.00000E+00
        -0.00000E+00
         0.00000E+00
         0.00000E+00
        -0.00000E+00
        -0.00000E+00
         0.00000E+00
         0.00000E+00
        -0.00000E+00
        -0.00000E+00
         0.00000E+00
         0.00000E+00
        -0.00000E+00
        -0.00000E+00
         0.00000E+00
         0.00000E+00
         0.00000E+00
        -0.00000E+00
        -0.00000E+00
        -0.00000E+00
         0.00000E+00
         0.00000E+00
        -0.00000E+00
        -0.00000E+00
         0.00000E+00
         0.00000E+00
         0.00000E+00
        -0.00000E+00
        -0.00000E+00
        -0.00000E+00
         0.00000E+00
         0.00000E+00
        -0.00000E+00
        -0.00000E+00
         0.00000E+00
         0.00000E+00
        -0.00000E+00
        -0.00000E+00
         0.00000E+00
         0.00000E+00
        -0.00000E+00
        -0.00000E+00
         0.00000E+00
        -0.00000E+00
         0.00000E+00
        -0.00000E+00
         0.00000E+00
        -0.00000E+00
         0.00000E+00
        -0.00000E+00
         0.00000E+00
         0.00000E+00
        -0.00000E+00
        -0.00000E+00
         0.00000E+00
         0.00000E+00
        -0.00000E+00
        -0.00000E+00
         0.00000E+00
        -0.00000E+00
         0.00000E+00
        -0.00000E+00
         0.00000E+00
         0.00000E+00
        -0.00000E+00
        -0.00000E+00
         0.00000E+00
        -0.00000E+00
         0.00000E+00
        -0.00000E+00
         0.00000E+00
        -0.00000E+00
         0.00000E+00
        -0.00000E+00
         0.00000E+00
         0.00000E+00
        -0.00000E+00
        -0.00000E+00
         0.00000E+00
        -0.00000E+00
         0.00000E+00
        -0.00000E+00
         0.00000E+00
        -0.00000E+00
         0.00000E+00
         0.00000E+00
        -0.00000E+00
        -0.00000E+00
         0.00000E+00
        -0.00000E+00
         0.00000E+00
        -0.00000E+00
         0.00000E+00
        -0.00000E+00
         0.00000E+00
         0.00000E+00
        -0.00000E+00
        -0.00000E+00
         0.00000E+00
         0.00000E+00
        -0.00000E+00
        -0.00000E+00
         0.00000E+00
        -0.00000E+00
         0.00000E+00
        -0.00000E+00
         0.00000E+00
        -0.00000E+00
         0.00000E+00
        -0.00000E+00
         0.00000E+00
        -0.00000E+00
         0.00000E+00
        -0.00000E+00
         0.00000E+00
        -0.00000E+00
         0.00000E+00
        -0.00000E+00
         0.00000E+00
        -0.00000E+00
         0.00000E+00
        -0.00000E+00
         0.00000E+00
        -0.00000E+00
         0.00000E+00
        -0.00000E+00
         0.00000E+00
        -0.00000E+00
         0.00000E+00
        -0.00000E+00
         0.00000E+00
        -0.00000E+00
         0.00000E+00
        -0.00000E+00
         0.00000E+00
        -0.00000E+00
         0.00000E+00
        -0.00000E+00
         0.00000E+00
        -0.00000E+00
         0.00000E+00
        -0.00000E+00
         0.00000E+00
        -0.00000E+00
         0.00000E+00
        -0.00000E+00
         0.00000E+00
        -0.00000E+00
         0.00000E+00
        -0.00000E+00
         0.00000E+00
         0.00000E+00
         0.00000E+00
         0.00000E+00
         0.00000E+00
         0.00000E+00
         0.00000E+00
         0.00000E+00
         0.00000E+00
         0.00000E+00
         0.00000E+00
         0.00000E+00
         0.00000E+00
         0.00000E+00
         0.00000E+00
         0.00000E+00
         0.00000E+00
         0.00000E+00
         0.00000E+00
         0.00000E+00
         0.00000E+00
         0.00000E+00
         0.00000E+00
         0.00000E+00
         0.00000E+00
         0.00000E+00
         0.00000E+00
         0.00000E+00
         0.00000E+00
         0.00000E+00
         0.00000E+00
         0.00000E+00
         0.00000E+00
         0.00000E+00
         0.00000E+00
         0.00000E+00
         0.00000E+00
         0.00000E+00
         0.00000E+00
         0.00000E+00
         0.00000E+00
         0.00000E+00
         0.00000E+00
         0.00000E+00
         0.00000E+00
         0.00000E+00
         0.00000E+00
         0.00000E+00
         0.00000E+00
         0.00000E+00
         0.00000E+00
         0.00000E+00
         0.00000E+00
         0.00000E+00
         0.00000E+00
         0.00000E+00
         0.00000E+00
         0.00000E+00
         0.00000E+00
         0.00000E+00
         0.00000E+00
         0.00000E+00
         0.00000E+00
         0.00000E+00
         0.00000E+00
         0.00000E+00
         0.00000E+00
         0.00000E+00
         0.00000E+00
         0.00000E+00
         0.00000E+00
         0.00000E+00
         0.00000E+00
         0.00000E+00
         0.00000E+00
         0.00000E+00
         0.00000E+00
         0.00000E+00
         0.00000E+00
         0.00000E+00
         0.00000E+00
         0.00000E+00
         0.00000E+00
         0.00000E+00
         0.00000E+00
         0.00000E+00
         0.00000E+00
         0.00000E+00
         0.00000E+00
         0.00000E+00
         0.00000E+00
         0.00000E+00
         0.00000E+00
         0.00000E+00
         0.00000E+00
         0.00000E+00
         0.00000E+00
         0.00000E+00
         0.00000E+00
         0.00000E+00
         0.00000E+00
         0.00000E+00
         0.00000E+00
         0.00000E+00
         0.00000E+00
         0.00000E+00
         0.00000E+00
         0.00000E+00
         0.00000E+00
         0.00000E+00
         0.00000E+00
         0.00000E+00
         0.00000E+00
         0.00000E+00
         0.00000E+00
         0.00000E+00
         0.00000E+00
         0.00000E+00
         0.00000E+00
         0.00000E+00
         0.00000E+00
         0.00000E+00
         0.00000E+00
         0.00000E+00
         0.00000E+00
         0.00000E+00
         0.00000E+00
         0.00000E+00
         0.00000E+00
         0.00000E+00
         0.00000E+00
         0.00000E+00
         0.00000E+00
         0.00000E+00
         0.00000E+00
         0.00000E+00
         0.00000E+00
         0.00000E+00
         0.00000E+00
         0.00000E+00
         0.00000E+00
         0.00000E+00
         0.00000E+00
         0.00000E+00
         0.00000E+00
         0.00000E+00
         0.00000E+00
         0.00000E+00
         0.00000E+00
         0.00000E+00
         0.00000E+00
         0.00000E+00
         0.00000E+00
         0.00000E+00
         0.00000E+00
         0.00000E+00
         0.00000E+00
         0.00000E+00
         0.00000E+00
         0.00000E+00
         0.00000E+00
         0.00000E+00
         0.00000E+00
         0.00000E+00
         0.00000E+00
         0.00000E+00
         0.00000E+00
         0.00000E+00
         0.00000E+00
         0.00000E+00
         0.00000E+00
         0.00000E+00
         0.00000E+00
         0.00000E+00
         0.00000E+00
         0.00000E+00
         0.00000E+00
         0.00000E+00
         0.00000E+00
         0.00000E+00
         0.00000E+00
         0.00000E+00
         0.00000E+00
         0.00000E+00
         0.00000E+00
         0.00000E+00
         0.00000E+00
         0.00000E+00
         0.00000E+00
         0.00000E+00
         0.00000E+00
         0.00000E+00
         0.00000E+00
         0.00000E+00
         0.00000E+00
         0.00000E+00
         0.00000E+00
         0.00000E+00
         0.00000E+00
         0.00000E+00
         0.00000E+00
         0.00000E+00
         0.00000E+00
         0.00000E+00
         0.00000E+00
         0.00000E+00
         0.00000E+00
         0.00000E+00
         0.00000E+00
         0.00000E+00
         0.00000E+00
         0.00000E+00
         0.00000E+00
         0.00000E+00
         0.00000E+00
         0.00000E+00
         0.00000E+00
         0.00000E+00
         0.00000E+00
         0.00000E+00
         0.00000E+00
         0.00000E+00
         0.00000E+00
         0.00000E+00
         0.00000E+00
         0.00000E+00
         0.00000E+00
         0.00000E+00
         0.00000E+00
         0.00000E+00
         0.00000E+00
         0.00000E+00
         0.00000E+00
         0.00000E+00
         0.00000E+00
         0.00000E+00
         0.00000E+00
         0.00000E+00
         0.00000E+00
         0.00000E+00
         0.00000E+00
         0.00000E+00
         0.00000E+00
         0.00000E+00
         0.00000E+00
         0.00000E+00
         0.00000E+00
         0.00000E+00
         0.00000E+00
         0.00000E+00
         0.00000E+00
         0.00000E+00
         0.00000E+00
         0.00000E+00
         0.00000E+00
         0.00000E+00
         0.00000E+00
         0.00000E+00
         0.00000E+00
         0.00000E+00
         0.00000E+00
         0.00000E+00
         0.00000E+00
         0.00000E+00
         0.00000E+00
         0.00000E+00
         0.00000E+00
         0.00000E+00
         0.00000E+00
         0.00000E+00
         0.00000E+00
         0.00000E+00
         0.00000E+00
         0.00000E+00
         0.00000E+00
         0.00000E+00
         0.00000E+00
         0.00000E+00
         0.00000E+00
         0.00000E+00
         0.00000E+00
         0.00000E+00
         0.00000E+00
         0.00000E+00
         0.00000E+00
         0.00000E+00
         0.00000E+00
         0.00000E+00
         0.00000E+00
         0.00000E+00
         0.00000E+00
         0.00000E+00
         0.00000E+00
         0.00000E+00
         0.00000E+00
         0.00000E+00
         0.00000E+00
         0.00000E+00
         0.00000E+00
         0.00000E+00
         0.00000E+00
         0.00000E+00
         0.00000E+00
         0.00000E+00
         0.00000E+00
         0.00000E+00
         0.00000E+00
         0.00000E+00
         0.00000E+00
         0.00000E+00
         0.00000E+00
         0.00000E+00
         0.00000E+00
         0.00000E+00
         0.00000E+00
         0.00000E+00
         0.00000E+00
         0.00000E+00
         0.00000E+00
         0.00000E+00
         0.00000E+00
         0.00000E+00
         0.00000E+00
         0.00000E+00
         0.00000E+00
         0.00000E+00
         0.00000E+00
         0.00000E+00
         0.00000E+00
         0.00000E+00
         0.00000E+00
         0.00000E+00
         0.00000E+00
         0.00000E+00
         0.00000E+00
         0.00000E+00
         0.00000E+00
         0.00000E+00
         0.00000E+00
         0.00000E+00
         0.00000E+00
         0.00000E+00
         0.00000E+00
         0.00000E+00
         0.00000E+00
         0.00000E+00
         0.00000E+00
         0.00000E+00
         0.00000E+00
         0.00000E+00
         0.00000E+00
         0.00000E+00
         0.00000E+00
         0.00000E+00
         0.00000E+00
         0.00000E+00
         0.00000E+00
         0.00000E+00
         0.00000E+00
         0.00000E+00
         0.00000E+00
         0.00000E+00
         0.00000E+00
         0.00000E+00
         0.00000E+00
         0.00000E+00
         0.00000E+00
         0.00000E+00
         0.00000E+00
         0.00000E+00
         0.00000E+00
         0.00000E+00
         0.00000E+00
         0.00000E+00
         0.00000E+00
         0.00000E+00
         0.00000E+00
         0.00000E+00
         0.00000E+00
         0.00000E+00
         0.00000E+00
         0.00000E+00
         0.00000E+00
         0.00000E+00
         0.00000E+00
         0.00000E+00
         0.00000E+00
         0.00000E+00
         0.00000E+00
         0.00000E+00
         0.00000E+00
         0.00000E+00
         0.00000E+00
         0.00000E+00
         0.00000E+00
         0.00000E+00
         0.00000E+00
         0.00000E+00
         0.00000E+00
         0.00000E+00
         0.00000E+00
         0.00000E+00
         0.00000E+00
         0.00000E+00
         0.00000E+00
         0.00000E+00
         0.00000E+00
         0.00000E+00
         0.00000E+00
         0.00000E+00
         0.00000E+00
         0.00000E+00
         0.00000E+00
         0.00000E+00
         0.00000E+00
         0.00000E+00
         0.00000E+00
         0.00000E+00
         0.00000E+00
         0.00000E+00
         0.00000E+00
         0.00000E+00
         0.00000E+00
         0.00000E+00
         0.00000E+00
         0.00000E+00
         0.00000E+00
         0.00000E+00
         0.00000E+00
         0.00000E+00
         0.00000E+00
         0.00000E+00
         0.00000E+00
         0.00000E+00
         0.00000E+00
         0.00000E+00
         0.00000E+00
         0.00000E+00
         0.00000E+00
         0.00000E+00
         0.00000E+00
         0.00000E+00
         0.00000E+00
         0.00000E+00
         0.00000E+00
         0.00000E+00
         0.00000E+00
         0.00000E+00
         0.00000E+00
         0.00000E+00
         0.00000E+00
         0.00000E+00
         0.00000E+00
         0.00000E+00
         0.00000E+00
         0.00000E+00
         0.00000E+00
         0.00000E+00
         0.00000E+00
         0.00000E+00
         0.00000E+00
         0.00000E+00
         0.00000E+00
         0.00000E+00
         0.00000E+00
         0.00000E+00
         0.00000E+00
         0.00000E+00
         0.00000E+00
         0.00000E+00
         0.00000E+00
         0.00000E+00
         0.00000E+00
         0.00000E+00
         0.00000E+00
         0.00000E+00
         0.00000E+00
         0.00000E+00
         0.00000E+00
         0.00000E+00
         0.00000E+00
         0.00000E+00
         0.00000E+00
         0.00000E+00
         0.00000E+00
         0.00000E+00
         0.00000E+00
         0.00000E+00
         0.00000E+00
         0.00000E+00
         0.00000E+00
         0.00000E+00
         0.00000E+00
         0.00000E+00
         0.00000E+00
         0.00000E+00
         0.00000E+00
         0.00000E+00
         0.00000E+00
         0.00000E+00
         0.00000E+00
         0.00000E+00
         0.00000E+00
         0.00000E+00
         0.00000E+00
         0.00000E+00
         0.00000E+00
         0.00000E+00
         0.00000E+00
         0.00000E+00
         0.00000E+00
         0.00000E+00
         0.00000E+00
         0.00000E+00
         0.00000E+00
         0.00000E+00
         0.00000E+00
         0.00000E+00
         0.00000E+00
         0.00000E+00
         0.00000E+00
         0.00000E+00
         0.00000E+00
         0.00000E+00
         0.00000E+00
         0.00000E+00
         0.00000E+00
         0.00000E+00
         0.00000E+00
         0.00000E+00
         0.00000E+00
         0.00000E+00
         0.00000E+00
         0.00000E+00
         0.00000E+00
         0.00000E+00
         0.00000E+00
         0.00000E+00
         0.00000E+00
         0.00000E+00
         0.00000E+00
         0.00000E+00
         0.00000E+00
         0.00000E+00
         0.00000E+00
         0.00000E+00
         0.00000E+00
         0.00000E+00
         0.00000E+00
         0.00000E+00
         0.00000E+00
         0.00000E+00
         0.00000E+00
         0.00000E+00
         0.00000E+00
         0.00000E+00
         0.00000E+00
         0.00000E+00
         0.00000E+00
         0.00000E+00
         0.00000E+00
         0.00000E+00
         0.00000E+00
         0.00000E+00
         0.00000E+00
         0.00000E+00
         0.00000E+00
         0.00000E+00
         0.00000E+00
         0.00000E+00
         0.00000E+00
         0.00000E+00
         0.00000E+00
         0.00000E+00
         0.00000E+00
         0.00000E+00
         0.00000E+00
         0.00000E+00
         0.00000E+00
         0.00000E+00
         0.00000E+00
         0.00000E+00
         0.00000E+00
         0.00000E+00
         0.00000E+00
         0.00000E+00
         0.00000E+00
         0.00000E+00
         0.00000E+00
         0.00000E+00
         0.00000E+00
         0.00000E+00
         0.00000E+00
         0.00000E+00
         0.00000E+00
         0.00000E+00
         0.00000E+00
         0.00000E+00
         0.00000E+00
         0.00000E+00
         0.00000E+00
         0.00000E+00
         0.00000E+00
         0.00000E+00
         0.00000E+00
         0.00000E+00
         0.00000E+00
         0.00000E+00
         0.00000E+00
         0.00000E+00
         0.00000E+00
         0.00000E+00
         0.00000E+00
         0.00000E+00
         0.00000E+00
         0.00000E+00
         0.00000E+00
         0.00000E+00
         0.00000E+00
         0.00000E+00
         0.00000E+00
         0.00000E+00
         0.00000E+00
         0.00000E+00
         0.00000E+00
         0.00000E+00
         0.00000E+00
         0.00000E+00
         0.00000E+00
         0.00000E+00
         0.00000E+00
         0.00000E+00
         0.00000E+00
         0.00000E+00
         0.00000E+00
         0.00000E+00
         0.00000E+00
         0.00000E+00
         0.00000E+00
         0.00000E+00
         0.00000E+00
         0.00000E+00
         0.00000E+00
         0.00000E+00
         0.00000E+00
         0.00000E+00
         0.00000E+00
         0.00000E+00
         0.00000E+00
         0.00000E+00
         0.00000E+00
         0.00000E+00
         0.00000E+00
         0.00000E+00
         0.00000E+00
         0.00000E+00
         0.00000E+00
         0.00000E+00
         0.00000E+00
         0.00000E+00
         0.00000E+00
         0.00000E+00
         0.00000E+00
         0.00000E+00
         0.00000E+00
         0.00000E+00
         0.00000E+00
         0.00000E+00
         0.00000E+00
         0.00000E+00
         0.00000E+00
         0.00000E+00
         0.00000E+00
         0.00000E+00
         0.00000E+00
         0.00000E+00
         0.00000E+00
         0.00000E+00
         0.00000E+00
         0.00000E+00
         0.00000E+00
         0.00000E+00
         0.00000E+00
         0.00000E+00
         0.00000E+00
         0.00000E+00
         0.00000E+00
         0.00000E+00
         0.00000E+00
         0.00000E+00
         0.00000E+00
         0.00000E+00
         0.00000E+00
         0.00000E+00
         0.00000E+00
         0.00000E+00
         0.00000E+00
         0.00000E+00
         0.00000E+00
         0.00000E+00
         0.00000E+00
         0.00000E+00
         0.00000E+00
         0.00000E+00
         0.00000E+00
         0.00000E+00
         0.00000E+00
         0.00000E+00
         0.00000E+00
         0.00000E+00
         0.00000E+00
         0.00000E+00
         0.00000E+00
         0.00000E+00
         0.00000E+00
         0.00000E+00
         0.00000E+00
         0.00000E+00
         0.00000E+00
         0.00000E+00
         0.00000E+00
         0.00000E+00
         0.00000E+00
         0.00000E+00
         0.00000E+00
         0.00000E+00
         0.00000E+00
         0.00000E+00
         0.00000E+00
         0.00000E+00
         0.00000E+00
         0.00000E+00
         0.00000E+00
         0.00000E+00
         0.00000E+00
         0.00000E+00
         0.00000E+00
         0.00000E+00
         0.00000E+00
         0.00000E+00
         0.00000E+00
         0.00000E+00
         0.00000E+00
         0.00000E+00
         0.00000E+00
         0.00000E+00
         0.00000E+00
         0.00000E+00
         0.00000E+00
         0.00000E+00
         0.00000E+00
         0.00000E+00
         0.00000E+00
         0.00000E+00
         0.00000E+00
         0.00000E+00
         0.00000E+00
         0.00000E+00
         0.00000E+00
         0.00000E+00
         0.00000E+00
         0.00000E+00
         0.00000E+00
         0.00000E+00
         0.00000E+00
         0.00000E+00
         0.00000E+00
         0.00000E+00
         0.00000E+00
         0.00000E+00
         0.00000E+00
         0.00000E+00
         0.00000E+00
         0.00000E+00
         0.00000E+00
         0.00000E+00
         0.00000E+00
         0.00000E+00
         0.00000E+00
         0.00000E+00
         0.00000E+00
         0.00000E+00
         0.00000E+00
         0.00000E+00
         0.00000E+00
         0.00000E+00
         0.00000E+00
         0.00000E+00
         0.00000E+00
         0.00000E+00
         0.00000E+00
         0.00000E+00
         0.00000E+00
         0.00000E+00
         0.00000E+00
         0.00000E+00
         0.00000E+00
         0.00000E+00
         0.00000E+00
         0.00000E+00
         0.00000E+00
         0.00000E+00
         0.00000E+00
         0.00000E+00
         0.00000E+00
         0.00000E+00
         0.00000E+00
         0.00000E+00
         0.00000E+00
         0.00000E+00
         0.00000E+00
         0.00000E+00
         0.00000E+00
         0.00000E+00
         0.00000E+00
         0.00000E+00
         0.00000E+00
         0.00000E+00
         0.00000E+00
         0.00000E+00
         0.00000E+00
         0.00000E+00
         0.00000E+00
         0.00000E+00
         0.00000E+00
         0.00000E+00
         0.00000E+00
         0.00000E+00
         0.00000E+00
         0.00000E+00
         0.00000E+00
         0.00000E+00
         0.00000E+00
         0.00000E+00
         0.00000E+00
         0.00000E+00
         0.00000E+00
         0.00000E+00
         0.00000E+00
         0.00000E+00
         0.00000E+00
         0.00000E+00
         0.00000E+00
         0.00000E+00
         0.00000E+00
         0.00000E+00
         0.00000E+00
         0.00000E+00
         0.00000E+00
         0.00000E+00
         0.00000E+00
         0.00000E+00
         0.00000E+00
         0.00000E+00
         0.00000E+00
         0.00000E+00
         0.00000E+00
         0.00000E+00
         0.00000E+00
         0.00000E+00
         0.00000E+00
         0.00000E+00
         0.00000E+00
         0.00000E+00
         0.00000E+00
         0.00000E+00
         0.00000E+00
         0.00000E+00
         0.00000E+00
         0.00000E+00
         0.00000E+00
         0.00000E+00
         0.00000E+00
         0.00000E+00
         0.00000E+00
         0.00000E+00
         0.00000E+00
         0.00000E+00
         0.00000E+00
         0.00000E+00
         0.00000E+00
         0.00000E+00
         0.00000E+00
         0.00000E+00
         0.00000E+00
         0.00000E+00
         0.00000E+00
         0.00000E+00
         0.00000E+00
         0.00000E+00
         0.00000E+00
         0.00000E+00
         0.00000E+00
         0.00000E+00
         0.00000E+00
         0.00000E+00
         0.00000E+00
         0.00000E+00
         0.00000E+00
         0.00000E+00
         0.00000E+00
         0.00000E+00
         0.00000E+00
         0.00000E+00
         0.00000E+00
         0.00000E+00
         0.00000E+00
         0.00000E+00
         0.00000E+00
         0.00000E+00
         0.00000E+00
         0.00000E+00
         0.00000E+00
         0.00000E+00
         0.00000E+00
         0.00000E+00
         0.00000E+00
         0.00000E+00
         0.00000E+00
         0.00000E+00
         0.00000E+00
         0.00000E+00
         0.00000E+00
         0.00000E+00
         0.00000E+00
         0.00000E+00
         0.00000E+00
         0.00000E+00
         0.00000E+00
         0.00000E+00
         0.00000E+00
         0.00000E+00
         0.00000E+00
         0.00000E+00
         0.00000E+00
         0.00000E+00
         0.00000E+00
         0.00000E+00
         0.00000E+00
         0.00000E+00
         0.00000E+00
         0.00000E+00
         0.00000E+00
         0.00000E+00
         0.00000E+00
         0.00000E+00
         0.00000E+00
         0.00000E+00
         0.00000E+00
         0.00000E+00
         0.00000E+00
         0.00000E+00
         0.00000E+00
         0.00000E+00
         0.00000E+00
         0.00000E+00
         0.00000E+00
         0.00000E+00
         0.00000E+00
         0.00000E+00
         0.00000E+00
         0.00000E+00
         0.00000E+00
         0.00000E+00
         0.00000E+00
         0.00000E+00
         0.00000E+00
         0.00000E+00
         0.00000E+00
         0.00000E+00
         0.00000E+00
         0.00000E+00
         0.00000E+00
         0.00000E+00
         0.00000E+00
         0.00000E+00
         0.00000E+00
         0.00000E+00
         0.00000E+00
         0.00000E+00
         0.00000E+00
         0.00000E+00
         0.00000E+00
         0.00000E+00
         0.00000E+00
         0.00000E+00
         0.00000E+00
         0.00000E+00
         0.00000E+00
         0.00000E+00
         0.00000E+00
         0.00000E+00
         0.00000E+00
         0.00000E+00
         0.00000E+00
         0.00000E+00
         0.00000E+00
         0.00000E+00
         0.00000E+00
         0.00000E+00
         0.00000E+00
         0.00000E+00
         0.00000E+00
         0.00000E+00
         0.00000E+00
         0.00000E+00
         0.00000E+00
         0.00000E+00
         0.00000E+00
         0.00000E+00
         0.00000E+00
         0.00000E+00
         0.00000E+00
         0.00000E+00
         0.00000E+00
         0.00000E+00
         0.00000E+00
         0.00000E+00
         0.00000E+00
         0.00000E+00
         0.00000E+00
         0.00000E+00
         0.00000E+00
         0.00000E+00
         0.00000E+00
         0.00000E+00
         0.00000E+00
         0.00000E+00
         0.00000E+00
         0.00000E+00
         0.00000E+00
         0.00000E+00
         0.00000E+00
         0.00000E+00
         0.00000E+00
         0.00000E+00
         0.00000E+00
         0.00000E+00
         0.00000E+00
         0.00000E+00
         0.00000E+00
         0.00000E+00
         0.00000E+00
         0.00000E+00
         0.00000E+00
         0.00000E+00
         0.00000E+00
         0.00000E+00
         0.00000E+00
         0.00000E+00
         0.00000E+00
         0.00000E+00
         0.00000E+00
         0.00000E+00
         0.00000E+00
         0.00000E+00
         0.00000E+00
         0.00000E+00
         0.00000E+00
         0.00000E+00
         0.00000E+00
         0.00000E+00
         0.00000E+00
         0.00000E+00
         0.00000E+00
         0.00000E+00
         0.00000E+00
         0.00000E+00
         0.00000E+00
         0.00000E+00
         0.00000E+00
         0.00000E+00
         0.00000E+00
         0.00000E+00
         0.00000E+00
         0.00000E+00
         0.00000E+00
         0.00000E+00
         0.00000E+00
         0.00000E+00
         0.00000E+00
         0.00000E+00
         0.00000E+00
         0.00000E+00
         0.00000E+00
         0.00000E+00
         0.00000E+00
         0.00000E+00
         0.00000E+00
         0.00000E+00
         0.00000E+00
         0.00000E+00
         0.00000E+00
         0.00000E+00
         0.00000E+00
         0.00000E+00
         0.00000E+00
         0.00000E+00
         0.00000E+00
         0.00000E+00
         0.00000E+00
         0.00000E+00
         0.00000E+00
         0.00000E+00
         0.00000E+00
         0.00000E+00
         0.00000E+00
         0.00000E+00
         0.00000E+00
         0.00000E+00
         0.00000E+00
         0.00000E+00
         0.00000E+00
         0.00000E+00
         0.00000E+00
         0.00000E+00
         0.00000E+00
         0.00000E+00
         0.00000E+00
         0.00000E+00
         0.00000E+00
         0.00000E+00
         0.00000E+00
         0.00000E+00
         0.00000E+00
         0.00000E+00
         0.00000E+00
         0.00000E+00
         0.00000E+00
         0.00000E+00
         0.00000E+00
         0.00000E+00
         0.00000E+00
         0.00000E+00
         0.00000E+00
         0.00000E+00
         0.00000E+00
         0.00000E+00
         0.00000E+00
         0.00000E+00
         0.00000E+00
         0.00000E+00
         0.00000E+00
         0.00000E+00
         0.00000E+00
         0.00000E+00
         0.00000E+00
         0.00000E+00
         0.00000E+00
         0.00000E+00
         0.00000E+00
         0.00000E+00
         0.00000E+00
         0.00000E+00
         0.00000E+00
         0.00000E+00
         0.00000E+00
         0.00000E+00
         0.00000E+00
         0.00000E+00
         0.00000E+00
         0.00000E+00
         0.00000E+00
         0.00000E+00
         0.00000E+00
         0.00000E+00
         0.00000E+00
         0.00000E+00
         0.00000E+00
         0.00000E+00
         0.00000E+00
         0.00000E+00
         0.00000E+00
         0.00000E+00
         0.00000E+00
         0.00000E+00
         0.00000E+00
         0.00000E+00
         0.00000E+00
         0.00000E+00
         0.00000E+00
         0.00000E+00
         0.00000E+00
         0.00000E+00
         0.00000E+00
         0.00000E+00
         0.00000E+00
         0.00000E+00
         0.00000E+00
         0.00000E+00
         0.00000E+00
         0.00000E+00
         0.00000E+00
         0.00000E+00
         0.00000E+00
         0.00000E+00
         0.00000E+00
         0.00000E+00
         0.00000E+00
         0.00000E+00
         0.00000E+00
         0.00000E+00
         0.00000E+00
         0.00000E+00
         0.00000E+00
         0.00000E+00
         0.00000E+00
         0.00000E+00
         0.00000E+00
         0.00000E+00
         0.00000E+00
         0.00000E+00
         0.00000E+00
         0.00000E+00
         0.00000E+00
         0.00000E+00
         0.00000E+00
         0.00000E+00
         0.00000E+00
         0.00000E+00
         0.00000E+00
         0.00000E+00
         0.00000E+00
         0.00000E+00
         0.00000E+00
         0.00000E+00
         0.00000E+00
         0.00000E+00
         0.00000E+00
         0.00000E+00
         0.00000E+00
         0.00000E+00
         0.00000E+00
         0.00000E+00
         0.00000E+00
         0.00000E+00
         0.00000E+00
         0.00000E+00
         0.00000E+00
         0.00000E+00
         0.00000E+00
         0.00000E+00
         0.00000E+00
         0.00000E+00
         0.00000E+00
         0.00000E+00
         0.00000E+00
         0.00000E+00
         0.00000E+00
         0.00000E+00
         0.00000E+00
         0.00000E+00
         0.00000E+00
         0.00000E+00
         0.00000E+00
         0.00000E+00
         0.00000E+00
         0.00000E+00
         0.00000E+00
         0.00000E+00
         0.00000E+00
         0.00000E+00
         0.00000E+00
         0.00000E+00
         0.00000E+00
         0.00000E+00
         0.00000E+00
         0.00000E+00
         0.00000E+00
         0.00000E+00
         0.00000E+00
         0.00000E+00
         0.00000E+00
         0.00000E+00
         0.00000E+00
         0.00000E+00
         0.00000E+00
         0.00000E+00
         0.00000E+00
         0.00000E+00
         0.00000E+00
         0.00000E+00
         0.00000E+00
         0.00000E+00
         0.00000E+00
         0.00000E+00
         0.00000E+00
         0.00000E+00
         0.00000E+00
         0.00000E+00
         0.00000E+00
         0.00000E+00
         0.00000E+00
         0.00000E+00
         0.00000E+00
         0.00000E+00
         0.00000E+00
         0.00000E+00
         0.00000E+00
         0.00000E+00
         0.00000E+00
         0.00000E+00
         0.00000E+00
         0.00000E+00
         0.00000E+00
         0.00000E+00
         0.00000E+00
         0.00000E+00
         0.00000E+00
         0.00000E+00
         0.00000E+00
         0.00000E+00
         0.00000E+00
         0.00000E+00
         0.00000E+00
         0.00000E+00
         0.00000E+00
         0.00000E+00
         0.00000E+00
         0.00000E+00
         0.00000E+00
         0.00000E+00
         0.00000E+00
         0.00000E+00
         0.00000E+00
         0.00000E+00
         0.00000E+00
         0.00000E+00
         0.00000E+00
         0.00000E+00
         0.00000E+00
         0.00000E+00
         0.00000E+00
         0.00000E+00
         0.00000E+00
         0.00000E+00
         0.00000E+00
         0.00000E+00
         0.00000E+00
         0.00000E+00
         0.00000E+00
         0.00000E+00
         0.00000E+00
         0.00000E+00
         0.00000E+00
         0.00000E+00
         0.00000E+00
         0.00000E+00
         0.00000E+00
         0.00000E+00
         0.00000E+00
         0.00000E+00
         0.00000E+00
         0.00000E+00
         0.00000E+00
         0.00000E+00
         0.00000E+00
         0.00000E+00
         0.00000E+00
         0.00000E+00
         0.00000E+00
         0.00000E+00
         0.00000E+00
         0.00000E+00
         0.00000E+00
         0.00000E+00
         0.00000E+00
         0.00000E+00
         0.00000E+00
         0.00000E+00
         0.00000E+00
         0.00000E+00
         0.00000E+00
         0.00000E+00
         0.00000E+00
         0.00000E+00
         0.00000E+00
         0.00000E+00
         0.00000E+00
         0.00000E+00
         0.00000E+00
         0.00000E+00
         0.00000E+00
         0.00000E+00
         0.00000E+00
         0.00000E+00
         0.00000E+00
         0.00000E+00
         0.00000E+00
         0.00000E+00
         0.00000E+00
         0.00000E+00
         0.00000E+00
         0.00000E+00
         0.00000E+00
         0.00000E+00
         0.00000E+00
         0.00000E+00
         0.00000E+00
         0.00000E+00
         0.00000E+00
         0.00000E+00
         0.00000E+00
         0.00000E+00
         0.00000E+00
         0.00000E+00
         0.00000E+00
         0.00000E+00
         0.00000E+00
         0.00000E+00
         0.00000E+00
         0.00000E+00
         0.00000E+00
         0.00000E+00
         0.00000E+00
         0.00000E+00
         0.00000E+00
         0.00000E+00
         0.00000E+00
         0.00000E+00
         0.00000E+00
         0.00000E+00
         0.00000E+00
         0.00000E+00
         0.00000E+00
         0.00000E+00
         0.00000E+00
         0.00000E+00
         0.00000E+00
         0.00000E+00
         0.00000E+00
         0.00000E+00
         0.00000E+00
         0.00000E+00
         0.00000E+00
         0.00000E+00
         0.00000E+00
         0.00000E+00
         0.00000E+00
         0.00000E+00
         0.00000E+00
         0.00000E+00
         0.00000E+00
         0.00000E+00
         0.00000E+00
         0.00000E+00
         0.00000E+00
         0.00000E+00
         0.00000E+00
         0.00000E+00
         0.00000E+00
         0.00000E+00
         0.00000E+00
         0.00000E+00
         0.00000E+00
         0.00000E+00
         0.00000E+00
         0.00000E+00
         0.00000E+00
         0.00000E+00
         0.00000E+00
         0.00000E+00
         0.00000E+00
         0.00000E+00
         0.00000E+00
         0.00000E+00
         0.00000E+00
         0.00000E+00
         0.00000E+00
         0.00000E+00
         0.00000E+00
         0.00000E+00
         0.00000E+00
         0.00000E+00
         0.00000E+00
         0.00000E+00
         0.00000E+00
         0.00000E+00
         0.00000E+00
         0.00000E+00
         0.00000E+00
         0.00000E+00
         0.00000E+00
         0.00000E+00
         0.00000E+00
         0.00000E+00
         0.00000E+00
         0.00000E+00
         0.00000E+00
         0.00000E+00
         0.00000E+00
         0.00000E+00
         0.00000E+00
         0.00000E+00
         0.00000E+00
         0.00000E+00
         0.00000E+00
         0.00000E+00
         0.00000E+00
         0.00000E+00
         0.00000E+00
         0.00000E+00
         0.00000E+00
         0.00000E+00
         0.00000E+00
         0.00000E+00
         0.00000E+00
         0.00000E+00
         0.00000E+00
         0.00000E+00
         0.00000E+00
         0.00000E+00
         0.00000E+00
         0.00000E+00
         0.00000E+00
         0.00000E+00
         0.00000E+00
         0.00000E+00
         0.00000E+00
         0.00000E+00
         0.00000E+00
         0.00000E+00
         0.00000E+00
         0.00000E+00
         0.00000E+00
         0.00000E+00
         0.00000E+00
         0.00000E+00
         0.00000E+00
         0.00000E+00
         0.00000E+00
         0.00000E+00
         0.00000E+00
         0.00000E+00
         0.00000E+00
         0.00000E+00
         0.00000E+00
         0.00000E+00
         0.00000E+00
         0.00000E+00
         0.00000E+00
         0.00000E+00
         0.00000E+00
         0.00000E+00
         0.00000E+00
         0.00000E+00
         0.00000E+00
         0.00000E+00
         0.00000E+00
         0.00000E+00
         0.00000E+00
         0.00000E+00
         0.00000E+00
         0.00000E+00
         0.00000E+00
         0.00000E+00
         0.00000E+00
         0.00000E+00
         0.00000E+00
         0.00000E+00
         0.00000E+00
         0.00000E+00
         0.00000E+00
         0.00000E+00
         0.00000E+00
         0.00000E+00
         0.00000E+00
         0.00000E+00
         0.00000E+00
         0.00000E+00
         0.00000E+00
         0.00000E+00
         0.00000E+00
         0.00000E+00
         0.00000E+00
         0.00000E+00
         0.00000E+00
         0.00000E+00
         0.00000E+00
         0.00000E+00
         0.00000E+00
         0.00000E+00
         0.00000E+00
         0.00000E+00
         0.00000E+00
         0.00000E+00
         0.00000E+00
         0.00000E+00
         0.00000E+00
         0.00000E+00
         0.00000E+00
         0.00000E+00
         0.00000E+00
         0.00000E+00
         0.00000E+00
         0.00000E+00
         0.00000E+00
         0.00000E+00
         0.00000E+00
         0.00000E+00
         0.00000E+00
         0.00000E+00
         0.00000E+00
         0.00000E+00
         0.00000E+00
         0.00000E+00
         0.00000E+00
         0.00000E+00
         0.00000E+00
         0.00000E+00
         0.00000E+00
         0.00000E+00
         0.00000E+00
         0.00000E+00
         0.00000E+00
         0.00000E+00
         0.00000E+00
         0.00000E+00
         0.00000E+00
         0.00000E+00
         0.00000E+00
         0.00000E+00
         0.00000E+00
         0.00000E+00
         0.00000E+00
         0.00000E+00
         0.00000E+00
         0.00000E+00
         0.00000E+00
         0.00000E+00
         0.00000E+00
         0.00000E+00
         0.00000E+00
         0.00000E+00
         0.00000E+00
         0.00000E+00
         0.00000E+00
         0.00000E+00
         0.00000E+00
         0.00000E+00
         0.00000E+00
         0.00000E+00
         0.00000E+00
         0.00000E+00
         0.00000E+00
         0.00000E+00
         0.00000E+00
         0.00000E+00
         0.00000E+00
         0.00000E+00
         0.00000E+00
         0.00000E+00
         0.00000E+00
         0.00000E+00
         0.00000E+00
         0.00000E+00
         0.00000E+00
         0.00000E+00
         0.00000E+00
         0.00000E+00
         0.00000E+00
         0.00000E+00
         0.00000E+00
         0.00000E+00
         0.00000E+00
         0.00000E+00
         0.00000E+00
         0.00000E+00
         0.00000E+00
         0.00000E+00
         0.00000E+00
         0.00000E+00
         0.00000E+00
         0.00000E+00
         0.00000E+00
         0.00000E+00
         0.00000E+00
         0.00000E+00
         0.00000E+00
         0.00000E+00
         0.00000E+00
         0.00000E+00
         0.00000E+00
         0.00000E+00
         0.00000E+00
         0.00000E+00
         0.00000E+00
         0.00000E+00
         0.00000E+00
         0.00000E+00
         0.00000E+00
         0.00000E+00
         0.00000E+00
         0.00000E+00
         0.00000E+00
         0.00000E+00
         0.00000E+00
         0.00000E+00
         0.00000E+00
         0.00000E+00
         0.00000E+00
         0.00000E+00
         0.00000E+00
         0.00000E+00
         0.00000E+00
         0.00000E+00
         0.00000E+00
         0.00000E+00
         0.00000E+00
         0.00000E+00
         0.00000E+00
         0.00000E+00
         0.00000E+00
         0.00000E+00
         0.00000E+00
         0.00000E+00
         0.00000E+00
         0.00000E+00
         0.00000E+00
         0.00000E+00
         0.00000E+00
         0.00000E+00
         0.00000E+00
         0.00000E+00
         0.00000E+00
         0.00000E+00
         0.00000E+00
         0.00000E+00
         0.00000E+00
         0.00000E+00
         0.00000E+00
         0.00000E+00
         0.00000E+00
         0.00000E+00
         0.00000E+00
         0.00000E+00
         0.00000E+00
         0.00000E+00
         0.00000E+00
         0.00000E+00
         0.00000E+00
         0.00000E+00
         0.00000E+00
         0.00000E+00
         0.00000E+00
         0.00000E+00
         0.00000E+00
         0.00000E+00
         0.00000E+00
         0.00000E+00
         0.00000E+00
         0.00000E+00
         0.00000E+00
         0.00000E+00
         0.00000E+00
         0.00000E+00
         0.00000E+00
         0.00000E+00
         0.00000E+00
         0.00000E+00
         0.00000E+00
         0.00000E+00
         0.00000E+00
         0.00000E+00
         0.00000E+00
         0.00000E+00
         0.00000E+00
         0.00000E+00
         0.00000E+00
         0.00000E+00
         0.00000E+00
         0.00000E+00
         0.00000E+00
         0.00000E+00
         0.00000E+00
         0.00000E+00
         0.00000E+00
         0.00000E+00
         0.00000E+00
         0.00000E+00
         0.00000E+00
         0.00000E+00
         0.00000E+00
         0.00000E+00
         0.00000E+00
         0.00000E+00
         0.00000E+00
         0.00000E+00
         0.00000E+00
         0.00000E+00
         0.00000E+00
         0.00000E+00
         0.00000E+00
         0.00000E+00
  
SCALARS                      stress_xx  double 1
LOOKUP_TABLE default
         0.49070E+12
         0.48376E+12
         0.48816E+12
         0.49606E+12
        -0.12850E+03
        -0.14409E+03
        -0.13797E+03
        -0.12534E+03
         0.48351E+12
         0.48587E+12
        -0.12957E+03
        -0.12539E+03
         0.47369E+12
         0.47331E+12
        -0.15396E+03
        -0.14476E+03
         0.49491E+12
         0.47386E+12
        -0.11376E+03
        -0.12618E+03
         0.46611E+12
         0.46010E+12
         0.46967E+12
        -0.15259E+03
        -0.13326E+03
        -0.13761E+03
         0.46033E+12
         0.45155E+12
        -0.14639E+03
        -0.12345E+03
         0.49452E+12
         0.48537E+12
         0.50339E+12
        -0.12492E+03
        -0.11613E+03
        -0.11291E+03
         0.48923E+12
         0.47756E+12
        -0.13216E+03
        -0.12060E+03
         0.48461E+12
         0.47561E+12
        -0.11423E+03
        -0.10112E+03
         0.49223E+12
         0.49561E+12
        -0.12518E+03
        -0.13987E+03
         0.46838E+12
        -0.12229E+03
         0.49495E+12
        -0.14369E+03
         0.45780E+12
        -0.12914E+03
         0.45504E+12
        -0.12387E+03
         0.45508E+12
         0.46490E+12
        -0.12621E+03
        -0.12291E+03
         0.49434E+12
         0.49082E+12
        -0.12656E+03
        -0.14307E+03
         0.49654E+12
        -0.12212E+03
         0.49236E+12
        -0.13328E+03
         0.48135E+12
         0.48024E+12
        -0.12829E+03
        -0.13443E+03
         0.47776E+12
        -0.13555E+03
         0.44842E+12
        -0.10710E+03
         0.44688E+12
        -0.10395E+03
         0.44765E+12
        -0.10961E+03
         0.45190E+12
         0.45632E+12
        -0.10443E+03
        -0.10888E+03
         0.46521E+12
        -0.10140E+03
         0.49205E+12
        -0.13298E+03
         0.48787E+12
        -0.13610E+03
         0.48443E+12
         0.48255E+12
        -0.13070E+03
        -0.13223E+03
         0.48487E+12
        -0.12010E+03
         0.48652E+12
        -0.11839E+03
         0.48503E+12
        -0.12673E+03
         0.48450E+12
         0.48601E+12
        -0.12428E+03
        -0.12793E+03
         0.47621E+12
         0.48019E+12
        -0.96492E+02
        -0.90756E+02
         0.47546E+12
        -0.92138E+02
         0.48005E+12
        -0.88344E+02
         0.47552E+12
        -0.87114E+02
         0.46549E+12
        -0.82323E+02
         0.45576E+12
        -0.73135E+02
         0.44993E+12
        -0.65854E+02
         0.44933E+12
        -0.65397E+02
         0.44952E+12
        -0.70919E+02
         0.45584E+12
        -0.74534E+02
         0.46765E+12
        -0.68057E+02
         0.48061E+12
        -0.61347E+02
         0.48819E+12
        -0.61277E+02
         0.49568E+12
        -0.68492E+02
         0.50063E+12
        -0.78097E+02
         0.50045E+12
        -0.83900E+02
         0.48843E+12
        -0.90611E+02
         0.48005E+12
        -0.97076E+02
         0.47717E+12
        -0.88929E+02
         0.48166E+12
        -0.78014E+02
         0.48401E+12
        -0.77773E+02
         0.48008E+12
        -0.85093E+02
         0.48014E+12
        -0.90715E+02
         0.48310E+12
        -0.86088E+02
         0.48697E+12
        -0.83227E+02
        -0.32190E+11
        -0.32253E+11
        -0.32246E+11
        -0.32156E+11
        -0.32293E+11
        -0.32240E+11
        -0.32301E+11
        -0.32275E+11
        -0.32173E+11
        -0.32244E+11
        -0.32314E+11
        -0.32315E+11
        -0.32309E+11
        -0.32308E+11
        -0.32313E+11
        -0.32161E+11
        -0.32180E+11
        -0.32123E+11
        -0.32259E+11
        -0.32240E+11
        -0.32266E+11
        -0.32250E+11
        -0.32278E+11
        -0.32271E+11
        -0.32242E+11
        -0.32244E+11
        -0.32289E+11
        -0.32286E+11
        -0.32306E+11
        -0.32271E+11
        -0.32171E+11
        -0.32254E+11
        -0.32171E+11
        -0.32230E+11
        -0.32314E+11
        -0.32308E+11
        -0.32298E+11
        -0.32309E+11
        -0.32310E+11
        -0.32314E+11
        -0.32309E+11
        -0.32310E+11
        -0.32265E+11
        -0.32274E+11
        -0.32299E+11
        -0.32314E+11
        -0.32304E+11
        -0.32262E+11
        -0.32266E+11
        -0.32299E+11
        -0.32314E+11
        -0.32290E+11
        -0.32273E+11
        -0.32303E+11
        -0.32300E+11
        -0.32305E+11
        -0.32304E+11
        -0.32290E+11
        -0.32270E+11
        -0.32262E+11
        -0.32266E+11
        -0.32263E+11
        -0.32253E+11
        -0.32302E+11
        -0.32311E+11
        -0.32313E+11
        -0.32315E+11
        -0.32314E+11
        -0.32314E+11
        -0.32314E+11
        -0.32285E+11
        -0.32296E+11
        -0.32307E+11
        -0.32307E+11
        -0.32306E+11
        -0.32294E+11
        -0.32310E+11
        -0.32313E+11
         0.92177E+06
         0.40829E+06
         0.51252E+06
         0.46582E+06
         0.25479E+06
         0.54863E+06
        -0.33442E+06
        -0.75213E+06
         0.11507E+07
        -0.82392E+06
        -0.88261E+06
        -0.38701E+05
        -0.11204E+06
        -0.28216E+07
        -0.89552E+06
        -0.25294E+06
         0.17484E+06
         0.59778E+06
        -0.18598E+05
        -0.81019E+05
        -0.11018E+07
        -0.58548E+06
        -0.15195E+07
        -0.51820E+06
        -0.88931E+06
        -0.12748E+06
        -0.35733E+07
        -0.19316E+07
        -0.11425E+07
        -0.88459E+06
        -0.14382E+06
        -0.32771E+06
         0.45913E+06
         0.91467E+06
        -0.93558E+06
        -0.62039E+06
        -0.32660E+06
        -0.11390E+07
        -0.72063E+06
        -0.46313E+06
        -0.73664E+06
        -0.12337E+07
        -0.10578E+07
        -0.12280E+07
        -0.91632E+06
        -0.39041E+06
        -0.19562E+06
        -0.23748E+06
         0.49378E+06
         0.82227E+06
         0.24745E+06
         0.33280E+06
        -0.25271E+07
        -0.62670E+06
        -0.14917E+07
         0.25270E+06
         0.17475E+07
         0.28182E+07
         0.23355E+07
         0.25332E+07
         0.20056E+07
         0.10386E+07
         0.15203E+06
        -0.52994E+06
        -0.11076E+07
        -0.34897E+06
        -0.16581E+07
        -0.24927E+07
        -0.20738E+07
        -0.18068E+07
        -0.94271E+06
         0.49661E+06
         0.48392E+06
         0.33341E+05
        -0.78815E+06
        -0.13105E+07
        -0.94045E+06
        -0.20565E+06
         0.86439E+06
         0.35405E+06
         0.45967E+06
         0.42444E+06
         0.18687E+06
         0.48882E+06
        -0.38713E+06
        -0.81698E+06
         0.10952E+07
        -0.89452E+06
        -0.94327E+06
        -0.12962E+06
        -0.19021E+06
        -0.28884E+07
        -0.98557E+06
        -0.31252E+06
         0.11921E+06
         0.55704E+06
        -0.78545E+05
        -0.13789E+06
        -0.11791E+07
        -0.66069E+06
        -0.15988E+07
        -0.57429E+06
        -0.96215E+06
        -0.18108E+06
        -0.36395E+07
        -0.19885E+07
        -0.12067E+07
        -0.96031E+06
        -0.19977E+06
        -0.37823E+06
         0.41683E+06
         0.87196E+06
        -0.10146E+07
        -0.68496E+06
        -0.39394E+06
        -0.12298E+07
        -0.80436E+06
        -0.54535E+06
        -0.82606E+06
        -0.13209E+07
        -0.11404E+07
        -0.13036E+07
        -0.98716E+06
        -0.47006E+06
        -0.26628E+06
        -0.30320E+06
         0.43600E+06
         0.76247E+06
         0.17504E+06
         0.26907E+06
        -0.26751E+07
        -0.77100E+06
        -0.16337E+07
         0.11655E+06
         0.16035E+07
         0.26577E+07
         0.21753E+07
         0.23711E+07
         0.18420E+07
         0.87123E+06
        -0.14559E+05
        -0.68391E+06
        -0.12360E+07
        -0.46890E+06
        -0.17839E+07
        -0.26271E+07
        -0.22110E+07
        -0.19503E+07
        -0.10867E+07
         0.34425E+06
         0.34027E+06
        -0.96404E+05
        -0.91802E+06
        -0.14436E+07
        -0.10750E+07
        -0.34271E+06
         0.87768E+06
         0.36468E+06
         0.47089E+06
         0.43628E+06
         0.20541E+06
         0.50564E+06
        -0.37801E+06
        -0.80127E+06
         0.11050E+07
        -0.89114E+06
        -0.93018E+06
        -0.11237E+06
        -0.17559E+06
        -0.28692E+07
        -0.96310E+06
        -0.32497E+06
         0.11462E+06
         0.56900E+06
        -0.93263E+05
        -0.14816E+06
        -0.11916E+07
        -0.66546E+06
        -0.16509E+07
        -0.61477E+06
        -0.99400E+06
        -0.21870E+06
        -0.36267E+07
        -0.19951E+07
        -0.12340E+07
        -0.10133E+07
        -0.20040E+06
        -0.38965E+06
         0.43010E+06
         0.88576E+06
        -0.99433E+06
        -0.66823E+06
        -0.37880E+06
        -0.12145E+07
        -0.79147E+06
        -0.54138E+06
        -0.82840E+06
        -0.13528E+07
        -0.11849E+07
        -0.13541E+07
        -0.99908E+06
        -0.45898E+06
        -0.25335E+06
        -0.28880E+06
         0.45187E+06
         0.78082E+06
         0.19584E+06
         0.28751E+06
        -0.26309E+07
        -0.73136E+06
        -0.15897E+07
         0.15029E+06
         0.16286E+07
         0.26826E+07
         0.22071E+07
         0.24029E+07
         0.18744E+07
         0.90479E+06
         0.51509E+04
        -0.68462E+06
        -0.12339E+07
        -0.44677E+06
        -0.17694E+07
        -0.26543E+07
        -0.22405E+07
        -0.19427E+07
        -0.10471E+07
         0.39007E+06
         0.38131E+06
        -0.54977E+05
        -0.87137E+06
        -0.14045E+07
        -0.10432E+07
        -0.31208E+06
         0.86940E+06
         0.36005E+06
         0.46646E+06
         0.43023E+06
         0.19955E+06
         0.50105E+06
        -0.38381E+06
        -0.80901E+06
         0.10893E+07
        -0.92117E+06
        -0.93588E+06
        -0.12187E+06
        -0.18206E+06
        -0.28752E+07
        -0.97404E+06
        -0.37256E+06
         0.81023E+05
         0.56233E+06
        -0.14568E+06
        -0.19591E+06
        -0.12501E+07
        -0.71741E+06
        -0.17720E+07
        -0.70526E+06
        -0.10806E+07
        -0.30420E+06
        -0.36449E+07
        -0.20410E+07
        -0.13124E+07
        -0.11402E+07
        -0.22804E+06
        -0.43530E+06
         0.42487E+06
         0.87867E+06
        -0.10048E+07
        -0.67441E+06
        -0.38401E+06
        -0.12316E+07
        -0.81243E+06
        -0.57904E+06
        -0.87907E+06
        -0.14516E+07
        -0.13057E+07
        -0.14734E+07
        -0.10576E+07
        -0.49099E+06
        -0.27600E+06
        -0.30129E+06
         0.44210E+06
         0.76949E+06
         0.18509E+06
         0.28083E+06
        -0.26515E+07
        -0.74550E+06
        -0.16121E+07
         0.13065E+06
         0.16155E+07
         0.26674E+07
         0.21815E+07
         0.23751E+07
         0.18478E+07
         0.87243E+06
        -0.46164E+05
        -0.76743E+06
        -0.13117E+07
        -0.48366E+06
        -0.18109E+07
        -0.27685E+07
        -0.23615E+07
        -0.19994E+07
        -0.10739E+07
         0.36438E+06
         0.36184E+06
        -0.78036E+05
        -0.89531E+06
        -0.14208E+07
        -0.10557E+07
        -0.32452E+06
         0.85446E+06
         0.35070E+06
         0.45876E+06
         0.42396E+06
         0.19270E+06
         0.49445E+06
        -0.39211E+06
        -0.82239E+06
         0.10704E+07
        -0.95245E+06
        -0.94202E+06
        -0.12784E+06
        -0.18925E+06
        -0.28819E+07
        -0.97911E+06
        -0.40502E+06
         0.53960E+05
         0.55620E+06
        -0.18016E+06
        -0.23011E+06
        -0.12877E+07
        -0.75472E+06
        -0.18465E+07
        -0.76133E+06
        -0.11434E+07
        -0.35904E+06
        -0.36607E+07
        -0.20738E+07
        -0.13673E+07
        -0.12247E+07
        -0.25695E+06
        -0.46855E+06
         0.41321E+06
         0.86885E+06
        -0.10155E+07
        -0.68240E+06
        -0.39193E+06
        -0.12444E+07
        -0.82989E+06
        -0.60774E+06
        -0.91480E+06
        -0.15182E+07
        -0.13850E+07
        -0.15490E+07
        -0.10959E+07
        -0.51205E+06
        -0.29609E+06
        -0.32111E+06
         0.42505E+06
         0.75275E+06
         0.16821E+06
         0.26978E+06
        -0.26701E+07
        -0.75783E+06
        -0.16311E+07
         0.11537E+06
         0.16094E+07
         0.26629E+07
         0.21706E+07
         0.23568E+07
         0.18252E+07
         0.85242E+06
        -0.77394E+05
        -0.82472E+06
        -0.13648E+07
        -0.51216E+06
        -0.18403E+07
        -0.28426E+07
        -0.24464E+07
        -0.20399E+07
        -0.10861E+07
         0.34105E+06
         0.33600E+06
        -0.10450E+06
        -0.92619E+06
        -0.14474E+07
        -0.10721E+07
        -0.33692E+06
         0.81845E+06
         0.33277E+06
         0.45115E+06
         0.43040E+06
         0.20257E+06
         0.50635E+06
        -0.39832E+06
        -0.84643E+06
         0.10437E+07
        -0.99489E+06
        -0.93622E+06
        -0.10766E+06
        -0.18169E+06
        -0.28768E+07
        -0.95338E+06
        -0.39994E+06
         0.46155E+05
         0.56844E+06
        -0.17304E+06
        -0.22436E+06
        -0.12764E+07
        -0.74152E+06
        -0.18448E+07
        -0.76247E+06
        -0.11709E+07
        -0.36690E+06
        -0.36645E+07
        -0.20766E+07
        -0.13667E+07
        -0.12279E+07
        -0.29135E+06
        -0.48610E+06
         0.39271E+06
         0.86633E+06
        -0.10068E+07
        -0.68117E+06
        -0.39324E+06
        -0.12289E+07
        -0.81676E+06
        -0.59320E+06
        -0.89744E+06
        -0.15082E+07
        -0.13766E+07
        -0.15535E+07
        -0.11005E+07
        -0.51545E+06
        -0.31344E+06
        -0.36067E+06
         0.38319E+06
         0.73000E+06
         0.16278E+06
         0.27548E+06
        -0.26338E+07
        -0.72028E+06
        -0.16004E+07
         0.13581E+06
         0.16309E+07
         0.26921E+07
         0.22036E+07
         0.23884E+07
         0.18616E+07
         0.90062E+06
        -0.35291E+05
        -0.79930E+06
        -0.13367E+07
        -0.48294E+06
        -0.18122E+07
        -0.28201E+07
        -0.24300E+07
        -0.20236E+07
        -0.10665E+07
         0.35455E+06
         0.33313E+06
        -0.12290E+06
        -0.93818E+06
        -0.14411E+07
        -0.10539E+07
        -0.31089E+06
         0.76368E+06
         0.30106E+06
         0.43294E+06
         0.42688E+06
         0.19580E+06
         0.50627E+06
        -0.42053E+06
        -0.89415E+06
         0.99824E+06
        -0.10578E+07
        -0.95041E+06
        -0.11554E+06
        -0.19450E+06
        -0.28966E+07
        -0.95858E+06
        -0.41016E+06
         0.23648E+05
         0.56713E+06
        -0.17906E+06
        -0.23179E+06
        -0.12814E+07
        -0.74513E+06
        -0.18507E+07
        -0.76932E+06
        -0.12094E+07
        -0.38086E+06
        -0.36913E+07
        -0.20929E+07
        -0.13748E+07
        -0.12383E+07
        -0.33908E+06
        -0.51472E+06
         0.36069E+06
         0.85332E+06
        -0.10193E+07
        -0.69441E+06
        -0.40897E+06
        -0.12423E+07
        -0.82956E+06
        -0.60041E+06
        -0.90054E+06
        -0.15101E+07
        -0.13774E+07
        -0.15648E+07
        -0.11215E+07
        -0.54533E+06
        -0.35353E+06
        -0.41989E+06
         0.32348E+06
         0.69028E+06
         0.14012E+06
         0.26810E+06
        -0.26489E+07
        -0.73198E+06
        -0.16094E+07
         0.12550E+06
         0.16161E+07
         0.26742E+07
         0.21888E+07
         0.23757E+07
         0.18490E+07
         0.89113E+06
        -0.42876E+05
        -0.80851E+06
        -0.13384E+07
        -0.48521E+06
        -0.18184E+07
        -0.28237E+07
        -0.24371E+07
        -0.20493E+07
        -0.11046E+07
         0.31249E+06
         0.28594E+06
        -0.18120E+06
        -0.98926E+06
        -0.14682E+07
        -0.10685E+07
        -0.32241E+06
         0.74762E+06
         0.28925E+06
         0.42547E+06
         0.42188E+06
         0.18845E+06
         0.49989E+06
        -0.43258E+06
        -0.91006E+06
         0.98519E+06
        -0.10764E+07
        -0.96042E+06
        -0.12657E+06
        -0.20713E+06
        -0.29063E+07
        -0.96764E+06
        -0.41943E+06
         0.13450E+05
         0.56254E+06
        -0.18457E+06
        -0.23750E+06
        -0.12895E+07
        -0.75369E+06
        -0.18585E+07
        -0.77456E+06
        -0.12237E+07
        -0.38886E+06
        -0.37028E+07
        -0.21011E+07
        -0.13870E+07
        -0.12482E+07
        -0.35523E+06
        -0.52596E+06
         0.35153E+06
         0.84601E+06
        -0.10300E+07
        -0.70143E+06
        -0.41850E+06
        -0.12592E+07
        -0.84427E+06
        -0.61513E+06
        -0.91558E+06
        -0.15223E+07
        -0.13851E+07
        -0.15749E+07
        -0.11340E+07
        -0.55927E+06
        -0.36664E+06
        -0.43475E+06
         0.30879E+06
         0.67648E+06
         0.12617E+06
         0.25878E+06
        -0.26696E+07
        -0.75234E+06
        -0.16231E+07
         0.11125E+06
         0.15989E+07
         0.26590E+07
         0.21732E+07
         0.23540E+07
         0.18206E+07
         0.86127E+06
        -0.69947E+05
        -0.82074E+06
        -0.13481E+07
        -0.50594E+06
        -0.18403E+07
        -0.28445E+07
        -0.24640E+07
        -0.20751E+07
        -0.11262E+07
         0.29490E+06
         0.27163E+06
        -0.20062E+06
        -0.10149E+07
        -0.14921E+07
        -0.10887E+07
        -0.34247E+06
         0.75760E+06
         0.29711E+06
         0.43122E+06
         0.42437E+06
         0.19761E+06
         0.50261E+06
        -0.42700E+06
        -0.89689E+06
         0.99442E+06
        -0.10641E+07
        -0.95260E+06
        -0.11568E+06
        -0.19936E+06
        -0.28915E+07
        -0.94994E+06
        -0.40897E+06
         0.19525E+05
         0.56858E+06
        -0.17413E+06
        -0.22859E+06
        -0.12780E+07
        -0.74310E+06
        -0.18471E+07
        -0.76538E+06
        -0.12153E+07
        -0.38034E+06
        -0.36867E+07
        -0.20893E+07
        -0.13817E+07
        -0.12393E+07
        -0.34714E+06
        -0.51935E+06
         0.35862E+06
         0.84845E+06
        -0.10186E+07
        -0.69267E+06
        -0.41080E+06
        -0.12477E+07
        -0.83550E+06
        -0.60744E+06
        -0.90537E+06
        -0.15116E+07
        -0.13738E+07
        -0.15645E+07
        -0.11253E+07
        -0.55023E+06
        -0.35779E+06
        -0.42477E+06
         0.31868E+06
         0.68417E+06
         0.13231E+06
         0.26145E+06
        -0.26386E+07
        -0.72180E+06
        -0.16048E+07
         0.11871E+06
         0.16141E+07
         0.26827E+07
         0.21995E+07
         0.23728E+07
         0.18279E+07
         0.87241E+06
        -0.49945E+05
        -0.79234E+06
        -0.13233E+07
        -0.48986E+06
        -0.18252E+07
        -0.28270E+07
        -0.24461E+07
        -0.20531E+07
        -0.11053E+07
         0.31938E+06
         0.29696E+06
        -0.17805E+06
        -0.99584E+06
        -0.14753E+07
        -0.10720E+07
        -0.32436E+06
         0.75486E+06
         0.29634E+06
         0.42972E+06
         0.42127E+06
         0.19654E+06
         0.49945E+06
        -0.42988E+06
        -0.90049E+06
         0.98818E+06
        -0.10711E+07
        -0.95665E+06
        -0.12241E+06
        -0.20147E+06
        -0.28952E+07
        -0.95948E+06
        -0.41496E+06
         0.12264E+05
         0.56360E+06
        -0.17867E+06
        -0.23289E+06
        -0.12820E+07
        -0.74854E+06
        -0.18511E+07
        -0.76885E+06
        -0.12203E+07
        -0.38372E+06
        -0.36904E+07
        -0.20894E+07
        -0.13868E+07
        -0.12441E+07
        -0.35275E+06
        -0.52271E+06
         0.35441E+06
         0.84304E+06
        -0.10227E+07
        -0.69566E+06
        -0.41288E+06
        -0.12623E+07
        -0.84398E+06
        -0.61517E+06
        -0.91270E+06
        -0.15166E+07
        -0.13803E+07
        -0.15671E+07
        -0.11279E+07
        -0.55461E+06
        -0.36378E+06
        -0.43166E+06
         0.31297E+06
         0.67875E+06
         0.12692E+06
         0.25623E+06
        -0.26475E+07
        -0.72881E+06
        -0.16192E+07
         0.10636E+06
         0.16125E+07
         0.26740E+07
         0.21792E+07
         0.23501E+07
         0.18148E+07
         0.85256E+06
        -0.71645E+05
        -0.80314E+06
        -0.13361E+07
        -0.49685E+06
        -0.18319E+07
        -0.28333E+07
        -0.24470E+07
        -0.20575E+07
        -0.11114E+07
         0.30281E+06
         0.27653E+06
        -0.19382E+06
        -0.10037E+07
        -0.14791E+07
        -0.10810E+07
        -0.33719E+06
         0.74741E+06
         0.29027E+06
         0.42544E+06
         0.41979E+06
         0.19155E+06
         0.49765E+06
        -0.43576E+06
        -0.90625E+06
         0.98254E+06
        -0.10782E+07
        -0.96127E+06
        -0.13131E+06
        -0.20733E+06
        -0.28975E+07
        -0.96924E+06
        -0.42303E+06
         0.61277E+04
         0.56106E+06
        -0.18428E+06
        -0.23596E+06
        -0.12873E+07
        -0.75407E+06
        -0.18572E+07
        -0.77426E+06
        -0.12252E+07
        -0.39000E+06
        -0.36932E+07
        -0.20907E+07
        -0.13924E+07
        -0.12476E+07
        -0.36046E+06
        -0.52830E+06
         0.35277E+06
         0.84205E+06
        -0.10321E+07
        -0.70110E+06
        -0.41793E+06
        -0.12764E+07
        -0.85341E+06
        -0.62199E+06
        -0.91692E+06
        -0.15209E+07
        -0.13863E+07
        -0.15724E+07
        -0.11328E+07
        -0.56055E+06
        -0.36936E+06
        -0.43766E+06
         0.30753E+06
         0.67400E+06
         0.12181E+06
         0.25409E+06
        -0.26654E+07
        -0.74368E+06
        -0.16302E+07
         0.10262E+06
         0.16077E+07
         0.26563E+07
         0.21538E+07
         0.23296E+07
         0.18012E+07
         0.83829E+06
        -0.80512E+05
        -0.81379E+06
        -0.13514E+07
        -0.50726E+06
        -0.18429E+07
        -0.28461E+07
        -0.24554E+07
        -0.20674E+07
        -0.11236E+07
         0.28914E+06
         0.26103E+06
        -0.20995E+06
        -0.10151E+07
        -0.14900E+07
        -0.10948E+07
        -0.35180E+06
         0.75207E+06
         0.29267E+06
         0.42755E+06
         0.42374E+06
         0.19792E+06
         0.50347E+06
        -0.43276E+06
        -0.89683E+06
         0.98705E+06
        -0.10728E+07
        -0.95393E+06
        -0.12390E+06
        -0.20510E+06
        -0.28837E+07
        -0.95282E+06
        -0.41746E+06
         0.74163E+04
         0.56707E+06
        -0.17797E+06
        -0.22872E+06
        -0.12781E+07
        -0.74460E+06
        -0.18496E+07
        -0.76864E+06
        -0.12217E+07
        -0.38465E+06
        -0.36829E+07
        -0.20829E+07
        -0.13861E+07
        -0.12379E+07
        -0.35424E+06
        -0.52376E+06
         0.36097E+06
         0.84809E+06
        -0.10252E+07
        -0.69536E+06
        -0.41460E+06
        -0.12673E+07
        -0.84468E+06
        -0.61046E+06
        -0.90552E+06
        -0.15128E+07
        -0.13772E+07
        -0.15659E+07
        -0.11274E+07
        -0.55549E+06
        -0.36390E+06
        -0.43169E+06
         0.31408E+06
         0.68054E+06
         0.12825E+06
         0.26095E+06
        -0.26427E+07
        -0.71906E+06
        -0.16070E+07
         0.11393E+06
         0.16041E+07
         0.26575E+07
         0.21720E+07
         0.23497E+07
         0.18149E+07
         0.85900E+06
        -0.60861E+05
        -0.80444E+06
        -0.13348E+07
        -0.49042E+06
        -0.18277E+07
        -0.28343E+07
        -0.24473E+07
        -0.20574E+07
        -0.11141E+07
         0.30387E+06
         0.27852E+06
        -0.19317E+06
        -0.10004E+07
        -0.14776E+07
        -0.10766E+07
        -0.33055E+06
         0.74854E+06
         0.28779E+06
         0.42340E+06
         0.42017E+06
         0.19283E+06
         0.49873E+06
        -0.43979E+06
        -0.90196E+06
         0.98261E+06
        -0.10815E+07
        -0.96079E+06
        -0.13494E+06
        -0.21673E+06
        -0.28891E+07
        -0.95967E+06
        -0.42411E+06
         0.51915E+02
         0.56171E+06
        -0.18484E+06
        -0.23388E+06
        -0.12878E+07
        -0.75463E+06
        -0.18600E+07
        -0.77488E+06
        -0.12307E+07
        -0.39017E+06
        -0.36928E+07
        -0.20908E+07
        -0.13960E+07
        -0.12440E+07
        -0.36148E+06
        -0.52903E+06
         0.35555E+06
         0.84320E+06
        -0.10342E+07
        -0.70178E+06
        -0.42303E+06
        -0.12826E+07
        -0.85950E+06
        -0.62326E+06
        -0.91957E+06
        -0.15262E+07
        -0.13873E+07
        -0.15770E+07
        -0.11368E+07
        -0.56417E+06
        -0.37195E+06
        -0.44099E+06
         0.30702E+06
         0.67520E+06
         0.12139E+06
         0.25496E+06
        -0.26604E+07
        -0.73430E+06
        -0.16243E+07
         0.93757E+05
         0.15806E+07
         0.26350E+07
         0.21582E+07
         0.23319E+07
         0.17918E+07
         0.83605E+06
        -0.88865E+05
        -0.83209E+06
        -0.13532E+07
        -0.50941E+06
        -0.18441E+07
        -0.28531E+07
        -0.24762E+07
        -0.20834E+07
        -0.11270E+07
         0.28581E+06
         0.26003E+06
        -0.20266E+06
        -0.10068E+07
        -0.14912E+07
        -0.10952E+07
        -0.34914E+06
         0.74782E+06
         0.28612E+06
         0.42215E+06
         0.41956E+06
         0.19273E+06
         0.49781E+06
        -0.44233E+06
        -0.90151E+06
         0.98340E+06
        -0.10814E+07
        -0.96157E+06
        -0.13654E+06
        -0.21877E+06
        -0.28859E+07
        -0.95885E+06
        -0.42593E+06
        -0.15978E+04
         0.56119E+06
        -0.18548E+06
        -0.23374E+06
        -0.12897E+07
        -0.75612E+06
        -0.18623E+07
        -0.77609E+06
        -0.12325E+07
        -0.39186E+06
        -0.36908E+07
        -0.20910E+07
        -0.14005E+07
        -0.12456E+07
        -0.36571E+06
        -0.53105E+06
         0.35439E+06
         0.84217E+06
        -0.10366E+07
        -0.70359E+06
        -0.42544E+06
        -0.12902E+07
        -0.86819E+06
        -0.62875E+06
        -0.92117E+06
        -0.15277E+07
        -0.13888E+07
        -0.15786E+07
        -0.11382E+07
        -0.56616E+06
        -0.37442E+06
        -0.44475E+06
         0.30434E+06
         0.67407E+06
         0.12022E+06
         0.25377E+06
        -0.26608E+07
        -0.73389E+06
        -0.16289E+07
         0.85979E+05
         0.15802E+07
         0.26346E+07
         0.21526E+07
         0.23170E+07
         0.17751E+07
         0.82686E+06
        -0.89765E+05
        -0.83479E+06
        -0.13577E+07
        -0.51678E+06
        -0.18528E+07
        -0.28592E+07
        -0.24801E+07
        -0.20868E+07
        -0.11306E+07
         0.27929E+06
         0.25191E+06
        -0.20787E+06
        -0.10072E+07
        -0.14928E+07
        -0.11035E+07
        -0.35671E+06
         0.76277E+06
         0.30116E+06
         0.43466E+06
         0.42874E+06
         0.21031E+06
         0.51047E+06
        -0.42865E+06
        -0.88269E+06
         0.99435E+06
        -0.10673E+07
        -0.94455E+06
        -0.11286E+06
        -0.19849E+06
        -0.28640E+07
        -0.93451E+06
        -0.41309E+06
         0.73716E+04
         0.57173E+06
        -0.17171E+06
        -0.21947E+06
        -0.12696E+07
        -0.73744E+06
        -0.18436E+07
        -0.76385E+06
        -0.12177E+07
        -0.37979E+06
        -0.36703E+07
        -0.20718E+07
        -0.13858E+07
        -0.12274E+07
        -0.35231E+06
        -0.51847E+06
         0.36612E+06
         0.85023E+06
        -0.10174E+07
        -0.68761E+06
        -0.40872E+06
        -0.12756E+07
        -0.85039E+06
        -0.60960E+06
        -0.90208E+06
        -0.15090E+07
        -0.13718E+07
        -0.15592E+07
        -0.11189E+07
        -0.54637E+06
        -0.35734E+06
        -0.42929E+06
         0.31744E+06
         0.68588E+06
         0.13348E+06
         0.26546E+06
        -0.26195E+07
        -0.69280E+06
        -0.15943E+07
         0.11099E+06
         0.16108E+07
         0.26733E+07
         0.21850E+07
         0.23416E+07
         0.18029E+07
         0.85718E+06
        -0.62441E+05
        -0.80276E+06
        -0.13324E+07
        -0.48861E+06
        -0.18207E+07
        -0.28258E+07
        -0.24423E+07
        -0.20461E+07
        -0.10956E+07
         0.31573E+06
         0.28304E+06
        -0.18474E+06
        -0.98149E+06
        -0.14624E+07
        -0.10706E+07
        -0.32351E+06
         0.75635E+06
         0.29675E+06
         0.43080E+06
         0.42416E+06
         0.20377E+06
         0.50557E+06
        -0.43511E+06
        -0.88962E+06
         0.98780E+06
        -0.10782E+07
        -0.95134E+06
        -0.12137E+06
        -0.20375E+06
        -0.28699E+07
        -0.94451E+06
        -0.42146E+06
        -0.87147E+03
         0.56747E+06
        -0.18080E+06
        -0.22599E+06
        -0.12760E+07
        -0.74659E+06
        -0.18500E+07
        -0.77137E+06
        -0.12280E+07
        -0.38755E+06
        -0.36792E+07
        -0.20769E+07
        -0.13899E+07
        -0.12318E+07
        -0.35782E+06
        -0.52447E+06
         0.36293E+06
         0.84430E+06
        -0.10289E+07
        -0.69339E+06
        -0.41272E+06
        -0.12929E+07
        -0.86257E+06
        -0.61553E+06
        -0.91094E+06
        -0.15194E+07
        -0.13835E+07
        -0.15674E+07
        -0.11270E+07
        -0.55453E+06
        -0.36400E+06
        -0.43458E+06
         0.31154E+06
         0.67786E+06
         0.12523E+06
         0.25930E+06
        -0.26457E+07
        -0.71481E+06
        -0.16144E+07
         0.10034E+06
         0.16073E+07
         0.26633E+07
         0.21629E+07
         0.23149E+07
         0.17772E+07
         0.83432E+06
        -0.89435E+05
        -0.83365E+06
        -0.13543E+07
        -0.49944E+06
        -0.18259E+07
        -0.28291E+07
        -0.24528E+07
        -0.20645E+07
        -0.11092E+07
         0.29949E+06
         0.26824E+06
        -0.20144E+06
        -0.99924E+06
        -0.14737E+07
        -0.10812E+07
        -0.34110E+06
         0.74570E+06
         0.28564E+06
         0.42020E+06
         0.41778E+06
         0.19293E+06
         0.49578E+06
        -0.44479E+06
        -0.89805E+06
         0.97820E+06
        -0.10979E+07
        -0.95968E+06
        -0.13508E+06
        -0.21512E+06
        -0.28760E+07
        -0.95726E+06
        -0.43158E+06
        -0.11616E+05
         0.56243E+06
        -0.18825E+06
        -0.22876E+06
        -0.12840E+07
        -0.75730E+06
        -0.18577E+07
        -0.77784E+06
        -0.12457E+07
        -0.39516E+06
        -0.36995E+07
        -0.20859E+07
        -0.13722E+07
        -0.12188E+07
        -0.36711E+06
        -0.53296E+06
         0.35978E+06
         0.84018E+06
        -0.10419E+07
        -0.70316E+06
        -0.42263E+06
        -0.13183E+07
        -0.87457E+06
        -0.59790E+06
        -0.91174E+06
        -0.15307E+07
        -0.13991E+07
        -0.15762E+07
        -0.11375E+07
        -0.56766E+06
        -0.37576E+06
        -0.44389E+06
         0.30469E+06
         0.67142E+06
         0.11795E+06
         0.25166E+06
        -0.26631E+07
        -0.73081E+06
        -0.16280E+07
         0.88341E+05
         0.15906E+07
         0.26360E+07
         0.21318E+07
         0.22851E+07
         0.17514E+07
         0.82835E+06
        -0.13655E+06
        -0.90773E+06
        -0.13850E+07
        -0.51646E+06
        -0.18412E+07
        -0.28429E+07
        -0.24696E+07
        -0.20837E+07
        -0.11315E+07
         0.27410E+06
         0.25124E+06
        -0.21738E+06
        -0.10173E+07
        -0.14871E+07
        -0.11020E+07
        -0.36451E+06
         0.75993E+06
         0.29945E+06
         0.43379E+06
         0.42882E+06
         0.21157E+06
         0.50941E+06
        -0.43300E+06
        -0.87950E+06
         0.98591E+06
        -0.11008E+07
        -0.94440E+06
        -0.11742E+06
        -0.20014E+06
        -0.28551E+07
        -0.93547E+06
        -0.41859E+06
        -0.43563E+04
         0.57235E+06
        -0.17236E+06
        -0.20578E+06
        -0.12672E+07
        -0.74098E+06
        -0.18427E+07
        -0.76462E+06
        -0.12427E+07
        -0.38201E+06
        -0.37028E+07
        -0.20735E+07
        -0.13114E+07
        -0.11619E+07
        -0.35580E+06
        -0.52018E+06
         0.37127E+06
         0.85088E+06
        -0.10213E+07
        -0.68539E+06
        -0.40683E+06
        -0.13173E+07
        -0.85407E+06
        -0.52994E+06
        -0.87498E+06
        -0.15117E+07
        -0.13892E+07
        -0.15595E+07
        -0.11186E+07
        -0.54566E+06
        -0.35797E+06
        -0.42977E+06
         0.31905E+06
         0.68749E+06
         0.13555E+06
         0.26546E+06
        -0.26207E+07
        -0.68907E+06
        -0.15853E+07
         0.11814E+06
         0.16097E+07
         0.26580E+07
         0.21621E+07
         0.23158E+07
         0.17853E+07
         0.89435E+06
        -0.15182E+06
        -0.96734E+06
        -0.13827E+07
        -0.49310E+06
        -0.18217E+07
        -0.28265E+07
        -0.24491E+07
        -0.20497E+07
        -0.10898E+07
         0.31309E+06
         0.28500E+06
        -0.18265E+06
        -0.97803E+06
        -0.14508E+07
        -0.10726E+07
        -0.33376E+06
         0.70628E+06
         0.24835E+06
         0.38488E+06
         0.38782E+06
         0.14794E+06
         0.45261E+06
        -0.48313E+06
        -0.94117E+06
         0.93198E+06
        -0.11779E+07
        -0.10022E+07
        -0.20194E+06
        -0.27818E+06
        -0.29203E+07
        -0.10213E+07
        -0.47067E+06
        -0.54464E+05
         0.53174E+06
        -0.22561E+06
        -0.25112E+06
        -0.13398E+07
        -0.81213E+06
        -0.19129E+07
        -0.81154E+06
        -0.13121E+07
        -0.42658E+06
        -0.37829E+07
        -0.21284E+07
        -0.13392E+07
        -0.12010E+07
        -0.40623E+06
        -0.56618E+06
         0.32937E+06
         0.80516E+06
        -0.10983E+07
        -0.74905E+06
        -0.47579E+06
        -0.14162E+07
        -0.93110E+06
        -0.57525E+06
        -0.94703E+06
        -0.15894E+07
        -0.14669E+07
        -0.16269E+07
        -0.11883E+07
        -0.62779E+06
        -0.42626E+06
        -0.49063E+06
         0.26191E+06
         0.62361E+06
         0.57659E+05
         0.20025E+06
        -0.27683E+07
        -0.83232E+06
        -0.17343E+07
        -0.33676E+05
         0.14584E+07
         0.25121E+07
         0.20138E+07
         0.21567E+07
         0.16362E+07
         0.75848E+06
        -0.34110E+06
        -0.11733E+07
        -0.15284E+07
        -0.61394E+06
        -0.19485E+07
        -0.29584E+07
        -0.25852E+07
        -0.22021E+07
        -0.12463E+07
         0.16295E+06
         0.14592E+06
        -0.31581E+06
        -0.11143E+07
        -0.15909E+07
        -0.12072E+07
        -0.46750E+06
         0.73681E+06
         0.25180E+06
         0.39402E+06
         0.40438E+06
         0.17003E+06
         0.47189E+06
        -0.47780E+06
        -0.90220E+06
         0.96791E+06
        -0.11218E+07
        -0.98604E+06
        -0.20044E+06
        -0.29826E+06
        -0.28742E+07
        -0.98208E+06
        -0.43130E+06
        -0.22178E+05
         0.55492E+06
        -0.19682E+06
        -0.22320E+06
        -0.13065E+07
        -0.78762E+06
        -0.18625E+07
        -0.77651E+06
        -0.12532E+07
        -0.39404E+06
        -0.37144E+07
        -0.20635E+07
        -0.12889E+07
        -0.11434E+07
        -0.37649E+06
        -0.54575E+06
         0.34337E+06
         0.79845E+06
        -0.10870E+07
        -0.75359E+06
        -0.49523E+06
        -0.13709E+07
        -0.87707E+06
        -0.52829E+06
        -0.91450E+06
        -0.15458E+07
        -0.14205E+07
        -0.15806E+07
        -0.11624E+07
        -0.61511E+06
        -0.41577E+06
        -0.46490E+06
         0.28122E+06
         0.62470E+06
         0.62822E+05
         0.20186E+06
        -0.27114E+07
        -0.75836E+06
        -0.17155E+07
        -0.66437E+05
         0.13905E+07
         0.24707E+07
         0.20816E+07
         0.22263E+07
         0.16918E+07
         0.79146E+06
        -0.33186E+06
        -0.11451E+07
        -0.14733E+07
        -0.58667E+06
        -0.18911E+07
        -0.28761E+07
        -0.25150E+07
        -0.21483E+07
        -0.12229E+07
         0.16024E+06
         0.17693E+06
        -0.27155E+06
        -0.10439E+07
        -0.15055E+07
        -0.11400E+07
        -0.39799E+06
         0.21098E+09
         0.20424E+09
         0.20110E+09
         0.17050E+09
         0.25291E+09
         0.22535E+09
         0.20037E+09
         0.23942E+09
         0.19466E+09
         0.23926E+09
         0.23687E+09
         0.32344E+09
         0.28456E+09
         0.25935E+09
         0.33340E+09
         0.19331E+09
         0.18696E+09
         0.14956E+09
         0.20404E+09
         0.19176E+09
         0.26114E+09
         0.26235E+09
         0.24812E+09
         0.18295E+09
         0.22700E+09
         0.16256E+09
         0.25559E+09
         0.20357E+09
         0.21856E+09
         0.23649E+09
         0.19063E+09
         0.17758E+09
         0.17060E+09
         0.17611E+09
         0.28784E+09
         0.24382E+09
         0.25203E+09
         0.31217E+09
         0.29525E+09
         0.28872E+09
         0.30497E+09
         0.28540E+09
         0.27050E+09
         0.23768E+09
         0.24562E+09
         0.29184E+09
         0.25361E+09
         0.23113E+09
         0.21929E+09
         0.23390E+09
         0.27399E+09
         0.23900E+09
         0.53852E+09
         0.52769E+09
         0.53769E+09
         0.52086E+09
         0.53787E+09
         0.56474E+09
         0.56703E+09
         0.56044E+09
         0.56468E+09
         0.58035E+09
         0.56210E+09
         0.52946E+09
         0.46891E+09
         0.44248E+09
         0.44925E+09
         0.45997E+09
         0.46632E+09
         0.50862E+09
         0.54516E+09
         0.54791E+09
         0.50215E+09
         0.48412E+09
         0.50142E+09
         0.49558E+09
         0.49196E+09
         0.49297E+09
         0.24747E+10
         0.25915E+10
         0.25539E+10
         0.23291E+10
         0.28708E+10
         0.26953E+10
         0.28038E+10
         0.28271E+10
         0.24187E+10
         0.28256E+10
         0.30799E+10
         0.34544E+10
         0.31307E+10
         0.31698E+10
         0.35753E+10
         0.23701E+10
         0.25473E+10
         0.22212E+10
         0.26313E+10
         0.27686E+10
         0.28671E+10
         0.29296E+10
         0.27517E+10
         0.25300E+10
         0.28579E+10
         0.24407E+10
         0.31583E+10
         0.31042E+10
         0.31184E+10
         0.29593E+10
         0.23954E+10
         0.25189E+10
         0.23477E+10
         0.24557E+10
         0.31441E+10
         0.28836E+10
         0.28936E+10
         0.34615E+10
         0.33722E+10
         0.33316E+10
         0.33911E+10
         0.32200E+10
         0.30451E+10
         0.26858E+10
         0.27966E+10
         0.31432E+10
         0.29055E+10
         0.27314E+10
         0.26768E+10
         0.27759E+10
         0.30152E+10
         0.27842E+10
         0.49878E+10
         0.48599E+10
         0.49614E+10
         0.48063E+10
         0.49494E+10
         0.52032E+10
         0.52870E+10
         0.52756E+10
         0.53129E+10
         0.54341E+10
         0.52767E+10
         0.49611E+10
         0.44478E+10
         0.42038E+10
         0.42153E+10
         0.42693E+10
         0.43109E+10
         0.46746E+10
         0.50091E+10
         0.50295E+10
         0.46553E+10
         0.45114E+10
         0.46604E+10
         0.46269E+10
         0.45742E+10
         0.45614E+10
  
SCALARS                      stress_yy  double 1
LOOKUP_TABLE default
         0.49070E+12
         0.48376E+12
         0.48816E+12
         0.49606E+12
        -0.12850E+03
        -0.14409E+03
        -0.13797E+03
        -0.12534E+03
         0.48351E+12
         0.48587E+12
        -0.12957E+03
        -0.12539E+03
         0.47369E+12
         0.47331E+12
        -0.15396E+03
        -0.14476E+03
         0.49491E+12
         0.47386E+12
        -0.11376E+03
        -0.12618E+03
         0.46611E+12
         0.46010E+12
         0.46967E+12
        -0.15259E+03
        -0.13326E+03
        -0.13761E+03
         0.46033E+12
         0.45155E+12
        -0.14639E+03
        -0.12345E+03
         0.49452E+12
         0.48537E+12
         0.50339E+12
        -0.12492E+03
        -0.11613E+03
        -0.11291E+03
         0.48923E+12
         0.47756E+12
        -0.13216E+03
        -0.12060E+03
         0.48461E+12
         0.47561E+12
        -0.11423E+03
        -0.10112E+03
         0.49223E+12
         0.49561E+12
        -0.12518E+03
        -0.13987E+03
         0.46838E+12
        -0.12229E+03
         0.49495E+12
        -0.14369E+03
         0.45780E+12
        -0.12914E+03
         0.45504E+12
        -0.12387E+03
         0.45508E+12
         0.46490E+12
        -0.12621E+03
        -0.12291E+03
         0.49434E+12
         0.49082E+12
        -0.12656E+03
        -0.14307E+03
         0.49654E+12
        -0.12212E+03
         0.49236E+12
        -0.13328E+03
         0.48135E+12
         0.48024E+12
        -0.12829E+03
        -0.13443E+03
         0.47776E+12
        -0.13555E+03
         0.44842E+12
        -0.10710E+03
         0.44688E+12
        -0.10395E+03
         0.44765E+12
        -0.10961E+03
         0.45190E+12
         0.45632E+12
        -0.10443E+03
        -0.10888E+03
         0.46521E+12
        -0.10140E+03
         0.49205E+12
        -0.13298E+03
         0.48787E+12
        -0.13610E+03
         0.48443E+12
         0.48255E+12
        -0.13070E+03
        -0.13223E+03
         0.48487E+12
        -0.12010E+03
         0.48652E+12
        -0.11839E+03
         0.48503E+12
        -0.12673E+03
         0.48450E+12
         0.48601E+12
        -0.12428E+03
        -0.12793E+03
         0.47621E+12
         0.48019E+12
        -0.96492E+02
        -0.90756E+02
         0.47546E+12
        -0.92138E+02
         0.48005E+12
        -0.88344E+02
         0.47552E+12
        -0.87114E+02
         0.46549E+12
        -0.82323E+02
         0.45576E+12
        -0.73135E+02
         0.44993E+12
        -0.65854E+02
         0.44933E+12
        -0.65397E+02
         0.44952E+12
        -0.70919E+02
         0.45584E+12
        -0.74534E+02
         0.46765E+12
        -0.68057E+02
         0.48061E+12
        -0.61347E+02
         0.48819E+12
        -0.61277E+02
         0.49568E+12
        -0.68492E+02
         0.50063E+12
        -0.78097E+02
         0.50045E+12
        -0.83900E+02
         0.48843E+12
        -0.90611E+02
         0.48005E+12
        -0.97076E+02
         0.47717E+12
        -0.88929E+02
         0.48166E+12
        -0.78014E+02
         0.48401E+12
        -0.77773E+02
         0.48008E+12
        -0.85093E+02
         0.48014E+12
        -0.90715E+02
         0.48310E+12
        -0.86088E+02
         0.48697E+12
        -0.83227E+02
        -0.32190E+11
        -0.32253E+11
        -0.32246E+11
        -0.32156E+11
        -0.32293E+11
        -0.32240E+11
        -0.32301E+11
        -0.32275E+11
        -0.32173E+11
        -0.32244E+11
        -0.32314E+11
        -0.32315E+11
        -0.32309E+11
        -0.32308E+11
        -0.32313E+11
        -0.32161E+11
        -0.32180E+11
        -0.32123E+11
        -0.32259E+11
        -0.32240E+11
        -0.32266E+11
        -0.32250E+11
        -0.32278E+11
        -0.32271E+11
        -0.32242E+11
        -0.32244E+11
        -0.32289E+11
        -0.32286E+11
        -0.32306E+11
        -0.32271E+11
        -0.32171E+11
        -0.32254E+11
        -0.32171E+11
        -0.32230E+11
        -0.32314E+11
        -0.32308E+11
        -0.32298E+11
        -0.32309E+11
        -0.32310E+11
        -0.32314E+11
        -0.32309E+11
        -0.32310E+11
        -0.32265E+11
        -0.32274E+11
        -0.32299E+11
        -0.32314E+11
        -0.32304E+11
        -0.32262E+11
        -0.32266E+11
        -0.32299E+11
        -0.32314E+11
        -0.32290E+11
        -0.32273E+11
        -0.32303E+11
        -0.32300E+11
        -0.32305E+11
        -0.32304E+11
        -0.32290E+11
        -0.32270E+11
        -0.32262E+11
        -0.32266E+11
        -0.32263E+11
        -0.32252E+11
        -0.32302E+11
        -0.32311E+11
        -0.32313E+11
        -0.32315E+11
        -0.32314E+11
        -0.32314E+11
        -0.32314E+11
        -0.32285E+11
        -0.32296E+11
        -0.32307E+11
        -0.32307E+11
        -0.32306E+11
        -0.32294E+11
        -0.32310E+11
        -0.32313E+11
         0.20846E+06
        -0.25668E+06
        -0.76815E+05
         0.82893E+06
         0.29543E+06
         0.10034E+07
        -0.43074E+06
        -0.13380E+07
         0.58583E+06
        -0.13895E+07
        -0.13934E+07
        -0.10861E+07
        -0.30790E+06
        -0.21214E+07
        -0.17043E+07
         0.14029E+06
         0.52662E+06
         0.70338E+06
        -0.50321E+06
         0.88134E+05
        -0.21115E+06
         0.35044E+06
        -0.53863E+06
        -0.22496E+06
        -0.14302E+07
        -0.13738E+06
        -0.28265E+07
        -0.19181E+07
        -0.10057E+07
        -0.12571E+07
         0.11248E+05
        -0.50149E+05
         0.56900E+06
         0.99844E+06
         0.49788E+05
        -0.59002E+05
        -0.26931E+05
        -0.16711E+07
        -0.16802E+07
        -0.12042E+07
        -0.17899E+06
        -0.23541E+06
        -0.17411E+06
        -0.63598E+06
        -0.73023E+06
        -0.11872E+07
        -0.55087E+06
        -0.11340E+06
        -0.21729E+06
         0.40740E+05
         0.45380E+06
         0.11788E+07
        -0.12702E+07
         0.55405E+06
        -0.97052E+06
         0.19129E+06
         0.10158E+07
         0.15445E+07
         0.96086E+06
         0.12846E+07
         0.84836E+06
         0.23474E+06
         0.62354E+06
         0.72550E+06
         0.17651E+06
         0.92705E+06
        -0.34446E+06
        -0.13632E+07
        -0.14982E+07
        -0.17088E+07
        -0.18911E+07
        -0.84023E+06
        -0.69703E+06
        -0.11148E+07
        -0.16351E+07
        -0.11062E+07
         0.11105E+06
         0.86963E+06
         0.15128E+06
        -0.31091E+06
        -0.12974E+06
         0.78681E+06
         0.22652E+06
         0.94260E+06
        -0.48257E+06
        -0.14052E+07
         0.52950E+06
        -0.14631E+07
        -0.14554E+07
        -0.11768E+07
        -0.38573E+06
        -0.21896E+07
        -0.17955E+07
         0.81440E+05
         0.47202E+06
         0.66197E+06
        -0.56361E+06
         0.30863E+05
        -0.28903E+06
         0.27504E+06
        -0.61802E+06
        -0.28095E+06
        -0.15053E+07
        -0.19058E+06
        -0.28927E+07
        -0.19761E+07
        -0.10671E+07
        -0.13341E+07
        -0.43746E+05
        -0.10061E+06
         0.52357E+06
         0.95544E+06
        -0.28835E+05
        -0.12412E+06
        -0.94527E+05
        -0.17621E+07
        -0.17643E+07
        -0.12859E+07
        -0.26843E+06
        -0.32225E+06
        -0.25700E+06
        -0.71193E+06
        -0.80144E+06
        -0.12670E+07
        -0.62175E+06
        -0.17839E+06
        -0.27468E+06
        -0.18598E+05
         0.38114E+06
         0.11147E+07
        -0.14181E+07
         0.40959E+06
        -0.11129E+07
         0.55134E+05
         0.87171E+06
         0.13841E+07
         0.80074E+06
         0.11228E+07
         0.68457E+06
         0.67322E+05
         0.45702E+06
         0.57145E+06
         0.48062E+05
         0.80703E+06
        -0.47018E+06
        -0.14976E+07
        -0.16356E+07
        -0.18523E+07
        -0.20353E+07
        -0.99255E+06
        -0.84084E+06
        -0.12446E+07
        -0.17653E+07
        -0.12392E+07
        -0.23320E+05
         0.73288E+06
         0.16477E+06
        -0.30028E+06
        -0.11860E+06
         0.79790E+06
         0.24405E+06
         0.95842E+06
        -0.47255E+06
        -0.13919E+07
         0.53844E+06
        -0.14627E+07
        -0.14436E+07
        -0.11593E+07
        -0.37079E+06
        -0.21717E+07
        -0.17741E+07
         0.69750E+05
         0.46848E+06
         0.67327E+06
        -0.57878E+06
         0.20223E+05
        -0.30221E+06
         0.27009E+06
        -0.67010E+06
        -0.32132E+06
        -0.15392E+07
        -0.22776E+06
        -0.28799E+07
        -0.19839E+07
        -0.10914E+07
        -0.13882E+07
        -0.43387E+05
        -0.11191E+06
         0.53369E+06
         0.96897E+06
        -0.82360E+04
        -0.10795E+06
        -0.79624E+05
        -0.17470E+07
        -0.17517E+07
        -0.12815E+07
        -0.27082E+06
        -0.35376E+06
        -0.30171E+06
        -0.76289E+06
        -0.81378E+06
        -0.12562E+07
        -0.60903E+06
        -0.16323E+06
        -0.25844E+06
         0.22319E+03
         0.40171E+06
         0.11327E+07
        -0.13740E+07
         0.44909E+06
        -0.10692E+07
         0.88868E+05
         0.89667E+06
         0.14091E+07
         0.83266E+06
         0.11548E+07
         0.71679E+06
         0.10082E+06
         0.47677E+06
         0.57066E+06
         0.50144E+05
         0.82908E+06
        -0.45551E+06
        -0.15249E+07
        -0.16654E+07
        -0.18448E+07
        -0.19958E+07
        -0.94669E+06
        -0.79997E+06
        -0.12033E+07
        -0.17190E+07
        -0.12000E+07
         0.86695E+04
         0.76381E+06
         0.15670E+06
        -0.30489E+06
        -0.12311E+06
         0.79109E+06
         0.23718E+06
         0.95282E+06
        -0.47750E+06
        -0.14019E+07
         0.52187E+06
        -0.14958E+07
        -0.14505E+07
        -0.11686E+07
        -0.37693E+06
        -0.21789E+07
        -0.17861E+07
         0.22965E+05
         0.43600E+06
         0.66592E+06
        -0.63166E+06
        -0.27915E+05
        -0.36140E+06
         0.21799E+06
        -0.79131E+06
        -0.41164E+06
        -0.16277E+07
        -0.31269E+06
        -0.28980E+07
        -0.20309E+07
        -0.11668E+07
        -0.15161E+07
        -0.69905E+05
        -0.15726E+06
         0.52530E+06
         0.96161E+06
        -0.18310E+05
        -0.11467E+06
        -0.85074E+05
        -0.17643E+07
        -0.17730E+07
        -0.13188E+07
        -0.32161E+06
        -0.45208E+06
        -0.42266E+06
        -0.88281E+06
        -0.87288E+06
        -0.12884E+07
        -0.63193E+06
        -0.17497E+06
        -0.26785E+06
        -0.10643E+05
         0.39074E+06
         0.11257E+07
        -0.13946E+07
         0.43480E+06
        -0.10919E+07
         0.69225E+05
         0.88336E+06
         0.13940E+07
         0.80724E+06
         0.11273E+07
         0.68999E+06
         0.68401E+05
         0.42548E+06
         0.48775E+06
        -0.27715E+05
         0.79211E+06
        -0.49699E+06
        -0.16392E+07
        -0.17867E+07
        -0.19016E+07
        -0.20228E+07
        -0.97234E+06
        -0.81962E+06
        -0.12265E+07
        -0.17433E+07
        -0.12162E+07
        -0.35718E+04
         0.75168E+06
         0.14195E+06
        -0.31423E+06
        -0.13089E+06
         0.78405E+06
         0.22933E+06
         0.94522E+06
        -0.48486E+06
        -0.14177E+07
         0.50208E+06
        -0.15301E+07
        -0.14579E+07
        -0.11743E+07
        -0.38379E+06
        -0.21870E+07
        -0.17923E+07
        -0.86201E+04
         0.41012E+06
         0.65912E+06
        -0.66665E+06
        -0.62486E+05
        -0.39965E+06
         0.18055E+06
        -0.86581E+06
        -0.46750E+06
        -0.16923E+07
        -0.36684E+06
        -0.29138E+07
        -0.20649E+07
        -0.12185E+07
        -0.16015E+07
        -0.97571E+05
        -0.19006E+06
         0.51047E+06
         0.95151E+06
        -0.28720E+05
        -0.12322E+06
        -0.93243E+05
        -0.17772E+07
        -0.17908E+07
        -0.13472E+07
        -0.35753E+06
        -0.51814E+06
        -0.50201E+06
        -0.95926E+06
        -0.91205E+06
        -0.13097E+07
        -0.65228E+06
        -0.19406E+06
        -0.28453E+06
        -0.26914E+05
         0.37363E+06
         0.11142E+07
        -0.14131E+07
         0.42231E+06
        -0.11112E+07
         0.53940E+05
         0.87710E+06
         0.13896E+07
         0.79645E+06
         0.11092E+07
         0.66722E+06
         0.48331E+05
         0.39425E+06
         0.43035E+06
        -0.80798E+05
         0.76352E+06
        -0.52628E+06
        -0.17133E+07
        -0.18720E+07
        -0.19422E+07
        -0.20352E+07
        -0.99563E+06
        -0.84562E+06
        -0.12530E+07
        -0.17745E+07
        -0.12427E+07
        -0.19835E+05
         0.73958E+06
         0.10614E+06
        -0.33210E+06
        -0.13859E+06
         0.78970E+06
         0.23820E+06
         0.95611E+06
        -0.49010E+06
        -0.14440E+07
         0.47446E+06
        -0.15755E+07
        -0.14534E+07
        -0.11539E+07
        -0.37593E+06
        -0.21832E+07
        -0.17677E+07
        -0.26704E+04
         0.40348E+06
         0.67069E+06
        -0.66003E+06
        -0.57071E+05
        -0.38906E+06
         0.19363E+06
        -0.86422E+06
        -0.46839E+06
        -0.17214E+07
        -0.37398E+06
        -0.29176E+07
        -0.20688E+07
        -0.12147E+07
        -0.16055E+07
        -0.13070E+06
        -0.20714E+06
         0.48674E+06
         0.94867E+06
        -0.19611E+05
        -0.12254E+06
        -0.94809E+05
        -0.17619E+07
        -0.17781E+07
        -0.13324E+07
        -0.34038E+06
        -0.50757E+06
        -0.49363E+06
        -0.96461E+06
        -0.91746E+06
        -0.13134E+07
        -0.66995E+06
        -0.23297E+06
        -0.32607E+06
        -0.49195E+05
         0.36799E+06
         0.11195E+07
        -0.13768E+07
         0.45971E+06
        -0.10809E+07
         0.74379E+05
         0.89849E+06
         0.14189E+07
         0.82961E+06
         0.11411E+07
         0.70353E+06
         0.96473E+05
         0.43633E+06
         0.45565E+06
        -0.52772E+05
         0.79267E+06
        -0.49805E+06
        -0.16909E+07
        -0.18560E+07
        -0.19261E+07
        -0.20157E+07
        -0.98208E+06
        -0.84867E+06
        -0.12715E+07
        -0.17868E+07
        -0.12363E+07
        -0.14554E+04
         0.76591E+06
         0.51554E+05
        -0.36366E+06
        -0.15693E+06
         0.78533E+06
         0.23044E+06
         0.95503E+06
        -0.51118E+06
        -0.14940E+07
         0.42810E+06
        -0.16412E+07
        -0.14689E+07
        -0.11615E+07
        -0.38848E+06
        -0.22043E+07
        -0.17740E+07
        -0.12054E+05
         0.38204E+06
         0.66869E+06
        -0.66654E+06
        -0.64825E+05
        -0.39476E+06
         0.18990E+06
        -0.87016E+06
        -0.47498E+06
        -0.17616E+07
        -0.38725E+06
        -0.29445E+07
        -0.20863E+07
        -0.12195E+07
        -0.16166E+07
        -0.17721E+06
        -0.23537E+06
         0.45143E+06
         0.93526E+06
        -0.31821E+05
        -0.13631E+06
        -0.11080E+06
        -0.17756E+07
        -0.17912E+07
        -0.13392E+07
        -0.34372E+06
        -0.50890E+06
        -0.49448E+06
        -0.97673E+06
        -0.93939E+06
        -0.13436E+07
        -0.71054E+06
        -0.29179E+06
        -0.38556E+06
        -0.88432E+05
         0.34519E+06
         0.11117E+07
        -0.13918E+07
         0.44786E+06
        -0.10901E+07
         0.64061E+05
         0.88347E+06
         0.14011E+07
         0.81493E+06
         0.11286E+07
         0.69072E+06
         0.86932E+05
         0.42873E+06
         0.44633E+06
        -0.54404E+05
         0.79032E+06
        -0.50423E+06
        -0.16945E+07
        -0.18635E+07
        -0.19519E+07
        -0.20540E+07
        -0.10241E+07
        -0.89604E+06
        -0.13299E+07
        -0.18382E+07
        -0.12632E+07
        -0.15856E+05
         0.75470E+06
         0.35664E+05
        -0.37531E+06
        -0.16455E+06
         0.77946E+06
         0.22213E+06
         0.94764E+06
        -0.52200E+06
        -0.15121E+07
         0.41414E+06
        -0.16626E+07
        -0.14802E+07
        -0.11723E+07
        -0.40083E+06
        -0.22156E+07
        -0.17842E+07
        -0.20496E+05
         0.37286E+06
         0.66343E+06
        -0.67255E+06
        -0.70821E+05
        -0.40349E+06
         0.18122E+06
        -0.87796E+06
        -0.47997E+06
        -0.17776E+07
        -0.39457E+06
        -0.29561E+07
        -0.20957E+07
        -0.12283E+07
        -0.16272E+07
        -0.19216E+06
        -0.24629E+06
         0.43893E+06
         0.92750E+06
        -0.42128E+05
        -0.14388E+06
        -0.12060E+06
        -0.17926E+07
        -0.18063E+07
        -0.13536E+07
        -0.35898E+06
        -0.52059E+06
        -0.50213E+06
        -0.98764E+06
        -0.95269E+06
        -0.13578E+07
        -0.72422E+06
        -0.30633E+06
        -0.40009E+06
        -0.10175E+06
         0.33109E+06
         0.11020E+07
        -0.14126E+07
         0.42735E+06
        -0.11042E+07
         0.49804E+05
         0.86611E+06
         0.13860E+07
         0.79947E+06
         0.11072E+07
         0.66217E+06
         0.57015E+05
         0.40164E+06
         0.43398E+06
        -0.64132E+05
         0.76951E+06
        -0.52601E+06
        -0.17154E+07
        -0.18908E+07
        -0.19780E+07
        -0.20758E+07
        -0.10417E+07
        -0.91055E+06
        -0.13495E+07
        -0.18641E+07
        -0.12870E+07
        -0.35845E+05
         0.73495E+06
         0.45824E+05
        -0.36727E+06
        -0.15895E+06
         0.78107E+06
         0.23030E+06
         0.94934E+06
        -0.51520E+06
        -0.15011E+07
         0.42246E+06
        -0.16530E+07
        -0.14737E+07
        -0.11612E+07
        -0.39280E+06
        -0.22022E+07
        -0.17676E+07
        -0.92119E+04
         0.37994E+06
         0.66880E+06
        -0.66261E+06
        -0.62215E+05
        -0.39266E+06
         0.19168E+06
        -0.86668E+06
        -0.47051E+06
        -0.17708E+07
        -0.38539E+06
        -0.29399E+07
        -0.20851E+07
        -0.12197E+07
        -0.16190E+07
        -0.18286E+06
        -0.23935E+06
         0.44267E+06
         0.92950E+06
        -0.30310E+05
        -0.13564E+06
        -0.11316E+06
        -0.17814E+07
        -0.17979E+07
        -0.13456E+07
        -0.34899E+06
        -0.50934E+06
        -0.49085E+06
        -0.97806E+06
        -0.94485E+06
        -0.13490E+07
        -0.71591E+06
        -0.29603E+06
        -0.39004E+06
        -0.93575E+05
         0.33709E+06
         0.11043E+07
        -0.13815E+07
         0.45774E+06
        -0.10862E+07
         0.57262E+05
         0.88118E+06
         0.14098E+07
         0.82593E+06
         0.11262E+07
         0.66932E+06
         0.68113E+05
         0.42163E+06
         0.46226E+06
        -0.39361E+05
         0.78551E+06
        -0.51085E+06
        -0.16980E+07
        -0.18734E+07
        -0.19562E+07
        -0.20550E+07
        -0.10171E+07
        -0.88542E+06
        -0.13270E+07
        -0.18454E+07
        -0.12701E+07
        -0.18870E+05
         0.75336E+06
         0.43266E+05
        -0.36785E+06
        -0.16059E+06
         0.77711E+06
         0.22825E+06
         0.94518E+06
        -0.51684E+06
        -0.15068E+07
         0.41530E+06
        -0.16627E+07
        -0.14790E+07
        -0.11677E+07
        -0.39465E+06
        -0.22073E+07
        -0.17782E+07
        -0.14380E+05
         0.37368E+06
         0.66315E+06
        -0.66765E+06
        -0.66807E+05
        -0.39737E+06
         0.18613E+06
        -0.87074E+06
        -0.47371E+06
        -0.17775E+07
        -0.38811E+06
        -0.29437E+07
        -0.20863E+07
        -0.12215E+07
        -0.16245E+07
        -0.18727E+06
        -0.24239E+06
         0.43514E+06
         0.92366E+06
        -0.34046E+05
        -0.13916E+06
        -0.11551E+06
        -0.17962E+07
        -0.18067E+07
        -0.13530E+07
        -0.35655E+06
        -0.51378E+06
        -0.49739E+06
        -0.98154E+06
        -0.94832E+06
        -0.13537E+07
        -0.72248E+06
        -0.30264E+06
        -0.39558E+06
        -0.98508E+05
         0.33157E+06
         0.10987E+07
        -0.13904E+07
         0.45058E+06
        -0.11009E+07
         0.44903E+05
         0.87938E+06
         0.14011E+07
         0.80579E+06
         0.11037E+07
         0.65601E+06
         0.48207E+05
         0.39991E+06
         0.45135E+06
        -0.52148E+05
         0.77845E+06
        -0.51742E+06
        -0.17043E+07
        -0.18747E+07
        -0.19607E+07
        -0.20613E+07
        -0.10337E+07
        -0.90604E+06
        -0.13429E+07
        -0.18535E+07
        -0.12738E+07
        -0.27733E+05
         0.74084E+06
         0.35997E+05
        -0.37373E+06
        -0.16502E+06
         0.77474E+06
         0.22231E+06
         0.94238E+06
        -0.52151E+06
        -0.15148E+07
         0.40875E+06
        -0.16724E+07
        -0.14849E+07
        -0.11764E+07
        -0.40024E+06
        -0.22111E+07
        -0.17891E+07
        -0.21641E+05
         0.36854E+06
         0.65996E+06
        -0.67373E+06
        -0.70191E+05
        -0.40332E+06
         0.18048E+06
        -0.87688E+06
        -0.47884E+06
        -0.17840E+07
        -0.39373E+06
        -0.29466E+07
        -0.20888E+07
        -0.12236E+07
        -0.16287E+07
        -0.19378E+06
        -0.24767E+06
         0.43015E+06
         0.92222E+06
        -0.43133E+05
        -0.14514E+06
        -0.12083E+06
        -0.18106E+07
        -0.18165E+07
        -0.13595E+07
        -0.36099E+06
        -0.51754E+06
        -0.50337E+06
        -0.98763E+06
        -0.95413E+06
        -0.13599E+07
        -0.72864E+06
        -0.30832E+06
        -0.40086E+06
        -0.10278E+06
         0.32633E+06
         0.10962E+07
        -0.14083E+07
         0.43556E+06
        -0.11122E+07
         0.41142E+05
         0.87442E+06
         0.13836E+07
         0.78047E+06
         0.10835E+07
         0.64223E+06
         0.33885E+05
         0.39103E+06
         0.44058E+06
        -0.67505E+05
         0.76796E+06
        -0.52837E+06
        -0.17171E+07
        -0.18835E+07
        -0.19708E+07
        -0.20737E+07
        -0.10473E+07
        -0.92174E+06
        -0.13591E+07
        -0.18653E+07
        -0.12846E+07
        -0.41337E+05
         0.72654E+06
         0.40837E+05
        -0.37114E+06
        -0.16305E+06
         0.77780E+06
         0.22770E+06
         0.94719E+06
        -0.51725E+06
        -0.15075E+07
         0.41234E+06
        -0.16697E+07
        -0.14788E+07
        -0.11687E+07
        -0.39775E+06
        -0.21987E+07
        -0.17737E+07
        -0.15258E+05
         0.37081E+06
         0.66531E+06
        -0.66792E+06
        -0.63240E+05
        -0.39476E+06
         0.18983E+06
        -0.86928E+06
        -0.47294E+06
        -0.17822E+07
        -0.38771E+06
        -0.29363E+07
        -0.20820E+07
        -0.12140E+07
        -0.16197E+07
        -0.18636E+06
        -0.24281E+06
         0.43501E+06
         0.92781E+06
        -0.35818E+05
        -0.13994E+06
        -0.11777E+06
        -0.18017E+07
        -0.18081E+07
        -0.13476E+07
        -0.34982E+06
        -0.50896E+06
        -0.49431E+06
        -0.98197E+06
        -0.94956E+06
        -0.13551E+07
        -0.72373E+06
        -0.30205E+06
        -0.39414E+06
        -0.95751E+05
         0.33261E+06
         0.11026E+07
        -0.13856E+07
         0.46003E+06
        -0.10893E+07
         0.52446E+05
         0.87064E+06
         0.13849E+07
         0.79884E+06
         0.11038E+07
         0.65578E+06
         0.54553E+05
         0.41067E+06
         0.44981E+06
        -0.50944E+05
         0.78472E+06
        -0.51305E+06
        -0.17054E+07
        -0.18758E+07
        -0.19609E+07
        -0.20643E+07
        -0.10326E+07
        -0.90444E+06
        -0.13425E+07
        -0.18509E+07
        -0.12721E+07
        -0.22932E+05
         0.74810E+06
         0.37490E+05
        -0.37584E+06
        -0.16734E+06
         0.77331E+06
         0.22163E+06
         0.94144E+06
        -0.52303E+06
        -0.15148E+07
         0.40699E+06
        -0.16810E+07
        -0.14869E+07
        -0.11795E+07
        -0.40911E+06
        -0.22056E+07
        -0.17817E+07
        -0.21096E+05
         0.36442E+06
         0.65928E+06
        -0.67528E+06
        -0.68720E+05
        -0.40521E+06
         0.17969E+06
        -0.87975E+06
        -0.47890E+06
        -0.17928E+07
        -0.39258E+06
        -0.29462E+07
        -0.20910E+07
        -0.12205E+07
        -0.16265E+07
        -0.19240E+06
        -0.24777E+06
         0.42624E+06
         0.92248E+06
        -0.44495E+05
        -0.14690E+06
        -0.12646E+06
        -0.18173E+07
        -0.18233E+07
        -0.13601E+07
        -0.36409E+06
        -0.52177E+06
        -0.50445E+06
        -0.99387E+06
        -0.95982E+06
        -0.13641E+07
        -0.73236E+06
        -0.31104E+06
        -0.40105E+06
        -0.10062E+06
         0.32562E+06
         0.10962E+07
        -0.14033E+07
         0.44464E+06
        -0.11070E+07
         0.32265E+05
         0.84703E+06
         0.13625E+07
         0.78519E+06
         0.10863E+07
         0.63249E+06
         0.31548E+05
         0.38266E+06
         0.42205E+06
        -0.69302E+05
         0.76565E+06
        -0.52941E+06
        -0.17243E+07
        -0.19052E+07
        -0.19871E+07
        -0.20774E+07
        -0.10506E+07
        -0.92312E+06
        -0.13521E+07
        -0.18575E+07
        -0.12855E+07
        -0.41356E+05
         0.72981E+06
         0.36953E+05
        -0.37732E+06
        -0.16874E+06
         0.77178E+06
         0.22057E+06
         0.93950E+06
        -0.52435E+06
        -0.15164E+07
         0.40686E+06
        -0.16836E+07
        -0.14889E+07
        -0.11809E+07
        -0.41088E+06
        -0.22038E+07
        -0.17820E+07
        -0.22099E+05
         0.36374E+06
         0.65812E+06
        -0.67639E+06
        -0.68869E+05
        -0.40774E+06
         0.17808E+06
        -0.88211E+06
        -0.47985E+06
        -0.17963E+07
        -0.39360E+06
        -0.29443E+07
        -0.20923E+07
        -0.12217E+07
        -0.16287E+07
        -0.19543E+06
        -0.24948E+06
         0.42172E+06
         0.92099E+06
        -0.46496E+05
        -0.14924E+06
        -0.12912E+06
        -0.18252E+07
        -0.18323E+07
        -0.13652E+07
        -0.36591E+06
        -0.52279E+06
        -0.50590E+06
        -0.99630E+06
        -0.96211E+06
        -0.13663E+07
        -0.73541E+06
        -0.31450E+06
        -0.40355E+06
        -0.10126E+06
         0.32431E+06
         0.10946E+07
        -0.14037E+07
         0.44491E+06
        -0.11119E+07
         0.24478E+05
         0.84647E+06
         0.13622E+07
         0.77973E+06
         0.10717E+07
         0.61567E+06
         0.22320E+05
         0.38174E+06
         0.41924E+06
        -0.73916E+05
         0.75820E+06
        -0.53794E+06
        -0.17305E+07
        -0.19094E+07
        -0.19907E+07
        -0.20812E+07
        -0.10571E+07
        -0.93144E+06
        -0.13574E+07
        -0.18582E+07
        -0.12870E+07
        -0.49461E+05
         0.72254E+06
         0.52094E+05
        -0.36211E+06
        -0.15638E+06
         0.78004E+06
         0.23717E+06
         0.95115E+06
        -0.50939E+06
        -0.14997E+07
         0.41690E+06
        -0.16720E+07
        -0.14730E+07
        -0.11570E+07
        -0.39034E+06
        -0.21834E+07
        -0.17587E+07
        -0.84560E+04
         0.37368E+06
         0.66800E+06
        -0.66311E+06
        -0.54918E+05
        -0.38829E+06
         0.19664E+06
        -0.86339E+06
        -0.46734E+06
        -0.17831E+07
        -0.38088E+06
        -0.29238E+07
        -0.20741E+07
        -0.12036E+07
        -0.16112E+07
        -0.18084E+06
        -0.23660E+06
         0.43009E+06
         0.92860E+06
        -0.26977E+05
        -0.13378E+06
        -0.11266E+06
        -0.18108E+07
        -0.18148E+07
        -0.13457E+07
        -0.34706E+06
        -0.50351E+06
        -0.48896E+06
        -0.97770E+06
        -0.94365E+06
        -0.13468E+07
        -0.71889E+06
        -0.29875E+06
        -0.39027E+06
        -0.88953E+05
         0.33741E+06
         0.11059E+07
        -0.13624E+07
         0.48585E+06
        -0.10775E+07
         0.49484E+05
         0.87692E+06
         0.14010E+07
         0.81228E+06
         0.10965E+07
         0.64326E+06
         0.52601E+05
         0.40906E+06
         0.45115E+06
        -0.48607E+05
         0.78630E+06
        -0.50583E+06
        -0.16971E+07
        -0.18720E+07
        -0.19502E+07
        -0.20464E+07
        -0.10206E+07
        -0.90050E+06
        -0.13343E+07
        -0.18328E+07
        -0.12565E+07
        -0.16351E+05
         0.75605E+06
         0.45866E+05
        -0.36631E+06
        -0.16038E+06
         0.77454E+06
         0.22965E+06
         0.94525E+06
        -0.51459E+06
        -0.15088E+07
         0.40943E+06
        -0.16856E+07
        -0.14810E+07
        -0.11652E+07
        -0.39535E+06
        -0.21907E+07
        -0.17698E+07
        -0.16012E+05
         0.36604E+06
         0.66310E+06
        -0.67269E+06
        -0.61732E+05
        -0.39541E+06
         0.18738E+06
        -0.86987E+06
        -0.47458E+06
        -0.17951E+07
        -0.38798E+06
        -0.29327E+07
        -0.20803E+07
        -0.12044E+07
        -0.16163E+07
        -0.18516E+06
        -0.24230E+06
         0.42355E+06
         0.92220E+06
        -0.38165E+05
        -0.14009E+06
        -0.11692E+06
        -0.18284E+07
        -0.18273E+07
        -0.13513E+07
        -0.35615E+06
        -0.51343E+06
        -0.50064E+06
        -0.98668E+06
        -0.95265E+06
        -0.13553E+07
        -0.72612E+06
        -0.30374E+06
        -0.39600E+06
        -0.96488E+05
         0.32904E+06
         0.10993E+07
        -0.13886E+07
         0.46369E+06
        -0.10979E+07
         0.38817E+05
         0.87319E+06
         0.13910E+07
         0.79030E+06
         0.10701E+07
         0.61747E+06
         0.29694E+05
         0.38205E+06
         0.42014E+06
        -0.70461E+05
         0.77538E+06
        -0.51090E+06
        -0.17005E+07
        -0.18829E+07
        -0.19687E+07
        -0.20601E+07
        -0.10368E+07
        -0.91550E+06
        -0.13511E+07
        -0.18509E+07
        -0.12676E+07
        -0.26750E+05
         0.73877E+06
         0.35398E+05
        -0.37724E+06
        -0.17113E+06
         0.76722E+06
         0.21786E+06
         0.93445E+06
        -0.52301E+06
        -0.15193E+07
         0.39890E+06
        -0.17078E+07
        -0.14904E+07
        -0.11787E+07
        -0.40645E+06
        -0.21983E+07
        -0.17837E+07
        -0.25320E+05
         0.35521E+06
         0.65742E+06
        -0.68062E+06
        -0.64825E+05
        -0.40411E+06
         0.17656E+06
        -0.87767E+06
        -0.48077E+06
        -0.18143E+07
        -0.39493E+06
        -0.29531E+07
        -0.20902E+07
        -0.11833E+07
        -0.16040E+07
        -0.19324E+06
        -0.25048E+06
         0.41705E+06
         0.91765E+06
        -0.50766E+05
        -0.15040E+06
        -0.12709E+06
        -0.18542E+07
        -0.18396E+07
        -0.13332E+07
        -0.35718E+06
        -0.52419E+06
        -0.51623E+06
        -0.99638E+06
        -0.96398E+06
        -0.13687E+07
        -0.73846E+06
        -0.31276E+06
        -0.40268E+06
        -0.10244E+06
         0.32160E+06
         0.10912E+07
        -0.14059E+07
         0.44755E+06
        -0.11119E+07
         0.26807E+05
         0.85636E+06
         0.13638E+07
         0.75929E+06
         0.10405E+07
         0.59148E+06
         0.23690E+05
         0.33491E+06
         0.34595E+06
        -0.10118E+06
         0.75828E+06
        -0.52614E+06
        -0.17143E+07
        -0.19001E+07
        -0.19881E+07
        -0.20827E+07
        -0.10621E+07
        -0.93268E+06
        -0.13672E+07
        -0.18693E+07
        -0.12809E+07
        -0.47392E+05
         0.71567E+06
         0.49823E+05
        -0.36324E+06
        -0.15769E+06
         0.77730E+06
         0.23552E+06
         0.94707E+06
        -0.50994E+06
        -0.15029E+07
         0.40567E+06
        -0.17134E+07
        -0.14763E+07
        -0.11608E+07
        -0.39121E+06
        -0.21789E+07
        -0.17630E+07
        -0.11525E+05
         0.36235E+06
         0.66670E+06
        -0.66520E+06
        -0.42152E+05
        -0.38799E+06
         0.19278E+06
        -0.86263E+06
        -0.46728E+06
        -0.18131E+07
        -0.38112E+06
        -0.29566E+07
        -0.20789E+07
        -0.11191E+07
        -0.15477E+07
        -0.18073E+06
        -0.23740E+06
         0.42518E+06
         0.92789E+06
        -0.29853E+05
        -0.13316E+06
        -0.11155E+06
        -0.18535E+07
        -0.18194E+07
        -0.12649E+07
        -0.32069E+06
        -0.50466E+06
        -0.50638E+06
        -0.98049E+06
        -0.94594E+06
        -0.13470E+07
        -0.72121E+06
        -0.29832E+06
        -0.38814E+06
        -0.85877E+05
         0.33906E+06
         0.11046E+07
        -0.13635E+07
         0.48914E+06
        -0.10694E+07
         0.56597E+05
         0.87533E+06
         0.13859E+07
         0.78980E+06
         0.10715E+07
         0.62524E+06
         0.89655E+05
         0.31960E+06
         0.28623E+06
        -0.98949E+05
         0.78157E+06
        -0.50654E+06
        -0.16980E+07
        -0.18801E+07
        -0.19543E+07
        -0.20411E+07
        -0.10231E+07
        -0.89912E+06
        -0.13326E+07
        -0.18303E+07
        -0.12445E+07
        -0.17827E+05
         0.74672E+06
        -0.36331E+04
        -0.41415E+06
        -0.20675E+06
         0.73534E+06
         0.17092E+06
         0.88926E+06
        -0.55877E+06
        -0.15666E+07
         0.35077E+06
        -0.17931E+07
        -0.15351E+07
        -0.12451E+07
        -0.46899E+06
        -0.22456E+07
        -0.18499E+07
        -0.62806E+05
         0.31208E+06
         0.62545E+06
        -0.71892E+06
        -0.87832E+05
        -0.46122E+06
         0.12150E+06
        -0.93294E+06
        -0.51393E+06
        -0.18842E+07
        -0.42504E+06
        -0.30368E+07
        -0.21348E+07
        -0.11436E+07
        -0.15872E+07
        -0.22997E+06
        -0.28311E+06
         0.37992E+06
         0.88171E+06
        -0.10647E+06
        -0.19735E+06
        -0.18076E+06
        -0.19527E+07
        -0.18967E+07
        -0.13098E+07
        -0.39304E+06
        -0.58192E+06
        -0.58418E+06
        -0.10487E+07
        -0.10165E+07
        -0.14294E+07
        -0.79009E+06
        -0.35887E+06
        -0.44510E+06
        -0.14926E+06
         0.26103E+06
         0.10389E+07
        -0.15111E+07
         0.34575E+06
        -0.12188E+07
        -0.95226E+05
         0.72387E+06
         0.12402E+07
         0.64163E+06
         0.91258E+06
         0.47599E+06
        -0.46236E+05
         0.13024E+06
         0.80176E+05
        -0.24466E+06
         0.66065E+06
        -0.63330E+06
        -0.18299E+07
        -0.20166E+07
        -0.21068E+07
        -0.21977E+07
        -0.11732E+07
        -0.10384E+07
        -0.14658E+07
        -0.19668E+07
        -0.13845E+07
        -0.15226E+06
         0.61329E+06
         0.27078E+05
        -0.41051E+06
        -0.19777E+06
         0.75095E+06
         0.19204E+06
         0.90754E+06
        -0.55220E+06
        -0.15297E+07
         0.38572E+06
        -0.17397E+07
        -0.15201E+07
        -0.12434E+07
        -0.48882E+06
        -0.22010E+07
        -0.18118E+07
        -0.22637E+05
         0.34419E+06
         0.64801E+06
        -0.69063E+06
        -0.60242E+05
        -0.42864E+06
         0.14591E+06
        -0.88254E+06
        -0.47864E+06
        -0.18270E+07
        -0.39187E+06
        -0.29685E+07
        -0.20709E+07
        -0.10899E+07
        -0.15302E+07
        -0.19903E+06
        -0.26239E+06
         0.39058E+06
         0.87454E+06
        -0.94797E+05
        -0.20240E+06
        -0.20043E+06
        -0.19078E+07
        -0.18430E+07
        -0.12624E+07
        -0.36081E+06
        -0.53786E+06
        -0.53780E+06
        -0.10032E+07
        -0.99149E+06
        -0.14170E+07
        -0.78015E+06
        -0.33283E+06
        -0.42560E+06
        -0.14768E+06
         0.26605E+06
         0.10401E+07
        -0.14543E+07
         0.41956E+06
        -0.12002E+07
        -0.12799E+06
         0.65578E+06
         0.11988E+07
         0.70958E+06
         0.98244E+06
         0.53138E+06
        -0.13289E+05
         0.13940E+06
         0.10831E+06
        -0.18956E+06
         0.68785E+06
        -0.57574E+06
        -0.17477E+07
        -0.19468E+07
        -0.20532E+07
        -0.21746E+07
        -0.11759E+07
        -0.10076E+07
        -0.14217E+07
        -0.18967E+07
        -0.12990E+07
        -0.84896E+05
         0.68310E+06
         0.21032E+09
         0.20367E+09
         0.20060E+09
         0.17079E+09
         0.25293E+09
         0.22572E+09
         0.20031E+09
         0.23884E+09
         0.19415E+09
         0.23869E+09
         0.23647E+09
         0.32243E+09
         0.28438E+09
         0.25991E+09
         0.33260E+09
         0.19368E+09
         0.18725E+09
         0.14965E+09
         0.20364E+09
         0.19192E+09
         0.26198E+09
         0.26324E+09
         0.24906E+09
         0.18319E+09
         0.22651E+09
         0.16256E+09
         0.25622E+09
         0.20357E+09
         0.21873E+09
         0.23616E+09
         0.19078E+09
         0.17783E+09
         0.17063E+09
         0.17618E+09
         0.28876E+09
         0.24430E+09
         0.25230E+09
         0.31166E+09
         0.29435E+09
         0.28804E+09
         0.30550E+09
         0.28636E+09
         0.27134E+09
         0.23823E+09
         0.24578E+09
         0.29108E+09
         0.25328E+09
         0.23125E+09
         0.21868E+09
         0.23322E+09
         0.27418E+09
         0.23975E+09
         0.53976E+09
         0.52885E+09
         0.53820E+09
         0.52080E+09
         0.53714E+09
         0.56348E+09
         0.56567E+09
         0.55921E+09
         0.56354E+09
         0.57956E+09
         0.56256E+09
         0.53070E+09
         0.47018E+09
         0.44374E+09
         0.45055E+09
         0.46108E+09
         0.46688E+09
         0.50871E+09
         0.54422E+09
         0.54659E+09
         0.50098E+09
         0.48299E+09
         0.50058E+09
         0.49578E+09
         0.49301E+09
         0.49404E+09
         0.24745E+10
         0.25914E+10
         0.25538E+10
         0.23291E+10
         0.28708E+10
         0.26954E+10
         0.28038E+10
         0.28270E+10
         0.24186E+10
         0.28255E+10
         0.30798E+10
         0.34541E+10
         0.31307E+10
         0.31699E+10
         0.35750E+10
         0.23701E+10
         0.25473E+10
         0.22212E+10
         0.26312E+10
         0.27686E+10
         0.28674E+10
         0.29299E+10
         0.27520E+10
         0.25300E+10
         0.28578E+10
         0.24407E+10
         0.31584E+10
         0.31042E+10
         0.31184E+10
         0.29592E+10
         0.23954E+10
         0.25189E+10
         0.23477E+10
         0.24557E+10
         0.31444E+10
         0.28836E+10
         0.28937E+10
         0.34614E+10
         0.33720E+10
         0.33314E+10
         0.33913E+10
         0.32203E+10
         0.30454E+10
         0.26860E+10
         0.27966E+10
         0.31430E+10
         0.29055E+10
         0.27314E+10
         0.26767E+10
         0.27758E+10
         0.30153E+10
         0.27844E+10
         0.49886E+10
         0.48606E+10
         0.49617E+10
         0.48063E+10
         0.49489E+10
         0.52023E+10
         0.52861E+10
         0.52748E+10
         0.53121E+10
         0.54336E+10
         0.52771E+10
         0.49619E+10
         0.44486E+10
         0.42046E+10
         0.42162E+10
         0.42701E+10
         0.43113E+10
         0.46747E+10
         0.50085E+10
         0.50286E+10
         0.46545E+10
         0.45107E+10
         0.46598E+10
         0.46270E+10
         0.45749E+10
         0.45621E+10
  
SCALARS                      stress_zz  double 1
LOOKUP_TABLE default
         0.49126E+12
         0.48431E+12
         0.48872E+12
         0.49662E+12
        -0.29983E+03
        -0.33621E+03
        -0.32193E+03
        -0.29246E+03
         0.48407E+12
         0.48642E+12
        -0.30234E+03
        -0.29259E+03
         0.47424E+12
         0.47387E+12
        -0.35924E+03
        -0.33778E+03
         0.49547E+12
         0.47442E+12
        -0.26544E+03
        -0.29441E+03
         0.46667E+12
         0.46066E+12
         0.47023E+12
        -0.35605E+03
        -0.31094E+03
        -0.32108E+03
         0.46089E+12
         0.45210E+12
        -0.34158E+03
        -0.28806E+03
         0.49508E+12
         0.48593E+12
         0.50395E+12
        -0.29149E+03
        -0.27098E+03
        -0.26346E+03
         0.48979E+12
         0.47812E+12
        -0.30838E+03
        -0.28140E+03
         0.48517E+12
         0.47616E+12
        -0.26653E+03
        -0.23595E+03
         0.49279E+12
         0.49617E+12
        -0.29208E+03
        -0.32635E+03
         0.46894E+12
        -0.28533E+03
         0.49551E+12
        -0.33528E+03
         0.45836E+12
        -0.30132E+03
         0.45559E+12
        -0.28903E+03
         0.45564E+12
         0.46545E+12
        -0.29449E+03
        -0.28680E+03
         0.49490E+12
         0.49138E+12
        -0.29530E+03
        -0.33383E+03
         0.49709E+12
        -0.28494E+03
         0.49291E+12
        -0.31098E+03
         0.48190E+12
         0.48080E+12
        -0.29935E+03
        -0.31366E+03
         0.47831E+12
        -0.31629E+03
         0.44898E+12
        -0.24989E+03
         0.44744E+12
        -0.24256E+03
         0.44820E+12
        -0.25576E+03
         0.45245E+12
         0.45687E+12
        -0.24368E+03
        -0.25405E+03
         0.46577E+12
        -0.23661E+03
         0.49261E+12
        -0.31028E+03
         0.48843E+12
        -0.31757E+03
         0.48499E+12
         0.48311E+12
        -0.30497E+03
        -0.30853E+03
         0.48543E+12
        -0.28023E+03
         0.48708E+12
        -0.27623E+03
         0.48559E+12
        -0.29571E+03
         0.48506E+12
         0.48657E+12
        -0.28999E+03
        -0.29850E+03
         0.47677E+12
         0.48075E+12
        -0.22515E+03
        -0.21176E+03
         0.47602E+12
        -0.21499E+03
         0.48061E+12
        -0.20614E+03
         0.47608E+12
        -0.20327E+03
         0.46605E+12
        -0.19209E+03
         0.45631E+12
        -0.17065E+03
         0.45048E+12
        -0.15366E+03
         0.44988E+12
        -0.15259E+03
         0.45007E+12
        -0.16548E+03
         0.45640E+12
        -0.17391E+03
         0.46821E+12
        -0.15880E+03
         0.48117E+12
        -0.14314E+03
         0.48875E+12
        -0.14298E+03
         0.49624E+12
        -0.15981E+03
         0.50119E+12
        -0.18223E+03
         0.50101E+12
        -0.19577E+03
         0.48899E+12
        -0.21143E+03
         0.48061E+12
        -0.22651E+03
         0.47773E+12
        -0.20750E+03
         0.48222E+12
        -0.18203E+03
         0.48457E+12
        -0.18147E+03
         0.48064E+12
        -0.19855E+03
         0.48070E+12
        -0.21167E+03
         0.48366E+12
        -0.20087E+03
         0.48752E+12
        -0.19420E+03
        -0.32611E+11
        -0.32675E+11
        -0.32667E+11
        -0.32577E+11
        -0.32714E+11
        -0.32661E+11
        -0.32722E+11
        -0.32697E+11
        -0.32594E+11
        -0.32665E+11
        -0.32735E+11
        -0.32736E+11
        -0.32730E+11
        -0.32730E+11
        -0.32735E+11
        -0.32582E+11
        -0.32601E+11
        -0.32544E+11
        -0.32680E+11
        -0.32661E+11
        -0.32687E+11
        -0.32671E+11
        -0.32699E+11
        -0.32693E+11
        -0.32663E+11
        -0.32665E+11
        -0.32710E+11
        -0.32707E+11
        -0.32727E+11
        -0.32692E+11
        -0.32592E+11
        -0.32675E+11
        -0.32593E+11
        -0.32651E+11
        -0.32736E+11
        -0.32729E+11
        -0.32719E+11
        -0.32730E+11
        -0.32731E+11
        -0.32735E+11
        -0.32725E+11
        -0.32731E+11
        -0.32686E+11
        -0.32695E+11
        -0.32720E+11
        -0.32736E+11
        -0.32725E+11
        -0.32683E+11
        -0.32687E+11
        -0.32721E+11
        -0.32735E+11
        -0.32711E+11
        -0.32645E+11
        -0.32711E+11
        -0.32703E+11
        -0.32714E+11
        -0.32712E+11
        -0.32681E+11
        -0.32637E+11
        -0.32620E+11
        -0.32627E+11
        -0.32622E+11
        -0.32598E+11
        -0.32709E+11
        -0.32729E+11
        -0.32733E+11
        -0.32735E+11
        -0.32734E+11
        -0.32734E+11
        -0.32734E+11
        -0.32672E+11
        -0.32696E+11
        -0.32720E+11
        -0.32720E+11
        -0.32717E+11
        -0.32691E+11
        -0.32725E+11
        -0.32731E+11
         0.23454E+07
         0.14117E+07
         0.16383E+07
         0.25109E+07
         0.19434E+07
         0.26302E+07
        -0.20800E+06
         0.35513E+05
         0.27966E+07
        -0.11103E+06
        -0.12522E+07
         0.10763E+07
         0.14130E+07
        -0.25407E+07
         0.20483E+06
         0.12950E+07
         0.17420E+07
         0.18940E+07
         0.64200E+06
         0.48654E+06
         0.85715E+06
         0.15217E+07
         0.32793E+06
         0.36403E+05
        -0.76230E+06
        -0.62498E+05
        -0.38618E+07
        -0.44039E+07
        -0.20611E+07
        -0.48524E+06
         0.11833E+07
         0.30222E+06
         0.21928E+07
         0.30565E+07
         0.10704E+07
         0.91455E+06
         0.13077E+07
        -0.41228E+05
         0.40866E+05
         0.48120E+06
         0.11506E+07
         0.75834E+06
         0.91241E+06
         0.35046E+06
         0.41709E+06
         0.66340E+06
         0.98104E+06
         0.11751E+07
         0.15715E+07
         0.20986E+07
         0.21038E+07
         0.26078E+07
         0.20550E+05
         0.20346E+07
         0.76902E+06
         0.23248E+07
         0.35859E+07
         0.44567E+07
         0.38784E+07
         0.41294E+07
         0.36052E+07
         0.27754E+07
         0.25021E+07
         0.21862E+07
         0.15103E+07
         0.23164E+07
         0.94499E+06
        -0.26981E+05
         0.14375E+06
         0.21556E+06
         0.56316E+06
         0.19093E+07
         0.19420E+07
         0.14540E+07
         0.75512E+06
         0.74890E+06
         0.16164E+07
         0.24183E+07
         0.22639E+07
         0.13168E+07
         0.15430E+07
         0.24136E+07
         0.18469E+07
         0.25330E+07
        -0.32581E+06
        -0.58181E+05
         0.26996E+07
        -0.21333E+06
        -0.13793E+07
         0.96596E+06
         0.13131E+07
        -0.26534E+07
         0.96204E+05
         0.12005E+07
         0.16186E+07
         0.17963E+07
         0.52411E+06
         0.35127E+06
         0.75847E+06
         0.14244E+07
         0.22475E+06
        -0.94405E+05
        -0.88496E+06
        -0.18722E+06
        -0.39689E+07
        -0.45397E+07
        -0.22034E+07
        -0.61150E+06
         0.10883E+07
         0.18393E+06
         0.20943E+07
         0.29580E+07
         0.96717E+06
         0.81449E+06
         0.12126E+07
        -0.15393E+06
        -0.68814E+05
         0.37118E+06
         0.10394E+07
         0.64786E+06
         0.80728E+06
         0.24800E+06
         0.31772E+06
         0.56076E+06
         0.87873E+06
         0.10750E+07
         0.14751E+07
         0.20060E+07
         0.20076E+07
         0.25128E+07
        -0.13900E+06
         0.18793E+07
         0.61652E+06
         0.21787E+07
         0.34319E+07
         0.42859E+07
         0.37074E+07
         0.39553E+07
         0.34290E+07
         0.25959E+07
         0.23233E+07
         0.20208E+07
         0.13705E+07
         0.21853E+07
         0.80862E+06
        -0.17194E+06
        -0.40387E+04
         0.61963E+05
         0.40847E+06
         0.17460E+07
         0.17869E+07
         0.13134E+07
         0.61480E+06
         0.60499E+06
         0.14713E+07
         0.22706E+07
         0.22831E+07
         0.13355E+07
         0.15634E+07
         0.24394E+07
         0.18722E+07
         0.25593E+07
        -0.29930E+06
        -0.36478E+05
         0.27156E+07
        -0.20757E+06
        -0.13536E+07
         0.98705E+06
         0.13322E+07
        -0.26291E+07
         0.12316E+06
         0.11816E+07
         0.16144E+07
         0.18215E+07
         0.49530E+06
         0.32481E+06
         0.74217E+06
         0.14181E+07
         0.15707E+06
        -0.18881E+06
        -0.93541E+06
        -0.27462E+06
        -0.39471E+07
        -0.45582E+07
        -0.22594E+07
        -0.69928E+06
         0.10887E+07
         0.15693E+06
         0.21211E+07
         0.29914E+07
         0.99418E+06
         0.83963E+06
         0.12336E+07
        -0.13394E+06
        -0.50176E+05
         0.37782E+06
         0.10367E+07
         0.60779E+06
         0.75068E+06
         0.17941E+06
         0.30065E+06
         0.57486E+06
         0.89729E+06
         0.10976E+07
         0.15011E+07
         0.20344E+07
         0.20348E+07
         0.25397E+07
        -0.91604E+05
         0.19218E+07
         0.66351E+06
         0.22149E+07
         0.34586E+07
         0.43124E+07
         0.37412E+07
         0.39896E+07
         0.34637E+07
         0.26317E+07
         0.23444E+07
         0.20200E+07
         0.13727E+07
         0.22094E+07
         0.82454E+06
        -0.20124E+06
        -0.35800E+05
         0.70203E+05
         0.45092E+06
         0.17951E+07
         0.18311E+07
         0.13582E+07
         0.66476E+06
         0.64702E+06
         0.15055E+07
         0.23036E+07
         0.22716E+07
         0.13276E+07
         0.15556E+07
         0.24239E+07
         0.18631E+07
         0.25511E+07
        -0.30760E+06
        -0.48343E+05
         0.26875E+07
        -0.25058E+06
        -0.13666E+07
         0.97564E+06
         0.13242E+07
        -0.26449E+07
         0.10988E+06
         0.11066E+07
         0.15428E+07
         0.18032E+07
         0.39241E+06
         0.21078E+06
         0.66731E+06
         0.13509E+07
        -0.39755E+03
        -0.39994E+06
        -0.10813E+07
        -0.47368E+06
        -0.39759E+07
        -0.46682E+07
        -0.24349E+07
        -0.91160E+06
         0.10428E+07
         0.50388E+05
         0.21060E+07
         0.29761E+07
         0.98095E+06
         0.82949E+06
         0.12260E+07
        -0.15438E+06
        -0.76433E+05
         0.32818E+06
         0.97374E+06
         0.48270E+06
         0.59715E+06
         0.17748E+05
         0.21842E+06
         0.53353E+06
         0.86441E+06
         0.10790E+07
         0.14844E+07
         0.20168E+07
         0.20203E+07
         0.25294E+07
        -0.11398E+06
         0.19064E+07
         0.63937E+06
         0.21939E+07
         0.34444E+07
         0.42961E+07
         0.37139E+07
         0.39598E+07
         0.34349E+07
         0.25969E+07
         0.22893E+07
         0.19311E+07
         0.12880E+07
         0.21691E+07
         0.77955E+06
        -0.32448E+06
        -0.16611E+06
         0.95500E+04
         0.42195E+06
         0.17676E+07
         0.18099E+07
         0.13332E+07
         0.63862E+06
         0.62916E+06
         0.14920E+07
         0.22902E+07
         0.22506E+07
         0.13113E+07
         0.15418E+07
         0.24079E+07
         0.18526E+07
         0.25396E+07
        -0.32165E+06
        -0.68282E+05
         0.26539E+07
        -0.29542E+06
        -0.13806E+07
         0.96853E+06
         0.13154E+07
        -0.26620E+07
         0.10366E+06
         0.10559E+07
         0.14868E+07
         0.17862E+07
         0.32484E+06
         0.12835E+06
         0.61912E+06
         0.13026E+07
        -0.97127E+05
        -0.53079E+06
        -0.11851E+07
        -0.60117E+06
        -0.40010E+07
        -0.47474E+07
        -0.25554E+07
        -0.10522E+07
         0.99480E+06
        -0.26987E+05
         0.20764E+07
         0.29543E+07
         0.96728E+06
         0.81654E+06
         0.12145E+07
        -0.16948E+06
        -0.98017E+05
         0.29072E+06
         0.92942E+06
         0.39866E+06
         0.49648E+06
        -0.84922E+05
         0.16423E+06
         0.50627E+06
         0.83526E+06
         0.10491E+07
         0.14556E+07
         0.19908E+07
         0.19977E+07
         0.25125E+07
        -0.13413E+06
         0.18930E+07
         0.61882E+06
         0.21775E+07
         0.34378E+07
         0.42913E+07
         0.37022E+07
         0.39402E+07
         0.34104E+07
         0.25753E+07
         0.22558E+07
         0.18695E+07
         0.12302E+07
         0.21379E+07
         0.74780E+06
        -0.40430E+06
        -0.25756E+06
        -0.33790E+05
         0.40876E+06
         0.17426E+07
         0.17819E+07
         0.13044E+07
         0.60500E+06
         0.60023E+06
         0.14741E+07
         0.22768E+07
         0.21996E+07
         0.12800E+07
         0.15283E+07
         0.24211E+07
         0.18656E+07
         0.25579E+07
        -0.33088E+06
        -0.10350E+06
         0.26069E+07
        -0.35646E+06
        -0.13696E+07
         0.99317E+06
         0.13254E+07
        -0.26602E+07
         0.13455E+06
         0.10654E+07
         0.14757E+07
         0.18121E+07
         0.33907E+06
         0.13925E+06
         0.63312E+06
         0.13196E+07
        -0.94951E+05
        -0.53346E+06
        -0.12273E+07
        -0.61903E+06
        -0.40065E+07
        -0.47565E+07
        -0.25465E+07
        -0.10561E+07
         0.93745E+06
        -0.67823E+05
         0.20265E+07
         0.29496E+07
         0.97922E+06
         0.81784E+06
         0.12124E+07
        -0.14922E+06
        -0.79039E+05
         0.31171E+06
         0.95126E+06
         0.41209E+06
         0.50729E+06
        -0.91381E+05
         0.15729E+06
         0.50176E+06
         0.81003E+06
         0.98904E+06
         0.13854E+07
         0.19555E+07
         0.19902E+07
         0.25205E+07
        -0.95169E+05
         0.19332E+07
         0.65153E+06
         0.21994E+07
         0.34606E+07
         0.43224E+07
         0.37374E+07
         0.39742E+07
         0.34495E+07
         0.26269E+07
         0.23009E+07
         0.18968E+07
         0.12607E+07
         0.21698E+07
         0.77843E+06
        -0.37987E+06
        -0.23993E+06
        -0.16332E+05
         0.42971E+06
         0.17571E+07
         0.17787E+07
         0.12844E+07
         0.59174E+06
         0.60676E+06
         0.14936E+07
         0.23048E+07
         0.21220E+07
         0.12246E+07
         0.14955E+07
         0.24113E+07
         0.18552E+07
         0.25570E+07
        -0.37741E+06
        -0.17263E+06
         0.25277E+07
        -0.44713E+06
        -0.13998E+07
         0.98375E+06
         0.13093E+07
        -0.26983E+07
         0.12816E+06
         0.10504E+07
         0.14301E+07
         0.18063E+07
         0.32752E+06
         0.11943E+06
         0.62638E+06
         0.13148E+07
        -0.10255E+06
        -0.54935E+06
        -0.12885E+07
        -0.65126E+06
        -0.40495E+07
        -0.47971E+07
        -0.25577E+07
        -0.10719E+07
         0.85713E+06
        -0.13487E+06
         0.19503E+07
         0.29202E+07
         0.96320E+06
         0.79689E+06
         0.11900E+07
        -0.16507E+06
        -0.94391E+05
         0.30334E+06
         0.94759E+06
         0.41040E+06
         0.50635E+06
        -0.10700E+06
         0.12732E+06
         0.46321E+06
         0.75188E+06
         0.89868E+06
         0.12854E+07
         0.18938E+07
         0.19600E+07
         0.25091E+07
        -0.11160E+06
         0.19204E+07
         0.64177E+06
         0.21883E+07
         0.34446E+07
         0.43033E+07
         0.37216E+07
         0.39606E+07
         0.34357E+07
         0.26166E+07
         0.22927E+07
         0.18868E+07
         0.12589E+07
         0.21672E+07
         0.77175E+06
        -0.38358E+06
        -0.24763E+06
        -0.43766E+05
         0.38873E+06
         0.17120E+07
         0.17276E+07
         0.12212E+07
         0.53636E+06
         0.57732E+06
         0.14778E+07
         0.22924E+07
         0.20994E+07
         0.12041E+07
         0.14821E+07
         0.23982E+07
         0.18441E+07
         0.25459E+07
        -0.40022E+06
        -0.19626E+06
         0.25044E+07
        -0.47343E+06
        -0.14211E+07
         0.97049E+06
         0.12935E+07
        -0.27205E+07
         0.11715E+06
         0.10369E+07
         0.14132E+07
         0.17929E+07
         0.31695E+06
         0.10376E+06
         0.61579E+06
         0.13037E+07
        -0.11257E+06
        -0.56151E+06
        -0.13079E+07
        -0.66960E+06
        -0.40676E+07
        -0.48187E+07
        -0.25783E+07
        -0.10868E+07
         0.83113E+06
        -0.16161E+06
         0.19259E+07
         0.29041E+07
         0.94969E+06
         0.78554E+06
         0.11763E+07
        -0.18517E+06
        -0.11226E+06
         0.28482E+06
         0.92906E+06
         0.39553E+06
         0.49678E+06
        -0.12095E+06
         0.10941E+06
         0.44519E+06
         0.73268E+06
         0.87626E+06
         0.12604E+07
         0.18723E+07
         0.19412E+07
         0.24948E+07
        -0.13413E+06
         0.18984E+07
         0.62684E+06
         0.21730E+07
         0.34261E+07
         0.42871E+07
         0.37049E+07
         0.39374E+07
         0.34050E+07
         0.25844E+07
         0.22636E+07
         0.18737E+07
         0.12483E+07
         0.21445E+07
         0.74813E+06
        -0.40591E+06
        -0.27664E+06
        -0.71438E+05
         0.36536E+06
         0.16931E+07
         0.17121E+07
         0.12001E+07
         0.50845E+06
         0.55128E+06
         0.14559E+07
         0.22708E+07
         0.21139E+07
         0.12180E+07
         0.14926E+07
         0.24023E+07
         0.18561E+07
         0.25494E+07
        -0.38189E+06
        -0.17832E+06
         0.25195E+07
        -0.45471E+06
        -0.14055E+07
         0.98386E+06
         0.13038E+07
        -0.27031E+07
         0.13834E+06
         0.10550E+07
         0.14342E+07
         0.18043E+07
         0.33771E+06
         0.12214E+06
         0.63008E+06
         0.13173E+07
        -0.97804E+05
        -0.53993E+06
        -0.12878E+07
        -0.64940E+06
        -0.40404E+07
        -0.47936E+07
        -0.25580E+07
        -0.10703E+07
         0.84680E+06
        -0.14667E+06
         0.19383E+07
         0.29107E+07
         0.96519E+06
         0.79851E+06
         0.11869E+07
        -0.16998E+06
        -0.99061E+05
         0.29654E+06
         0.94198E+06
         0.40983E+06
         0.51127E+06
        -0.10720E+06
         0.12107E+06
         0.45674E+06
         0.74525E+06
         0.89191E+06
         0.12764E+07
         0.18842E+07
         0.19492E+07
         0.24983E+07
        -0.10087E+06
         0.19310E+07
         0.64628E+06
         0.21810E+07
         0.34423E+07
         0.43123E+07
         0.37329E+07
         0.39576E+07
         0.34127E+07
         0.25963E+07
         0.22850E+07
         0.19041E+07
         0.12753E+07
         0.21621E+07
         0.76459E+06
        -0.38694E+06
        -0.25746E+06
        -0.47874E+05
         0.38772E+06
         0.17194E+07
         0.17392E+07
         0.12245E+07
         0.52863E+06
         0.56920E+06
         0.14739E+07
         0.22903E+07
         0.21103E+07
         0.12168E+07
         0.14900E+07
         0.23935E+07
         0.18538E+07
         0.25435E+07
        -0.38324E+06
        -0.18433E+06
         0.25079E+07
        -0.46410E+06
        -0.14144E+07
         0.97583E+06
         0.13014E+07
        -0.27155E+07
         0.12675E+06
         0.10467E+07
         0.14241E+07
         0.17900E+07
         0.32904E+06
         0.10975E+06
         0.62461E+06
         0.13102E+07
        -0.10297E+06
        -0.54790E+06
        -0.12910E+07
        -0.65698E+06
        -0.40457E+07
        -0.47962E+07
        -0.25620E+07
        -0.10766E+07
         0.83892E+06
        -0.15503E+06
         0.19251E+07
         0.28990E+07
         0.96030E+06
         0.79338E+06
         0.11837E+07
        -0.18728E+06
        -0.10867E+06
         0.28748E+06
         0.93305E+06
         0.40419E+06
         0.50311E+06
        -0.11111E+06
         0.11690E+06
         0.45101E+06
         0.73635E+06
         0.88169E+06
         0.12663E+07
         0.18757E+07
         0.19418E+07
         0.24900E+07
        -0.11065E+06
         0.19233E+07
         0.63066E+06
         0.21678E+07
         0.34404E+07
         0.43029E+07
         0.37113E+07
         0.39333E+07
         0.33984E+07
         0.25749E+07
         0.22616E+07
         0.18925E+07
         0.12614E+07
         0.21544E+07
         0.75748E+06
        -0.39354E+06
        -0.25848E+06
        -0.52496E+05
         0.38100E+06
         0.17016E+07
         0.17171E+07
         0.12073E+07
         0.51984E+06
         0.56485E+06
         0.14640E+07
         0.22764E+07
         0.21000E+07
         0.12063E+07
         0.14824E+07
         0.23885E+07
         0.18460E+07
         0.25397E+07
        -0.39158E+06
        -0.19344E+06
         0.24975E+07
        -0.47344E+06
        -0.14244E+07
         0.96516E+06
         0.12943E+07
        -0.27258E+07
         0.11490E+06
         0.10351E+07
         0.14167E+07
         0.17814E+07
         0.31833E+06
         0.10015E+06
         0.61755E+06
         0.13030E+07
        -0.11084E+06
        -0.56035E+06
        -0.12941E+07
        -0.67132E+06
        -0.40494E+07
        -0.48017E+07
        -0.25668E+07
        -0.10810E+07
         0.82745E+06
        -0.16859E+06
         0.19176E+07
         0.28976E+07
         0.94840E+06
         0.78446E+06
         0.11763E+07
        -0.20401E+06
        -0.11952E+06
         0.27964E+06
         0.92801E+06
         0.39942E+06
         0.49566E+06
        -0.11856E+06
         0.10947E+06
         0.44329E+06
         0.72804E+06
         0.87285E+06
         0.12568E+07
         0.18683E+07
         0.19348E+07
         0.24864E+07
        -0.13010E+06
         0.19072E+07
         0.61877E+06
         0.21638E+07
         0.34351E+07
         0.42841E+07
         0.36841E+07
         0.39114E+07
         0.33836E+07
         0.25594E+07
         0.22520E+07
         0.18810E+07
         0.12447E+07
         0.21430E+07
         0.74562E+06
        -0.40719E+06
        -0.26754E+06
        -0.63139E+05
         0.36780E+06
         0.16870E+07
         0.17002E+07
         0.11898E+07
         0.50718E+06
         0.55281E+06
         0.14490E+07
         0.22607E+07
         0.21069E+07
         0.12107E+07
         0.14863E+07
         0.23959E+07
         0.18541E+07
         0.25483E+07
        -0.37917E+06
        -0.18084E+06
         0.25044E+07
        -0.46484E+06
        -0.14095E+07
         0.97431E+06
         0.12975E+07
        -0.27101E+07
         0.13454E+06
         0.10454E+07
         0.14266E+07
         0.17928E+07
         0.33095E+06
         0.11471E+06
         0.62897E+06
         0.13151E+07
        -0.10085E+06
        -0.54706E+06
        -0.12829E+07
        -0.65849E+06
        -0.40318E+07
        -0.47856E+07
        -0.25442E+07
        -0.10630E+07
         0.83990E+06
        -0.15849E+06
         0.19327E+07
         0.29127E+07
         0.95800E+06
         0.79276E+06
         0.11807E+07
        -0.19173E+06
        -0.10640E+06
         0.29654E+06
         0.94240E+06
         0.41033E+06
         0.50733E+06
        -0.11013E+06
         0.11654E+06
         0.44973E+06
         0.73570E+06
         0.88236E+06
         0.12672E+07
         0.18784E+07
         0.19431E+07
         0.24962E+07
        -0.10581E+06
         0.19335E+07
         0.64349E+06
         0.21759E+07
         0.34311E+07
         0.42854E+07
         0.37035E+07
         0.39330E+07
         0.33982E+07
         0.25815E+07
         0.22731E+07
         0.18910E+07
         0.12627E+07
         0.21613E+07
         0.76226E+06
        -0.39436E+06
        -0.25891E+06
        -0.52357E+05
         0.37791E+06
         0.17027E+07
         0.17189E+07
         0.12079E+07
         0.52271E+06
         0.56597E+06
         0.14685E+07
         0.22836E+07
         0.21021E+07
         0.12023E+07
         0.14789E+07
         0.23860E+07
         0.18461E+07
         0.25398E+07
        -0.39014E+06
        -0.18904E+06
         0.24960E+07
        -0.47660E+06
        -0.14241E+07
         0.96105E+06
         0.12829E+07
        -0.27254E+07
         0.12619E+06
         0.10360E+07
         0.14164E+07
         0.17776E+07
         0.31774E+06
         0.10026E+06
         0.61619E+06
         0.13021E+07
        -0.11435E+06
        -0.56143E+06
        -0.12930E+07
        -0.67106E+06
        -0.40471E+07
        -0.48062E+07
        -0.25590E+07
        -0.10717E+07
         0.82923E+06
        -0.17131E+06
         0.19166E+07
         0.29022E+07
         0.94663E+06
         0.78235E+06
         0.11686E+07
        -0.20999E+06
        -0.12436E+06
         0.28065E+06
         0.92511E+06
         0.39405E+06
         0.49459E+06
        -0.12541E+06
         0.10291E+06
         0.43847E+06
         0.72383E+06
         0.86846E+06
         0.12549E+07
         0.18700E+07
         0.19338E+07
         0.24867E+07
        -0.12503E+06
         0.19169E+07
         0.62468E+06
         0.21543E+07
         0.34059E+07
         0.42614E+07
         0.36887E+07
         0.39140E+07
         0.33732E+07
         0.25568E+07
         0.22429E+07
         0.18613E+07
         0.12427E+07
         0.21405E+07
         0.74453E+06
        -0.41454E+06
        -0.29009E+06
        -0.80165E+05
         0.36391E+06
         0.16834E+07
         0.16989E+07
         0.11975E+07
         0.51556E+06
         0.55112E+06
         0.14484E+07
         0.22635E+07
         0.21014E+07
         0.11995E+07
         0.14768E+07
         0.23830E+07
         0.18452E+07
         0.25375E+07
        -0.39062E+06
        -0.18924E+06
         0.24965E+07
        -0.47574E+06
        -0.14259E+07
         0.95925E+06
         0.12807E+07
        -0.27268E+07
         0.12707E+06
         0.10345E+07
         0.14195E+07
         0.17738E+07
         0.31678E+06
         0.98279E+05
         0.61349E+06
         0.13001E+07
        -0.11730E+06
        -0.56410E+06
        -0.12909E+07
        -0.67466E+06
        -0.40431E+07
        -0.48089E+07
        -0.25615E+07
        -0.10727E+07
         0.82373E+06
        -0.17652E+06
         0.19102E+07
         0.29007E+07
         0.94403E+06
         0.77903E+06
         0.11650E+07
        -0.21853E+06
        -0.13422E+06
         0.27461E+06
         0.92333E+06
         0.39276E+06
         0.49289E+06
        -0.12791E+06
         0.10042E+06
         0.43582E+06
         0.72003E+06
         0.86306E+06
         0.12499E+07
         0.18682E+07
         0.19320E+07
         0.24845E+07
        -0.12563E+06
         0.19172E+07
         0.61957E+06
         0.21459E+07
         0.34054E+07
         0.42609E+07
         0.36827E+07
         0.38981E+07
         0.33551E+07
         0.25468E+07
         0.22419E+07
         0.18584E+07
         0.12377E+07
         0.21324E+07
         0.73530E+06
        -0.42099E+06
        -0.29430E+06
        -0.83803E+05
         0.35992E+06
         0.16764E+07
         0.16900E+07
         0.11918E+07
         0.51484E+06
         0.54910E+06
         0.14393E+07
         0.22553E+07
         0.21229E+07
         0.12260E+07
         0.14994E+07
         0.24022E+07
         0.18691E+07
         0.25571E+07
        -0.35321E+06
        -0.16321E+06
         0.25145E+07
        -0.45449E+06
        -0.13909E+07
         0.98816E+06
         0.13070E+07
        -0.26981E+07
         0.15622E+06
         0.10563E+07
         0.14474E+07
         0.17957E+07
         0.34400E+06
         0.12917E+06
         0.63877E+06
         0.13241E+07
        -0.92876E+05
        -0.53536E+06
        -0.12604E+07
        -0.64617E+06
        -0.40089E+07
        -0.47661E+07
        -0.25188E+07
        -0.10405E+07
         0.84845E+06
        -0.14771E+06
         0.19334E+07
         0.29205E+07
         0.96961E+06
         0.80316E+06
         0.11883E+07
        -0.19944E+06
        -0.10916E+06
         0.30173E+06
         0.94728E+06
         0.41726E+06
         0.51457E+06
        -0.10198E+06
         0.12689E+06
         0.46121E+06
         0.74446E+06
         0.88708E+06
         0.12714E+07
         0.18866E+07
         0.19494E+07
         0.25015E+07
        -0.81405E+05
         0.19613E+07
         0.65657E+06
         0.21727E+07
         0.34380E+07
         0.43021E+07
         0.37172E+07
         0.39245E+07
         0.33848E+07
         0.25792E+07
         0.22712E+07
         0.18927E+07
         0.12652E+07
         0.21631E+07
         0.77014E+06
        -0.38481E+06
        -0.25365E+06
        -0.40248E+05
         0.39734E+06
         0.17154E+07
         0.17234E+07
         0.12168E+07
         0.54220E+06
         0.58176E+06
         0.14747E+07
         0.22912E+07
         0.21141E+07
         0.12185E+07
         0.14926E+07
         0.23901E+07
         0.18591E+07
         0.25484E+07
        -0.36279E+06
        -0.17397E+06
         0.25024E+07
        -0.46946E+06
        -0.14051E+07
         0.97797E+06
         0.13006E+07
        -0.27142E+07
         0.14409E+06
         0.10442E+07
         0.14330E+07
         0.17832E+07
         0.32646E+06
         0.11165E+06
         0.63023E+06
         0.13123E+07
        -0.10117E+06
        -0.55271E+06
        -0.12729E+07
        -0.66393E+06
        -0.40226E+07
        -0.47801E+07
        -0.25201E+07
        -0.10463E+07
         0.84076E+06
        -0.16221E+06
         0.19224E+07
         0.29076E+07
         0.95497E+06
         0.79373E+06
         0.11824E+07
        -0.22015E+06
        -0.12362E+06
         0.29508E+06
         0.93645E+06
         0.40468E+06
         0.49989E+06
        -0.11335E+06
         0.11502E+06
         0.45062E+06
         0.73460E+06
         0.87932E+06
         0.12610E+07
         0.18741E+07
         0.19382E+07
         0.24918E+07
        -0.10973E+06
         0.19374E+07
         0.63484E+06
         0.21613E+07
         0.34340E+07
         0.42914E+07
         0.36936E+07
         0.38959E+07
         0.33571E+07
         0.25545E+07
         0.22422E+07
         0.18595E+07
         0.12414E+07
         0.21513E+07
         0.76466E+06
        -0.38825E+06
        -0.26498E+06
        -0.59879E+05
         0.38266E+06
         0.16980E+07
         0.17073E+07
         0.11986E+07
         0.52274E+06
         0.56936E+06
         0.14632E+07
         0.22722E+07
         0.20992E+07
         0.11991E+07
         0.14736E+07
         0.23739E+07
         0.18430E+07
         0.25317E+07
        -0.37982E+06
        -0.18683E+06
         0.24852E+07
        -0.49699E+06
        -0.14225E+07
         0.96146E+06
         0.12864E+07
        -0.27307E+07
         0.12864E+06
         0.10294E+07
         0.14087E+07
         0.17688E+07
         0.31215E+06
         0.10281E+06
         0.61968E+06
         0.12984E+07
        -0.11121E+06
        -0.56757E+06
        -0.12979E+07
        -0.68137E+06
        -0.40550E+07
        -0.48029E+07
        -0.24704E+07
        -0.10231E+07
         0.82660E+06
        -0.18250E+06
         0.19114E+07
         0.28989E+07
         0.93849E+06
         0.77813E+06
         0.11681E+07
        -0.25097E+06
        -0.13783E+06
         0.32014E+06
         0.93565E+06
         0.39102E+06
         0.48024E+06
        -0.12565E+06
         0.99900E+05
         0.43365E+06
         0.71738E+06
         0.86541E+06
         0.12491E+07
         0.18640E+07
         0.19284E+07
         0.24799E+07
        -0.12864E+06
         0.19201E+07
         0.62006E+06
         0.21484E+07
         0.34161E+07
         0.42623E+07
         0.36603E+07
         0.38640E+07
         0.33291E+07
         0.25480E+07
         0.21915E+07
         0.17799E+07
         0.12080E+07
         0.21326E+07
         0.74815E+06
        -0.40292E+06
        -0.28309E+06
        -0.80472E+05
         0.35855E+06
         0.16708E+07
         0.16888E+07
         0.11813E+07
         0.50291E+06
         0.55463E+06
         0.14406E+07
         0.22469E+07
         0.21197E+07
         0.12235E+07
         0.14981E+07
         0.23973E+07
         0.18684E+07
         0.25529E+07
        -0.34677E+06
        -0.16121E+06
         0.24976E+07
        -0.50051E+06
        -0.13909E+07
         0.98307E+06
         0.13059E+07
        -0.27037E+07
         0.15471E+06
         0.10514E+07
         0.14263E+07
         0.17894E+07
         0.34353E+06
         0.15417E+06
         0.64072E+06
         0.13194E+07
        -0.91556E+05
        -0.53658E+06
        -0.12879E+07
        -0.65032E+06
        -0.40600E+07
        -0.47761E+07
        -0.23201E+07
        -0.92658E+06
         0.84773E+06
        -0.15321E+06
         0.19341E+07
         0.29249E+07
         0.96589E+06
         0.80502E+06
         0.11902E+07
        -0.24887E+06
        -0.10926E+06
         0.41277E+06
         0.98152E+06
         0.41581E+06
         0.49289E+06
        -0.10340E+06
         0.12579E+06
         0.46186E+06
         0.74285E+06
         0.88740E+06
         0.12726E+07
         0.18890E+07
         0.19515E+07
         0.25000E+07
        -0.83120E+05
         0.19648E+07
         0.66571E+06
         0.21804E+07
         0.34364E+07
         0.42857E+07
         0.36927E+07
         0.38971E+07
         0.33655E+07
         0.26186E+07
         0.21751E+07
         0.17159E+07
         0.12104E+07
         0.21581E+07
         0.76942E+06
        -0.38513E+06
        -0.26110E+06
        -0.44011E+05
         0.40327E+06
         0.17126E+07
         0.17251E+07
         0.12188E+07
         0.54498E+06
         0.59366E+06
         0.14722E+07
         0.22801E+07
         0.20438E+07
         0.11341E+07
         0.14102E+07
         0.23026E+07
         0.17778E+07
         0.24601E+07
        -0.45814E+06
        -0.25002E+06
         0.24048E+07
        -0.61067E+06
        -0.15102E+07
         0.88055E+06
         0.12063E+07
        -0.28162E+07
         0.51477E+05
         0.96976E+06
         0.13110E+07
         0.16920E+07
         0.23971E+06
         0.46064E+05
         0.54807E+06
         0.12274E+07
        -0.18276E+06
        -0.64584E+06
        -0.14009E+07
        -0.75399E+06
        -0.41902E+07
        -0.49061E+07
        -0.23765E+07
        -0.99031E+06
         0.76319E+06
        -0.26106E+06
         0.18338E+07
         0.28191E+07
         0.86558E+06
         0.70634E+06
         0.10927E+07
        -0.37101E+06
        -0.20893E+06
         0.35316E+06
         0.89201E+06
         0.31767E+06
         0.39425E+06
        -0.19472E+06
         0.27973E+05
         0.35615E+06
         0.64398E+06
         0.79457E+06
         0.11763E+07
         0.17892E+07
         0.18479E+07
         0.24019E+07
        -0.24238E+06
         0.18105E+07
         0.50573E+06
         0.20175E+07
         0.32745E+07
         0.41303E+07
         0.35344E+07
         0.37261E+07
         0.32048E+07
         0.24729E+07
         0.19718E+07
         0.14947E+07
         0.10518E+07
         0.20260E+07
         0.63196E+06
        -0.52730E+06
        -0.40767E+06
        -0.20714E+06
         0.23515E+06
         0.15517E+07
         0.15749E+07
         0.10745E+07
         0.39775E+06
         0.44207E+06
         0.13269E+07
         0.21358E+07
         0.20875E+07
         0.11403E+07
         0.14268E+07
         0.23385E+07
         0.18082E+07
         0.24905E+07
        -0.44014E+06
        -0.19524E+06
         0.24653E+07
        -0.52930E+06
        -0.14768E+07
         0.88251E+06
         0.11809E+07
        -0.27483E+07
         0.98475E+05
         0.10338E+07
         0.13865E+07
         0.17435E+07
         0.29627E+06
         0.10897E+06
         0.59006E+06
         0.12590E+07
        -0.11720E+06
        -0.56389E+06
        -0.12959E+07
        -0.67771E+06
        -0.40785E+07
        -0.47567E+07
        -0.22506E+07
        -0.89293E+06
         0.81583E+06
        -0.21390E+06
         0.18623E+07
         0.28045E+07
         0.88090E+06
         0.69885E+06
         0.10651E+07
        -0.31388E+06
        -0.13633E+06
         0.41746E+06
         0.93257E+06
         0.37359E+06
         0.45330E+06
        -0.13248E+06
         0.63567E+05
         0.37239E+06
         0.65891E+06
         0.83434E+06
         0.12082E+07
         0.17908E+07
         0.18545E+07
         0.24038E+07
        -0.18129E+06
         0.18899E+07
         0.52574E+06
         0.19824E+07
         0.32018E+07
         0.40861E+07
         0.36067E+07
         0.38010E+07
         0.32645E+07
         0.25081E+07
         0.19816E+07
         0.15250E+07
         0.11118E+07
         0.20558E+07
         0.69441E+06
        -0.43840E+06
        -0.33211E+06
        -0.14955E+06
         0.26008E+06
         0.15488E+07
         0.16082E+07
         0.11224E+07
         0.47335E+06
         0.53408E+06
         0.13992E+07
         0.22108E+07
         0.29634E+09
         0.33870E+09
         0.33981E+09
         0.33734E+09
         0.35224E+09
         0.35166E+09
         0.40498E+09
         0.33640E+09
         0.31757E+09
         0.33834E+09
         0.42160E+09
         0.39210E+09
         0.36299E+09
         0.40109E+09
         0.39995E+09
         0.30039E+09
         0.36650E+09
         0.34941E+09
         0.36211E+09
         0.42206E+09
         0.33229E+09
         0.33840E+09
         0.32209E+09
         0.36917E+09
         0.36451E+09
         0.37954E+09
         0.39655E+09
         0.47507E+09
         0.44993E+09
         0.37450E+09
         0.31294E+09
         0.37393E+09
         0.34099E+09
         0.36167E+09
         0.37508E+09
         0.36501E+09
         0.35063E+09
         0.38706E+09
         0.38428E+09
         0.38342E+09
         0.37887E+09
         0.36198E+09
         0.34336E+09
         0.31955E+09
         0.33933E+09
         0.37320E+09
         0.35947E+09
         0.34493E+09
         0.35111E+09
         0.35403E+09
         0.36129E+09
         0.35064E+09
         0.58253E+09
         0.56989E+09
         0.57853E+09
         0.56044E+09
         0.57623E+09
         0.60233E+09
         0.60616E+09
         0.60327E+09
         0.60885E+09
         0.62330E+09
         0.60507E+09
         0.57083E+09
         0.51255E+09
         0.48566E+09
         0.48956E+09
         0.49861E+09
         0.50393E+09
         0.54624E+09
         0.58631E+09
         0.58810E+09
         0.54281E+09
         0.52522E+09
         0.54194E+09
         0.53724E+09
         0.53271E+09
         0.53409E+09
         0.27761E+10
         0.29136E+10
         0.28764E+10
         0.26533E+10
         0.31838E+10
         0.30164E+10
         0.31360E+10
         0.31389E+10
         0.27362E+10
         0.31384E+10
         0.34133E+10
         0.37464E+10
         0.34312E+10
         0.34987E+10
         0.38650E+10
         0.26821E+10
         0.28750E+10
         0.25481E+10
         0.29576E+10
         0.31018E+10
         0.31579E+10
         0.32262E+10
         0.30450E+10
         0.28582E+10
         0.31832E+10
         0.27709E+10
         0.34870E+10
         0.34422E+10
         0.34549E+10
         0.32855E+10
         0.27126E+10
         0.28477E+10
         0.26725E+10
         0.27830E+10
         0.34516E+10
         0.32050E+10
         0.32065E+10
         0.37609E+10
         0.36832E+10
         0.36458E+10
         0.36885E+10
         0.35191E+10
         0.33391E+10
         0.29862E+10
         0.31061E+10
         0.34466E+10
         0.32219E+10
         0.30493E+10
         0.29991E+10
         0.30962E+10
         0.33220E+10
         0.31016E+10
         0.52285E+10
         0.50938E+10
         0.51918E+10
         0.50325E+10
         0.51719E+10
         0.54237E+10
         0.55140E+10
         0.55158E+10
         0.55575E+10
         0.56745E+10
         0.55153E+10
         0.51924E+10
         0.46862E+10
         0.44402E+10
         0.44416E+10
         0.44897E+10
         0.45280E+10
         0.48930E+10
         0.52429E+10
         0.52602E+10
         0.48869E+10
         0.47445E+10
         0.48913E+10
         0.48603E+10
         0.48028E+10
         0.47910E+10
  
SCALARS                      stress_yz  double 1
LOOKUP_TABLE default
         0.35132E+06
        -0.11686E+06
        -0.30362E+06
        -0.15616E+06
        -0.66267E+01
        -0.18265E+01
        -0.82125E+01
        -0.62640E+01
        -0.11380E+07
         0.74850E+06
        -0.12222E+02
        -0.10760E+02
        -0.99830E+06
        -0.50762E+05
         0.87467E+01
        -0.56078E+00
         0.34323E+06
         0.12793E+07
         0.12868E+00
         0.13167E+01
        -0.66381E+06
        -0.24987E+07
        -0.25975E+07
         0.20050E+02
         0.34627E+02
         0.28943E+02
        -0.24629E+06
        -0.25332E+07
         0.14423E+02
         0.27980E+02
         0.39225E+06
         0.34192E+06
        -0.29041E+06
         0.74769E+01
         0.76327E+01
        -0.15846E+00
         0.11657E+07
         0.11234E+07
         0.13759E+02
         0.10705E+02
         0.11459E+07
         0.72943E+06
         0.10398E+02
         0.95026E+01
         0.10393E+07
         0.35831E+06
        -0.34493E+00
         0.53353E+01
         0.96497E+06
         0.25120E+01
         0.95104E+05
        -0.20346E+00
         0.56850E+05
         0.97168E+01
        -0.37677E+06
         0.56525E+01
        -0.12288E+07
         0.21820E+06
         0.15335E+00
        -0.31124E+00
         0.47569E+06
         0.17357E+07
        -0.20893E+01
        -0.78151E+01
         0.28724E+06
        -0.42174E+01
         0.12332E+07
        -0.51377E+01
        -0.10015E+07
        -0.53050E+06
        -0.63493E+00
         0.83832E+01
        -0.18549E+07
         0.18408E+02
        -0.32155E+07
         0.17824E+02
        -0.32450E+07
         0.13530E+02
        -0.26731E+07
         0.11341E+02
        -0.39205E+07
        -0.30090E+07
         0.72751E+01
        -0.16130E+01
        -0.42084E+06
        -0.18049E+00
         0.16241E+07
        -0.11306E+02
         0.38386E+07
        -0.19793E+02
         0.53640E+07
         0.33250E+07
        -0.29357E+02
        -0.23762E+02
         0.23385E+07
        -0.18445E+02
         0.20983E+07
        -0.18871E+02
         0.20419E+07
        -0.20290E+02
         0.33977E+07
         0.28237E+07
        -0.18869E+02
        -0.90409E+01
        -0.22793E+07
         0.86277E+06
         0.66345E+01
        -0.82446E+01
        -0.56035E+07
         0.22072E+02
        -0.80217E+07
         0.32285E+02
        -0.98212E+07
         0.39872E+02
        -0.11518E+08
         0.39550E+02
        -0.13559E+08
         0.31299E+02
        -0.13860E+08
         0.24222E+02
        -0.13051E+08
         0.22528E+02
        -0.11613E+08
         0.21434E+02
        -0.84696E+07
         0.13698E+02
        -0.57200E+07
         0.45224E+01
        -0.28696E+07
         0.29222E+01
         0.20642E+06
         0.43924E+01
         0.27381E+07
         0.22686E+01
         0.49121E+07
        -0.68606E+01
         0.76019E+07
        -0.19365E+02
         0.85535E+07
        -0.30239E+02
         0.93561E+07
        -0.39643E+02
         0.11953E+08
        -0.39609E+02
         0.12381E+08
        -0.34577E+02
         0.11441E+08
        -0.33698E+02
         0.93050E+07
        -0.33908E+02
         0.63262E+07
        -0.26814E+02
         0.44808E+07
        -0.15856E+02
         0.32223E+07
        -0.12260E+02
        -0.28807E+07
        -0.14887E+07
        -0.12997E+07
        -0.40412E+06
        -0.13297E+07
        -0.14162E+07
        -0.14901E+06
        -0.22927E+07
        -0.19713E+07
        -0.28884E+07
         0.15038E+07
         0.64125E+07
         0.43858E+07
         0.50873E+06
         0.64809E+07
         0.76337E+06
        -0.67614E+06
         0.43566E+06
         0.56737E+06
        -0.42907E+06
         0.39371E+06
         0.32478E+06
        -0.10903E+07
         0.91923E+05
        -0.19722E+07
         0.29155E+06
         0.15075E+05
         0.26360E+06
         0.31950E+06
        -0.15448E+07
         0.74503E+06
        -0.80686E+06
         0.54180E+06
        -0.13182E+06
         0.21658E+06
         0.11759E+07
         0.26389E+07
         0.56992E+07
         0.52070E+07
         0.43923E+07
         0.40808E+07
         0.10292E+07
        -0.84411E+06
        -0.23145E+07
        -0.38193E+07
        -0.62230E+07
        -0.40920E+07
        -0.29409E+07
        -0.31373E+07
        -0.33274E+07
        -0.38960E+07
        -0.17848E+07
         0.29516E+07
        -0.39055E+07
         0.10460E+08
         0.14671E+08
         0.18637E+08
         0.21202E+08
         0.19970E+08
         0.17606E+08
         0.16951E+08
         0.15888E+08
         0.98739E+07
         0.51213E+07
         0.23123E+07
         0.10246E+07
        -0.15738E+07
        -0.62246E+07
        -0.11439E+08
        -0.14908E+08
        -0.16557E+08
        -0.19645E+08
        -0.19139E+08
        -0.18089E+08
        -0.16751E+08
        -0.11248E+08
        -0.68805E+07
        -0.60926E+07
        -0.16641E+09
        -0.16974E+09
        -0.16604E+09
        -0.56496E+08
        -0.12176E+09
        -0.77497E+08
        -0.11153E+09
        -0.15975E+09
        -0.16288E+09
        -0.15887E+09
         0.16598E+09
         0.18217E+09
         0.13924E+09
         0.38281E+08
         0.17199E+09
         0.85238E+08
        -0.47410E+08
         0.45263E+08
         0.16187E+09
         0.39443E+08
         0.47683E+08
         0.35920E+08
        -0.21344E+08
         0.61092E+08
        -0.16181E+09
         0.61080E+08
         0.86779E+07
         0.28493E+08
        -0.45513E+08
        -0.14943E+09
         0.10664E+09
         0.44413E+08
         0.10435E+09
         0.94623E+08
        -0.13825E+08
         0.68160E+08
         0.10212E+09
         0.15781E+09
         0.17756E+09
         0.16730E+09
         0.88715E+08
        -0.24008E+08
        -0.49148E+08
        -0.77898E+08
        -0.11149E+09
        -0.17007E+09
        -0.14676E+09
        -0.11304E+09
        -0.17046E+09
        -0.17197E+09
        -0.11241E+09
        -0.11991E+08
         0.36028E+08
        -0.50441E+08
         0.11275E+09
         0.14668E+09
         0.17864E+09
         0.20098E+09
         0.20437E+09
         0.19855E+09
         0.19479E+09
         0.18121E+09
         0.11589E+09
         0.38675E+08
         0.18322E+08
         0.16440E+08
        -0.69899E+07
        -0.55705E+08
        -0.10790E+09
        -0.13863E+09
        -0.18690E+09
        -0.20228E+09
        -0.19538E+09
        -0.19363E+09
        -0.18208E+09
        -0.13087E+09
        -0.66240E+08
        -0.63205E+08
        -0.16640E+09
        -0.16973E+09
        -0.16604E+09
        -0.56832E+08
        -0.12183E+09
        -0.77600E+08
        -0.11167E+09
        -0.15988E+09
        -0.16290E+09
        -0.15902E+09
         0.16609E+09
         0.18216E+09
         0.13923E+09
         0.38367E+08
         0.17204E+09
         0.85179E+08
        -0.47841E+08
         0.45195E+08
         0.16189E+09
         0.39223E+08
         0.47797E+08
         0.35957E+08
        -0.21350E+08
         0.61063E+08
        -0.16188E+09
         0.60969E+08
         0.87775E+07
         0.28652E+08
        -0.45212E+08
        -0.14949E+09
         0.10657E+09
         0.44316E+08
         0.10475E+09
         0.94778E+08
        -0.13689E+08
         0.68223E+08
         0.10214E+09
         0.15783E+09
         0.17757E+09
         0.16728E+09
         0.88729E+08
        -0.23932E+08
        -0.49193E+08
        -0.77939E+08
        -0.11152E+09
        -0.17008E+09
        -0.14678E+09
        -0.11298E+09
        -0.17046E+09
        -0.17196E+09
        -0.11242E+09
        -0.11826E+08
         0.36006E+08
        -0.50455E+08
         0.11277E+09
         0.14668E+09
         0.17865E+09
         0.20097E+09
         0.20436E+09
         0.19854E+09
         0.19480E+09
         0.18121E+09
         0.11588E+09
         0.38692E+08
         0.18322E+08
         0.16475E+08
        -0.69322E+07
        -0.55723E+08
        -0.10793E+09
        -0.13864E+09
        -0.18690E+09
        -0.20228E+09
        -0.19539E+09
        -0.19363E+09
        -0.18209E+09
        -0.13086E+09
        -0.66201E+08
        -0.63152E+08
        -0.16638E+09
        -0.16973E+09
        -0.16603E+09
        -0.57172E+08
        -0.12189E+09
        -0.77704E+08
        -0.11181E+09
        -0.16000E+09
        -0.16293E+09
        -0.15918E+09
         0.16619E+09
         0.18215E+09
         0.13921E+09
         0.38448E+08
         0.17210E+09
         0.85119E+08
        -0.48277E+08
         0.45127E+08
         0.16191E+09
         0.39000E+08
         0.47912E+08
         0.35993E+08
        -0.21359E+08
         0.61026E+08
        -0.16195E+09
         0.60842E+08
         0.88840E+07
         0.28822E+08
        -0.44885E+08
        -0.14956E+09
         0.10648E+09
         0.44199E+08
         0.10516E+09
         0.94930E+08
        -0.13553E+08
         0.68287E+08
         0.10215E+09
         0.15784E+09
         0.17758E+09
         0.16726E+09
         0.88745E+08
        -0.23849E+08
        -0.49234E+08
        -0.77988E+08
        -0.11155E+09
        -0.17009E+09
        -0.14679E+09
        -0.11292E+09
        -0.17047E+09
        -0.17196E+09
        -0.11243E+09
        -0.11662E+08
         0.35985E+08
        -0.50469E+08
         0.11280E+09
         0.14668E+09
         0.17865E+09
         0.20096E+09
         0.20435E+09
         0.19852E+09
         0.19480E+09
         0.18121E+09
         0.11588E+09
         0.38710E+08
         0.18323E+08
         0.16509E+08
        -0.68742E+07
        -0.55740E+08
        -0.10795E+09
        -0.13864E+09
        -0.18691E+09
        -0.20227E+09
        -0.19539E+09
        -0.19364E+09
        -0.18210E+09
        -0.13084E+09
        -0.66162E+08
        -0.63100E+08
        -0.16637E+09
        -0.16972E+09
        -0.16602E+09
        -0.57512E+08
        -0.12196E+09
        -0.77809E+08
        -0.11196E+09
        -0.16012E+09
        -0.16296E+09
        -0.15933E+09
         0.16629E+09
         0.18214E+09
         0.13920E+09
         0.38534E+08
         0.17216E+09
         0.85054E+08
        -0.48721E+08
         0.45056E+08
         0.16193E+09
         0.38762E+08
         0.48028E+08
         0.36025E+08
        -0.21377E+08
         0.60966E+08
        -0.16200E+09
         0.60675E+08
         0.89945E+07
         0.29046E+08
        -0.44478E+08
        -0.14961E+09
         0.10639E+09
         0.44040E+08
         0.10556E+09
         0.95084E+08
        -0.13418E+08
         0.68349E+08
         0.10217E+09
         0.15786E+09
         0.17759E+09
         0.16724E+09
         0.88768E+08
        -0.23746E+08
        -0.49265E+08
        -0.78056E+08
        -0.11159E+09
        -0.17010E+09
        -0.14680E+09
        -0.11285E+09
        -0.17047E+09
        -0.17195E+09
        -0.11244E+09
        -0.11498E+08
         0.35963E+08
        -0.50482E+08
         0.11282E+09
         0.14668E+09
         0.17866E+09
         0.20096E+09
         0.20434E+09
         0.19851E+09
         0.19481E+09
         0.18120E+09
         0.11587E+09
         0.38731E+08
         0.18324E+08
         0.16543E+08
        -0.68157E+07
        -0.55759E+08
        -0.10798E+09
        -0.13865E+09
        -0.18692E+09
        -0.20227E+09
        -0.19540E+09
        -0.19364E+09
        -0.18211E+09
        -0.13083E+09
        -0.66124E+08
        -0.63047E+08
        -0.16636E+09
        -0.16971E+09
        -0.16602E+09
        -0.57849E+08
        -0.12203E+09
        -0.77913E+08
        -0.11209E+09
        -0.16025E+09
        -0.16299E+09
        -0.15949E+09
         0.16638E+09
         0.18213E+09
         0.13918E+09
         0.38623E+08
         0.17221E+09
         0.84984E+08
        -0.49171E+08
         0.44986E+08
         0.16195E+09
         0.38512E+08
         0.48144E+08
         0.36052E+08
        -0.21404E+08
         0.60880E+08
        -0.16205E+09
         0.60466E+08
         0.91180E+07
         0.29320E+08
        -0.43990E+08
        -0.14966E+09
         0.10628E+09
         0.43832E+08
         0.10597E+09
         0.95238E+08
        -0.13282E+08
         0.68412E+08
         0.10219E+09
         0.15788E+09
         0.17761E+09
         0.16722E+09
         0.88800E+08
        -0.23622E+08
        -0.49284E+08
        -0.78145E+08
        -0.11165E+09
        -0.17011E+09
        -0.14682E+09
        -0.11279E+09
        -0.17047E+09
        -0.17194E+09
        -0.11245E+09
        -0.11332E+08
         0.35941E+08
        -0.50496E+08
         0.11284E+09
         0.14668E+09
         0.17866E+09
         0.20095E+09
         0.20433E+09
         0.19850E+09
         0.19481E+09
         0.18120E+09
         0.11587E+09
         0.38755E+08
         0.18327E+08
         0.16576E+08
        -0.67570E+07
        -0.55778E+08
        -0.10801E+09
        -0.13866E+09
        -0.18692E+09
        -0.20227E+09
        -0.19540E+09
        -0.19364E+09
        -0.18212E+09
        -0.13081E+09
        -0.66085E+08
        -0.62994E+08
        -0.16634E+09
        -0.16971E+09
        -0.16601E+09
        -0.58190E+08
        -0.12209E+09
        -0.78017E+08
        -0.11222E+09
        -0.16037E+09
        -0.16302E+09
        -0.15964E+09
         0.16648E+09
         0.18212E+09
         0.13916E+09
         0.38716E+08
         0.17227E+09
         0.84916E+08
        -0.49631E+08
         0.44917E+08
         0.16197E+09
         0.38257E+08
         0.48260E+08
         0.36078E+08
        -0.21435E+08
         0.60786E+08
        -0.16209E+09
         0.60243E+08
         0.92510E+07
         0.29624E+08
        -0.43468E+08
        -0.14970E+09
         0.10617E+09
         0.43601E+08
         0.10638E+09
         0.95400E+08
        -0.13144E+08
         0.68476E+08
         0.10220E+09
         0.15789E+09
         0.17762E+09
         0.16720E+09
         0.88833E+08
        -0.23492E+08
        -0.49299E+08
        -0.78240E+08
        -0.11172E+09
        -0.17013E+09
        -0.14684E+09
        -0.11274E+09
        -0.17048E+09
        -0.17193E+09
        -0.11246E+09
        -0.11165E+08
         0.35919E+08
        -0.50510E+08
         0.11286E+09
         0.14668E+09
         0.17867E+09
         0.20094E+09
         0.20432E+09
         0.19849E+09
         0.19481E+09
         0.18120E+09
         0.11587E+09
         0.38782E+08
         0.18330E+08
         0.16609E+08
        -0.66984E+07
        -0.55798E+08
        -0.10805E+09
        -0.13867E+09
        -0.18693E+09
        -0.20227E+09
        -0.19541E+09
        -0.19365E+09
        -0.18213E+09
        -0.13080E+09
        -0.66046E+08
        -0.62941E+08
        -0.16633E+09
        -0.16970E+09
        -0.16601E+09
        -0.58540E+08
        -0.12216E+09
        -0.78122E+08
        -0.11231E+09
        -0.16049E+09
        -0.16305E+09
        -0.15978E+09
         0.16657E+09
         0.18211E+09
         0.13915E+09
         0.38831E+08
         0.17232E+09
         0.84850E+08
        -0.50102E+08
         0.44847E+08
         0.16200E+09
         0.38001E+08
         0.48377E+08
         0.36105E+08
        -0.21465E+08
         0.60695E+08
        -0.16214E+09
         0.60018E+08
         0.94077E+07
         0.29946E+08
        -0.42936E+08
        -0.14974E+09
         0.10607E+09
         0.43353E+08
         0.10680E+09
         0.95568E+08
        -0.13007E+08
         0.68541E+08
         0.10222E+09
         0.15791E+09
         0.17763E+09
         0.16719E+09
         0.88867E+08
        -0.23359E+08
        -0.49311E+08
        -0.78335E+08
        -0.11178E+09
        -0.17014E+09
        -0.14687E+09
        -0.11271E+09
        -0.17048E+09
        -0.17192E+09
        -0.11246E+09
        -0.10996E+08
         0.35897E+08
        -0.50524E+08
         0.11288E+09
         0.14668E+09
         0.17867E+09
         0.20094E+09
         0.20431E+09
         0.19848E+09
         0.19482E+09
         0.18120E+09
         0.11587E+09
         0.38808E+08
         0.18333E+08
         0.16642E+08
        -0.66397E+07
        -0.55817E+08
        -0.10808E+09
        -0.13869E+09
        -0.18694E+09
        -0.20227E+09
        -0.19542E+09
        -0.19365E+09
        -0.18214E+09
        -0.13078E+09
        -0.66007E+08
        -0.62888E+08
        -0.16632E+09
        -0.16969E+09
        -0.16601E+09
        -0.58896E+08
        -0.12222E+09
        -0.78227E+08
        -0.11239E+09
        -0.16060E+09
        -0.16308E+09
        -0.15992E+09
         0.16667E+09
         0.18210E+09
         0.13914E+09
         0.38952E+08
         0.17238E+09
         0.84787E+08
        -0.50579E+08
         0.44776E+08
         0.16202E+09
         0.37746E+08
         0.48493E+08
         0.36132E+08
        -0.21495E+08
         0.60606E+08
        -0.16219E+09
         0.59794E+08
         0.95705E+07
         0.30277E+08
        -0.42402E+08
        -0.14978E+09
         0.10597E+09
         0.43095E+08
         0.10723E+09
         0.95744E+08
        -0.12868E+08
         0.68607E+08
         0.10224E+09
         0.15793E+09
         0.17765E+09
         0.16717E+09
         0.88902E+08
        -0.23225E+08
        -0.49323E+08
        -0.78429E+08
        -0.11185E+09
        -0.17015E+09
        -0.14690E+09
        -0.11269E+09
        -0.17049E+09
        -0.17191E+09
        -0.11247E+09
        -0.10826E+08
         0.35875E+08
        -0.50537E+08
         0.11290E+09
         0.14668E+09
         0.17868E+09
         0.20093E+09
         0.20431E+09
         0.19847E+09
         0.19482E+09
         0.18120E+09
         0.11587E+09
         0.38834E+08
         0.18336E+08
         0.16675E+08
        -0.65809E+07
        -0.55837E+08
        -0.10812E+09
        -0.13870E+09
        -0.18694E+09
        -0.20226E+09
        -0.19542E+09
        -0.19365E+09
        -0.18215E+09
        -0.13076E+09
        -0.65968E+08
        -0.62835E+08
        -0.16631E+09
        -0.16968E+09
        -0.16601E+09
        -0.59250E+08
        -0.12229E+09
        -0.78332E+08
        -0.11247E+09
        -0.16072E+09
        -0.16311E+09
        -0.16006E+09
         0.16676E+09
         0.18209E+09
         0.13913E+09
         0.39078E+08
         0.17243E+09
         0.84724E+08
        -0.51058E+08
         0.44705E+08
         0.16204E+09
         0.37489E+08
         0.48609E+08
         0.36159E+08
        -0.21525E+08
         0.60517E+08
        -0.16224E+09
         0.59572E+08
         0.97372E+07
         0.30605E+08
        -0.41870E+08
        -0.14981E+09
         0.10586E+09
         0.42839E+08
         0.10765E+09
         0.95917E+08
        -0.12729E+08
         0.68671E+08
         0.10226E+09
         0.15795E+09
         0.17766E+09
         0.16715E+09
         0.88936E+08
        -0.23093E+08
        -0.49335E+08
        -0.78523E+08
        -0.11192E+09
        -0.17017E+09
        -0.14694E+09
        -0.11266E+09
        -0.17050E+09
        -0.17190E+09
        -0.11247E+09
        -0.10655E+08
         0.35853E+08
        -0.50551E+08
         0.11292E+09
         0.14668E+09
         0.17868E+09
         0.20092E+09
         0.20430E+09
         0.19845E+09
         0.19483E+09
         0.18120E+09
         0.11587E+09
         0.38860E+08
         0.18340E+08
         0.16709E+08
        -0.65223E+07
        -0.55856E+08
        -0.10815E+09
        -0.13871E+09
        -0.18695E+09
        -0.20226E+09
        -0.19543E+09
        -0.19366E+09
        -0.18216E+09
        -0.13075E+09
        -0.65929E+08
        -0.62782E+08
        -0.16629E+09
        -0.16966E+09
        -0.16601E+09
        -0.59600E+08
        -0.12235E+09
        -0.78436E+08
        -0.11254E+09
        -0.16083E+09
        -0.16314E+09
        -0.16019E+09
         0.16685E+09
         0.18208E+09
         0.13912E+09
         0.39198E+08
         0.17249E+09
         0.84661E+08
        -0.51540E+08
         0.44633E+08
         0.16206E+09
         0.37230E+08
         0.48725E+08
         0.36185E+08
        -0.21554E+08
         0.60429E+08
        -0.16229E+09
         0.59350E+08
         0.98993E+07
         0.30929E+08
        -0.41339E+08
        -0.14985E+09
         0.10576E+09
         0.42583E+08
         0.10808E+09
         0.96092E+08
        -0.12590E+08
         0.68737E+08
         0.10228E+09
         0.15797E+09
         0.17767E+09
         0.16713E+09
         0.88971E+08
        -0.22961E+08
        -0.49348E+08
        -0.78616E+08
        -0.11198E+09
        -0.17018E+09
        -0.14697E+09
        -0.11264E+09
        -0.17051E+09
        -0.17189E+09
        -0.11247E+09
        -0.10484E+08
         0.35831E+08
        -0.50564E+08
         0.11294E+09
         0.14668E+09
         0.17869E+09
         0.20092E+09
         0.20429E+09
         0.19844E+09
         0.19483E+09
         0.18120E+09
         0.11586E+09
         0.38886E+08
         0.18343E+08
         0.16743E+08
        -0.64638E+07
        -0.55875E+08
        -0.10819E+09
        -0.13872E+09
        -0.18696E+09
        -0.20226E+09
        -0.19544E+09
        -0.19366E+09
        -0.18217E+09
        -0.13073E+09
        -0.65891E+08
        -0.62729E+08
        -0.16628E+09
        -0.16965E+09
        -0.16600E+09
        -0.59949E+08
        -0.12241E+09
        -0.78539E+08
        -0.11262E+09
        -0.16094E+09
        -0.16317E+09
        -0.16033E+09
         0.16694E+09
         0.18207E+09
         0.13910E+09
         0.39323E+08
         0.17254E+09
         0.84599E+08
        -0.52022E+08
         0.44562E+08
         0.16208E+09
         0.36969E+08
         0.48841E+08
         0.36211E+08
        -0.21584E+08
         0.60342E+08
        -0.16234E+09
         0.59128E+08
         0.10064E+08
         0.31248E+08
        -0.40809E+08
        -0.14988E+09
         0.10565E+09
         0.42327E+08
         0.10851E+09
         0.96266E+08
        -0.12450E+08
         0.68802E+08
         0.10230E+09
         0.15799E+09
         0.17769E+09
         0.16712E+09
         0.89005E+08
        -0.22829E+08
        -0.49360E+08
        -0.78708E+08
        -0.11205E+09
        -0.17019E+09
        -0.14700E+09
        -0.11262E+09
        -0.17052E+09
        -0.17188E+09
        -0.11248E+09
        -0.10311E+08
         0.35808E+08
        -0.50577E+08
         0.11296E+09
         0.14668E+09
         0.17869E+09
         0.20091E+09
         0.20428E+09
         0.19843E+09
         0.19483E+09
         0.18120E+09
         0.11586E+09
         0.38912E+08
         0.18347E+08
         0.16777E+08
        -0.64051E+07
        -0.55895E+08
        -0.10822E+09
        -0.13874E+09
        -0.18696E+09
        -0.20226E+09
        -0.19544E+09
        -0.19367E+09
        -0.18218E+09
        -0.13072E+09
        -0.65852E+08
        -0.62676E+08
        -0.16627E+09
        -0.16964E+09
        -0.16600E+09
        -0.60301E+08
        -0.12248E+09
        -0.78644E+08
        -0.11270E+09
        -0.16106E+09
        -0.16320E+09
        -0.16046E+09
         0.16702E+09
         0.18206E+09
         0.13909E+09
         0.39448E+08
         0.17260E+09
         0.84537E+08
        -0.52505E+08
         0.44489E+08
         0.16210E+09
         0.36711E+08
         0.48958E+08
         0.36236E+08
        -0.21613E+08
         0.60256E+08
        -0.16238E+09
         0.58908E+08
         0.10225E+08
         0.31566E+08
        -0.40278E+08
        -0.14992E+09
         0.10555E+09
         0.42071E+08
         0.10893E+09
         0.96442E+08
        -0.12310E+08
         0.68867E+08
         0.10232E+09
         0.15802E+09
         0.17770E+09
         0.16710E+09
         0.89039E+08
        -0.22699E+08
        -0.49372E+08
        -0.78801E+08
        -0.11211E+09
        -0.17020E+09
        -0.14704E+09
        -0.11259E+09
        -0.17053E+09
        -0.17187E+09
        -0.11248E+09
        -0.10139E+08
         0.35786E+08
        -0.50590E+08
         0.11298E+09
         0.14668E+09
         0.17870E+09
         0.20090E+09
         0.20427E+09
         0.19842E+09
         0.19484E+09
         0.18120E+09
         0.11586E+09
         0.38938E+08
         0.18350E+08
         0.16810E+08
        -0.63462E+07
        -0.55914E+08
        -0.10826E+09
        -0.13875E+09
        -0.18697E+09
        -0.20226E+09
        -0.19545E+09
        -0.19367E+09
        -0.18219E+09
        -0.13070E+09
        -0.65814E+08
        -0.62623E+08
        -0.16626E+09
        -0.16963E+09
        -0.16600E+09
        -0.60652E+08
        -0.12254E+09
        -0.78749E+08
        -0.11278E+09
        -0.16117E+09
        -0.16323E+09
        -0.16060E+09
         0.16710E+09
         0.18205E+09
         0.13908E+09
         0.39569E+08
         0.17265E+09
         0.84474E+08
        -0.52989E+08
         0.44415E+08
         0.16213E+09
         0.36454E+08
         0.49074E+08
         0.36262E+08
        -0.21643E+08
         0.60170E+08
        -0.16243E+09
         0.58686E+08
         0.10391E+08
         0.31880E+08
        -0.39749E+08
        -0.14995E+09
         0.10545E+09
         0.41812E+08
         0.10936E+09
         0.96616E+08
        -0.12170E+08
         0.68933E+08
         0.10234E+09
         0.15804E+09
         0.17771E+09
         0.16708E+09
         0.89073E+08
        -0.22567E+08
        -0.49384E+08
        -0.78894E+08
        -0.11218E+09
        -0.17022E+09
        -0.14707E+09
        -0.11257E+09
        -0.17054E+09
        -0.17186E+09
        -0.11249E+09
        -0.99671E+07
         0.35764E+08
        -0.50604E+08
         0.11301E+09
         0.14668E+09
         0.17870E+09
         0.20090E+09
         0.20426E+09
         0.19841E+09
         0.19484E+09
         0.18120E+09
         0.11586E+09
         0.38964E+08
         0.18354E+08
         0.16844E+08
        -0.62875E+07
        -0.55933E+08
        -0.10829E+09
        -0.13876E+09
        -0.18697E+09
        -0.20225E+09
        -0.19546E+09
        -0.19367E+09
        -0.18220E+09
        -0.13068E+09
        -0.65776E+08
        -0.62569E+08
        -0.16625E+09
        -0.16962E+09
        -0.16600E+09
        -0.61002E+08
        -0.12260E+09
        -0.78854E+08
        -0.11286E+09
        -0.16128E+09
        -0.16326E+09
        -0.16073E+09
         0.16718E+09
         0.18204E+09
         0.13907E+09
         0.39694E+08
         0.17271E+09
         0.84412E+08
        -0.53474E+08
         0.44343E+08
         0.16215E+09
         0.36197E+08
         0.49190E+08
         0.36288E+08
        -0.21672E+08
         0.60084E+08
        -0.16248E+09
         0.58463E+08
         0.10552E+08
         0.32190E+08
        -0.39222E+08
        -0.14999E+09
         0.10534E+09
         0.41556E+08
         0.10979E+09
         0.96792E+08
        -0.12030E+08
         0.68998E+08
         0.10236E+09
         0.15806E+09
         0.17773E+09
         0.16706E+09
         0.89107E+08
        -0.22436E+08
        -0.49396E+08
        -0.78986E+08
        -0.11225E+09
        -0.17023E+09
        -0.14710E+09
        -0.11255E+09
        -0.17055E+09
        -0.17185E+09
        -0.11249E+09
        -0.97953E+07
         0.35741E+08
        -0.50617E+08
         0.11303E+09
         0.14669E+09
         0.17871E+09
         0.20089E+09
         0.20425E+09
         0.19839E+09
         0.19485E+09
         0.18119E+09
         0.11586E+09
         0.38989E+08
         0.18357E+08
         0.16878E+08
        -0.62291E+07
        -0.55952E+08
        -0.10833E+09
        -0.13877E+09
        -0.18698E+09
        -0.20225E+09
        -0.19546E+09
        -0.19368E+09
        -0.18221E+09
        -0.13067E+09
        -0.65738E+08
        -0.62516E+08
        -0.16623E+09
        -0.16961E+09
        -0.16600E+09
        -0.61350E+08
        -0.12267E+09
        -0.78958E+08
        -0.11294E+09
        -0.16139E+09
        -0.16329E+09
        -0.16086E+09
         0.16726E+09
         0.18203E+09
         0.13906E+09
         0.39815E+08
         0.17277E+09
         0.84350E+08
        -0.53962E+08
         0.44271E+08
         0.16217E+09
         0.35937E+08
         0.49306E+08
         0.36313E+08
        -0.21701E+08
         0.60001E+08
        -0.16253E+09
         0.58241E+08
         0.10716E+08
         0.32494E+08
        -0.38697E+08
        -0.15002E+09
         0.10524E+09
         0.41298E+08
         0.11022E+09
         0.96968E+08
        -0.11889E+08
         0.69063E+08
         0.10238E+09
         0.15808E+09
         0.17774E+09
         0.16704E+09
         0.89141E+08
        -0.22305E+08
        -0.49408E+08
        -0.79079E+08
        -0.11231E+09
        -0.17024E+09
        -0.14714E+09
        -0.11253E+09
        -0.17056E+09
        -0.17184E+09
        -0.11250E+09
        -0.96220E+07
         0.35719E+08
        -0.50629E+08
         0.11305E+09
         0.14669E+09
         0.17871E+09
         0.20088E+09
         0.20424E+09
         0.19838E+09
         0.19485E+09
         0.18119E+09
         0.11585E+09
         0.39015E+08
         0.18361E+08
         0.16911E+08
        -0.61705E+07
        -0.55972E+08
        -0.10836E+09
        -0.13879E+09
        -0.18699E+09
        -0.20225E+09
        -0.19547E+09
        -0.19368E+09
        -0.18222E+09
        -0.13065E+09
        -0.65700E+08
        -0.62462E+08
        -0.16622E+09
        -0.16959E+09
        -0.16600E+09
        -0.61696E+08
        -0.12273E+09
        -0.79061E+08
        -0.11302E+09
        -0.16150E+09
        -0.16332E+09
        -0.16099E+09
         0.16734E+09
         0.18202E+09
         0.13905E+09
         0.39940E+08
         0.17282E+09
         0.84288E+08
        -0.54401E+08
         0.44198E+08
         0.16219E+09
         0.35679E+08
         0.49422E+08
         0.36337E+08
        -0.21730E+08
         0.59918E+08
        -0.16258E+09
         0.58019E+08
         0.10876E+08
         0.32795E+08
        -0.38174E+08
        -0.15006E+09
         0.10514E+09
         0.41042E+08
         0.11064E+09
         0.97146E+08
        -0.11748E+08
         0.69128E+08
         0.10240E+09
         0.15810E+09
         0.17775E+09
         0.16702E+09
         0.89176E+08
        -0.22175E+08
        -0.49421E+08
        -0.79171E+08
        -0.11238E+09
        -0.17026E+09
        -0.14717E+09
        -0.11250E+09
        -0.17056E+09
        -0.17183E+09
        -0.11250E+09
        -0.94481E+07
         0.35696E+08
        -0.50642E+08
         0.11307E+09
         0.14669E+09
         0.17872E+09
         0.20088E+09
         0.20423E+09
         0.19837E+09
         0.19485E+09
         0.18119E+09
         0.11585E+09
         0.39041E+08
         0.18364E+08
         0.16945E+08
        -0.61119E+07
        -0.55990E+08
        -0.10840E+09
        -0.13880E+09
        -0.18699E+09
        -0.20225E+09
        -0.19548E+09
        -0.19368E+09
        -0.18223E+09
        -0.13063E+09
        -0.65662E+08
        -0.62409E+08
        -0.16621E+09
        -0.16958E+09
        -0.16600E+09
        -0.62042E+08
        -0.12280E+09
        -0.79166E+08
        -0.11310E+09
        -0.16161E+09
        -0.16335E+09
        -0.16112E+09
         0.16741E+09
         0.18201E+09
         0.13903E+09
         0.40061E+08
         0.17288E+09
         0.84226E+08
        -0.54739E+08
         0.44124E+08
         0.16221E+09
         0.35424E+08
         0.49537E+08
         0.36361E+08
        -0.21759E+08
         0.59835E+08
        -0.16263E+09
         0.57795E+08
         0.11040E+08
         0.33093E+08
        -0.37650E+08
        -0.15009E+09
         0.10503E+09
         0.40784E+08
         0.11107E+09
         0.97322E+08
        -0.11607E+08
         0.69193E+08
         0.10242E+09
         0.15813E+09
         0.17776E+09
         0.16700E+09
         0.89210E+08
        -0.22046E+08
        -0.49434E+08
        -0.79263E+08
        -0.11245E+09
        -0.17027E+09
        -0.14721E+09
        -0.11248E+09
        -0.17057E+09
        -0.17182E+09
        -0.11250E+09
        -0.92751E+07
         0.35674E+08
        -0.50655E+08
         0.11309E+09
         0.14669E+09
         0.17872E+09
         0.20087E+09
         0.20422E+09
         0.19836E+09
         0.19486E+09
         0.18119E+09
         0.11585E+09
         0.39067E+08
         0.18366E+08
         0.16978E+08
        -0.60536E+07
        -0.56009E+08
        -0.10843E+09
        -0.13881E+09
        -0.18700E+09
        -0.20225E+09
        -0.19548E+09
        -0.19369E+09
        -0.18223E+09
        -0.13062E+09
        -0.65625E+08
        -0.62355E+08
        -0.16620E+09
        -0.16957E+09
        -0.16600E+09
        -0.62389E+08
        -0.12286E+09
        -0.79270E+08
        -0.11318E+09
        -0.16172E+09
        -0.16338E+09
        -0.16125E+09
         0.16749E+09
         0.18200E+09
         0.13902E+09
         0.40187E+08
         0.17293E+09
         0.84164E+08
        -0.55081E+08
         0.44050E+08
         0.16223E+09
         0.35180E+08
         0.49653E+08
         0.36384E+08
        -0.21789E+08
         0.59750E+08
        -0.16268E+09
         0.57574E+08
         0.11203E+08
         0.33388E+08
        -0.37128E+08
        -0.15012E+09
         0.10493E+09
         0.40523E+08
         0.11150E+09
         0.97500E+08
        -0.11465E+08
         0.69258E+08
         0.10244E+09
         0.15815E+09
         0.17777E+09
         0.16698E+09
         0.89247E+08
        -0.21917E+08
        -0.49449E+08
        -0.79355E+08
        -0.11251E+09
        -0.17028E+09
        -0.14724E+09
        -0.11246E+09
        -0.17058E+09
        -0.17181E+09
        -0.11251E+09
        -0.91016E+07
         0.35651E+08
        -0.50668E+08
         0.11311E+09
         0.14669E+09
         0.17873E+09
         0.20086E+09
         0.20421E+09
         0.19835E+09
         0.19486E+09
         0.18119E+09
         0.11585E+09
         0.39092E+08
         0.18367E+08
         0.17011E+08
        -0.59954E+07
        -0.56028E+08
        -0.10847E+09
        -0.13882E+09
        -0.18701E+09
        -0.20225E+09
        -0.19549E+09
        -0.19369E+09
        -0.18224E+09
        -0.13060E+09
        -0.65588E+08
        -0.62302E+08
        -0.16618E+09
        -0.16956E+09
        -0.16600E+09
        -0.62734E+08
        -0.12292E+09
        -0.79373E+08
        -0.11326E+09
        -0.16183E+09
        -0.16341E+09
        -0.16138E+09
         0.16756E+09
         0.18199E+09
         0.13901E+09
         0.40314E+08
         0.17299E+09
         0.84103E+08
        -0.55428E+08
         0.43975E+08
         0.16225E+09
         0.34947E+08
         0.49768E+08
         0.36407E+08
        -0.21818E+08
         0.59668E+08
        -0.16273E+09
         0.57350E+08
         0.11374E+08
         0.33681E+08
        -0.36608E+08
        -0.15015E+09
         0.10483E+09
         0.40266E+08
         0.11193E+09
         0.97676E+08
        -0.11323E+08
         0.69323E+08
         0.10246E+09
         0.15818E+09
         0.17779E+09
         0.16696E+09
         0.89286E+08
        -0.21789E+08
        -0.49467E+08
        -0.79446E+08
        -0.11258E+09
        -0.17030E+09
        -0.14727E+09
        -0.11244E+09
        -0.17059E+09
        -0.17180E+09
        -0.11251E+09
        -0.89263E+07
         0.35629E+08
        -0.50680E+08
         0.11313E+09
         0.14669E+09
         0.17873E+09
         0.20086E+09
         0.20421E+09
         0.19833E+09
         0.19487E+09
         0.18119E+09
         0.11585E+09
         0.39117E+08
         0.18367E+08
         0.17044E+08
        -0.59369E+07
        -0.56047E+08
        -0.10850E+09
        -0.13884E+09
        -0.18701E+09
        -0.20224E+09
        -0.19550E+09
        -0.19370E+09
        -0.18225E+09
        -0.13059E+09
        -0.65551E+08
        -0.62248E+08
        -0.16617E+09
        -0.16955E+09
        -0.16600E+09
        -0.63076E+08
        -0.12299E+09
        -0.79477E+08
        -0.11334E+09
        -0.16193E+09
        -0.16345E+09
        -0.16152E+09
         0.16762E+09
         0.18198E+09
         0.13900E+09
         0.40436E+08
         0.17304E+09
         0.84042E+08
        -0.55776E+08
         0.43901E+08
         0.16227E+09
         0.34719E+08
         0.49884E+08
         0.36430E+08
        -0.21845E+08
         0.59592E+08
        -0.16279E+09
         0.57135E+08
         0.11541E+08
         0.33961E+08
        -0.36094E+08
        -0.15017E+09
         0.10472E+09
         0.40014E+08
         0.11235E+09
         0.97857E+08
        -0.11182E+08
         0.69385E+08
         0.10248E+09
         0.15821E+09
         0.17780E+09
         0.16694E+09
         0.89324E+08
        -0.21664E+08
        -0.49487E+08
        -0.79536E+08
        -0.11265E+09
        -0.17031E+09
        -0.14730E+09
        -0.11241E+09
        -0.17060E+09
        -0.17179E+09
        -0.11252E+09
        -0.87515E+07
         0.35605E+08
        -0.50694E+08
         0.11315E+09
         0.14669E+09
         0.17874E+09
         0.20085E+09
         0.20420E+09
         0.19832E+09
         0.19487E+09
         0.18118E+09
         0.11586E+09
         0.39140E+08
         0.18365E+08
         0.17076E+08
        -0.58784E+07
        -0.56065E+08
        -0.10854E+09
        -0.13885E+09
        -0.18702E+09
        -0.20224E+09
        -0.19550E+09
        -0.19370E+09
        -0.18226E+09
        -0.13057E+09
        -0.65515E+08
        -0.62194E+08
        -0.15994E+09
        -0.15208E+09
        -0.14765E+09
        -0.52576E+08
        -0.11685E+09
        -0.72612E+08
        -0.93717E+08
        -0.15415E+09
        -0.14965E+09
        -0.15339E+09
         0.13227E+09
         0.17805E+09
         0.13491E+09
         0.36028E+08
         0.16964E+09
         0.78809E+08
        -0.44809E+08
         0.43960E+08
         0.13817E+09
         0.32103E+08
         0.48818E+08
         0.35458E+08
        -0.21292E+08
         0.48997E+08
        -0.14545E+09
         0.57157E+08
         0.10403E+08
         0.34265E+08
        -0.30268E+08
        -0.13414E+09
         0.95915E+08
         0.34856E+08
         0.92478E+08
         0.82813E+08
        -0.10652E+08
         0.63951E+08
         0.97404E+08
         0.15409E+09
         0.17087E+09
         0.15944E+09
         0.87115E+08
        -0.20977E+08
        -0.48295E+08
        -0.76978E+08
        -0.10768E+09
        -0.16488E+09
        -0.13872E+09
        -0.10458E+09
        -0.15395E+09
        -0.15827E+09
        -0.10833E+09
        -0.80159E+07
         0.35343E+08
        -0.50410E+08
         0.11253E+09
         0.14591E+09
         0.17785E+09
         0.19989E+09
         0.20312E+09
         0.19702E+09
         0.19352E+09
         0.18002E+09
         0.11513E+09
         0.38934E+08
         0.18236E+08
         0.16994E+08
        -0.57907E+07
        -0.55797E+08
        -0.10805E+09
        -0.13820E+09
        -0.18592E+09
        -0.20110E+09
        -0.19435E+09
        -0.19251E+09
        -0.18120E+09
        -0.12976E+09
        -0.65113E+08
        -0.61789E+08
        -0.79318E+08
        -0.50715E+08
        -0.47855E+08
        -0.14346E+08
        -0.51721E+08
        -0.25919E+08
        -0.21095E+08
        -0.69118E+08
        -0.54157E+08
        -0.67560E+08
         0.33040E+08
         0.10625E+09
         0.72753E+08
         0.11603E+08
         0.10383E+09
         0.32198E+08
        -0.11474E+08
         0.99919E+07
         0.39641E+08
         0.64189E+07
         0.28344E+08
         0.19610E+08
        -0.11939E+08
         0.11984E+08
        -0.47788E+08
         0.12033E+08
         0.33906E+07
         0.58732E+07
        -0.60509E+07
        -0.44066E+08
         0.34754E+08
         0.80853E+07
         0.24610E+08
         0.20404E+08
        -0.52361E+07
         0.23732E+08
         0.43352E+08
         0.86453E+08
         0.83386E+08
         0.73949E+08
         0.49644E+08
        -0.11585E+08
        -0.27652E+08
        -0.39755E+08
        -0.49821E+08
        -0.86047E+08
        -0.57907E+08
        -0.40821E+08
        -0.52395E+08
        -0.58837E+08
        -0.53651E+08
        -0.31581E+07
         0.28185E+08
        -0.40985E+08
         0.92417E+08
         0.12093E+09
         0.14897E+09
         0.16866E+09
         0.16897E+09
         0.15809E+09
         0.15324E+09
         0.14463E+09
         0.92923E+08
         0.31964E+08
         0.14558E+08
         0.13627E+08
        -0.47412E+07
        -0.46688E+08
        -0.91116E+08
        -0.11660E+09
        -0.15110E+09
        -0.16486E+09
        -0.15827E+09
        -0.15589E+09
        -0.14795E+09
        -0.10526E+09
        -0.53516E+08
        -0.50602E+08
  
SCALARS                      stress_xz  double 1
LOOKUP_TABLE default
         0.57974E+05
        -0.40885E+06
        -0.13497E+07
         0.92724E+05
        -0.68590E+01
         0.24320E+01
         0.81321E+01
         0.16241E+01
        -0.37978E+07
        -0.25374E+07
         0.24324E+02
         0.21909E+02
         0.16193E+06
        -0.66073E+06
        -0.29999E+01
        -0.14053E+02
        -0.13557E+06
        -0.63408E+06
        -0.10151E+02
        -0.15119E+02
        -0.92925E+06
        -0.15657E+07
        -0.14828E+07
        -0.10095E+02
        -0.46553E+01
         0.81330E+01
        -0.16539E+07
        -0.13429E+07
        -0.18897E+02
        -0.14990E+02
         0.31721E+06
        -0.70463E+06
         0.67435E+05
         0.19240E+01
        -0.74351E+01
        -0.45806E+01
         0.94112E+06
         0.45361E+06
        -0.11039E+02
        -0.11753E+02
         0.18758E+07
         0.26578E+07
        -0.24900E+02
        -0.18363E+02
         0.20070E+07
         0.10689E+07
        -0.27345E+02
        -0.13162E+02
        -0.57608E+06
        -0.82616E+01
         0.13720E+07
        -0.22997E+01
        -0.60091E+06
        -0.16143E+02
         0.44889E+06
        -0.42703E+01
         0.19640E+07
         0.53880E+06
        -0.36581E+01
        -0.88421E+01
        -0.33871E+05
         0.93441E+06
         0.73165E+01
         0.50173E+01
        -0.24268E+06
        -0.73595E+00
        -0.81236E+06
         0.48407E+01
        -0.53445E+07
        -0.36624E+07
         0.30256E+02
         0.21944E+02
        -0.23555E+07
         0.15978E+02
         0.55511E+06
        -0.11053E+02
         0.17371E+07
        -0.21693E+01
         0.36826E+07
        -0.33655E+01
         0.48726E+07
         0.34601E+07
        -0.12334E+02
        -0.14106E+02
         0.30564E+07
        -0.15170E+02
         0.24338E+07
        -0.21841E+02
         0.15157E+07
        -0.13931E+02
         0.23860E+07
         0.17548E+07
        -0.59455E+01
         0.81535E+01
        -0.40113E+06
         0.95638E+01
        -0.11011E+07
         0.40157E+01
        -0.26439E+07
         0.99165E+01
        -0.39083E+07
        -0.26822E+07
         0.22865E+02
         0.23860E+02
        -0.95717E+07
        -0.10599E+08
         0.42249E+02
         0.41635E+02
        -0.94800E+07
         0.36093E+02
        -0.86401E+07
         0.26973E+02
        -0.61986E+07
         0.14823E+02
        -0.45037E+07
         0.15851E+01
        -0.16710E+07
        -0.56455E+01
         0.21529E+07
        -0.45167E+01
         0.51376E+07
        -0.44394E+01
         0.76337E+07
        -0.10011E+02
         0.10269E+08
        -0.19046E+02
         0.12478E+08
        -0.22728E+02
         0.13265E+08
        -0.21445E+02
         0.12635E+08
        -0.23320E+02
         0.11580E+08
        -0.30265E+02
         0.10414E+08
        -0.35689E+02
         0.91853E+07
        -0.33177E+02
         0.73043E+07
        -0.26963E+02
         0.42857E+07
        -0.12729E+02
         0.36740E+06
         0.24306E+01
        -0.23967E+07
         0.59011E+01
        -0.37512E+07
         0.96496E+01
        -0.56417E+07
         0.18885E+02
        -0.74385E+07
         0.30988E+02
        -0.97768E+07
         0.37231E+02
        -0.11232E+08
         0.38080E+02
        -0.89210E+06
         0.46405E+06
         0.54447E+06
        -0.10976E+07
         0.42396E+07
         0.32833E+07
         0.49500E+06
        -0.72769E+06
        -0.37600E+06
        -0.66840E+06
         0.36604E+06
         0.15844E+07
         0.33120E+07
        -0.10595E+07
        -0.12740E+07
         0.14607E+07
         0.12254E+07
        -0.56856E+06
        -0.88300E+06
        -0.95016E+06
        -0.51916E+07
        -0.55293E+07
        -0.49911E+07
        -0.15514E+07
         0.62238E+06
        -0.46378E+06
        -0.14885E+07
        -0.16692E+06
        -0.17066E+07
        -0.11748E+07
         0.13039E+07
         0.25560E+06
        -0.61443E+06
        -0.19853E+06
         0.62600E+07
         0.39926E+07
         0.36149E+07
        -0.25290E+07
        -0.14405E+07
        -0.30779E+07
        -0.62522E+07
        -0.59101E+07
        -0.58442E+07
        -0.42952E+07
        -0.30787E+07
        -0.24051E+07
         0.45226E+06
         0.18913E+07
         0.54690E+06
         0.17320E+07
         0.46220E+07
         0.38985E+07
         0.16125E+08
         0.18622E+08
         0.16461E+08
         0.14215E+08
         0.10548E+08
         0.51493E+07
        -0.28630E+06
        -0.33476E+07
        -0.51609E+07
        -0.87873E+07
        -0.13780E+08
        -0.19793E+08
        -0.18599E+08
        -0.17926E+08
        -0.18987E+08
        -0.18989E+08
        -0.17250E+08
        -0.15088E+08
        -0.70201E+07
         0.11481E+07
         0.45625E+07
         0.50849E+07
         0.85711E+07
         0.13219E+08
         0.17951E+08
         0.19024E+08
        -0.56506E+08
         0.18758E+08
        -0.37752E+08
        -0.15769E+09
         0.12731E+09
         0.15396E+09
         0.81406E+08
        -0.72813E+08
        -0.52016E+08
        -0.73194E+08
        -0.29220E+08
         0.27036E+08
         0.11475E+09
        -0.16835E+09
        -0.67698E+08
         0.14994E+09
         0.15320E+09
        -0.91762E+08
        -0.48996E+08
        -0.10845E+09
        -0.17449E+09
        -0.17644E+09
        -0.17845E+09
        -0.14637E+09
         0.54475E+08
         0.55978E+08
        -0.17188E+09
         0.40308E+08
        -0.10160E+09
        -0.84041E+08
         0.13373E+09
         0.13681E+09
        -0.13131E+09
        -0.11835E+09
         0.17867E+09
         0.15949E+09
         0.14356E+09
        -0.90638E+08
        -0.19362E+08
        -0.60020E+08
        -0.15916E+09
        -0.17930E+09
        -0.17419E+09
        -0.15981E+09
        -0.13679E+09
        -0.59766E+08
         0.95795E+08
         0.13172E+09
        -0.20891E+08
         0.21496E+08
         0.13900E+09
         0.17407E+09
         0.19853E+09
         0.19582E+09
         0.16885E+09
         0.14019E+09
         0.98708E+08
         0.42622E+08
        -0.10986E+08
        -0.39600E+08
        -0.53404E+08
        -0.92043E+08
        -0.16651E+09
        -0.19889E+09
        -0.19829E+09
        -0.19755E+09
        -0.19979E+09
        -0.19330E+09
        -0.17059E+09
        -0.14896E+09
        -0.78619E+08
         0.19945E+08
         0.48520E+08
         0.51529E+08
         0.86409E+08
         0.15273E+09
         0.19047E+09
         0.19133E+09
        -0.56573E+08
         0.18824E+08
        -0.37803E+08
        -0.15757E+09
         0.12724E+09
         0.15390E+09
         0.81924E+08
        -0.72563E+08
        -0.51988E+08
        -0.72935E+08
        -0.28629E+08
         0.27103E+08
         0.11478E+09
        -0.16830E+09
        -0.67597E+08
         0.14998E+09
         0.15354E+09
        -0.91508E+08
        -0.48945E+08
        -0.10826E+09
        -0.17446E+09
        -0.17643E+09
        -0.17845E+09
        -0.14638E+09
         0.54376E+08
         0.56071E+08
        -0.17188E+09
         0.39550E+08
        -0.10231E+09
        -0.83955E+08
         0.13381E+09
         0.13680E+09
        -0.13098E+09
        -0.11840E+09
         0.17869E+09
         0.15946E+09
         0.14355E+09
        -0.90653E+08
        -0.19506E+08
        -0.60131E+08
        -0.15916E+09
        -0.17932E+09
        -0.17418E+09
        -0.15979E+09
        -0.13677E+09
        -0.59738E+08
         0.95776E+08
         0.13177E+09
        -0.20767E+08
         0.21450E+08
         0.13898E+09
         0.17407E+09
         0.19853E+09
         0.19581E+09
         0.16884E+09
         0.14019E+09
         0.98693E+08
         0.42623E+08
        -0.11002E+08
        -0.39634E+08
        -0.53372E+08
        -0.92031E+08
        -0.16651E+09
        -0.19888E+09
        -0.19829E+09
        -0.19754E+09
        -0.19980E+09
        -0.19330E+09
        -0.17058E+09
        -0.14896E+09
        -0.78602E+08
         0.19955E+08
         0.48489E+08
         0.51511E+08
         0.86372E+08
         0.15272E+09
         0.19047E+09
         0.19134E+09
        -0.56640E+08
         0.18888E+08
        -0.37853E+08
        -0.15746E+09
         0.12717E+09
         0.15384E+09
         0.82444E+08
        -0.72313E+08
        -0.51956E+08
        -0.72674E+08
        -0.28039E+08
         0.27169E+08
         0.11480E+09
        -0.16826E+09
        -0.67497E+08
         0.15003E+09
         0.15388E+09
        -0.91252E+08
        -0.48893E+08
        -0.10807E+09
        -0.17443E+09
        -0.17643E+09
        -0.17845E+09
        -0.14639E+09
         0.54287E+08
         0.56172E+08
        -0.17187E+09
         0.38802E+08
        -0.10303E+09
        -0.83872E+08
         0.13388E+09
         0.13679E+09
        -0.13064E+09
        -0.11846E+09
         0.17870E+09
         0.15943E+09
         0.14353E+09
        -0.90667E+08
        -0.19650E+08
        -0.60243E+08
        -0.15916E+09
        -0.17934E+09
        -0.17417E+09
        -0.15977E+09
        -0.13674E+09
        -0.59710E+08
         0.95757E+08
         0.13182E+09
        -0.20638E+08
         0.21402E+08
         0.13896E+09
         0.17406E+09
         0.19853E+09
         0.19580E+09
         0.16882E+09
         0.14019E+09
         0.98677E+08
         0.42623E+08
        -0.11019E+08
        -0.39668E+08
        -0.53339E+08
        -0.92020E+08
        -0.16651E+09
        -0.19888E+09
        -0.19829E+09
        -0.19754E+09
        -0.19980E+09
        -0.19330E+09
        -0.17057E+09
        -0.14896E+09
        -0.78584E+08
         0.19965E+08
         0.48459E+08
         0.51494E+08
         0.86336E+08
         0.15272E+09
         0.19047E+09
         0.19134E+09
        -0.56707E+08
         0.18955E+08
        -0.37902E+08
        -0.15735E+09
         0.12710E+09
         0.15378E+09
         0.82958E+08
        -0.72064E+08
        -0.51918E+08
        -0.72409E+08
        -0.27450E+08
         0.27237E+08
         0.11483E+09
        -0.16822E+09
        -0.67397E+08
         0.15007E+09
         0.15424E+09
        -0.90994E+08
        -0.48842E+08
        -0.10788E+09
        -0.17440E+09
        -0.17642E+09
        -0.17845E+09
        -0.14639E+09
         0.54228E+08
         0.56296E+08
        -0.17187E+09
         0.38077E+08
        -0.10375E+09
        -0.83799E+08
         0.13397E+09
         0.13680E+09
        -0.13030E+09
        -0.11851E+09
         0.17872E+09
         0.15941E+09
         0.14352E+09
        -0.90680E+08
        -0.19793E+08
        -0.60349E+08
        -0.15916E+09
        -0.17936E+09
        -0.17416E+09
        -0.15973E+09
        -0.13670E+09
        -0.59679E+08
         0.95736E+08
         0.13188E+09
        -0.20508E+08
         0.21354E+08
         0.13895E+09
         0.17406E+09
         0.19852E+09
         0.19580E+09
         0.16881E+09
         0.14019E+09
         0.98661E+08
         0.42623E+08
        -0.11036E+08
        -0.39702E+08
        -0.53306E+08
        -0.92009E+08
        -0.16651E+09
        -0.19888E+09
        -0.19829E+09
        -0.19754E+09
        -0.19981E+09
        -0.19330E+09
        -0.17056E+09
        -0.14896E+09
        -0.78566E+08
         0.19975E+08
         0.48428E+08
         0.51477E+08
         0.86299E+08
         0.15272E+09
         0.19047E+09
         0.19135E+09
        -0.56773E+08
         0.19022E+08
        -0.37952E+08
        -0.15723E+09
         0.12703E+09
         0.15372E+09
         0.83478E+08
        -0.71814E+08
        -0.51874E+08
        -0.72139E+08
        -0.26860E+08
         0.27303E+08
         0.11486E+09
        -0.16818E+09
        -0.67296E+08
         0.15012E+09
         0.15462E+09
        -0.90735E+08
        -0.48785E+08
        -0.10769E+09
        -0.17437E+09
        -0.17641E+09
        -0.17844E+09
        -0.14640E+09
         0.54199E+08
         0.56439E+08
        -0.17187E+09
         0.37375E+08
        -0.10446E+09
        -0.83736E+08
         0.13407E+09
         0.13683E+09
        -0.12995E+09
        -0.11856E+09
         0.17873E+09
         0.15938E+09
         0.14350E+09
        -0.90693E+08
        -0.19932E+08
        -0.60454E+08
        -0.15915E+09
        -0.17938E+09
        -0.17416E+09
        -0.15969E+09
        -0.13665E+09
        -0.59642E+08
         0.95715E+08
         0.13193E+09
        -0.20379E+08
         0.21307E+08
         0.13893E+09
         0.17405E+09
         0.19852E+09
         0.19579E+09
         0.16879E+09
         0.14019E+09
         0.98646E+08
         0.42623E+08
        -0.11053E+08
        -0.39736E+08
        -0.53273E+08
        -0.91997E+08
        -0.16650E+09
        -0.19887E+09
        -0.19828E+09
        -0.19753E+09
        -0.19981E+09
        -0.19330E+09
        -0.17054E+09
        -0.14895E+09
        -0.78548E+08
         0.19985E+08
         0.48397E+08
         0.51460E+08
         0.86262E+08
         0.15271E+09
         0.19048E+09
         0.19136E+09
        -0.56837E+08
         0.19096E+08
        -0.37995E+08
        -0.15712E+09
         0.12696E+09
         0.15366E+09
         0.83998E+08
        -0.71567E+08
        -0.51828E+08
        -0.71873E+08
        -0.26267E+08
         0.27370E+08
         0.11488E+09
        -0.16813E+09
        -0.67196E+08
         0.15017E+09
         0.15499E+09
        -0.90477E+08
        -0.48727E+08
        -0.10750E+09
        -0.17434E+09
        -0.17641E+09
        -0.17844E+09
        -0.14642E+09
         0.54174E+08
         0.56586E+08
        -0.17186E+09
         0.36677E+08
        -0.10518E+09
        -0.83684E+08
         0.13416E+09
         0.13686E+09
        -0.12960E+09
        -0.11861E+09
         0.17875E+09
         0.15935E+09
         0.14349E+09
        -0.90704E+08
        -0.20072E+08
        -0.60555E+08
        -0.15915E+09
        -0.17941E+09
        -0.17416E+09
        -0.15965E+09
        -0.13660E+09
        -0.59607E+08
         0.95688E+08
         0.13197E+09
        -0.20244E+08
         0.21265E+08
         0.13891E+09
         0.17405E+09
         0.19852E+09
         0.19578E+09
         0.16878E+09
         0.14019E+09
         0.98630E+08
         0.42623E+08
        -0.11069E+08
        -0.39770E+08
        -0.53241E+08
        -0.91986E+08
        -0.16650E+09
        -0.19887E+09
        -0.19828E+09
        -0.19753E+09
        -0.19982E+09
        -0.19330E+09
        -0.17053E+09
        -0.14895E+09
        -0.78529E+08
         0.19994E+08
         0.48366E+08
         0.51442E+08
         0.86226E+08
         0.15271E+09
         0.19048E+09
         0.19137E+09
        -0.56895E+08
         0.19187E+08
        -0.38024E+08
        -0.15700E+09
         0.12689E+09
         0.15361E+09
         0.84528E+08
        -0.71323E+08
        -0.51783E+08
        -0.71620E+08
        -0.25667E+08
         0.27436E+08
         0.11491E+09
        -0.16808E+09
        -0.67094E+08
         0.15022E+09
         0.15535E+09
        -0.90216E+08
        -0.48673E+08
        -0.10732E+09
        -0.17431E+09
        -0.17640E+09
        -0.17844E+09
        -0.14643E+09
         0.54135E+08
         0.56715E+08
        -0.17186E+09
         0.35963E+08
        -0.10590E+09
        -0.83640E+08
         0.13426E+09
         0.13687E+09
        -0.12924E+09
        -0.11864E+09
         0.17877E+09
         0.15932E+09
         0.14347E+09
        -0.90713E+08
        -0.20211E+08
        -0.60660E+08
        -0.15914E+09
        -0.17943E+09
        -0.17416E+09
        -0.15961E+09
        -0.13654E+09
        -0.59573E+08
         0.95647E+08
         0.13200E+09
        -0.20091E+08
         0.21237E+08
         0.13890E+09
         0.17404E+09
         0.19852E+09
         0.19577E+09
         0.16876E+09
         0.14019E+09
         0.98614E+08
         0.42623E+08
        -0.11086E+08
        -0.39804E+08
        -0.53208E+08
        -0.91975E+08
        -0.16650E+09
        -0.19887E+09
        -0.19828E+09
        -0.19753E+09
        -0.19982E+09
        -0.19330E+09
        -0.17051E+09
        -0.14894E+09
        -0.78511E+08
         0.20002E+08
         0.48333E+08
         0.51425E+08
         0.86191E+08
         0.15271E+09
         0.19048E+09
         0.19137E+09
        -0.56951E+08
         0.19284E+08
        -0.38047E+08
        -0.15688E+09
         0.12682E+09
         0.15355E+09
         0.85064E+08
        -0.71083E+08
        -0.51739E+08
        -0.71376E+08
        -0.25064E+08
         0.27502E+08
         0.11493E+09
        -0.16803E+09
        -0.66993E+08
         0.15027E+09
         0.15570E+09
        -0.89953E+08
        -0.48617E+08
        -0.10715E+09
        -0.17428E+09
        -0.17640E+09
        -0.17844E+09
        -0.14645E+09
         0.54089E+08
         0.56836E+08
        -0.17185E+09
         0.35245E+08
        -0.10664E+09
        -0.83602E+08
         0.13435E+09
         0.13686E+09
        -0.12887E+09
        -0.11867E+09
         0.17878E+09
         0.15929E+09
         0.14346E+09
        -0.90722E+08
        -0.20350E+08
        -0.60763E+08
        -0.15913E+09
        -0.17946E+09
        -0.17416E+09
        -0.15956E+09
        -0.13649E+09
        -0.59542E+08
         0.95600E+08
         0.13202E+09
        -0.19930E+08
         0.21216E+08
         0.13889E+09
         0.17404E+09
         0.19851E+09
         0.19576E+09
         0.16875E+09
         0.14019E+09
         0.98599E+08
         0.42623E+08
        -0.11102E+08
        -0.39838E+08
        -0.53175E+08
        -0.91964E+08
        -0.16650E+09
        -0.19886E+09
        -0.19828E+09
        -0.19752E+09
        -0.19983E+09
        -0.19330E+09
        -0.17050E+09
        -0.14893E+09
        -0.78493E+08
         0.20010E+08
         0.48299E+08
         0.51407E+08
         0.86157E+08
         0.15271E+09
         0.19048E+09
         0.19138E+09
        -0.57007E+08
         0.19382E+08
        -0.38068E+08
        -0.15675E+09
         0.12675E+09
         0.15349E+09
         0.85597E+08
        -0.70843E+08
        -0.51695E+08
        -0.71134E+08
        -0.24465E+08
         0.27568E+08
         0.11496E+09
        -0.16798E+09
        -0.66890E+08
         0.15031E+09
         0.15605E+09
        -0.89693E+08
        -0.48560E+08
        -0.10697E+09
        -0.17425E+09
        -0.17639E+09
        -0.17844E+09
        -0.14647E+09
         0.54044E+08
         0.56956E+08
        -0.17184E+09
         0.34528E+08
        -0.10737E+09
        -0.83563E+08
         0.13444E+09
         0.13685E+09
        -0.12850E+09
        -0.11870E+09
         0.17880E+09
         0.15926E+09
         0.14344E+09
        -0.90729E+08
        -0.20488E+08
        -0.60866E+08
        -0.15913E+09
        -0.17948E+09
        -0.17416E+09
        -0.15952E+09
        -0.13644E+09
        -0.59511E+08
         0.95555E+08
         0.13205E+09
        -0.19769E+08
         0.21197E+08
         0.13888E+09
         0.17403E+09
         0.19851E+09
         0.19576E+09
         0.16874E+09
         0.14019E+09
         0.98583E+08
         0.42623E+08
        -0.11119E+08
        -0.39872E+08
        -0.53142E+08
        -0.91954E+08
        -0.16649E+09
        -0.19886E+09
        -0.19828E+09
        -0.19752E+09
        -0.19983E+09
        -0.19330E+09
        -0.17048E+09
        -0.14893E+09
        -0.78475E+08
         0.20017E+08
         0.48265E+08
         0.51389E+08
         0.86123E+08
         0.15271E+09
         0.19049E+09
         0.19139E+09
        -0.57063E+08
         0.19482E+08
        -0.38091E+08
        -0.15663E+09
         0.12668E+09
         0.15343E+09
         0.86132E+08
        -0.70603E+08
        -0.51652E+08
        -0.70893E+08
        -0.23864E+08
         0.27634E+08
         0.11498E+09
        -0.16793E+09
        -0.66789E+08
         0.15036E+09
         0.15640E+09
        -0.89434E+08
        -0.48503E+08
        -0.10680E+09
        -0.17422E+09
        -0.17639E+09
        -0.17843E+09
        -0.14649E+09
         0.53999E+08
         0.57076E+08
        -0.17184E+09
         0.33815E+08
        -0.10810E+09
        -0.83524E+08
         0.13453E+09
         0.13684E+09
        -0.12813E+09
        -0.11873E+09
         0.17881E+09
         0.15923E+09
         0.14342E+09
        -0.90737E+08
        -0.20627E+08
        -0.60971E+08
        -0.15912E+09
        -0.17951E+09
        -0.17416E+09
        -0.15948E+09
        -0.13639E+09
        -0.59478E+08
         0.95508E+08
         0.13207E+09
        -0.19609E+08
         0.21174E+08
         0.13887E+09
         0.17403E+09
         0.19851E+09
         0.19575E+09
         0.16872E+09
         0.14019E+09
         0.98567E+08
         0.42623E+08
        -0.11135E+08
        -0.39906E+08
        -0.53110E+08
        -0.91943E+08
        -0.16649E+09
        -0.19885E+09
        -0.19828E+09
        -0.19752E+09
        -0.19983E+09
        -0.19330E+09
        -0.17047E+09
        -0.14892E+09
        -0.78457E+08
         0.20025E+08
         0.48230E+08
         0.51371E+08
         0.86088E+08
         0.15270E+09
         0.19049E+09
         0.19139E+09
        -0.57119E+08
         0.19580E+08
        -0.38114E+08
        -0.15651E+09
         0.12662E+09
         0.15337E+09
         0.86663E+08
        -0.70364E+08
        -0.51608E+08
        -0.70654E+08
        -0.23262E+08
         0.27701E+08
         0.11500E+09
        -0.16788E+09
        -0.66687E+08
         0.15041E+09
         0.15675E+09
        -0.89176E+08
        -0.48451E+08
        -0.10662E+09
        -0.17419E+09
        -0.17638E+09
        -0.17843E+09
        -0.14651E+09
         0.53953E+08
         0.57195E+08
        -0.17183E+09
         0.33101E+08
        -0.10883E+09
        -0.83484E+08
         0.13462E+09
         0.13683E+09
        -0.12775E+09
        -0.11876E+09
         0.17883E+09
         0.15920E+09
         0.14341E+09
        -0.90744E+08
        -0.20764E+08
        -0.61074E+08
        -0.15911E+09
        -0.17953E+09
        -0.17416E+09
        -0.15944E+09
        -0.13633E+09
        -0.59447E+08
         0.95460E+08
         0.13209E+09
        -0.19447E+08
         0.21153E+08
         0.13886E+09
         0.17402E+09
         0.19850E+09
         0.19574E+09
         0.16871E+09
         0.14019E+09
         0.98551E+08
         0.42624E+08
        -0.11151E+08
        -0.39940E+08
        -0.53077E+08
        -0.91932E+08
        -0.16649E+09
        -0.19885E+09
        -0.19828E+09
        -0.19752E+09
        -0.19984E+09
        -0.19330E+09
        -0.17045E+09
        -0.14892E+09
        -0.78439E+08
         0.20032E+08
         0.48196E+08
         0.51353E+08
         0.86054E+08
         0.15270E+09
         0.19049E+09
         0.19140E+09
        -0.57175E+08
         0.19678E+08
        -0.38135E+08
        -0.15638E+09
         0.12655E+09
         0.15331E+09
         0.87198E+08
        -0.70125E+08
        -0.51563E+08
        -0.70416E+08
        -0.22663E+08
         0.27768E+08
         0.11503E+09
        -0.16783E+09
        -0.66586E+08
         0.15045E+09
         0.15710E+09
        -0.88915E+08
        -0.48396E+08
        -0.10645E+09
        -0.17416E+09
        -0.17637E+09
        -0.17843E+09
        -0.14653E+09
         0.53908E+08
         0.57318E+08
        -0.17182E+09
         0.32391E+08
        -0.10956E+09
        -0.83448E+08
         0.13472E+09
         0.13682E+09
        -0.12737E+09
        -0.11879E+09
         0.17885E+09
         0.15917E+09
         0.14339E+09
        -0.90751E+08
        -0.20902E+08
        -0.61178E+08
        -0.15911E+09
        -0.17956E+09
        -0.17416E+09
        -0.15940E+09
        -0.13628E+09
        -0.59417E+08
         0.95415E+08
         0.13211E+09
        -0.19284E+08
         0.21134E+08
         0.13885E+09
         0.17401E+09
         0.19850E+09
         0.19573E+09
         0.16869E+09
         0.14019E+09
         0.98535E+08
         0.42624E+08
        -0.11167E+08
        -0.39974E+08
        -0.53044E+08
        -0.91922E+08
        -0.16649E+09
        -0.19885E+09
        -0.19828E+09
        -0.19751E+09
        -0.19984E+09
        -0.19331E+09
        -0.17044E+09
        -0.14891E+09
        -0.78421E+08
         0.20039E+08
         0.48162E+08
         0.51336E+08
         0.86020E+08
         0.15270E+09
         0.19049E+09
         0.19141E+09
        -0.57231E+08
         0.19778E+08
        -0.38156E+08
        -0.15626E+09
         0.12648E+09
         0.15325E+09
         0.87730E+08
        -0.69886E+08
        -0.51518E+08
        -0.70178E+08
        -0.22065E+08
         0.27833E+08
         0.11505E+09
        -0.16778E+09
        -0.66483E+08
         0.15050E+09
         0.15745E+09
        -0.88655E+08
        -0.48342E+08
        -0.10627E+09
        -0.17413E+09
        -0.17637E+09
        -0.17843E+09
        -0.14655E+09
         0.53861E+08
         0.57437E+08
        -0.17181E+09
         0.31679E+08
        -0.11029E+09
        -0.83409E+08
         0.13481E+09
         0.13681E+09
        -0.12699E+09
        -0.11882E+09
         0.17886E+09
         0.15914E+09
         0.14338E+09
        -0.90757E+08
        -0.21040E+08
        -0.61281E+08
        -0.15910E+09
        -0.17958E+09
        -0.17416E+09
        -0.15935E+09
        -0.13623E+09
        -0.59384E+08
         0.95367E+08
         0.13213E+09
        -0.19120E+08
         0.21112E+08
         0.13884E+09
         0.17401E+09
         0.19850E+09
         0.19572E+09
         0.16868E+09
         0.14019E+09
         0.98520E+08
         0.42624E+08
        -0.11184E+08
        -0.40007E+08
        -0.53011E+08
        -0.91911E+08
        -0.16648E+09
        -0.19884E+09
        -0.19828E+09
        -0.19751E+09
        -0.19985E+09
        -0.19331E+09
        -0.17042E+09
        -0.14891E+09
        -0.78403E+08
         0.20046E+08
         0.48128E+08
         0.51318E+08
         0.85986E+08
         0.15270E+09
         0.19050E+09
         0.19142E+09
        -0.57288E+08
         0.19875E+08
        -0.38177E+08
        -0.15613E+09
         0.12641E+09
         0.15319E+09
         0.88257E+08
        -0.69648E+08
        -0.51474E+08
        -0.69941E+08
        -0.21468E+08
         0.27899E+08
         0.11507E+09
        -0.16772E+09
        -0.66382E+08
         0.15054E+09
         0.15780E+09
        -0.88395E+08
        -0.48292E+08
        -0.10610E+09
        -0.17410E+09
        -0.17636E+09
        -0.17842E+09
        -0.14657E+09
         0.53815E+08
         0.57557E+08
        -0.17181E+09
         0.30972E+08
        -0.11102E+09
        -0.83370E+08
         0.13490E+09
         0.13680E+09
        -0.12660E+09
        -0.11885E+09
         0.17888E+09
         0.15911E+09
         0.14336E+09
        -0.90762E+08
        -0.21177E+08
        -0.61386E+08
        -0.15909E+09
        -0.17961E+09
        -0.17416E+09
        -0.15931E+09
        -0.13617E+09
        -0.59353E+08
         0.95319E+08
         0.13215E+09
        -0.18956E+08
         0.21090E+08
         0.13883E+09
         0.17400E+09
         0.19850E+09
         0.19572E+09
         0.16867E+09
         0.14019E+09
         0.98504E+08
         0.42624E+08
        -0.11200E+08
        -0.40040E+08
        -0.52978E+08
        -0.91901E+08
        -0.16648E+09
        -0.19884E+09
        -0.19828E+09
        -0.19751E+09
        -0.19985E+09
        -0.19331E+09
        -0.17041E+09
        -0.14890E+09
        -0.78384E+08
         0.20053E+08
         0.48094E+08
         0.51301E+08
         0.85951E+08
         0.15270E+09
         0.19050E+09
         0.19142E+09
        -0.57345E+08
         0.19972E+08
        -0.38198E+08
        -0.15600E+09
         0.12634E+09
         0.15313E+09
         0.88789E+08
        -0.69409E+08
        -0.51429E+08
        -0.69706E+08
        -0.20872E+08
         0.27967E+08
         0.11510E+09
        -0.16767E+09
        -0.66280E+08
         0.15059E+09
         0.15815E+09
        -0.88137E+08
        -0.48237E+08
        -0.10592E+09
        -0.17407E+09
        -0.17636E+09
        -0.17842E+09
        -0.14659E+09
         0.53768E+08
         0.57676E+08
        -0.17180E+09
         0.30265E+08
        -0.11174E+09
        -0.83330E+08
         0.13499E+09
         0.13679E+09
        -0.12622E+09
        -0.11887E+09
         0.17889E+09
         0.15908E+09
         0.14334E+09
        -0.90766E+08
        -0.21313E+08
        -0.61490E+08
        -0.15909E+09
        -0.17963E+09
        -0.17416E+09
        -0.15927E+09
        -0.13612E+09
        -0.59322E+08
         0.95273E+08
         0.13217E+09
        -0.18790E+08
         0.21070E+08
         0.13882E+09
         0.17400E+09
         0.19849E+09
         0.19571E+09
         0.16865E+09
         0.14019E+09
         0.98488E+08
         0.42624E+08
        -0.11216E+08
        -0.40073E+08
        -0.52945E+08
        -0.91891E+08
        -0.16648E+09
        -0.19884E+09
        -0.19827E+09
        -0.19750E+09
        -0.19986E+09
        -0.19331E+09
        -0.17040E+09
        -0.14890E+09
        -0.78366E+08
         0.20060E+08
         0.48060E+08
         0.51284E+08
         0.85917E+08
         0.15270E+09
         0.19050E+09
         0.19143E+09
        -0.57401E+08
         0.20072E+08
        -0.38220E+08
        -0.15588E+09
         0.12627E+09
         0.15307E+09
         0.89317E+08
        -0.69171E+08
        -0.51384E+08
        -0.69472E+08
        -0.20276E+08
         0.28033E+08
         0.11512E+09
        -0.16762E+09
        -0.66178E+08
         0.15063E+09
         0.15835E+09
        -0.87881E+08
        -0.48183E+08
        -0.10575E+09
        -0.17404E+09
        -0.17635E+09
        -0.17842E+09
        -0.14662E+09
         0.53719E+08
         0.57796E+08
        -0.17179E+09
         0.29558E+08
        -0.11247E+09
        -0.83290E+08
         0.13508E+09
         0.13678E+09
        -0.12583E+09
        -0.11890E+09
         0.17891E+09
         0.15905E+09
         0.14333E+09
        -0.90769E+08
        -0.21450E+08
        -0.61593E+08
        -0.15908E+09
        -0.17966E+09
        -0.17416E+09
        -0.15923E+09
        -0.13607E+09
        -0.59289E+08
         0.95226E+08
         0.13220E+09
        -0.18624E+08
         0.21047E+08
         0.13881E+09
         0.17399E+09
         0.19849E+09
         0.19570E+09
         0.16864E+09
         0.14019E+09
         0.98472E+08
         0.42624E+08
        -0.11232E+08
        -0.40106E+08
        -0.52912E+08
        -0.91881E+08
        -0.16648E+09
        -0.19883E+09
        -0.19827E+09
        -0.19750E+09
        -0.19986E+09
        -0.19331E+09
        -0.17038E+09
        -0.14889E+09
        -0.78348E+08
         0.20067E+08
         0.48026E+08
         0.51266E+08
         0.85883E+08
         0.15269E+09
         0.19050E+09
         0.19144E+09
        -0.57458E+08
         0.20169E+08
        -0.38242E+08
        -0.15575E+09
         0.12620E+09
         0.15301E+09
         0.89847E+08
        -0.68934E+08
        -0.51337E+08
        -0.69237E+08
        -0.19680E+08
         0.28100E+08
         0.11514E+09
        -0.16757E+09
        -0.66075E+08
         0.15068E+09
         0.15826E+09
        -0.87624E+08
        -0.48130E+08
        -0.10557E+09
        -0.17401E+09
        -0.17635E+09
        -0.17842E+09
        -0.14664E+09
         0.53669E+08
         0.57914E+08
        -0.17178E+09
         0.28845E+08
        -0.11319E+09
        -0.83253E+08
         0.13517E+09
         0.13677E+09
        -0.12544E+09
        -0.11893E+09
         0.17892E+09
         0.15902E+09
         0.14331E+09
        -0.90772E+08
        -0.21588E+08
        -0.61699E+08
        -0.15907E+09
        -0.17968E+09
        -0.17416E+09
        -0.15919E+09
        -0.13601E+09
        -0.59258E+08
         0.95178E+08
         0.13222E+09
        -0.18459E+08
         0.21025E+08
         0.13879E+09
         0.17399E+09
         0.19849E+09
         0.19569E+09
         0.16862E+09
         0.14019E+09
         0.98456E+08
         0.42625E+08
        -0.11248E+08
        -0.40140E+08
        -0.52880E+08
        -0.91871E+08
        -0.16647E+09
        -0.19883E+09
        -0.19827E+09
        -0.19750E+09
        -0.19987E+09
        -0.19331E+09
        -0.17037E+09
        -0.14888E+09
        -0.78329E+08
         0.20074E+08
         0.47992E+08
         0.51248E+08
         0.85849E+08
         0.15269E+09
         0.19050E+09
         0.19144E+09
        -0.57514E+08
         0.20267E+08
        -0.38261E+08
        -0.15562E+09
         0.12614E+09
         0.15295E+09
         0.90374E+08
        -0.68697E+08
        -0.51287E+08
        -0.68995E+08
        -0.19085E+08
         0.28166E+08
         0.11517E+09
        -0.16751E+09
        -0.65973E+08
         0.15072E+09
         0.15816E+09
        -0.87365E+08
        -0.48084E+08
        -0.10540E+09
        -0.17398E+09
        -0.17634E+09
        -0.17842E+09
        -0.14666E+09
         0.53612E+08
         0.58038E+08
        -0.17178E+09
         0.28114E+08
        -0.11391E+09
        -0.83224E+08
         0.13526E+09
         0.13676E+09
        -0.12504E+09
        -0.11896E+09
         0.17894E+09
         0.15899E+09
         0.14330E+09
        -0.90771E+08
        -0.21731E+08
        -0.61804E+08
        -0.15906E+09
        -0.17970E+09
        -0.17416E+09
        -0.15914E+09
        -0.13596E+09
        -0.59225E+08
         0.95133E+08
         0.13224E+09
        -0.18294E+08
         0.21003E+08
         0.13878E+09
         0.17398E+09
         0.19849E+09
         0.19568E+09
         0.16861E+09
         0.14018E+09
         0.98441E+08
         0.42625E+08
        -0.11264E+08
        -0.40173E+08
        -0.52847E+08
        -0.91861E+08
        -0.16647E+09
        -0.19883E+09
        -0.19827E+09
        -0.19749E+09
        -0.19987E+09
        -0.19331E+09
        -0.17035E+09
        -0.14888E+09
        -0.78311E+08
         0.20081E+08
         0.47958E+08
         0.51231E+08
         0.85815E+08
         0.15269E+09
         0.19051E+09
         0.19145E+09
        -0.57571E+08
         0.20364E+08
        -0.38282E+08
        -0.15549E+09
         0.12607E+09
         0.15289E+09
         0.90903E+08
        -0.68460E+08
        -0.51233E+08
        -0.68748E+08
        -0.18493E+08
         0.28233E+08
         0.11519E+09
        -0.16746E+09
        -0.65869E+08
         0.15077E+09
         0.15806E+09
        -0.87107E+08
        -0.48031E+08
        -0.10523E+09
        -0.17395E+09
        -0.17634E+09
        -0.17841E+09
        -0.14668E+09
         0.53546E+08
         0.58155E+08
        -0.17176E+09
         0.27361E+08
        -0.11464E+09
        -0.83198E+08
         0.13535E+09
         0.13675E+09
        -0.12464E+09
        -0.11899E+09
         0.17896E+09
         0.15896E+09
         0.14328E+09
        -0.90767E+08
        -0.21878E+08
        -0.61912E+08
        -0.15905E+09
        -0.17972E+09
        -0.17416E+09
        -0.15910E+09
        -0.13591E+09
        -0.59195E+08
         0.95085E+08
         0.13226E+09
        -0.18127E+08
         0.20982E+08
         0.13877E+09
         0.17397E+09
         0.19848E+09
         0.19568E+09
         0.16860E+09
         0.14018E+09
         0.98425E+08
         0.42625E+08
        -0.11280E+08
        -0.40206E+08
        -0.52816E+08
        -0.91851E+08
        -0.16646E+09
        -0.19882E+09
        -0.19827E+09
        -0.19749E+09
        -0.19988E+09
        -0.19331E+09
        -0.17034E+09
        -0.14887E+09
        -0.78293E+08
         0.20088E+08
         0.47924E+08
         0.51213E+08
         0.85781E+08
         0.15269E+09
         0.19051E+09
         0.19146E+09
        -0.57627E+08
         0.20462E+08
        -0.38302E+08
        -0.15537E+09
         0.12600E+09
         0.15283E+09
         0.91425E+08
        -0.68225E+08
        -0.51176E+08
        -0.68500E+08
        -0.17905E+08
         0.28298E+08
         0.11521E+09
        -0.16741E+09
        -0.65766E+08
         0.15081E+09
         0.15795E+09
        -0.86852E+08
        -0.47978E+08
        -0.10506E+09
        -0.17391E+09
        -0.17633E+09
        -0.17841E+09
        -0.14671E+09
         0.53477E+08
         0.58273E+08
        -0.17175E+09
         0.26605E+08
        -0.11536E+09
        -0.83172E+08
         0.13544E+09
         0.13674E+09
        -0.12425E+09
        -0.11902E+09
         0.17897E+09
         0.15893E+09
         0.14327E+09
        -0.90761E+08
        -0.22027E+08
        -0.62017E+08
        -0.15904E+09
        -0.17975E+09
        -0.17415E+09
        -0.15906E+09
        -0.13585E+09
        -0.59164E+08
         0.95039E+08
         0.13228E+09
        -0.17961E+08
         0.20959E+08
         0.13876E+09
         0.17397E+09
         0.19848E+09
         0.19567E+09
         0.16858E+09
         0.14018E+09
         0.98409E+08
         0.42625E+08
        -0.11296E+08
        -0.40237E+08
        -0.52785E+08
        -0.91841E+08
        -0.16646E+09
        -0.19882E+09
        -0.19827E+09
        -0.19749E+09
        -0.19988E+09
        -0.19331E+09
        -0.17032E+09
        -0.14887E+09
        -0.78275E+08
         0.20095E+08
         0.47890E+08
         0.51196E+08
         0.85748E+08
         0.15269E+09
         0.19051E+09
         0.19147E+09
        -0.55522E+08
         0.18422E+08
        -0.34082E+08
        -0.12872E+09
         0.11956E+09
         0.13939E+09
         0.75904E+08
        -0.64708E+08
        -0.46793E+08
        -0.64800E+08
        -0.13720E+08
         0.27736E+08
         0.11185E+09
        -0.14870E+09
        -0.64365E+08
         0.14153E+09
         0.12608E+09
        -0.86871E+08
        -0.40790E+08
        -0.97523E+08
        -0.16978E+09
        -0.17151E+09
        -0.17379E+09
        -0.12070E+09
         0.47701E+08
         0.58544E+08
        -0.15281E+09
         0.25968E+08
        -0.98423E+08
        -0.74239E+08
         0.12421E+09
         0.11961E+09
        -0.10160E+09
        -0.10057E+09
         0.17243E+09
         0.14638E+09
         0.13616E+09
        -0.88391E+08
        -0.21296E+08
        -0.59326E+08
        -0.15504E+09
        -0.17485E+09
        -0.16984E+09
        -0.15379E+09
        -0.12977E+09
        -0.57244E+08
         0.89463E+08
         0.12317E+09
        -0.16077E+08
         0.19288E+08
         0.13357E+09
         0.16255E+09
         0.19718E+09
         0.19449E+09
         0.16763E+09
         0.13944E+09
         0.97904E+08
         0.42416E+08
        -0.11255E+08
        -0.40000E+08
        -0.52385E+08
        -0.91240E+08
        -0.16542E+09
        -0.19769E+09
        -0.19695E+09
        -0.19618E+09
        -0.19877E+09
        -0.19234E+09
        -0.16950E+09
        -0.14816E+09
        -0.77793E+08
         0.19994E+08
         0.47582E+08
         0.50866E+08
         0.85221E+08
         0.15176E+09
         0.18944E+09
         0.19037E+09
        -0.27548E+08
         0.61623E+07
        -0.11047E+08
        -0.34947E+08
         0.52861E+08
         0.49676E+08
         0.17125E+08
        -0.28961E+08
        -0.16915E+08
        -0.28495E+08
        -0.33771E+07
         0.16556E+08
         0.60315E+08
        -0.47803E+08
        -0.39361E+08
         0.57836E+08
         0.32104E+08
        -0.19741E+08
        -0.11697E+08
        -0.19539E+08
        -0.98398E+08
        -0.94805E+08
        -0.97491E+08
        -0.29522E+08
         0.15649E+08
         0.12336E+08
        -0.49338E+08
         0.43637E+07
        -0.19853E+08
        -0.24366E+08
         0.45035E+08
         0.27772E+08
        -0.26907E+08
        -0.24756E+08
         0.85886E+08
         0.54296E+08
         0.60603E+08
        -0.49614E+08
        -0.10429E+08
        -0.27540E+08
        -0.88339E+08
        -0.96742E+08
        -0.97155E+08
        -0.79398E+08
        -0.60030E+08
        -0.29870E+08
         0.37338E+08
         0.48134E+08
        -0.54408E+07
         0.71666E+07
         0.66138E+08
         0.64984E+08
         0.15736E+09
         0.15805E+09
         0.13766E+09
         0.11558E+09
         0.81992E+08
         0.35779E+08
        -0.93769E+07
        -0.32105E+08
        -0.41464E+08
        -0.73289E+08
        -0.13350E+09
        -0.16229E+09
        -0.15731E+09
        -0.15713E+09
        -0.16381E+09
        -0.16094E+09
        -0.14292E+09
        -0.12500E+09
        -0.63213E+08
         0.16402E+08
         0.38742E+08
         0.41183E+08
         0.69569E+08
         0.12312E+09
         0.15575E+09
         0.15599E+09
  
SCALARS                      stress_xy  double 1
LOOKUP_TABLE default
        -0.66230E+00
        -0.15542E+01
        -0.13328E+02
         0.47072E+00
        -0.75336E-09
         0.73624E-10
         0.11069E-08
         0.16862E-09
        -0.14060E+03
         0.61775E+02
         0.49273E-08
         0.39074E-08
         0.52613E+01
        -0.10917E+01
         0.43491E-09
        -0.13062E-09
         0.15128E+01
         0.26400E+02
         0.21652E-10
         0.32995E-09
        -0.20084E+02
        -0.12742E+03
        -0.12538E+03
         0.33550E-08
         0.26718E-08
        -0.39016E-08
        -0.13267E+02
        -0.11085E+03
         0.45174E-08
         0.69519E-08
        -0.40453E+01
         0.78365E+01
         0.63641E+00
        -0.23844E-09
         0.94061E-09
        -0.12031E-10
        -0.35678E+02
        -0.16581E+02
         0.25174E-08
         0.20854E-08
        -0.69922E+02
        -0.63092E+02
         0.42914E-08
         0.28922E-08
        -0.67820E+02
        -0.12450E+02
        -0.15633E-09
         0.11639E-08
         0.18098E+02
         0.34398E-09
        -0.42421E+01
        -0.77551E-11
         0.11128E+01
         0.25999E-08
         0.55100E+01
         0.40007E-09
         0.78623E+02
        -0.38282E+01
         0.92977E-11
        -0.45614E-10
         0.52383E+00
        -0.52738E+02
         0.25337E-09
         0.64990E-09
         0.22661E+01
        -0.51444E-10
         0.32573E+02
         0.41222E-09
        -0.17415E+03
        -0.63214E+02
         0.31841E-09
        -0.30491E-08
        -0.14217E+03
        -0.48751E-08
         0.58172E+02
         0.32653E-08
         0.18372E+03
         0.48648E-09
         0.32083E+03
         0.63261E-09
         0.62246E+03
         0.33918E+03
         0.14872E-08
        -0.37712E-09
         0.41882E+02
        -0.45381E-10
        -0.12853E+03
        -0.40930E-08
        -0.18922E+03
        -0.45702E-08
        -0.41631E+03
        -0.18981E+03
        -0.28930E-08
         0.32112E-08
         0.30513E+02
         0.29239E-08
         0.75147E+02
         0.12560E-08
         0.17560E+03
         0.33349E-08
         0.43195E+03
         0.24634E+03
         0.71508E-08
         0.35754E-08
        -0.70997E+03
         0.29751E+03
        -0.46460E-08
         0.56896E-08
        -0.17287E+04
        -0.13204E-07
        -0.22550E+04
        -0.14434E-07
        -0.19811E+04
        -0.97960E-08
        -0.16890E+04
        -0.10391E-08
        -0.73812E+03
         0.29287E-08
         0.97235E+03
         0.18133E-08
         0.21850E+04
         0.16577E-08
         0.28889E+04
         0.35566E-08
         0.28332E+04
         0.43242E-08
         0.23237E+04
         0.17037E-08
         0.12385E+04
         0.10387E-08
        -0.84820E+02
         0.16977E-08
        -0.10307E+04
         0.11380E-08
        -0.16626E+04
        -0.40583E-08
        -0.22694E+04
        -0.10649E-07
        -0.20318E+04
        -0.13514E-07
        -0.13046E+04
        -0.83637E-08
        -0.14290E+03
         0.15957E-08
         0.96533E+03
         0.33819E-08
         0.13960E+04
         0.53897E-08
         0.17080E+04
         0.10614E-07
         0.15310E+04
         0.13772E-07
         0.14251E+04
         0.97846E-08
         0.11772E+04
         0.77382E-08
        -0.84738E+02
         0.22778E+02
         0.23334E+02
        -0.14626E+02
         0.18589E+03
         0.15332E+03
         0.24322E+01
        -0.55012E+02
        -0.24440E+02
        -0.63660E+02
        -0.18150E+02
        -0.33501E+03
        -0.47897E+03
         0.17773E+02
         0.27225E+03
        -0.36767E+02
         0.27321E+02
         0.81676E+01
         0.16519E+02
        -0.13443E+02
         0.67397E+02
         0.59214E+02
        -0.17944E+03
         0.47023E+01
         0.40474E+02
         0.44585E+01
         0.73986E+00
         0.14509E+01
         0.17980E+02
        -0.59841E+02
        -0.32032E+02
         0.68002E+01
         0.10977E+02
        -0.86291E+00
        -0.44705E+02
        -0.15480E+03
        -0.31455E+03
         0.47526E+03
         0.24732E+03
         0.44586E+03
         0.85183E+03
         0.20056E+03
        -0.16266E+03
        -0.32780E+03
        -0.38771E+03
        -0.49351E+03
         0.61023E+02
         0.18341E+03
         0.56576E+02
         0.19004E+03
         0.59376E+03
         0.22942E+03
        -0.17861E+04
         0.24688E+04
        -0.59100E+04
        -0.70519E+04
        -0.66699E+04
        -0.38687E+04
         0.21731E+03
         0.23078E+04
         0.33806E+04
         0.54455E+04
         0.55487E+04
         0.34508E+04
         0.14279E+04
         0.60702E+03
        -0.98533E+03
        -0.38975E+04
        -0.65066E+04
        -0.74201E+04
        -0.41783E+04
         0.78252E+03
         0.29297E+04
         0.30868E+04
         0.48401E+04
         0.51924E+04
         0.41193E+04
         0.38350E+04
        -0.27378E+06
         0.74398E+05
        -0.14130E+06
        -0.14925E+06
         0.45606E+06
         0.30660E+06
         0.15048E+06
        -0.33703E+06
        -0.20089E+06
        -0.33078E+06
         0.92801E+05
        -0.15895E+06
        -0.50301E+06
         0.16789E+06
         0.37673E+06
        -0.33028E+06
         0.12039E+06
         0.68843E+05
         0.16148E+06
         0.70900E+05
         0.26304E+06
         0.19877E+06
        -0.11901E+06
         0.14821E+06
         0.20539E+06
        -0.56670E+05
         0.37798E+05
        -0.19035E+05
        -0.76639E+05
        -0.30648E+06
        -0.33963E+06
        -0.10071E+06
         0.23697E+06
         0.18562E+06
         0.76703E+05
        -0.29351E+06
        -0.43148E+06
         0.45612E+06
         0.10589E+06
         0.30510E+06
         0.45094E+06
        -0.13611E+06
        -0.27090E+06
        -0.37851E+06
        -0.45185E+06
        -0.31945E+06
         0.40399E+06
         0.40406E+06
        -0.88475E+05
         0.99239E+05
         0.48233E+06
         0.58554E+05
        -0.23587E+06
         0.32576E+06
        -0.62809E+06
        -0.67836E+06
        -0.58195E+06
        -0.28283E+06
         0.74110E+05
         0.25933E+06
         0.34306E+06
         0.55028E+06
         0.63657E+06
         0.25372E+06
         0.11967E+06
         0.10693E+06
        -0.46017E+05
        -0.35499E+06
        -0.60698E+06
        -0.68137E+06
        -0.48471E+06
         0.13311E+06
         0.31255E+06
         0.32883E+06
         0.51877E+06
         0.65894E+06
         0.41601E+06
         0.39873E+06
        -0.27414E+06
         0.74666E+05
        -0.14153E+06
        -0.15024E+06
         0.45600E+06
         0.30681E+06
         0.15163E+06
        -0.33623E+06
        -0.20101E+06
        -0.33024E+06
         0.90979E+05
        -0.15933E+06
        -0.50309E+06
         0.16804E+06
         0.37631E+06
        -0.33026E+06
         0.12175E+06
         0.68550E+05
         0.16141E+06
         0.70381E+05
         0.26363E+06
         0.19897E+06
        -0.11905E+06
         0.14815E+06
         0.20563E+06
        -0.56662E+05
         0.38237E+05
        -0.18782E+05
        -0.76669E+05
        -0.30659E+06
        -0.33975E+06
        -0.10048E+06
         0.23691E+06
         0.18601E+06
         0.75963E+05
        -0.29370E+06
        -0.43148E+06
         0.45630E+06
         0.10674E+06
         0.30572E+06
         0.45105E+06
        -0.13570E+06
        -0.27114E+06
        -0.37866E+06
        -0.45185E+06
        -0.31932E+06
         0.40395E+06
         0.40399E+06
        -0.87883E+05
         0.98967E+05
         0.48227E+06
         0.57719E+05
        -0.23572E+06
         0.32584E+06
        -0.62816E+06
        -0.67836E+06
        -0.58188E+06
        -0.28282E+06
         0.74219E+05
         0.25954E+06
         0.34286E+06
         0.55021E+06
         0.63653E+06
         0.25383E+06
         0.11967E+06
         0.10715E+06
        -0.45638E+05
        -0.35510E+06
        -0.60708E+06
        -0.68139E+06
        -0.48462E+06
         0.13317E+06
         0.31236E+06
         0.32872E+06
         0.51858E+06
         0.65884E+06
         0.41577E+06
         0.39841E+06
        -0.27450E+06
         0.74929E+05
        -0.14177E+06
        -0.15124E+06
         0.45594E+06
         0.30702E+06
         0.15278E+06
        -0.33543E+06
        -0.20112E+06
        -0.32969E+06
         0.89158E+05
        -0.15971E+06
        -0.50318E+06
         0.16818E+06
         0.37590E+06
        -0.33025E+06
         0.12314E+06
         0.68254E+05
         0.16133E+06
         0.69860E+05
         0.26422E+06
         0.19915E+06
        -0.11910E+06
         0.14807E+06
         0.20590E+06
        -0.56646E+05
         0.38707E+05
        -0.18535E+05
        -0.76648E+05
        -0.30670E+06
        -0.33988E+06
        -0.10021E+06
         0.23684E+06
         0.18639E+06
         0.75220E+05
        -0.29388E+06
        -0.43147E+06
         0.45649E+06
         0.10757E+06
         0.30633E+06
         0.45116E+06
        -0.13525E+06
        -0.27135E+06
        -0.37884E+06
        -0.45186E+06
        -0.31919E+06
         0.40390E+06
         0.40391E+06
        -0.87275E+05
         0.98685E+05
         0.48221E+06
         0.56885E+05
        -0.23557E+06
         0.32591E+06
        -0.62822E+06
        -0.67836E+06
        -0.58180E+06
        -0.28281E+06
         0.74328E+05
         0.25975E+06
         0.34266E+06
         0.55014E+06
         0.63650E+06
         0.25394E+06
         0.11967E+06
         0.10738E+06
        -0.45257E+05
        -0.35521E+06
        -0.60719E+06
        -0.68142E+06
        -0.48452E+06
         0.13324E+06
         0.31217E+06
         0.32862E+06
         0.51839E+06
         0.65875E+06
         0.41553E+06
         0.39809E+06
        -0.27486E+06
         0.75202E+05
        -0.14200E+06
        -0.15223E+06
         0.45588E+06
         0.30724E+06
         0.15394E+06
        -0.33463E+06
        -0.20121E+06
        -0.32910E+06
         0.87338E+05
        -0.16010E+06
        -0.50327E+06
         0.16833E+06
         0.37548E+06
        -0.33024E+06
         0.12456E+06
         0.67955E+05
         0.16126E+06
         0.69312E+05
         0.26482E+06
         0.19932E+06
        -0.11920E+06
         0.14793E+06
         0.20625E+06
        -0.56616E+05
         0.39193E+05
        -0.18331E+05
        -0.76481E+05
        -0.30680E+06
        -0.33999E+06
        -0.99857E+05
         0.23675E+06
         0.18678E+06
         0.74481E+05
        -0.29406E+06
        -0.43147E+06
         0.45667E+06
         0.10840E+06
         0.30693E+06
         0.45130E+06
        -0.13469E+06
        -0.27152E+06
        -0.37910E+06
        -0.45191E+06
        -0.31904E+06
         0.40386E+06
         0.40384E+06
        -0.86665E+05
         0.98401E+05
         0.48214E+06
         0.56052E+05
        -0.23543E+06
         0.32599E+06
        -0.62829E+06
        -0.67836E+06
        -0.58172E+06
        -0.28280E+06
         0.74439E+05
         0.25996E+06
         0.34245E+06
         0.55007E+06
         0.63647E+06
         0.25408E+06
         0.11968E+06
         0.10759E+06
        -0.44873E+05
        -0.35533E+06
        -0.60731E+06
        -0.68146E+06
        -0.48443E+06
         0.13331E+06
         0.31198E+06
         0.32851E+06
         0.51820E+06
         0.65866E+06
         0.41529E+06
         0.39777E+06
        -0.27521E+06
         0.75475E+05
        -0.14223E+06
        -0.15322E+06
         0.45582E+06
         0.30745E+06
         0.15510E+06
        -0.33382E+06
        -0.20127E+06
        -0.32848E+06
         0.85510E+05
        -0.16048E+06
        -0.50336E+06
         0.16849E+06
         0.37506E+06
        -0.33023E+06
         0.12601E+06
         0.67656E+05
         0.16117E+06
         0.68740E+05
         0.26542E+06
         0.19947E+06
        -0.11935E+06
         0.14773E+06
         0.20669E+06
        -0.56563E+05
         0.39735E+05
        -0.18163E+05
        -0.76162E+05
        -0.30690E+06
        -0.34010E+06
        -0.99410E+05
         0.23666E+06
         0.18716E+06
         0.73736E+05
        -0.29424E+06
        -0.43147E+06
         0.45685E+06
         0.10922E+06
         0.30752E+06
         0.45148E+06
        -0.13402E+06
        -0.27163E+06
        -0.37946E+06
        -0.45198E+06
        -0.31887E+06
         0.40383E+06
         0.40378E+06
        -0.86057E+05
         0.98123E+05
         0.48208E+06
         0.55212E+05
        -0.23528E+06
         0.32606E+06
        -0.62835E+06
        -0.67836E+06
        -0.58165E+06
        -0.28279E+06
         0.74547E+05
         0.26016E+06
         0.34225E+06
         0.55000E+06
         0.63645E+06
         0.25424E+06
         0.11970E+06
         0.10781E+06
        -0.44488E+05
        -0.35545E+06
        -0.60745E+06
        -0.68150E+06
        -0.48433E+06
         0.13337E+06
         0.31179E+06
         0.32841E+06
         0.51801E+06
         0.65857E+06
         0.41505E+06
         0.39745E+06
        -0.27556E+06
         0.75772E+05
        -0.14244E+06
        -0.15422E+06
         0.45576E+06
         0.30765E+06
         0.15623E+06
        -0.33300E+06
        -0.20133E+06
        -0.32786E+06
         0.83677E+05
        -0.16087E+06
        -0.50344E+06
         0.16866E+06
         0.37464E+06
        -0.33022E+06
         0.12750E+06
         0.67359E+05
         0.16108E+06
         0.68167E+05
         0.26602E+06
         0.19960E+06
        -0.11952E+06
         0.14752E+06
         0.20712E+06
        -0.56501E+05
         0.40318E+05
        -0.18008E+05
        -0.75776E+05
        -0.30702E+06
        -0.34019E+06
        -0.98907E+05
         0.23656E+06
         0.18755E+06
         0.72986E+05
        -0.29444E+06
        -0.43148E+06
         0.45702E+06
         0.11003E+06
         0.30810E+06
         0.45166E+06
        -0.13331E+06
        -0.27171E+06
        -0.37983E+06
        -0.45207E+06
        -0.31871E+06
         0.40379E+06
         0.40374E+06
        -0.85427E+05
         0.97869E+05
         0.48202E+06
         0.54370E+05
        -0.23513E+06
         0.32614E+06
        -0.62842E+06
        -0.67836E+06
        -0.58157E+06
        -0.28279E+06
         0.74655E+05
         0.26037E+06
         0.34204E+06
         0.54993E+06
         0.63643E+06
         0.25440E+06
         0.11972E+06
         0.10802E+06
        -0.44103E+05
        -0.35558E+06
        -0.60760E+06
        -0.68153E+06
        -0.48424E+06
         0.13343E+06
         0.31160E+06
         0.32830E+06
         0.51782E+06
         0.65848E+06
         0.41481E+06
         0.39713E+06
        -0.27587E+06
         0.76132E+05
        -0.14259E+06
        -0.15524E+06
         0.45570E+06
         0.30787E+06
         0.15735E+06
        -0.33218E+06
        -0.20139E+06
        -0.32727E+06
         0.81831E+05
        -0.16124E+06
        -0.50353E+06
         0.16893E+06
         0.37421E+06
        -0.33022E+06
         0.12901E+06
         0.67061E+05
         0.16100E+06
         0.67597E+05
         0.26662E+06
         0.19974E+06
        -0.11969E+06
         0.14731E+06
         0.20749E+06
        -0.56419E+05
         0.41005E+05
        -0.17850E+05
        -0.75364E+05
        -0.30715E+06
        -0.34028E+06
        -0.98349E+05
         0.23645E+06
         0.18794E+06
         0.72235E+05
        -0.29464E+06
        -0.43149E+06
         0.45719E+06
         0.11085E+06
         0.30870E+06
         0.45185E+06
        -0.13258E+06
        -0.27179E+06
        -0.38021E+06
        -0.45217E+06
        -0.31856E+06
         0.40372E+06
         0.40373E+06
        -0.84734E+05
         0.97684E+05
         0.48196E+06
         0.53515E+05
        -0.23498E+06
         0.32621E+06
        -0.62848E+06
        -0.67836E+06
        -0.58149E+06
        -0.28278E+06
         0.74763E+05
         0.26058E+06
         0.34184E+06
         0.54986E+06
         0.63642E+06
         0.25457E+06
         0.11974E+06
         0.10823E+06
        -0.43717E+05
        -0.35571E+06
        -0.60774E+06
        -0.68157E+06
        -0.48414E+06
         0.13348E+06
         0.31139E+06
         0.32820E+06
         0.51763E+06
         0.65838E+06
         0.41457E+06
         0.39681E+06
        -0.27617E+06
         0.76512E+05
        -0.14272E+06
        -0.15627E+06
         0.45564E+06
         0.30808E+06
         0.15846E+06
        -0.33137E+06
        -0.20146E+06
        -0.32670E+06
         0.79977E+05
        -0.16162E+06
        -0.50362E+06
         0.16922E+06
         0.37379E+06
        -0.33023E+06
         0.13053E+06
         0.66760E+05
         0.16092E+06
         0.67036E+05
         0.26722E+06
         0.19989E+06
        -0.11985E+06
         0.14711E+06
         0.20782E+06
        -0.56329E+05
         0.41718E+05
        -0.17687E+05
        -0.74944E+05
        -0.30730E+06
        -0.34036E+06
        -0.97757E+05
         0.23634E+06
         0.18833E+06
         0.71475E+05
        -0.29485E+06
        -0.43151E+06
         0.45736E+06
         0.11167E+06
         0.30929E+06
         0.45203E+06
        -0.13185E+06
        -0.27186E+06
        -0.38059E+06
        -0.45228E+06
        -0.31843E+06
         0.40365E+06
         0.40374E+06
        -0.84015E+05
         0.97530E+05
         0.48190E+06
         0.52658E+05
        -0.23483E+06
         0.32629E+06
        -0.62854E+06
        -0.67836E+06
        -0.58142E+06
        -0.28277E+06
         0.74870E+05
         0.26078E+06
         0.34164E+06
         0.54979E+06
         0.63640E+06
         0.25474E+06
         0.11976E+06
         0.10845E+06
        -0.43331E+05
        -0.35583E+06
        -0.60789E+06
        -0.68161E+06
        -0.48405E+06
         0.13353E+06
         0.31118E+06
         0.32809E+06
         0.51745E+06
         0.65829E+06
         0.41433E+06
         0.39649E+06
        -0.27647E+06
         0.76896E+05
        -0.14285E+06
        -0.15730E+06
         0.45558E+06
         0.30829E+06
         0.15956E+06
        -0.33055E+06
        -0.20152E+06
        -0.32612E+06
         0.78127E+05
        -0.16200E+06
        -0.50371E+06
         0.16953E+06
         0.37336E+06
        -0.33024E+06
         0.13206E+06
         0.66460E+05
         0.16083E+06
         0.66469E+05
         0.26782E+06
         0.20003E+06
        -0.12002E+06
         0.14691E+06
         0.20815E+06
        -0.56238E+05
         0.42449E+05
        -0.17514E+05
        -0.74512E+05
        -0.30745E+06
        -0.34043E+06
        -0.97172E+05
         0.23621E+06
         0.18872E+06
         0.70713E+05
        -0.29505E+06
        -0.43153E+06
         0.45752E+06
         0.11248E+06
         0.30988E+06
         0.45222E+06
        -0.13113E+06
        -0.27194E+06
        -0.38096E+06
        -0.45238E+06
        -0.31829E+06
         0.40358E+06
         0.40374E+06
        -0.83293E+05
         0.97384E+05
         0.48184E+06
         0.51796E+05
        -0.23469E+06
         0.32636E+06
        -0.62861E+06
        -0.67837E+06
        -0.58134E+06
        -0.28276E+06
         0.74978E+05
         0.26099E+06
         0.34143E+06
         0.54973E+06
         0.63638E+06
         0.25490E+06
         0.11978E+06
         0.10867E+06
        -0.42946E+05
        -0.35596E+06
        -0.60803E+06
        -0.68164E+06
        -0.48395E+06
         0.13358E+06
         0.31098E+06
         0.32798E+06
         0.51727E+06
         0.65820E+06
         0.41409E+06
         0.39617E+06
        -0.27677E+06
         0.77284E+05
        -0.14298E+06
        -0.15832E+06
         0.45552E+06
         0.30849E+06
         0.16067E+06
        -0.32973E+06
        -0.20159E+06
        -0.32555E+06
         0.76273E+05
        -0.16238E+06
        -0.50380E+06
         0.16982E+06
         0.37293E+06
        -0.33024E+06
         0.13361E+06
         0.66163E+05
         0.16074E+06
         0.65903E+05
         0.26842E+06
         0.20017E+06
        -0.12018E+06
         0.14672E+06
         0.20848E+06
        -0.56146E+05
         0.43160E+05
        -0.17334E+05
        -0.74069E+05
        -0.30760E+06
        -0.34051E+06
        -0.96582E+05
         0.23608E+06
         0.18911E+06
         0.69953E+05
        -0.29526E+06
        -0.43155E+06
         0.45768E+06
         0.11329E+06
         0.31048E+06
         0.45241E+06
        -0.13040E+06
        -0.27202E+06
        -0.38134E+06
        -0.45249E+06
        -0.31815E+06
         0.40350E+06
         0.40376E+06
        -0.82577E+05
         0.97222E+05
         0.48178E+06
         0.50936E+05
        -0.23454E+06
         0.32643E+06
        -0.62867E+06
        -0.67837E+06
        -0.58126E+06
        -0.28275E+06
         0.75085E+05
         0.26119E+06
         0.34123E+06
         0.54966E+06
         0.63636E+06
         0.25507E+06
         0.11980E+06
         0.10889E+06
        -0.42562E+05
        -0.35609E+06
        -0.60818E+06
        -0.68168E+06
        -0.48385E+06
         0.13363E+06
         0.31077E+06
         0.32787E+06
         0.51709E+06
         0.65810E+06
         0.41385E+06
         0.39584E+06
        -0.27707E+06
         0.77669E+05
        -0.14311E+06
        -0.15934E+06
         0.45546E+06
         0.30870E+06
         0.16178E+06
        -0.32891E+06
        -0.20166E+06
        -0.32497E+06
         0.74413E+05
        -0.16277E+06
        -0.50389E+06
         0.17012E+06
         0.37250E+06
        -0.33025E+06
         0.13516E+06
         0.65866E+05
         0.16067E+06
         0.65333E+05
         0.26901E+06
         0.20030E+06
        -0.12035E+06
         0.14653E+06
         0.20880E+06
        -0.56053E+05
         0.43883E+05
        -0.17143E+05
        -0.73613E+05
        -0.30774E+06
        -0.34058E+06
        -0.95996E+05
         0.23594E+06
         0.18949E+06
         0.69189E+05
        -0.29546E+06
        -0.43157E+06
         0.45784E+06
         0.11410E+06
         0.31106E+06
         0.45259E+06
        -0.12968E+06
        -0.27209E+06
        -0.38171E+06
        -0.45259E+06
        -0.31801E+06
         0.40342E+06
         0.40377E+06
        -0.81853E+05
         0.97066E+05
         0.48172E+06
         0.50072E+05
        -0.23439E+06
         0.32650E+06
        -0.62873E+06
        -0.67837E+06
        -0.58119E+06
        -0.28274E+06
         0.75190E+05
         0.26140E+06
         0.34102E+06
         0.54959E+06
         0.63634E+06
         0.25523E+06
         0.11982E+06
         0.10910E+06
        -0.42177E+05
        -0.35621E+06
        -0.60833E+06
        -0.68172E+06
        -0.48376E+06
         0.13367E+06
         0.31056E+06
         0.32777E+06
         0.51691E+06
         0.65801E+06
         0.41361E+06
         0.39552E+06
        -0.27737E+06
         0.78053E+05
        -0.14323E+06
        -0.16037E+06
         0.45540E+06
         0.30891E+06
         0.16288E+06
        -0.32808E+06
        -0.20172E+06
        -0.32440E+06
         0.72555E+05
        -0.16315E+06
        -0.50398E+06
         0.17042E+06
         0.37207E+06
        -0.33026E+06
         0.13672E+06
         0.65567E+05
         0.16059E+06
         0.64771E+05
         0.26961E+06
         0.20044E+06
        -0.12051E+06
         0.14634E+06
         0.20912E+06
        -0.55964E+05
         0.44590E+05
        -0.16946E+05
        -0.73139E+05
        -0.30789E+06
        -0.34065E+06
        -0.95408E+05
         0.23578E+06
         0.18989E+06
         0.68421E+05
        -0.29567E+06
        -0.43159E+06
         0.45800E+06
         0.11491E+06
         0.31166E+06
         0.45278E+06
        -0.12897E+06
        -0.27216E+06
        -0.38208E+06
        -0.45269E+06
        -0.31788E+06
         0.40335E+06
         0.40378E+06
        -0.81126E+05
         0.96919E+05
         0.48166E+06
         0.49208E+05
        -0.23424E+06
         0.32657E+06
        -0.62879E+06
        -0.67837E+06
        -0.58111E+06
        -0.28273E+06
         0.75297E+05
         0.26161E+06
         0.34082E+06
         0.54952E+06
         0.63632E+06
         0.25540E+06
         0.11985E+06
         0.10932E+06
        -0.41790E+05
        -0.35634E+06
        -0.60847E+06
        -0.68175E+06
        -0.48366E+06
         0.13372E+06
         0.31035E+06
         0.32766E+06
         0.51673E+06
         0.65792E+06
         0.41338E+06
         0.39520E+06
        -0.27767E+06
         0.78440E+05
        -0.14336E+06
        -0.16139E+06
         0.45534E+06
         0.30911E+06
         0.16399E+06
        -0.32726E+06
        -0.20178E+06
        -0.32382E+06
         0.70700E+05
        -0.16353E+06
        -0.50407E+06
         0.17070E+06
         0.37164E+06
        -0.33027E+06
         0.13829E+06
         0.65266E+05
         0.16051E+06
         0.64211E+05
         0.27021E+06
         0.20058E+06
        -0.12068E+06
         0.14616E+06
         0.20943E+06
        -0.55869E+05
         0.45317E+05
        -0.16739E+05
        -0.72659E+05
        -0.30803E+06
        -0.34072E+06
        -0.94814E+05
         0.23562E+06
         0.19028E+06
         0.67655E+05
        -0.29588E+06
        -0.43161E+06
         0.45816E+06
         0.11572E+06
         0.31225E+06
         0.45296E+06
        -0.12825E+06
        -0.27224E+06
        -0.38245E+06
        -0.45280E+06
        -0.31774E+06
         0.40327E+06
         0.40379E+06
        -0.80395E+05
         0.96761E+05
         0.48160E+06
         0.48344E+05
        -0.23409E+06
         0.32665E+06
        -0.62885E+06
        -0.67837E+06
        -0.58103E+06
        -0.28272E+06
         0.75405E+05
         0.26181E+06
         0.34062E+06
         0.54945E+06
         0.63630E+06
         0.25556E+06
         0.11987E+06
         0.10954E+06
        -0.41404E+05
        -0.35646E+06
        -0.60862E+06
        -0.68179E+06
        -0.48357E+06
         0.13377E+06
         0.31014E+06
         0.32756E+06
         0.51655E+06
         0.65783E+06
         0.41314E+06
         0.39488E+06
        -0.27797E+06
         0.78821E+05
        -0.14348E+06
        -0.16241E+06
         0.45528E+06
         0.30932E+06
         0.16510E+06
        -0.32643E+06
        -0.20184E+06
        -0.32323E+06
         0.68845E+05
        -0.16390E+06
        -0.50416E+06
         0.17100E+06
         0.37121E+06
        -0.33027E+06
         0.13986E+06
         0.64969E+05
         0.16044E+06
         0.63655E+05
         0.27081E+06
         0.20071E+06
        -0.12084E+06
         0.14597E+06
         0.20974E+06
        -0.55773E+05
         0.46025E+05
        -0.16524E+05
        -0.72169E+05
        -0.30817E+06
        -0.34079E+06
        -0.94227E+05
         0.23545E+06
         0.19067E+06
         0.66884E+05
        -0.29608E+06
        -0.43163E+06
         0.45831E+06
         0.11653E+06
         0.31284E+06
         0.45315E+06
        -0.12753E+06
        -0.27231E+06
        -0.38282E+06
        -0.45290E+06
        -0.31760E+06
         0.40320E+06
         0.40380E+06
        -0.79666E+05
         0.96604E+05
         0.48154E+06
         0.47484E+05
        -0.23394E+06
         0.32672E+06
        -0.62892E+06
        -0.67837E+06
        -0.58096E+06
        -0.28271E+06
         0.75512E+05
         0.26201E+06
         0.34041E+06
         0.54939E+06
         0.63628E+06
         0.25573E+06
         0.11989E+06
         0.10975E+06
        -0.41021E+05
        -0.35659E+06
        -0.60876E+06
        -0.68182E+06
        -0.48347E+06
         0.13381E+06
         0.30993E+06
         0.32745E+06
         0.51636E+06
         0.65773E+06
         0.41291E+06
         0.39455E+06
        -0.27827E+06
         0.79200E+05
        -0.14361E+06
        -0.16343E+06
         0.45522E+06
         0.30952E+06
         0.16621E+06
        -0.32560E+06
        -0.20190E+06
        -0.32265E+06
         0.66988E+05
        -0.16429E+06
        -0.50424E+06
         0.17127E+06
         0.37078E+06
        -0.33028E+06
         0.14145E+06
         0.64674E+05
         0.16036E+06
         0.63093E+05
         0.27140E+06
         0.20085E+06
        -0.12101E+06
         0.14579E+06
         0.21004E+06
        -0.55676E+05
         0.46744E+05
        -0.16300E+05
        -0.71671E+05
        -0.30831E+06
        -0.34086E+06
        -0.93633E+05
         0.23526E+06
         0.19106E+06
         0.66116E+05
        -0.29629E+06
        -0.43165E+06
         0.45846E+06
         0.11733E+06
         0.31343E+06
         0.45334E+06
        -0.12681E+06
        -0.27239E+06
        -0.38319E+06
        -0.45300E+06
        -0.31747E+06
         0.40312E+06
         0.40381E+06
        -0.78924E+05
         0.96453E+05
         0.48149E+06
         0.46617E+05
        -0.23379E+06
         0.32679E+06
        -0.62898E+06
        -0.67837E+06
        -0.58088E+06
        -0.28270E+06
         0.75617E+05
         0.26221E+06
         0.34020E+06
         0.54932E+06
         0.63626E+06
         0.25589E+06
         0.11991E+06
         0.10997E+06
        -0.40636E+05
        -0.35671E+06
        -0.60891E+06
        -0.68186E+06
        -0.48337E+06
         0.13386E+06
         0.30972E+06
         0.32735E+06
         0.51618E+06
         0.65764E+06
         0.41267E+06
         0.39423E+06
        -0.27857E+06
         0.79589E+05
        -0.14373E+06
        -0.16444E+06
         0.45516E+06
         0.30973E+06
         0.16731E+06
        -0.32477E+06
        -0.20196E+06
        -0.32207E+06
         0.65128E+05
        -0.16467E+06
        -0.50433E+06
         0.17157E+06
         0.37035E+06
        -0.33028E+06
         0.14292E+06
         0.64380E+05
         0.16028E+06
         0.62537E+05
         0.27200E+06
         0.20098E+06
        -0.12117E+06
         0.14561E+06
         0.21033E+06
        -0.55578E+05
         0.47445E+05
        -0.16066E+05
        -0.71162E+05
        -0.30845E+06
        -0.34093E+06
        -0.93046E+05
         0.23507E+06
         0.19146E+06
         0.65340E+05
        -0.29649E+06
        -0.43167E+06
         0.45861E+06
         0.11814E+06
         0.31402E+06
         0.45352E+06
        -0.12609E+06
        -0.27247E+06
        -0.38355E+06
        -0.45311E+06
        -0.31732E+06
         0.40304E+06
         0.40382E+06
        -0.78190E+05
         0.96293E+05
         0.48142E+06
         0.45748E+05
        -0.23363E+06
         0.32685E+06
        -0.62904E+06
        -0.67837E+06
        -0.58080E+06
        -0.28269E+06
         0.75721E+05
         0.26241E+06
         0.34000E+06
         0.54925E+06
         0.63624E+06
         0.25606E+06
         0.11993E+06
         0.11019E+06
        -0.40251E+05
        -0.35683E+06
        -0.60905E+06
        -0.68190E+06
        -0.48328E+06
         0.13390E+06
         0.30951E+06
         0.32724E+06
         0.51600E+06
         0.65755E+06
         0.41244E+06
         0.39390E+06
        -0.27888E+06
         0.79971E+05
        -0.14386E+06
        -0.16545E+06
         0.45510E+06
         0.30993E+06
         0.16843E+06
        -0.32394E+06
        -0.20202E+06
        -0.32147E+06
         0.63267E+05
        -0.16505E+06
        -0.50442E+06
         0.17184E+06
         0.36991E+06
        -0.33029E+06
         0.14412E+06
         0.64084E+05
         0.16020E+06
         0.61986E+05
         0.27259E+06
         0.20110E+06
        -0.12133E+06
         0.14543E+06
         0.21061E+06
        -0.55478E+05
         0.48164E+05
        -0.15821E+05
        -0.70635E+05
        -0.30858E+06
        -0.34099E+06
        -0.92456E+05
         0.23487E+06
         0.19185E+06
         0.64564E+05
        -0.29670E+06
        -0.43168E+06
         0.45875E+06
         0.11895E+06
         0.31461E+06
         0.45371E+06
        -0.12538E+06
        -0.27255E+06
        -0.38392E+06
        -0.45321E+06
        -0.31719E+06
         0.40297E+06
         0.40384E+06
        -0.77457E+05
         0.96134E+05
         0.48137E+06
         0.44884E+05
        -0.23348E+06
         0.32692E+06
        -0.62910E+06
        -0.67837E+06
        -0.58072E+06
        -0.28269E+06
         0.75824E+05
         0.26261E+06
         0.33980E+06
         0.54919E+06
         0.63622E+06
         0.25622E+06
         0.11995E+06
         0.11040E+06
        -0.39868E+05
        -0.35696E+06
        -0.60919E+06
        -0.68193E+06
        -0.48318E+06
         0.13395E+06
         0.30930E+06
         0.32713E+06
         0.51582E+06
         0.65745E+06
         0.41221E+06
         0.39358E+06
        -0.27918E+06
         0.80352E+05
        -0.14398E+06
        -0.16646E+06
         0.45503E+06
         0.31013E+06
         0.16953E+06
        -0.32310E+06
        -0.20206E+06
        -0.32085E+06
         0.61406E+05
        -0.16544E+06
        -0.50451E+06
         0.17213E+06
         0.36948E+06
        -0.33029E+06
         0.14534E+06
         0.63787E+05
         0.16014E+06
         0.61460E+05
         0.27319E+06
         0.20122E+06
        -0.12150E+06
         0.14524E+06
         0.21086E+06
        -0.55383E+05
         0.48878E+05
        -0.15558E+05
        -0.70101E+05
        -0.30873E+06
        -0.34106E+06
        -0.91856E+05
         0.23466E+06
         0.19225E+06
         0.63789E+05
        -0.29691E+06
        -0.43170E+06
         0.45889E+06
         0.11979E+06
         0.31520E+06
         0.45390E+06
        -0.12467E+06
        -0.27263E+06
        -0.38428E+06
        -0.45331E+06
        -0.31705E+06
         0.40289E+06
         0.40385E+06
        -0.76726E+05
         0.95975E+05
         0.48131E+06
         0.44019E+05
        -0.23333E+06
         0.32699E+06
        -0.62916E+06
        -0.67837E+06
        -0.58065E+06
        -0.28268E+06
         0.75928E+05
         0.26281E+06
         0.33960E+06
         0.54912E+06
         0.63620E+06
         0.25638E+06
         0.11995E+06
         0.11061E+06
        -0.39485E+05
        -0.35708E+06
        -0.60934E+06
        -0.68197E+06
        -0.48309E+06
         0.13399E+06
         0.30909E+06
         0.32703E+06
         0.51564E+06
         0.65736E+06
         0.41198E+06
         0.39325E+06
        -0.27948E+06
         0.80731E+05
        -0.14410E+06
        -0.16747E+06
         0.45497E+06
         0.31033E+06
         0.17064E+06
        -0.32227E+06
        -0.20208E+06
        -0.32019E+06
         0.59548E+05
        -0.16582E+06
        -0.50460E+06
         0.17242E+06
         0.36903E+06
        -0.33030E+06
         0.14657E+06
         0.63491E+05
         0.16007E+06
         0.60951E+05
         0.27378E+06
         0.20134E+06
        -0.12166E+06
         0.14507E+06
         0.21108E+06
        -0.55280E+05
         0.49624E+05
        -0.15274E+05
        -0.69558E+05
        -0.30887E+06
        -0.34112E+06
        -0.91265E+05
         0.23444E+06
         0.19265E+06
         0.63007E+05
        -0.29711E+06
        -0.43172E+06
         0.45901E+06
         0.12066E+06
         0.31580E+06
         0.45409E+06
        -0.12397E+06
        -0.27273E+06
        -0.38465E+06
        -0.45342E+06
        -0.31691E+06
         0.40282E+06
         0.40386E+06
        -0.75984E+05
         0.95820E+05
         0.48125E+06
         0.43145E+05
        -0.23318E+06
         0.32706E+06
        -0.62922E+06
        -0.67837E+06
        -0.58057E+06
        -0.28267E+06
         0.76032E+05
         0.26301E+06
         0.33940E+06
         0.54905E+06
         0.63620E+06
         0.25654E+06
         0.11995E+06
         0.11082E+06
        -0.39101E+05
        -0.35720E+06
        -0.60948E+06
        -0.68200E+06
        -0.48299E+06
         0.13404E+06
         0.30888E+06
         0.32692E+06
         0.51546E+06
         0.65727E+06
         0.41175E+06
         0.39293E+06
        -0.27978E+06
         0.81112E+05
        -0.14422E+06
        -0.16847E+06
         0.45491E+06
         0.31053E+06
         0.17176E+06
        -0.32143E+06
        -0.20210E+06
        -0.31953E+06
         0.57702E+05
        -0.16619E+06
        -0.50468E+06
         0.17268E+06
         0.36859E+06
        -0.33030E+06
         0.14780E+06
         0.63198E+05
         0.15999E+06
         0.60458E+05
         0.27438E+06
         0.20146E+06
        -0.12181E+06
         0.14490E+06
         0.21128E+06
        -0.55184E+05
         0.50350E+05
        -0.14975E+05
        -0.69011E+05
        -0.30901E+06
        -0.34119E+06
        -0.90686E+05
         0.23421E+06
         0.19305E+06
         0.62234E+05
        -0.29731E+06
        -0.43173E+06
         0.45912E+06
         0.12153E+06
         0.31638E+06
         0.45428E+06
        -0.12328E+06
        -0.27284E+06
        -0.38500E+06
        -0.45352E+06
        -0.31678E+06
         0.40274E+06
         0.40387E+06
        -0.75250E+05
         0.95655E+05
         0.48119E+06
         0.42276E+05
        -0.23302E+06
         0.32713E+06
        -0.62928E+06
        -0.67837E+06
        -0.58049E+06
        -0.28266E+06
         0.76134E+05
         0.26320E+06
         0.33920E+06
         0.54898E+06
         0.63619E+06
         0.25669E+06
         0.11994E+06
         0.11104E+06
        -0.38716E+05
        -0.35732E+06
        -0.60963E+06
        -0.68204E+06
        -0.48289E+06
         0.13409E+06
         0.30868E+06
         0.32682E+06
         0.51528E+06
         0.65717E+06
         0.41152E+06
         0.39260E+06
        -0.26300E+06
         0.70067E+05
        -0.12322E+06
        -0.13782E+06
         0.41704E+06
         0.27121E+06
         0.14093E+06
        -0.29529E+06
        -0.17843E+06
        -0.29264E+06
         0.41832E+05
        -0.15981E+06
        -0.47823E+06
         0.14491E+06
         0.35450E+06
        -0.30040E+06
         0.11631E+06
         0.63436E+05
         0.13038E+06
         0.55948E+05
         0.26331E+06
         0.19180E+06
        -0.11630E+06
         0.11754E+06
         0.17988E+06
        -0.55596E+05
         0.42859E+05
        -0.14792E+05
        -0.57744E+05
        -0.26221E+06
        -0.30206E+06
        -0.78685E+05
         0.18881E+06
         0.16196E+06
         0.57575E+05
        -0.26177E+06
        -0.39643E+06
         0.43728E+06
         0.11393E+06
         0.29241E+06
         0.43358E+06
        -0.11670E+06
        -0.26088E+06
        -0.36356E+06
        -0.42003E+06
        -0.29856E+06
         0.36474E+06
         0.36111E+06
        -0.64359E+05
         0.84227E+05
         0.44990E+06
         0.37183E+05
        -0.22996E+06
         0.32358E+06
        -0.62274E+06
        -0.67164E+06
        -0.57504E+06
        -0.28011E+06
         0.75509E+05
         0.26013E+06
         0.33456E+06
         0.54231E+06
         0.62873E+06
         0.25407E+06
         0.11839E+06
         0.10985E+06
        -0.37954E+05
        -0.35407E+06
        -0.60434E+06
        -0.67609E+06
        -0.47744E+06
         0.13275E+06
         0.30510E+06
         0.32296E+06
         0.50951E+06
         0.64963E+06
         0.40699E+06
         0.38809E+06
        -0.72084E+05
         0.10311E+05
        -0.17437E+05
        -0.16512E+05
         0.90332E+05
         0.42503E+05
         0.11927E+05
        -0.66128E+05
        -0.30196E+05
        -0.63595E+05
         0.36881E+04
        -0.58240E+05
        -0.14514E+06
         0.18340E+05
         0.13535E+06
        -0.61377E+05
         0.12147E+05
         0.64899E+04
         0.15299E+05
         0.41403E+04
         0.92188E+05
         0.61459E+05
        -0.38456E+05
         0.11666E+05
         0.24702E+05
        -0.48916E+04
         0.55313E+04
        -0.84713E+03
        -0.39710E+04
        -0.35479E+05
        -0.51585E+05
        -0.74038E+04
         0.21812E+05
         0.16649E+05
         0.14874E+05
        -0.42569E+05
        -0.86813E+05
         0.14200E+06
         0.28779E+05
         0.67387E+05
         0.14517E+06
        -0.37082E+05
        -0.88845E+05
        -0.10424E+06
        -0.98794E+05
        -0.85013E+05
         0.71443E+05
         0.64876E+05
        -0.94091E+04
         0.13924E+05
         0.11731E+06
         0.67778E+04
        -0.14725E+06
         0.21503E+06
        -0.42236E+06
        -0.46397E+06
        -0.40551E+06
        -0.20039E+06
         0.52616E+05
         0.16855E+06
         0.21100E+06
         0.35204E+06
         0.41196E+06
         0.17222E+06
         0.75989E+05
         0.71023E+05
        -0.25764E+05
        -0.24929E+06
        -0.43207E+06
        -0.48378E+06
        -0.31712E+06
         0.89775E+05
         0.20350E+06
         0.21304E+06
         0.34161E+06
         0.43012E+06
         0.27662E+06
         0.26195E+06
  
SCALARS                      strain_xx  double 1
LOOKUP_TABLE default
         0.31320E-06
         0.14113E-04
         0.16388E-03
         0.86143E-06
        -0.25926E-19
        -0.32594E-20
        -0.36443E-19
        -0.14536E-20
         0.12148E-02
         0.56074E-03
        -0.32604E-18
        -0.26453E-18
         0.18977E-05
         0.31406E-04
        -0.49595E-20
        -0.10884E-18
         0.18133E-05
         0.29182E-04
        -0.56787E-19
        -0.12596E-18
         0.55088E-04
         0.14051E-03
         0.14911E-03
        -0.56164E-19
        -0.11943E-19
        -0.36452E-19
         0.15736E-03
         0.87413E-04
        -0.19679E-18
        -0.12383E-18
         0.98772E-05
         0.42916E-04
         0.50083E-06
        -0.20399E-20
        -0.30464E-19
        -0.11563E-19
         0.80877E-04
         0.15829E-04
        -0.67150E-19
        -0.76126E-19
         0.30091E-03
         0.52737E-03
        -0.34168E-18
        -0.18582E-18
         0.38342E-03
         0.11378E-03
        -0.41206E-18
        -0.95462E-19
         0.22009E-04
        -0.37613E-19
         0.18585E-03
        -0.29145E-20
         0.19803E-04
        -0.14361E-18
         0.10473E-04
        -0.10049E-19
         0.20077E-03
         0.18130E-04
        -0.73744E-20
        -0.43085E-19
         0.11233E-06
         0.81516E-04
        -0.29500E-19
        -0.13872E-19
         0.59378E-05
        -0.29848E-21
         0.62915E-04
        -0.12913E-19
         0.23324E-02
         0.10760E-02
        -0.50447E-18
        -0.26536E-18
         0.42836E-03
        -0.14069E-18
         0.13984E-04
        -0.67323E-19
         0.13244E-03
        -0.25932E-20
         0.60592E-03
        -0.62418E-20
         0.11634E-02
         0.63950E-03
        -0.83832E-19
        -0.10965E-18
         0.58713E-03
        -0.12682E-18
         0.56262E-03
        -0.26289E-18
         0.20601E-03
        -0.10695E-18
         0.48664E-03
         0.25567E-03
        -0.19480E-19
        -0.36635E-19
         0.13814E-04
        -0.50405E-19
         0.10659E-03
        -0.88866E-20
         0.60169E-03
        -0.54191E-19
         0.13063E-02
         0.62829E-03
        -0.28810E-18
        -0.31372E-18
         0.69556E-02
         0.90732E-02
        -0.98367E-18
        -0.95530E-18
         0.67564E-02
        -0.71790E-18
         0.60290E-02
        -0.40093E-18
         0.28945E-02
        -0.12108E-18
         0.12981E-02
        -0.13845E-20
         0.15014E-03
        -0.17564E-19
         0.22197E-03
        -0.11242E-19
         0.12485E-02
        -0.10861E-19
         0.27659E-02
        -0.55231E-19
         0.56732E-02
        -0.19991E-18
         0.10373E-01
        -0.28468E-18
         0.14381E-01
        -0.25343E-18
         0.14527E-01
        -0.29968E-18
         0.13491E-01
        -0.50478E-18
         0.11628E-01
        -0.70191E-18
         0.90295E-02
        -0.60656E-18
         0.48598E-02
        -0.40063E-18
         0.14797E-02
        -0.89286E-19
         0.10439E-04
        -0.32556E-20
         0.47592E-03
        -0.19190E-19
         0.12052E-02
        -0.51313E-19
         0.25677E-02
        -0.19653E-18
         0.44598E-02
        -0.52919E-18
         0.80625E-02
        -0.76387E-18
         0.11266E-01
        -0.79913E-18
        -0.23489E-05
        -0.63781E-06
        -0.87768E-06
        -0.35484E-05
        -0.53370E-04
        -0.31910E-04
        -0.72765E-06
        -0.15704E-05
        -0.41681E-06
        -0.13227E-05
        -0.39818E-06
        -0.74651E-05
        -0.32604E-04
        -0.33352E-05
        -0.48264E-05
        -0.62859E-05
        -0.44293E-05
        -0.95027E-06
        -0.23100E-05
        -0.26720E-05
        -0.79915E-04
        -0.90572E-04
        -0.73911E-04
        -0.71361E-05
        -0.11466E-05
        -0.63671E-06
        -0.65754E-05
        -0.82674E-07
        -0.86525E-05
        -0.40920E-05
        -0.50120E-05
        -0.19350E-06
        -0.11129E-05
        -0.11658E-06
        -0.11652E-03
        -0.47368E-04
        -0.38812E-04
        -0.19013E-04
        -0.61680E-05
        -0.28176E-04
        -0.11912E-03
        -0.10383E-03
        -0.10128E-03
        -0.54722E-04
        -0.28155E-04
        -0.17201E-04
        -0.60766E-06
        -0.10602E-04
        -0.88663E-06
        -0.89101E-05
        -0.63518E-04
        -0.45118E-04
        -0.98902E-03
        -0.10965E-02
        -0.87563E-03
        -0.63468E-03
        -0.35201E-03
        -0.91155E-04
        -0.31972E-06
        -0.45981E-04
        -0.10678E-03
        -0.31472E-03
        -0.83456E-03
        -0.12467E-02
        -0.10474E-02
        -0.96369E-03
        -0.10771E-02
        -0.10779E-02
        -0.88983E-03
        -0.68155E-03
        -0.17355E-03
        -0.43481E-05
        -0.64366E-04
        -0.79946E-04
        -0.22916E-03
        -0.58274E-03
        -0.98457E-03
        -0.10891E-02
        -0.10813E-04
        -0.45566E-06
        -0.16515E-05
        -0.14001E-04
        -0.58912E-04
        -0.43023E-04
        -0.36520E-05
        -0.17404E-04
        -0.36743E-05
        -0.15730E-04
        -0.64194E-06
        -0.85454E-05
        -0.92482E-04
        -0.54385E-04
        -0.58352E-04
        -0.41737E-04
        -0.12935E-04
        -0.46403E-05
        -0.21015E-05
        -0.64814E-05
        -0.22819E-03
        -0.20726E-03
        -0.20182E-03
        -0.11806E-04
        -0.38088E-05
        -0.17268E-05
        -0.50784E-04
        -0.89533E-06
        -0.56880E-05
        -0.10578E-04
        -0.24636E-04
        -0.10315E-04
        -0.10363E-04
        -0.77192E-05
        -0.18737E-03
        -0.57077E-04
        -0.75100E-04
        -0.71760E-04
        -0.20115E-05
        -0.16909E-04
        -0.22822E-03
        -0.24148E-03
        -0.23073E-03
        -0.12062E-03
        -0.71533E-04
        -0.24490E-04
        -0.28605E-04
        -0.39867E-04
        -0.69663E-06
        -0.10099E-05
        -0.10611E-03
        -0.82336E-04
        -0.32752E-02
        -0.33262E-02
        -0.26803E-02
        -0.18233E-02
        -0.10152E-02
        -0.21535E-03
        -0.13275E-04
        -0.13936E-03
        -0.24184E-03
        -0.81263E-03
        -0.25638E-02
        -0.35680E-02
        -0.25090E-02
        -0.22709E-02
        -0.27563E-02
        -0.29234E-02
        -0.24354E-02
        -0.21791E-02
        -0.56569E-03
        -0.38215E-04
        -0.18693E-03
        -0.19187E-03
        -0.60650E-03
        -0.18182E-02
        -0.29788E-02
        -0.29601E-02
        -0.10854E-04
        -0.45905E-06
        -0.16577E-05
        -0.14020E-04
        -0.58799E-04
        -0.42944E-04
        -0.36985E-05
        -0.17316E-04
        -0.36824E-05
        -0.15705E-04
        -0.61621E-06
        -0.85870E-05
        -0.92593E-04
        -0.54118E-04
        -0.58289E-04
        -0.41823E-04
        -0.12992E-04
        -0.46146E-05
        -0.20995E-05
        -0.64586E-05
        -0.22814E-03
        -0.20721E-03
        -0.20179E-03
        -0.11808E-04
        -0.38260E-05
        -0.17326E-05
        -0.50815E-04
        -0.86198E-06
        -0.57683E-05
        -0.10591E-04
        -0.24707E-04
        -0.10313E-04
        -0.10277E-04
        -0.77261E-05
        -0.18756E-03
        -0.57024E-04
        -0.75053E-04
        -0.71990E-04
        -0.20502E-05
        -0.17015E-04
        -0.22851E-03
        -0.24176E-03
        -0.23075E-03
        -0.12059E-03
        -0.71482E-04
        -0.24464E-04
        -0.28594E-04
        -0.39894E-04
        -0.68649E-06
        -0.10030E-05
        -0.10597E-03
        -0.82093E-04
        -0.32729E-02
        -0.33244E-02
        -0.26798E-02
        -0.18234E-02
        -0.10145E-02
        -0.21522E-03
        -0.13305E-04
        -0.13953E-03
        -0.24143E-03
        -0.81199E-03
        -0.25630E-02
        -0.35681E-02
        -0.25085E-02
        -0.22706E-02
        -0.27570E-02
        -0.29247E-02
        -0.24362E-02
        -0.21799E-02
        -0.56538E-03
        -0.38250E-04
        -0.18666E-03
        -0.19172E-03
        -0.60560E-03
        -0.18159E-02
        -0.29758E-02
        -0.29574E-02
        -0.10895E-04
        -0.46239E-06
        -0.16639E-05
        -0.14039E-04
        -0.58683E-04
        -0.42866E-04
        -0.37457E-05
        -0.17228E-04
        -0.36899E-05
        -0.15678E-04
        -0.59107E-06
        -0.86287E-05
        -0.92705E-04
        -0.53851E-04
        -0.58227E-04
        -0.41912E-04
        -0.13050E-04
        -0.45888E-05
        -0.20974E-05
        -0.64366E-05
        -0.22811E-03
        -0.20716E-03
        -0.20177E-03
        -0.11809E-04
        -0.38444E-05
        -0.17388E-05
        -0.50844E-04
        -0.82967E-06
        -0.58496E-05
        -0.10604E-04
        -0.24781E-04
        -0.10311E-04
        -0.10191E-04
        -0.77331E-05
        -0.18775E-03
        -0.56975E-04
        -0.75003E-04
        -0.72220E-04
        -0.20893E-05
        -0.17123E-04
        -0.22880E-03
        -0.24205E-03
        -0.23078E-03
        -0.12056E-03
        -0.71432E-04
        -0.24441E-04
        -0.28583E-04
        -0.39920E-04
        -0.67618E-06
        -0.99592E-06
        -0.10584E-03
        -0.81852E-04
        -0.32707E-02
        -0.33227E-02
        -0.26793E-02
        -0.18234E-02
        -0.10139E-02
        -0.21509E-03
        -0.13335E-04
        -0.13970E-03
        -0.24103E-03
        -0.81135E-03
        -0.25623E-02
        -0.35683E-02
        -0.25080E-02
        -0.22704E-02
        -0.27577E-02
        -0.29260E-02
        -0.24371E-02
        -0.21808E-02
        -0.56506E-03
        -0.38285E-04
        -0.18638E-03
        -0.19157E-03
        -0.60471E-03
        -0.18137E-02
        -0.29729E-02
        -0.29548E-02
        -0.10937E-04
        -0.46587E-06
        -0.16701E-05
        -0.14057E-04
        -0.58567E-04
        -0.42787E-04
        -0.37925E-05
        -0.17140E-04
        -0.36966E-05
        -0.15647E-04
        -0.56651E-06
        -0.86713E-05
        -0.92819E-04
        -0.53585E-04
        -0.58165E-04
        -0.42009E-04
        -0.13111E-04
        -0.45629E-05
        -0.20956E-05
        -0.64137E-05
        -0.22808E-03
        -0.20713E-03
        -0.20177E-03
        -0.11810E-04
        -0.38663E-05
        -0.17465E-05
        -0.50869E-04
        -0.79894E-06
        -0.59312E-05
        -0.10617E-04
        -0.24861E-04
        -0.10313E-04
        -0.10104E-04
        -0.77400E-05
        -0.18794E-03
        -0.56924E-04
        -0.74955E-04
        -0.72450E-04
        -0.21287E-05
        -0.17231E-04
        -0.22910E-03
        -0.24235E-03
        -0.23084E-03
        -0.12054E-03
        -0.71377E-04
        -0.24415E-04
        -0.28575E-04
        -0.39948E-04
        -0.66593E-06
        -0.98886E-06
        -0.10570E-03
        -0.81609E-04
        -0.32685E-02
        -0.33210E-02
        -0.26788E-02
        -0.18234E-02
        -0.10133E-02
        -0.21496E-03
        -0.13366E-04
        -0.13988E-03
        -0.24062E-03
        -0.81070E-03
        -0.25615E-02
        -0.35685E-02
        -0.25077E-02
        -0.22702E-02
        -0.27585E-02
        -0.29275E-02
        -0.24381E-02
        -0.21816E-02
        -0.56474E-03
        -0.38320E-04
        -0.18611E-03
        -0.19142E-03
        -0.60382E-03
        -0.18115E-02
        -0.29699E-02
        -0.29521E-02
        -0.10977E-04
        -0.46936E-06
        -0.16763E-05
        -0.14076E-04
        -0.58454E-04
        -0.42708E-04
        -0.38402E-05
        -0.17051E-04
        -0.37023E-05
        -0.15612E-04
        -0.54242E-06
        -0.87134E-05
        -0.92932E-04
        -0.53320E-04
        -0.58102E-04
        -0.42113E-04
        -0.13174E-04
        -0.45371E-05
        -0.20933E-05
        -0.63906E-05
        -0.22807E-03
        -0.20711E-03
        -0.20178E-03
        -0.11812E-04
        -0.38918E-05
        -0.17554E-05
        -0.50889E-04
        -0.76975E-06
        -0.60130E-05
        -0.10629E-04
        -0.24947E-04
        -0.10318E-04
        -0.10018E-04
        -0.77469E-05
        -0.18813E-03
        -0.56873E-04
        -0.74908E-04
        -0.72680E-04
        -0.21682E-05
        -0.17340E-04
        -0.22940E-03
        -0.24268E-03
        -0.23094E-03
        -0.12052E-03
        -0.71319E-04
        -0.24386E-04
        -0.28569E-04
        -0.39978E-04
        -0.65582E-06
        -0.98192E-06
        -0.10557E-03
        -0.81367E-04
        -0.32662E-02
        -0.33193E-02
        -0.26784E-02
        -0.18234E-02
        -0.10127E-02
        -0.21483E-03
        -0.13396E-04
        -0.14005E-03
        -0.24021E-03
        -0.81005E-03
        -0.25606E-02
        -0.35688E-02
        -0.25075E-02
        -0.22700E-02
        -0.27594E-02
        -0.29292E-02
        -0.24392E-02
        -0.21825E-02
        -0.56443E-03
        -0.38355E-04
        -0.18584E-03
        -0.19126E-03
        -0.60293E-03
        -0.18093E-02
        -0.29670E-02
        -0.29495E-02
        -0.11017E-04
        -0.47316E-06
        -0.16818E-05
        -0.14094E-04
        -0.58340E-04
        -0.42629E-04
        -0.38882E-05
        -0.16962E-04
        -0.37078E-05
        -0.15575E-04
        -0.51884E-06
        -0.87556E-05
        -0.93043E-04
        -0.53054E-04
        -0.58039E-04
        -0.42220E-04
        -0.13238E-04
        -0.45112E-05
        -0.20909E-05
        -0.63686E-05
        -0.22807E-03
        -0.20710E-03
        -0.20182E-03
        -0.11814E-04
        -0.39173E-05
        -0.17645E-05
        -0.50909E-04
        -0.74128E-06
        -0.60961E-05
        -0.10642E-04
        -0.25032E-04
        -0.10323E-04
        -0.99313E-05
        -0.77530E-05
        -0.18832E-03
        -0.56827E-04
        -0.74864E-04
        -0.72909E-04
        -0.22081E-05
        -0.17449E-04
        -0.22972E-03
        -0.24301E-03
        -0.23104E-03
        -0.12051E-03
        -0.71267E-04
        -0.24362E-04
        -0.28560E-04
        -0.40006E-04
        -0.64549E-06
        -0.97556E-06
        -0.10544E-03
        -0.81131E-04
        -0.32640E-02
        -0.33176E-02
        -0.26779E-02
        -0.18234E-02
        -0.10120E-02
        -0.21470E-03
        -0.13426E-04
        -0.14022E-03
        -0.23981E-03
        -0.80941E-03
        -0.25598E-02
        -0.35691E-02
        -0.25073E-02
        -0.22699E-02
        -0.27603E-02
        -0.29310E-02
        -0.24403E-02
        -0.21833E-02
        -0.56411E-03
        -0.38386E-04
        -0.18556E-03
        -0.19111E-03
        -0.60205E-03
        -0.18071E-02
        -0.29640E-02
        -0.29469E-02
        -0.11053E-04
        -0.47773E-06
        -0.16860E-05
        -0.14111E-04
        -0.58229E-04
        -0.42552E-04
        -0.39374E-05
        -0.16870E-04
        -0.37137E-05
        -0.15540E-04
        -0.49567E-06
        -0.87980E-05
        -0.93159E-04
        -0.52789E-04
        -0.57975E-04
        -0.42326E-04
        -0.13299E-04
        -0.44852E-05
        -0.20890E-05
        -0.63471E-05
        -0.22806E-03
        -0.20709E-03
        -0.20186E-03
        -0.11816E-04
        -0.39398E-05
        -0.17726E-05
        -0.50930E-04
        -0.71270E-06
        -0.61804E-05
        -0.10658E-04
        -0.25112E-04
        -0.10323E-04
        -0.98430E-05
        -0.77575E-05
        -0.18852E-03
        -0.56785E-04
        -0.74823E-04
        -0.73138E-04
        -0.22487E-05
        -0.17561E-04
        -0.23003E-03
        -0.24335E-03
        -0.23115E-03
        -0.12050E-03
        -0.71221E-04
        -0.24340E-04
        -0.28547E-04
        -0.40033E-04
        -0.63439E-06
        -0.97066E-06
        -0.10532E-03
        -0.80896E-04
        -0.32617E-02
        -0.33159E-02
        -0.26774E-02
        -0.18235E-02
        -0.10114E-02
        -0.21457E-03
        -0.13455E-04
        -0.14039E-03
        -0.23940E-03
        -0.80877E-03
        -0.25590E-02
        -0.35694E-02
        -0.25071E-02
        -0.22697E-02
        -0.27612E-02
        -0.29328E-02
        -0.24414E-02
        -0.21841E-02
        -0.56379E-03
        -0.38412E-04
        -0.18528E-03
        -0.19097E-03
        -0.60119E-03
        -0.18049E-02
        -0.29611E-02
        -0.29442E-02
        -0.11088E-04
        -0.48258E-06
        -0.16897E-05
        -0.14128E-04
        -0.58122E-04
        -0.42473E-04
        -0.39875E-05
        -0.16778E-04
        -0.37197E-05
        -0.15507E-04
        -0.47297E-06
        -0.88405E-05
        -0.93275E-04
        -0.52524E-04
        -0.57910E-04
        -0.42432E-04
        -0.13359E-04
        -0.44592E-05
        -0.20868E-05
        -0.63269E-05
        -0.22805E-03
        -0.20707E-03
        -0.20189E-03
        -0.11819E-04
        -0.39610E-05
        -0.17802E-05
        -0.50953E-04
        -0.68451E-06
        -0.62665E-05
        -0.10675E-04
        -0.25190E-04
        -0.10322E-04
        -0.97542E-05
        -0.77612E-05
        -0.18872E-03
        -0.56748E-04
        -0.74788E-04
        -0.73366E-04
        -0.22897E-05
        -0.17673E-04
        -0.23035E-03
        -0.24370E-03
        -0.23126E-03
        -0.12050E-03
        -0.71178E-04
        -0.24322E-04
        -0.28533E-04
        -0.40058E-04
        -0.62303E-06
        -0.96642E-06
        -0.10521E-03
        -0.80666E-04
        -0.32595E-02
        -0.33142E-02
        -0.26769E-02
        -0.18235E-02
        -0.10108E-02
        -0.21444E-03
        -0.13485E-04
        -0.14057E-03
        -0.23900E-03
        -0.80813E-03
        -0.25581E-02
        -0.35696E-02
        -0.25069E-02
        -0.22696E-02
        -0.27621E-02
        -0.29346E-02
        -0.24425E-02
        -0.21848E-02
        -0.56346E-03
        -0.38436E-04
        -0.18499E-03
        -0.19082E-03
        -0.60033E-03
        -0.18027E-02
        -0.29582E-02
        -0.29416E-02
        -0.11123E-04
        -0.48750E-06
        -0.16933E-05
        -0.14145E-04
        -0.58012E-04
        -0.42394E-04
        -0.40376E-05
        -0.16686E-04
        -0.37259E-05
        -0.15474E-04
        -0.45089E-06
        -0.88830E-05
        -0.93392E-04
        -0.52262E-04
        -0.57846E-04
        -0.42538E-04
        -0.13420E-04
        -0.44334E-05
        -0.20846E-05
        -0.63060E-05
        -0.22804E-03
        -0.20706E-03
        -0.20193E-03
        -0.11822E-04
        -0.39821E-05
        -0.17877E-05
        -0.50976E-04
        -0.65694E-06
        -0.63530E-05
        -0.10692E-04
        -0.25269E-04
        -0.10321E-04
        -0.96658E-05
        -0.77649E-05
        -0.18893E-03
        -0.56708E-04
        -0.74752E-04
        -0.73595E-04
        -0.23312E-05
        -0.17785E-04
        -0.23067E-03
        -0.24404E-03
        -0.23138E-03
        -0.12051E-03
        -0.71138E-04
        -0.24304E-04
        -0.28518E-04
        -0.40083E-04
        -0.61176E-06
        -0.96238E-06
        -0.10511E-03
        -0.80433E-04
        -0.32572E-02
        -0.33125E-02
        -0.26763E-02
        -0.18235E-02
        -0.10102E-02
        -0.21430E-03
        -0.13515E-04
        -0.14074E-03
        -0.23860E-03
        -0.80749E-03
        -0.25573E-02
        -0.35699E-02
        -0.25067E-02
        -0.22694E-02
        -0.27630E-02
        -0.29364E-02
        -0.24436E-02
        -0.21856E-02
        -0.56312E-03
        -0.38461E-04
        -0.18469E-03
        -0.19067E-03
        -0.59948E-03
        -0.18005E-02
        -0.29552E-02
        -0.29390E-02
        -0.11157E-04
        -0.49250E-06
        -0.16969E-05
        -0.14162E-04
        -0.57902E-04
        -0.42316E-04
        -0.40883E-05
        -0.16595E-04
        -0.37320E-05
        -0.15442E-04
        -0.42932E-06
        -0.89256E-05
        -0.93511E-04
        -0.52001E-04
        -0.57781E-04
        -0.42643E-04
        -0.13480E-04
        -0.44079E-05
        -0.20823E-05
        -0.62857E-05
        -0.22804E-03
        -0.20705E-03
        -0.20196E-03
        -0.11825E-04
        -0.40033E-05
        -0.17952E-05
        -0.51000E-04
        -0.63010E-06
        -0.64399E-05
        -0.10709E-04
        -0.25347E-04
        -0.10319E-04
        -0.95781E-05
        -0.77688E-05
        -0.18913E-03
        -0.56672E-04
        -0.74717E-04
        -0.73824E-04
        -0.23731E-05
        -0.17899E-04
        -0.23099E-03
        -0.24438E-03
        -0.23149E-03
        -0.12050E-03
        -0.71096E-04
        -0.24284E-04
        -0.28503E-04
        -0.40109E-04
        -0.60068E-06
        -0.95800E-06
        -0.10500E-03
        -0.80201E-04
        -0.32550E-02
        -0.33108E-02
        -0.26758E-02
        -0.18235E-02
        -0.10095E-02
        -0.21417E-03
        -0.13544E-04
        -0.14090E-03
        -0.23819E-03
        -0.80685E-03
        -0.25565E-02
        -0.35702E-02
        -0.25065E-02
        -0.22693E-02
        -0.27638E-02
        -0.29382E-02
        -0.24447E-02
        -0.21863E-02
        -0.56280E-03
        -0.38485E-04
        -0.18440E-03
        -0.19052E-03
        -0.59862E-03
        -0.17983E-02
        -0.29523E-02
        -0.29364E-02
        -0.11192E-04
        -0.49747E-06
        -0.17006E-05
        -0.14179E-04
        -0.57796E-04
        -0.42239E-04
        -0.41389E-05
        -0.16503E-04
        -0.37381E-05
        -0.15409E-04
        -0.40826E-06
        -0.89689E-05
        -0.93628E-04
        -0.51740E-04
        -0.57716E-04
        -0.42749E-04
        -0.13541E-04
        -0.43824E-05
        -0.20805E-05
        -0.62646E-05
        -0.22803E-03
        -0.20703E-03
        -0.20199E-03
        -0.11829E-04
        -0.40243E-05
        -0.18027E-05
        -0.51025E-04
        -0.60378E-06
        -0.65272E-05
        -0.10725E-04
        -0.25425E-04
        -0.10318E-04
        -0.94907E-05
        -0.77725E-05
        -0.18934E-03
        -0.56633E-04
        -0.74681E-04
        -0.74053E-04
        -0.24155E-05
        -0.18011E-04
        -0.23131E-03
        -0.24473E-03
        -0.23160E-03
        -0.12050E-03
        -0.71054E-04
        -0.24266E-04
        -0.28488E-04
        -0.40135E-04
        -0.58960E-06
        -0.95378E-06
        -0.10489E-03
        -0.79972E-04
        -0.32527E-02
        -0.33091E-02
        -0.26753E-02
        -0.18235E-02
        -0.10089E-02
        -0.21404E-03
        -0.13573E-04
        -0.14108E-03
        -0.23779E-03
        -0.80620E-03
        -0.25556E-02
        -0.35705E-02
        -0.25063E-02
        -0.22691E-02
        -0.27647E-02
        -0.29400E-02
        -0.24458E-02
        -0.21871E-02
        -0.56247E-03
        -0.38508E-04
        -0.18411E-03
        -0.19038E-03
        -0.59776E-03
        -0.17961E-02
        -0.29494E-02
        -0.29338E-02
        -0.11227E-04
        -0.50246E-06
        -0.17041E-05
        -0.14196E-04
        -0.57687E-04
        -0.42161E-04
        -0.41901E-05
        -0.16412E-04
        -0.37442E-05
        -0.15377E-04
        -0.38777E-06
        -0.90122E-05
        -0.93744E-04
        -0.51481E-04
        -0.57651E-04
        -0.42855E-04
        -0.13601E-04
        -0.43569E-05
        -0.20784E-05
        -0.62445E-05
        -0.22802E-03
        -0.20702E-03
        -0.20203E-03
        -0.11832E-04
        -0.40453E-05
        -0.18105E-05
        -0.51048E-04
        -0.57815E-06
        -0.66143E-05
        -0.10743E-04
        -0.25504E-04
        -0.10316E-04
        -0.94032E-05
        -0.77763E-05
        -0.18955E-03
        -0.56594E-04
        -0.74644E-04
        -0.74282E-04
        -0.24584E-05
        -0.18126E-04
        -0.23163E-03
        -0.24506E-03
        -0.23171E-03
        -0.12050E-03
        -0.71012E-04
        -0.24249E-04
        -0.28473E-04
        -0.40161E-04
        -0.57860E-06
        -0.94976E-06
        -0.10478E-03
        -0.79740E-04
        -0.32505E-02
        -0.33074E-02
        -0.26748E-02
        -0.18235E-02
        -0.10083E-02
        -0.21391E-03
        -0.13602E-04
        -0.14125E-03
        -0.23739E-03
        -0.80556E-03
        -0.25548E-02
        -0.35708E-02
        -0.25061E-02
        -0.22690E-02
        -0.27656E-02
        -0.29418E-02
        -0.24469E-02
        -0.21878E-02
        -0.56214E-03
        -0.38532E-04
        -0.18382E-03
        -0.19023E-03
        -0.59691E-03
        -0.17940E-02
        -0.29465E-02
        -0.29311E-02
        -0.11262E-04
        -0.50753E-06
        -0.17077E-05
        -0.14213E-04
        -0.57578E-04
        -0.42082E-04
        -0.42414E-05
        -0.16321E-04
        -0.37501E-05
        -0.15343E-04
        -0.36787E-06
        -0.90551E-05
        -0.93862E-04
        -0.51222E-04
        -0.57585E-04
        -0.42961E-04
        -0.13662E-04
        -0.43313E-05
        -0.20763E-05
        -0.62237E-05
        -0.22802E-03
        -0.20701E-03
        -0.20206E-03
        -0.11836E-04
        -0.40661E-05
        -0.18180E-05
        -0.51072E-04
        -0.55302E-06
        -0.67027E-05
        -0.10759E-04
        -0.25583E-04
        -0.10315E-04
        -0.93161E-05
        -0.77801E-05
        -0.18975E-03
        -0.56559E-04
        -0.74610E-04
        -0.74509E-04
        -0.25017E-05
        -0.18240E-04
        -0.23195E-03
        -0.24540E-03
        -0.23182E-03
        -0.12050E-03
        -0.70973E-04
        -0.24228E-04
        -0.28458E-04
        -0.40186E-04
        -0.56766E-06
        -0.94552E-06
        -0.10467E-03
        -0.79508E-04
        -0.32482E-02
        -0.33058E-02
        -0.26743E-02
        -0.18235E-02
        -0.10077E-02
        -0.21378E-03
        -0.13632E-04
        -0.14141E-03
        -0.23699E-03
        -0.80491E-03
        -0.25540E-02
        -0.35711E-02
        -0.25059E-02
        -0.22688E-02
        -0.27665E-02
        -0.29436E-02
        -0.24480E-02
        -0.21886E-02
        -0.56181E-03
        -0.38555E-04
        -0.18353E-03
        -0.19008E-03
        -0.59606E-03
        -0.17918E-02
        -0.29436E-02
        -0.29285E-02
        -0.11297E-04
        -0.51254E-06
        -0.17112E-05
        -0.14229E-04
        -0.57473E-04
        -0.42004E-04
        -0.42925E-05
        -0.16231E-04
        -0.37561E-05
        -0.15310E-04
        -0.34853E-06
        -0.90981E-05
        -0.93980E-04
        -0.50964E-04
        -0.57519E-04
        -0.43066E-04
        -0.13723E-04
        -0.43061E-05
        -0.20746E-05
        -0.62037E-05
        -0.22801E-03
        -0.20699E-03
        -0.20210E-03
        -0.11839E-04
        -0.40869E-05
        -0.18256E-05
        -0.51094E-04
        -0.52860E-06
        -0.67916E-05
        -0.10776E-04
        -0.25661E-04
        -0.10313E-04
        -0.92293E-05
        -0.77837E-05
        -0.18996E-03
        -0.56521E-04
        -0.74575E-04
        -0.74736E-04
        -0.25455E-05
        -0.18355E-04
        -0.23227E-03
        -0.24574E-03
        -0.23193E-03
        -0.12050E-03
        -0.70930E-04
        -0.24210E-04
        -0.28443E-04
        -0.40211E-04
        -0.55686E-06
        -0.94132E-06
        -0.10456E-03
        -0.79280E-04
        -0.32460E-02
        -0.33041E-02
        -0.26738E-02
        -0.18235E-02
        -0.10070E-02
        -0.21365E-03
        -0.13661E-04
        -0.14158E-03
        -0.23658E-03
        -0.80427E-03
        -0.25531E-02
        -0.35714E-02
        -0.25057E-02
        -0.22687E-02
        -0.27674E-02
        -0.29454E-02
        -0.24492E-02
        -0.21893E-02
        -0.56148E-03
        -0.38578E-04
        -0.18324E-03
        -0.18994E-03
        -0.59521E-03
        -0.17896E-02
        -0.29407E-02
        -0.29259E-02
        -0.11332E-04
        -0.51755E-06
        -0.17147E-05
        -0.14246E-04
        -0.57365E-04
        -0.41925E-04
        -0.43444E-05
        -0.16140E-04
        -0.37621E-05
        -0.15278E-04
        -0.32972E-06
        -0.91423E-05
        -0.94096E-04
        -0.50707E-04
        -0.57452E-04
        -0.43172E-04
        -0.13784E-04
        -0.42809E-05
        -0.20725E-05
        -0.61828E-05
        -0.22800E-03
        -0.20698E-03
        -0.20213E-03
        -0.11842E-04
        -0.41076E-05
        -0.18331E-05
        -0.51116E-04
        -0.50474E-06
        -0.68809E-05
        -0.10792E-04
        -0.25740E-04
        -0.10311E-04
        -0.91429E-05
        -0.77874E-05
        -0.19017E-03
        -0.56486E-04
        -0.74540E-04
        -0.74961E-04
        -0.25896E-05
        -0.18470E-04
        -0.23259E-03
        -0.24608E-03
        -0.23204E-03
        -0.12050E-03
        -0.70888E-04
        -0.24193E-04
        -0.28428E-04
        -0.40237E-04
        -0.54599E-06
        -0.93723E-06
        -0.10445E-03
        -0.79049E-04
        -0.32437E-02
        -0.33024E-02
        -0.26733E-02
        -0.18235E-02
        -0.10064E-02
        -0.21351E-03
        -0.13690E-04
        -0.14174E-03
        -0.23618E-03
        -0.80363E-03
        -0.25523E-02
        -0.35717E-02
        -0.25055E-02
        -0.22685E-02
        -0.27683E-02
        -0.29472E-02
        -0.24503E-02
        -0.21901E-02
        -0.56116E-03
        -0.38600E-04
        -0.18295E-03
        -0.18980E-03
        -0.59436E-03
        -0.17874E-02
        -0.29378E-02
        -0.29233E-02
        -0.11368E-04
        -0.52270E-06
        -0.17183E-05
        -0.14263E-04
        -0.57256E-04
        -0.41850E-04
        -0.43962E-05
        -0.16050E-04
        -0.37681E-05
        -0.15245E-04
        -0.31142E-06
        -0.91857E-05
        -0.94214E-04
        -0.50452E-04
        -0.57385E-04
        -0.43278E-04
        -0.13845E-04
        -0.42560E-05
        -0.20705E-05
        -0.61627E-05
        -0.22799E-03
        -0.20697E-03
        -0.20217E-03
        -0.11846E-04
        -0.41280E-05
        -0.18408E-05
        -0.51139E-04
        -0.48144E-06
        -0.69707E-05
        -0.10808E-04
        -0.25819E-04
        -0.10310E-04
        -0.90571E-05
        -0.77912E-05
        -0.19038E-03
        -0.56448E-04
        -0.74505E-04
        -0.75187E-04
        -0.26343E-05
        -0.18585E-04
        -0.23291E-03
        -0.24642E-03
        -0.23215E-03
        -0.12050E-03
        -0.70849E-04
        -0.24173E-04
        -0.28413E-04
        -0.40263E-04
        -0.53535E-06
        -0.93300E-06
        -0.10434E-03
        -0.78818E-04
        -0.32415E-02
        -0.33007E-02
        -0.26727E-02
        -0.18235E-02
        -0.10058E-02
        -0.21338E-03
        -0.13718E-04
        -0.14190E-03
        -0.23578E-03
        -0.80299E-03
        -0.25515E-02
        -0.35720E-02
        -0.25053E-02
        -0.22684E-02
        -0.27692E-02
        -0.29490E-02
        -0.24514E-02
        -0.21908E-02
        -0.56083E-03
        -0.38622E-04
        -0.18266E-03
        -0.18965E-03
        -0.59351E-03
        -0.17853E-02
        -0.29349E-02
        -0.29207E-02
        -0.11403E-04
        -0.52781E-06
        -0.17219E-05
        -0.14279E-04
        -0.57151E-04
        -0.41772E-04
        -0.44486E-05
        -0.15960E-04
        -0.37738E-05
        -0.15210E-04
        -0.29365E-06
        -0.92296E-05
        -0.94332E-04
        -0.50196E-04
        -0.57317E-04
        -0.43385E-04
        -0.13906E-04
        -0.42312E-05
        -0.20685E-05
        -0.61421E-05
        -0.22799E-03
        -0.20695E-03
        -0.20220E-03
        -0.11850E-04
        -0.41481E-05
        -0.18483E-05
        -0.51160E-04
        -0.45849E-06
        -0.70603E-05
        -0.10825E-04
        -0.25898E-04
        -0.10309E-04
        -0.89718E-05
        -0.77953E-05
        -0.19059E-03
        -0.56410E-04
        -0.74469E-04
        -0.75411E-04
        -0.26799E-05
        -0.18702E-04
        -0.23322E-03
        -0.24676E-03
        -0.23226E-03
        -0.12050E-03
        -0.70806E-04
        -0.24155E-04
        -0.28399E-04
        -0.40289E-04
        -0.52485E-06
        -0.92879E-06
        -0.10423E-03
        -0.78591E-04
        -0.32392E-02
        -0.32991E-02
        -0.26722E-02
        -0.18235E-02
        -0.10052E-02
        -0.21325E-03
        -0.13746E-04
        -0.14207E-03
        -0.23538E-03
        -0.80234E-03
        -0.25507E-02
        -0.35723E-02
        -0.25051E-02
        -0.22682E-02
        -0.27701E-02
        -0.29508E-02
        -0.24525E-02
        -0.21916E-02
        -0.56050E-03
        -0.38645E-04
        -0.18237E-03
        -0.18950E-03
        -0.59266E-03
        -0.17831E-02
        -0.29320E-02
        -0.29181E-02
        -0.11438E-04
        -0.53292E-06
        -0.17253E-05
        -0.14296E-04
        -0.57044E-04
        -0.41694E-04
        -0.45009E-05
        -0.15871E-04
        -0.37790E-05
        -0.15173E-04
        -0.27643E-06
        -0.92736E-05
        -0.94448E-04
        -0.49940E-04
        -0.57248E-04
        -0.43491E-04
        -0.13966E-04
        -0.42063E-05
        -0.20671E-05
        -0.61224E-05
        -0.22798E-03
        -0.20694E-03
        -0.20224E-03
        -0.11853E-04
        -0.41669E-05
        -0.18562E-05
        -0.51171E-04
        -0.43555E-06
        -0.71510E-05
        -0.10842E-04
        -0.25978E-04
        -0.10307E-04
        -0.88865E-05
        -0.77991E-05
        -0.19079E-03
        -0.56375E-04
        -0.74435E-04
        -0.75631E-04
        -0.27272E-05
        -0.18817E-04
        -0.23351E-03
        -0.24707E-03
        -0.23235E-03
        -0.12050E-03
        -0.70764E-04
        -0.24136E-04
        -0.28384E-04
        -0.40315E-04
        -0.51448E-06
        -0.92462E-06
        -0.10413E-03
        -0.78360E-04
        -0.32370E-02
        -0.32974E-02
        -0.26717E-02
        -0.18235E-02
        -0.10046E-02
        -0.21312E-03
        -0.13774E-04
        -0.14223E-03
        -0.23499E-03
        -0.80168E-03
        -0.25498E-02
        -0.35729E-02
        -0.25051E-02
        -0.22681E-02
        -0.27709E-02
        -0.29526E-02
        -0.24536E-02
        -0.21923E-02
        -0.56017E-03
        -0.38667E-04
        -0.18209E-03
        -0.18935E-03
        -0.59181E-03
        -0.17809E-02
        -0.29291E-02
        -0.29155E-02
        -0.11474E-04
        -0.53803E-06
        -0.17287E-05
        -0.14312E-04
        -0.56936E-04
        -0.41616E-04
        -0.45537E-05
        -0.15781E-04
        -0.37837E-05
        -0.15131E-04
        -0.25978E-06
        -0.93175E-05
        -0.94567E-04
        -0.49682E-04
        -0.57177E-04
        -0.43597E-04
        -0.14027E-04
        -0.41814E-05
        -0.20653E-05
        -0.61021E-05
        -0.22798E-03
        -0.20692E-03
        -0.20228E-03
        -0.11857E-04
        -0.41843E-05
        -0.18638E-05
        -0.51175E-04
        -0.41252E-06
        -0.72422E-05
        -0.10859E-04
        -0.26057E-04
        -0.10305E-04
        -0.88015E-05
        -0.78030E-05
        -0.19101E-03
        -0.56337E-04
        -0.74401E-04
        -0.75847E-04
        -0.27762E-05
        -0.18933E-04
        -0.23377E-03
        -0.24735E-03
        -0.23243E-03
        -0.12050E-03
        -0.70725E-04
        -0.24118E-04
        -0.28369E-04
        -0.40341E-04
        -0.50409E-06
        -0.92052E-06
        -0.10401E-03
        -0.78129E-04
        -0.32347E-02
        -0.32957E-02
        -0.26712E-02
        -0.18235E-02
        -0.10039E-02
        -0.21299E-03
        -0.13802E-04
        -0.14239E-03
        -0.23460E-03
        -0.80099E-03
        -0.25489E-02
        -0.35736E-02
        -0.25051E-02
        -0.22680E-02
        -0.27718E-02
        -0.29544E-02
        -0.24547E-02
        -0.21931E-02
        -0.55984E-03
        -0.38689E-04
        -0.18180E-03
        -0.18921E-03
        -0.59096E-03
        -0.17788E-02
        -0.29262E-02
        -0.29129E-02
        -0.11509E-04
        -0.54320E-06
        -0.17323E-05
        -0.14329E-04
        -0.56832E-04
        -0.41541E-04
        -0.46062E-05
        -0.15692E-04
        -0.37880E-05
        -0.15089E-04
        -0.24376E-06
        -0.93608E-05
        -0.94682E-04
        -0.49426E-04
        -0.57106E-04
        -0.43703E-04
        -0.14087E-04
        -0.41570E-05
        -0.20633E-05
        -0.60824E-05
        -0.22797E-03
        -0.20690E-03
        -0.20231E-03
        -0.11861E-04
        -0.42011E-05
        -0.18713E-05
        -0.51178E-04
        -0.39005E-06
        -0.73332E-05
        -0.10875E-04
        -0.26136E-04
        -0.10303E-04
        -0.87177E-05
        -0.78070E-05
        -0.19122E-03
        -0.56303E-04
        -0.74365E-04
        -0.76059E-04
        -0.28262E-05
        -0.19046E-04
        -0.23402E-03
        -0.24762E-03
        -0.23251E-03
        -0.12050E-03
        -0.70682E-04
        -0.24100E-04
        -0.28355E-04
        -0.40369E-04
        -0.49393E-06
        -0.91623E-06
        -0.10391E-03
        -0.77904E-04
        -0.32325E-02
        -0.32941E-02
        -0.26707E-02
        -0.18235E-02
        -0.10033E-02
        -0.21285E-03
        -0.13829E-04
        -0.14255E-03
        -0.23421E-03
        -0.80029E-03
        -0.25480E-02
        -0.35744E-02
        -0.25051E-02
        -0.22678E-02
        -0.27727E-02
        -0.29562E-02
        -0.24558E-02
        -0.21938E-02
        -0.55952E-03
        -0.38714E-04
        -0.18152E-03
        -0.18906E-03
        -0.59012E-03
        -0.17766E-02
        -0.29233E-02
        -0.29103E-02
        -0.11646E-04
        -0.55219E-06
        -0.17516E-05
        -0.14469E-04
        -0.57220E-04
        -0.41829E-04
        -0.46947E-05
        -0.15755E-04
        -0.38250E-05
        -0.15191E-04
        -0.23233E-06
        -0.94785E-05
        -0.95619E-04
        -0.49646E-04
        -0.57578E-04
        -0.44182E-04
        -0.14270E-04
        -0.41702E-05
        -0.20785E-05
        -0.61140E-05
        -0.22989E-03
        -0.20867E-03
        -0.20403E-03
        -0.11967E-04
        -0.42542E-05
        -0.18944E-05
        -0.51662E-04
        -0.37300E-06
        -0.74848E-05
        -0.10988E-04
        -0.26440E-04
        -0.10391E-04
        -0.87169E-05
        -0.78806E-05
        -0.19311E-03
        -0.56764E-04
        -0.74979E-04
        -0.76974E-04
        -0.28984E-05
        -0.19325E-04
        -0.23641E-03
        -0.25013E-03
        -0.23465E-03
        -0.12150E-03
        -0.71244E-04
        -0.24287E-04
        -0.28592E-04
        -0.40756E-04
        -0.48925E-06
        -0.91997E-06
        -0.10472E-03
        -0.78370E-04
        -0.32621E-02
        -0.33242E-02
        -0.26964E-02
        -0.18411E-02
        -0.10126E-02
        -0.21482E-03
        -0.14007E-04
        -0.14413E-03
        -0.23625E-03
        -0.80797E-03
        -0.25735E-02
        -0.36104E-02
        -0.25284E-02
        -0.22881E-02
        -0.27982E-02
        -0.29840E-02
        -0.24786E-02
        -0.22150E-02
        -0.56469E-03
        -0.39137E-04
        -0.18301E-03
        -0.19067E-03
        -0.59492E-03
        -0.17914E-02
        -0.29478E-02
        -0.29348E-02
        -0.26144E-04
        -0.12570E-05
        -0.39181E-05
        -0.32565E-04
        -0.11911E-03
        -0.88672E-04
        -0.10637E-04
        -0.34950E-04
        -0.85303E-05
        -0.33584E-04
        -0.49206E-06
        -0.19112E-04
        -0.19830E-03
        -0.10706E-03
        -0.11724E-03
        -0.99299E-04
        -0.31928E-04
        -0.93446E-05
        -0.45467E-05
        -0.13442E-04
        -0.47548E-03
        -0.44289E-03
        -0.42416E-03
        -0.26584E-04
        -0.95977E-05
        -0.42828E-05
        -0.11339E-03
        -0.81261E-06
        -0.17105E-04
        -0.24733E-04
        -0.59488E-04
        -0.23243E-04
        -0.19527E-04
        -0.17749E-04
        -0.38798E-03
        -0.12031E-03
        -0.15907E-03
        -0.16413E-03
        -0.63960E-05
        -0.42707E-04
        -0.50727E-03
        -0.54424E-03
        -0.50940E-03
        -0.25616E-03
        -0.14926E-03
        -0.48087E-04
        -0.59524E-04
        -0.87080E-04
        -0.10412E-05
        -0.19614E-05
        -0.21312E-03
        -0.16518E-03
        -0.51961E-02
        -0.52741E-02
        -0.42844E-02
        -0.29404E-02
        -0.16155E-02
        -0.34467E-03
        -0.23068E-04
        -0.24077E-03
        -0.39270E-03
        -0.13288E-02
        -0.42412E-02
        -0.59211E-02
        -0.42284E-02
        -0.38462E-02
        -0.45848E-02
        -0.47803E-02
        -0.39473E-02
        -0.34945E-02
        -0.89058E-03
        -0.61986E-04
        -0.29490E-03
        -0.30977E-03
        -0.96014E-03
        -0.29110E-02
        -0.47598E-02
        -0.47045E-02
  
SCALARS                      strain_yy  double 1
LOOKUP_TABLE default
         0.11502E-04
         0.11529E-05
         0.82926E-05
         0.24433E-05
        -0.24200E-19
        -0.18384E-20
        -0.37168E-19
        -0.21623E-19
         0.10908E-03
         0.48794E-04
        -0.82317E-19
        -0.63801E-19
         0.72128E-04
         0.18537E-06
        -0.42160E-19
        -0.17330E-21
         0.11623E-04
         0.11878E-03
        -0.91257E-23
        -0.95540E-21
         0.28112E-04
         0.35785E-03
         0.45759E-03
        -0.22154E-18
        -0.66074E-18
        -0.46164E-18
         0.34896E-05
         0.31105E-03
        -0.11463E-18
        -0.43142E-18
         0.15103E-04
         0.10105E-04
         0.92886E-05
        -0.30808E-19
        -0.32105E-19
        -0.13838E-22
         0.12409E-03
         0.97082E-04
        -0.10432E-18
        -0.63151E-19
         0.11230E-03
         0.39722E-04
        -0.59584E-19
        -0.49762E-19
         0.10281E-03
         0.12786E-04
        -0.65566E-22
        -0.15687E-19
         0.61755E-04
        -0.34774E-20
         0.89297E-06
        -0.22811E-22
         0.17725E-06
        -0.52031E-19
         0.73781E-05
        -0.17607E-19
         0.78589E-04
         0.29732E-05
        -0.12959E-22
        -0.53382E-22
         0.22156E-04
         0.28125E-03
        -0.24056E-20
        -0.33657E-19
         0.83187E-05
        -0.98015E-20
         0.14498E-03
        -0.14546E-19
         0.81909E-04
         0.22577E-04
        -0.22216E-21
        -0.38729E-19
         0.26564E-03
        -0.18674E-18
         0.46922E-03
        -0.17507E-18
         0.46219E-03
        -0.10088E-18
         0.31925E-03
        -0.70875E-19
         0.75313E-03
         0.48363E-03
        -0.29167E-19
        -0.14338E-20
         0.11131E-04
        -0.17951E-22
         0.25055E-03
        -0.70445E-19
         0.13213E-02
        -0.21589E-18
         0.24596E-02
         0.91795E-03
        -0.47493E-18
        -0.31115E-18
         0.46946E-03
        -0.18749E-18
         0.38704E-03
        -0.19624E-18
         0.35888E-03
        -0.22687E-18
         0.98732E-03
         0.69630E-03
        -0.19620E-18
        -0.45044E-19
         0.39442E-03
         0.60124E-04
        -0.24257E-19
        -0.37459E-19
         0.23606E-02
        -0.26846E-18
         0.51969E-02
        -0.57440E-18
         0.72663E-02
        -0.87611E-18
         0.84906E-02
        -0.86202E-18
         0.98857E-02
        -0.53984E-18
         0.92004E-02
        -0.32331E-18
         0.80564E-02
        -0.27968E-18
         0.64013E-02
        -0.25317E-18
         0.38595E-02
        -0.10340E-18
         0.21795E-02
        -0.11271E-19
         0.67297E-03
        -0.47059E-20
         0.38774E-05
        -0.10632E-19
         0.75429E-03
        -0.28361E-20
         0.25868E-02
        -0.25938E-19
         0.61846E-02
        -0.20666E-18
         0.66643E-02
        -0.50391E-18
         0.70521E-02
        -0.86606E-18
         0.11049E-01
        -0.86456E-18
         0.12699E-01
        -0.65885E-18
         0.11211E-01
        -0.62579E-18
         0.69848E-02
        -0.63361E-18
         0.32258E-02
        -0.39621E-18
         0.16935E-02
        -0.13855E-18
         0.92716E-03
        -0.82830E-19
        -0.24493E-04
        -0.65638E-05
        -0.50012E-05
        -0.48102E-06
        -0.52503E-05
        -0.59363E-05
        -0.65942E-07
        -0.15589E-04
        -0.11457E-04
        -0.24701E-04
        -0.67201E-05
        -0.12228E-03
        -0.57175E-04
        -0.76892E-06
        -0.12490E-03
        -0.17169E-05
        -0.13484E-05
        -0.55796E-06
        -0.95373E-06
        -0.54488E-06
        -0.45960E-06
        -0.31249E-06
        -0.35274E-05
        -0.25053E-07
        -0.11513E-04
        -0.25162E-06
        -0.67442E-09
        -0.20618E-06
        -0.30326E-06
        -0.70751E-05
        -0.16363E-05
        -0.19283E-05
        -0.86537E-06
        -0.51397E-07
        -0.13948E-06
        -0.41088E-05
        -0.20683E-04
        -0.96556E-04
        -0.80590E-04
        -0.57376E-04
        -0.50750E-04
        -0.31485E-05
        -0.21128E-05
        -0.15890E-04
        -0.43330E-04
        -0.11516E-03
        -0.49747E-04
        -0.25634E-04
        -0.29177E-04
        -0.32884E-04
        -0.45131E-04
        -0.94562E-05
        -0.33135E-04
        -0.48231E-04
        -0.35354E-03
        -0.67605E-03
        -0.10988E-02
        -0.15453E-02
        -0.15555E-02
        -0.12718E-02
        -0.11519E-02
        -0.10289E-02
        -0.42848E-03
        -0.83461E-04
        -0.16189E-04
        -0.31485E-05
        -0.73998E-05
        -0.11582E-03
        -0.39133E-03
        -0.66536E-03
        -0.96537E-03
        -0.12730E-02
        -0.11327E-02
        -0.10117E-02
        -0.87529E-03
        -0.42191E-03
        -0.14465E-03
        -0.11170E-03
        -0.93784E-04
        -0.37307E-04
        -0.31946E-04
        -0.17973E-05
        -0.53891E-04
        -0.10901E-04
        -0.68546E-05
        -0.83774E-04
        -0.36027E-04
        -0.74106E-04
        -0.20714E-04
        -0.38800E-03
        -0.13618E-03
        -0.28121E-05
        -0.37662E-03
        -0.13488E-04
        -0.12387E-05
        -0.11290E-05
        -0.22937E-04
        -0.85736E-06
        -0.17040E-04
        -0.85899E-05
        -0.28871E-05
        -0.20568E-05
        -0.33604E-04
        -0.20559E-05
        -0.12946E-06
        -0.44737E-06
        -0.11415E-05
        -0.33439E-04
        -0.15666E-04
        -0.10870E-05
        -0.65448E-05
        -0.49342E-05
        -0.11218E-05
        -0.10424E-04
        -0.37999E-04
        -0.21753E-03
        -0.16917E-03
        -0.13138E-03
        -0.70908E-04
        -0.43295E-05
        -0.18369E-04
        -0.28660E-04
        -0.47521E-04
        -0.19830E-03
        -0.67142E-04
        -0.29361E-04
        -0.46379E-04
        -0.64637E-04
        -0.69396E-04
        -0.39067E-06
        -0.10786E-03
        -0.22070E-03
        -0.11952E-02
        -0.19961E-02
        -0.33250E-02
        -0.47881E-02
        -0.45939E-02
        -0.35034E-02
        -0.32175E-02
        -0.31497E-02
        -0.12420E-02
        -0.13492E-03
        -0.21421E-04
        -0.15728E-04
        -0.33737E-05
        -0.24279E-03
        -0.97440E-03
        -0.18874E-02
        -0.31969E-02
        -0.39308E-02
        -0.30311E-02
        -0.27093E-02
        -0.26930E-02
        -0.13351E-02
        -0.36030E-03
        -0.32303E-03
        -0.93901E-04
        -0.37320E-04
        -0.31978E-04
        -0.18238E-05
        -0.53904E-04
        -0.10918E-04
        -0.68718E-05
        -0.84057E-04
        -0.36156E-04
        -0.74660E-04
        -0.20739E-04
        -0.38793E-03
        -0.13624E-03
        -0.28123E-05
        -0.37759E-03
        -0.13489E-04
        -0.12613E-05
        -0.11257E-05
        -0.22968E-04
        -0.84782E-06
        -0.17125E-04
        -0.86063E-05
        -0.28884E-05
        -0.20548E-05
        -0.33910E-04
        -0.20484E-05
        -0.13252E-06
        -0.45239E-06
        -0.11265E-05
        -0.33580E-04
        -0.15671E-04
        -0.10823E-05
        -0.65738E-05
        -0.49504E-05
        -0.11008E-05
        -0.10437E-04
        -0.37996E-04
        -0.21820E-03
        -0.16989E-03
        -0.13169E-03
        -0.71017E-04
        -0.43062E-05
        -0.18406E-04
        -0.28689E-04
        -0.47524E-04
        -0.19830E-03
        -0.67156E-04
        -0.29326E-04
        -0.46255E-04
        -0.64464E-04
        -0.69337E-04
        -0.37893E-06
        -0.10766E-03
        -0.22072E-03
        -0.11956E-02
        -0.19961E-02
        -0.33242E-02
        -0.47848E-02
        -0.45900E-02
        -0.35013E-02
        -0.32162E-02
        -0.31479E-02
        -0.12415E-02
        -0.13505E-03
        -0.21418E-04
        -0.15792E-04
        -0.33190E-05
        -0.24304E-03
        -0.97527E-03
        -0.18883E-02
        -0.31967E-02
        -0.39303E-02
        -0.30307E-02
        -0.27090E-02
        -0.26917E-02
        -0.13332E-02
        -0.35950E-03
        -0.32218E-03
        -0.94020E-04
        -0.37335E-04
        -0.32011E-04
        -0.18507E-05
        -0.53916E-04
        -0.10936E-04
        -0.68890E-05
        -0.84341E-04
        -0.36287E-04
        -0.75214E-04
        -0.20764E-04
        -0.38786E-03
        -0.13631E-03
        -0.28117E-05
        -0.37854E-03
        -0.13491E-04
        -0.12844E-05
        -0.11222E-05
        -0.23000E-04
        -0.83817E-06
        -0.17210E-04
        -0.86224E-05
        -0.28907E-05
        -0.20523E-05
        -0.34213E-04
        -0.20399E-05
        -0.13584E-06
        -0.45775E-06
        -0.11102E-05
        -0.33717E-04
        -0.15676E-04
        -0.10765E-05
        -0.66030E-05
        -0.49663E-05
        -0.10799E-05
        -0.10452E-04
        -0.37991E-04
        -0.21888E-03
        -0.17063E-03
        -0.13199E-03
        -0.71132E-04
        -0.42806E-05
        -0.18442E-04
        -0.28726E-04
        -0.47536E-04
        -0.19832E-03
        -0.67168E-04
        -0.29290E-04
        -0.46133E-04
        -0.64290E-04
        -0.69279E-04
        -0.36742E-06
        -0.10746E-03
        -0.22075E-03
        -0.11961E-02
        -0.19961E-02
        -0.33234E-02
        -0.47816E-02
        -0.45862E-02
        -0.34992E-02
        -0.32148E-02
        -0.31462E-02
        -0.12410E-02
        -0.13518E-03
        -0.21415E-04
        -0.15857E-04
        -0.32644E-05
        -0.24331E-03
        -0.97620E-03
        -0.18892E-02
        -0.31966E-02
        -0.39298E-02
        -0.30303E-02
        -0.27088E-02
        -0.26903E-02
        -0.13313E-02
        -0.35871E-03
        -0.32133E-03
        -0.94137E-04
        -0.37349E-04
        -0.32043E-04
        -0.18780E-05
        -0.53928E-04
        -0.10954E-04
        -0.69072E-05
        -0.84622E-04
        -0.36418E-04
        -0.75763E-04
        -0.20788E-04
        -0.38780E-03
        -0.13639E-03
        -0.28118E-05
        -0.37951E-03
        -0.13493E-04
        -0.13081E-05
        -0.11188E-05
        -0.23034E-04
        -0.82801E-06
        -0.17298E-04
        -0.86370E-05
        -0.28956E-05
        -0.20482E-05
        -0.34507E-04
        -0.20288E-05
        -0.13932E-06
        -0.46490E-06
        -0.10902E-05
        -0.33842E-04
        -0.15678E-04
        -0.10688E-05
        -0.66321E-05
        -0.49824E-05
        -0.10594E-05
        -0.10465E-04
        -0.37986E-04
        -0.21956E-03
        -0.17138E-03
        -0.13232E-03
        -0.71264E-04
        -0.42481E-05
        -0.18471E-04
        -0.28783E-04
        -0.47564E-04
        -0.19834E-03
        -0.67191E-04
        -0.29254E-04
        -0.46010E-04
        -0.64117E-04
        -0.69217E-04
        -0.35611E-06
        -0.10726E-03
        -0.22077E-03
        -0.11965E-02
        -0.19962E-02
        -0.33226E-02
        -0.47783E-02
        -0.45823E-02
        -0.34971E-02
        -0.32135E-02
        -0.31444E-02
        -0.12405E-02
        -0.13534E-03
        -0.21416E-04
        -0.15921E-04
        -0.32099E-05
        -0.24359E-03
        -0.97726E-03
        -0.18902E-02
        -0.31966E-02
        -0.39294E-02
        -0.30298E-02
        -0.27086E-02
        -0.26889E-02
        -0.13294E-02
        -0.35793E-03
        -0.32048E-03
        -0.94253E-04
        -0.37362E-04
        -0.32075E-04
        -0.19053E-05
        -0.53941E-04
        -0.10971E-04
        -0.69242E-05
        -0.84903E-04
        -0.36549E-04
        -0.76306E-04
        -0.20813E-04
        -0.38773E-03
        -0.13646E-03
        -0.28122E-05
        -0.38048E-03
        -0.13496E-04
        -0.13324E-05
        -0.11152E-05
        -0.23069E-04
        -0.81736E-06
        -0.17387E-04
        -0.86499E-05
        -0.29033E-05
        -0.20425E-05
        -0.34791E-04
        -0.20148E-05
        -0.14323E-06
        -0.47373E-06
        -0.10664E-05
        -0.33953E-04
        -0.15679E-04
        -0.10588E-05
        -0.66611E-05
        -0.49986E-05
        -0.10388E-05
        -0.10479E-04
        -0.37983E-04
        -0.22024E-03
        -0.17214E-03
        -0.13267E-03
        -0.71415E-04
        -0.42084E-05
        -0.18493E-04
        -0.28860E-04
        -0.47611E-04
        -0.19838E-03
        -0.67221E-04
        -0.29223E-04
        -0.45890E-04
        -0.63943E-04
        -0.69159E-04
        -0.34490E-06
        -0.10705E-03
        -0.22080E-03
        -0.11970E-02
        -0.19962E-02
        -0.33218E-02
        -0.47751E-02
        -0.45784E-02
        -0.34949E-02
        -0.32121E-02
        -0.31427E-02
        -0.12401E-02
        -0.13553E-03
        -0.21420E-04
        -0.15984E-04
        -0.31556E-05
        -0.24390E-03
        -0.97845E-03
        -0.18914E-02
        -0.31965E-02
        -0.39289E-02
        -0.30294E-02
        -0.27084E-02
        -0.26876E-02
        -0.13275E-02
        -0.35714E-03
        -0.31964E-03
        -0.94364E-04
        -0.37371E-04
        -0.32107E-04
        -0.19332E-05
        -0.53954E-04
        -0.10989E-04
        -0.69395E-05
        -0.85171E-04
        -0.36681E-04
        -0.76837E-04
        -0.20842E-04
        -0.38767E-03
        -0.13653E-03
        -0.28131E-05
        -0.38144E-03
        -0.13499E-04
        -0.13574E-05
        -0.11118E-05
        -0.23104E-04
        -0.80656E-06
        -0.17476E-04
        -0.86623E-05
        -0.29121E-05
        -0.20362E-05
        -0.35070E-04
        -0.20000E-05
        -0.14751E-06
        -0.48359E-06
        -0.10412E-05
        -0.34059E-04
        -0.15677E-04
        -0.10476E-05
        -0.66908E-05
        -0.50155E-05
        -0.10183E-05
        -0.10494E-04
        -0.37982E-04
        -0.22093E-03
        -0.17292E-03
        -0.13304E-03
        -0.71571E-04
        -0.41666E-05
        -0.18512E-04
        -0.28943E-04
        -0.47670E-04
        -0.19845E-03
        -0.67256E-04
        -0.29197E-04
        -0.45776E-04
        -0.63773E-04
        -0.69100E-04
        -0.33388E-06
        -0.10685E-03
        -0.22082E-03
        -0.11974E-02
        -0.19962E-02
        -0.33210E-02
        -0.47718E-02
        -0.45745E-02
        -0.34928E-02
        -0.32108E-02
        -0.31409E-02
        -0.12397E-02
        -0.13573E-03
        -0.21426E-04
        -0.16047E-04
        -0.31020E-05
        -0.24422E-03
        -0.97970E-03
        -0.18925E-02
        -0.31964E-02
        -0.39284E-02
        -0.30290E-02
        -0.27082E-02
        -0.26862E-02
        -0.13256E-02
        -0.35636E-03
        -0.31879E-03
        -0.94465E-04
        -0.37369E-04
        -0.32138E-04
        -0.19619E-05
        -0.53968E-04
        -0.11007E-04
        -0.69515E-05
        -0.85415E-04
        -0.36816E-04
        -0.77347E-04
        -0.20876E-04
        -0.38763E-03
        -0.13662E-03
        -0.28175E-05
        -0.38243E-03
        -0.13504E-04
        -0.13833E-05
        -0.11084E-05
        -0.23140E-04
        -0.79582E-06
        -0.17566E-04
        -0.86750E-05
        -0.29209E-05
        -0.20301E-05
        -0.35343E-04
        -0.19851E-05
        -0.15262E-06
        -0.49418E-06
        -0.10159E-05
        -0.34162E-04
        -0.15674E-04
        -0.10357E-05
        -0.67216E-05
        -0.50333E-05
        -0.99801E-06
        -0.10510E-04
        -0.37984E-04
        -0.22163E-03
        -0.17371E-03
        -0.13340E-03
        -0.71733E-04
        -0.41241E-05
        -0.18531E-04
        -0.29027E-04
        -0.47732E-04
        -0.19853E-03
        -0.67311E-04
        -0.29187E-04
        -0.45680E-04
        -0.63611E-04
        -0.69042E-04
        -0.32291E-06
        -0.10665E-03
        -0.22084E-03
        -0.11978E-02
        -0.19963E-02
        -0.33202E-02
        -0.47686E-02
        -0.45706E-02
        -0.34907E-02
        -0.32095E-02
        -0.31392E-02
        -0.12393E-02
        -0.13593E-03
        -0.21432E-04
        -0.16111E-04
        -0.30487E-05
        -0.24454E-03
        -0.98095E-03
        -0.18937E-02
        -0.31962E-02
        -0.39278E-02
        -0.30287E-02
        -0.27080E-02
        -0.26848E-02
        -0.13237E-02
        -0.35558E-03
        -0.31795E-03
        -0.94563E-04
        -0.37364E-04
        -0.32169E-04
        -0.19913E-05
        -0.53982E-04
        -0.11024E-04
        -0.69607E-05
        -0.85647E-04
        -0.36953E-04
        -0.77847E-04
        -0.20913E-04
        -0.38759E-03
        -0.13671E-03
        -0.28225E-05
        -0.38341E-03
        -0.13509E-04
        -0.14098E-05
        -0.11049E-05
        -0.23176E-04
        -0.78516E-06
        -0.17656E-04
        -0.86880E-05
        -0.29296E-05
        -0.20241E-05
        -0.35615E-04
        -0.19703E-05
        -0.15803E-06
        -0.50516E-06
        -0.99079E-06
        -0.34264E-04
        -0.15671E-04
        -0.10234E-05
        -0.67529E-05
        -0.50518E-05
        -0.97770E-06
        -0.10528E-04
        -0.37990E-04
        -0.22234E-03
        -0.17449E-03
        -0.13377E-03
        -0.71894E-04
        -0.40818E-05
        -0.18549E-04
        -0.29112E-04
        -0.47798E-04
        -0.19862E-03
        -0.67373E-04
        -0.29183E-04
        -0.45593E-04
        -0.63451E-04
        -0.68986E-04
        -0.31213E-06
        -0.10645E-03
        -0.22087E-03
        -0.11982E-02
        -0.19963E-02
        -0.33194E-02
        -0.47653E-02
        -0.45667E-02
        -0.34886E-02
        -0.32081E-02
        -0.31374E-02
        -0.12389E-02
        -0.13613E-03
        -0.21438E-04
        -0.16175E-04
        -0.29957E-05
        -0.24486E-03
        -0.98220E-03
        -0.18948E-02
        -0.31961E-02
        -0.39273E-02
        -0.30284E-02
        -0.27079E-02
        -0.26834E-02
        -0.13218E-02
        -0.35480E-03
        -0.31710E-03
        -0.94660E-04
        -0.37359E-04
        -0.32200E-04
        -0.20209E-05
        -0.53996E-04
        -0.11042E-04
        -0.69703E-05
        -0.85879E-04
        -0.37091E-04
        -0.78346E-04
        -0.20949E-04
        -0.38755E-03
        -0.13680E-03
        -0.28283E-05
        -0.38440E-03
        -0.13514E-04
        -0.14367E-05
        -0.11013E-05
        -0.23212E-04
        -0.77449E-06
        -0.17747E-04
        -0.87011E-05
        -0.29384E-05
        -0.20182E-05
        -0.35887E-04
        -0.19557E-05
        -0.16367E-06
        -0.51615E-06
        -0.96606E-06
        -0.34366E-04
        -0.15667E-04
        -0.10113E-05
        -0.67842E-05
        -0.50701E-05
        -0.95751E-06
        -0.10544E-04
        -0.37994E-04
        -0.22305E-03
        -0.17529E-03
        -0.13413E-03
        -0.72056E-04
        -0.40399E-05
        -0.18567E-04
        -0.29198E-04
        -0.47864E-04
        -0.19871E-03
        -0.67432E-04
        -0.29179E-04
        -0.45506E-04
        -0.63293E-04
        -0.68932E-04
        -0.30148E-06
        -0.10625E-03
        -0.22089E-03
        -0.11986E-02
        -0.19963E-02
        -0.33186E-02
        -0.47621E-02
        -0.45628E-02
        -0.34865E-02
        -0.32068E-02
        -0.31356E-02
        -0.12385E-02
        -0.13633E-03
        -0.21445E-04
        -0.16241E-04
        -0.29434E-05
        -0.24518E-03
        -0.98344E-03
        -0.18960E-02
        -0.31959E-02
        -0.39268E-02
        -0.30281E-02
        -0.27078E-02
        -0.26820E-02
        -0.13199E-02
        -0.35402E-03
        -0.31626E-03
        -0.94755E-04
        -0.37353E-04
        -0.32230E-04
        -0.20506E-05
        -0.54009E-04
        -0.11059E-04
        -0.69796E-05
        -0.86111E-04
        -0.37228E-04
        -0.78847E-04
        -0.20987E-04
        -0.38751E-03
        -0.13689E-03
        -0.28333E-05
        -0.38538E-03
        -0.13519E-04
        -0.14639E-05
        -0.10978E-05
        -0.23247E-04
        -0.76383E-06
        -0.17837E-04
        -0.87137E-05
        -0.29468E-05
        -0.20123E-05
        -0.36159E-04
        -0.19411E-05
        -0.16926E-06
        -0.52714E-06
        -0.94171E-06
        -0.34469E-04
        -0.15664E-04
        -0.99926E-06
        -0.68153E-05
        -0.50885E-05
        -0.93756E-06
        -0.10561E-04
        -0.38000E-04
        -0.22377E-03
        -0.17608E-03
        -0.13449E-03
        -0.72217E-04
        -0.39984E-05
        -0.18585E-04
        -0.29282E-04
        -0.47929E-04
        -0.19880E-03
        -0.67495E-04
        -0.29177E-04
        -0.45419E-04
        -0.63133E-04
        -0.68873E-04
        -0.29106E-06
        -0.10605E-03
        -0.22091E-03
        -0.11991E-02
        -0.19963E-02
        -0.33178E-02
        -0.47588E-02
        -0.45588E-02
        -0.34843E-02
        -0.32055E-02
        -0.31338E-02
        -0.12381E-02
        -0.13652E-03
        -0.21452E-04
        -0.16306E-04
        -0.28917E-05
        -0.24550E-03
        -0.98469E-03
        -0.18971E-02
        -0.31957E-02
        -0.39263E-02
        -0.30278E-02
        -0.27077E-02
        -0.26806E-02
        -0.13180E-02
        -0.35325E-03
        -0.31542E-03
        -0.94850E-04
        -0.37347E-04
        -0.32261E-04
        -0.20804E-05
        -0.54023E-04
        -0.11077E-04
        -0.69900E-05
        -0.86341E-04
        -0.37367E-04
        -0.79348E-04
        -0.21024E-04
        -0.38747E-03
        -0.13698E-03
        -0.28388E-05
        -0.38638E-03
        -0.13525E-04
        -0.14914E-05
        -0.10943E-05
        -0.23282E-04
        -0.75318E-06
        -0.17928E-04
        -0.87260E-05
        -0.29556E-05
        -0.20066E-05
        -0.36432E-04
        -0.19266E-05
        -0.17504E-06
        -0.53807E-06
        -0.91772E-06
        -0.34571E-04
        -0.15660E-04
        -0.98731E-06
        -0.68466E-05
        -0.51070E-05
        -0.91773E-06
        -0.10578E-04
        -0.38006E-04
        -0.22448E-03
        -0.17688E-03
        -0.13485E-03
        -0.72378E-04
        -0.39570E-05
        -0.18603E-04
        -0.29366E-04
        -0.47995E-04
        -0.19889E-03
        -0.67557E-04
        -0.29173E-04
        -0.45333E-04
        -0.62975E-04
        -0.68820E-04
        -0.28079E-06
        -0.10585E-03
        -0.22093E-03
        -0.11995E-02
        -0.19964E-02
        -0.33170E-02
        -0.47555E-02
        -0.45549E-02
        -0.34822E-02
        -0.32042E-02
        -0.31320E-02
        -0.12377E-02
        -0.13672E-03
        -0.21459E-04
        -0.16371E-04
        -0.28402E-05
        -0.24582E-03
        -0.98594E-03
        -0.18982E-02
        -0.31955E-02
        -0.39258E-02
        -0.30276E-02
        -0.27076E-02
        -0.26791E-02
        -0.13161E-02
        -0.35248E-03
        -0.31458E-03
        -0.94945E-04
        -0.37341E-04
        -0.32291E-04
        -0.21108E-05
        -0.54036E-04
        -0.11094E-04
        -0.69994E-05
        -0.86573E-04
        -0.37506E-04
        -0.79849E-04
        -0.21062E-04
        -0.38743E-03
        -0.13707E-03
        -0.28443E-05
        -0.38736E-03
        -0.13530E-04
        -0.15192E-05
        -0.10908E-05
        -0.23318E-04
        -0.74269E-06
        -0.18019E-04
        -0.87383E-05
        -0.29643E-05
        -0.20008E-05
        -0.36706E-04
        -0.19123E-05
        -0.18078E-06
        -0.54907E-06
        -0.89400E-06
        -0.34673E-04
        -0.15656E-04
        -0.97539E-06
        -0.68779E-05
        -0.51258E-05
        -0.89801E-06
        -0.10595E-04
        -0.38010E-04
        -0.22520E-03
        -0.17768E-03
        -0.13522E-03
        -0.72540E-04
        -0.39163E-05
        -0.18621E-04
        -0.29451E-04
        -0.48061E-04
        -0.19898E-03
        -0.67617E-04
        -0.29172E-04
        -0.45246E-04
        -0.62817E-04
        -0.68764E-04
        -0.27072E-06
        -0.10564E-03
        -0.22096E-03
        -0.11999E-02
        -0.19964E-02
        -0.33162E-02
        -0.47523E-02
        -0.45510E-02
        -0.34801E-02
        -0.32029E-02
        -0.31302E-02
        -0.12373E-02
        -0.13692E-03
        -0.21465E-04
        -0.16436E-04
        -0.27890E-05
        -0.24613E-03
        -0.98719E-03
        -0.18994E-02
        -0.31953E-02
        -0.39253E-02
        -0.30273E-02
        -0.27074E-02
        -0.26777E-02
        -0.13142E-02
        -0.35171E-03
        -0.31375E-03
        -0.95041E-04
        -0.37336E-04
        -0.32322E-04
        -0.21414E-05
        -0.54050E-04
        -0.11112E-04
        -0.70089E-05
        -0.86804E-04
        -0.37645E-04
        -0.80351E-04
        -0.21099E-04
        -0.38740E-03
        -0.13717E-03
        -0.28491E-05
        -0.38836E-03
        -0.13535E-04
        -0.15473E-05
        -0.10871E-05
        -0.23353E-04
        -0.73232E-06
        -0.18110E-04
        -0.87508E-05
        -0.29730E-05
        -0.19951E-05
        -0.36980E-04
        -0.18979E-05
        -0.18679E-06
        -0.56005E-06
        -0.87068E-06
        -0.34775E-04
        -0.15653E-04
        -0.96343E-06
        -0.69091E-05
        -0.51443E-05
        -0.87850E-06
        -0.10612E-04
        -0.38016E-04
        -0.22592E-03
        -0.17848E-03
        -0.13558E-03
        -0.72703E-04
        -0.38754E-05
        -0.18639E-04
        -0.29537E-04
        -0.48128E-04
        -0.19906E-03
        -0.67681E-04
        -0.29168E-04
        -0.45161E-04
        -0.62660E-04
        -0.68706E-04
        -0.26086E-06
        -0.10544E-03
        -0.22098E-03
        -0.12003E-02
        -0.19964E-02
        -0.33154E-02
        -0.47490E-02
        -0.45470E-02
        -0.34779E-02
        -0.32015E-02
        -0.31283E-02
        -0.12369E-02
        -0.13712E-03
        -0.21472E-04
        -0.16501E-04
        -0.27384E-05
        -0.24645E-03
        -0.98844E-03
        -0.19005E-02
        -0.31952E-02
        -0.39248E-02
        -0.30270E-02
        -0.27073E-02
        -0.26763E-02
        -0.13124E-02
        -0.35095E-03
        -0.31291E-03
        -0.95135E-04
        -0.37331E-04
        -0.32353E-04
        -0.21722E-05
        -0.54064E-04
        -0.11129E-04
        -0.70195E-05
        -0.87033E-04
        -0.37784E-04
        -0.80855E-04
        -0.21137E-04
        -0.38736E-03
        -0.13726E-03
        -0.28545E-05
        -0.38935E-03
        -0.13540E-04
        -0.15758E-05
        -0.10836E-05
        -0.23389E-04
        -0.72202E-06
        -0.18202E-04
        -0.87631E-05
        -0.29817E-05
        -0.19895E-05
        -0.37256E-04
        -0.18835E-05
        -0.19273E-06
        -0.57100E-06
        -0.84774E-06
        -0.34878E-04
        -0.15649E-04
        -0.95167E-06
        -0.69405E-05
        -0.51631E-05
        -0.85912E-06
        -0.10629E-04
        -0.38019E-04
        -0.22665E-03
        -0.17929E-03
        -0.13594E-03
        -0.72865E-04
        -0.38347E-05
        -0.18657E-04
        -0.29621E-04
        -0.48195E-04
        -0.19916E-03
        -0.67745E-04
        -0.29165E-04
        -0.45073E-04
        -0.62502E-04
        -0.68652E-04
        -0.25124E-06
        -0.10524E-03
        -0.22100E-03
        -0.12007E-02
        -0.19965E-02
        -0.33146E-02
        -0.47458E-02
        -0.45431E-02
        -0.34758E-02
        -0.32002E-02
        -0.31265E-02
        -0.12365E-02
        -0.13732E-03
        -0.21478E-04
        -0.16567E-04
        -0.26884E-05
        -0.24677E-03
        -0.98970E-03
        -0.19016E-02
        -0.31950E-02
        -0.39242E-02
        -0.30267E-02
        -0.27072E-02
        -0.26748E-02
        -0.13105E-02
        -0.35019E-03
        -0.31207E-03
        -0.95229E-04
        -0.37325E-04
        -0.32384E-04
        -0.22032E-05
        -0.54078E-04
        -0.11147E-04
        -0.70291E-05
        -0.87263E-04
        -0.37924E-04
        -0.81358E-04
        -0.21175E-04
        -0.38732E-03
        -0.13735E-03
        -0.28592E-05
        -0.39036E-03
        -0.13545E-04
        -0.16047E-05
        -0.10801E-05
        -0.23424E-04
        -0.71171E-06
        -0.18293E-04
        -0.87753E-05
        -0.29902E-05
        -0.19839E-05
        -0.37533E-04
        -0.18693E-05
        -0.19888E-06
        -0.58185E-06
        -0.82521E-06
        -0.34980E-04
        -0.15645E-04
        -0.93988E-06
        -0.69719E-05
        -0.51818E-05
        -0.83997E-06
        -0.10647E-04
        -0.38025E-04
        -0.22738E-03
        -0.18010E-03
        -0.13631E-03
        -0.73028E-04
        -0.37943E-05
        -0.18675E-04
        -0.29706E-04
        -0.48261E-04
        -0.19925E-03
        -0.67804E-04
        -0.29164E-04
        -0.44987E-04
        -0.62343E-04
        -0.68598E-04
        -0.24173E-06
        -0.10504E-03
        -0.22101E-03
        -0.12011E-02
        -0.19965E-02
        -0.33138E-02
        -0.47425E-02
        -0.45391E-02
        -0.34736E-02
        -0.31989E-02
        -0.31246E-02
        -0.12361E-02
        -0.13751E-03
        -0.21485E-04
        -0.16633E-04
        -0.26389E-05
        -0.24709E-03
        -0.99096E-03
        -0.19028E-02
        -0.31948E-02
        -0.39237E-02
        -0.30264E-02
        -0.27071E-02
        -0.26734E-02
        -0.13086E-02
        -0.34943E-03
        -0.31124E-03
        -0.95323E-04
        -0.37318E-04
        -0.32414E-04
        -0.22343E-05
        -0.54091E-04
        -0.11164E-04
        -0.70389E-05
        -0.87494E-04
        -0.38065E-04
        -0.81863E-04
        -0.21213E-04
        -0.38728E-03
        -0.13745E-03
        -0.28645E-05
        -0.39135E-03
        -0.13551E-04
        -0.16340E-05
        -0.10765E-05
        -0.23460E-04
        -0.70151E-06
        -0.18386E-04
        -0.87870E-05
        -0.29989E-05
        -0.19785E-05
        -0.37810E-04
        -0.18550E-05
        -0.20495E-06
        -0.59268E-06
        -0.80306E-06
        -0.35083E-04
        -0.15641E-04
        -0.92826E-06
        -0.70032E-05
        -0.52008E-05
        -0.82088E-06
        -0.10663E-04
        -0.38030E-04
        -0.22811E-03
        -0.18090E-03
        -0.13666E-03
        -0.73190E-04
        -0.37542E-05
        -0.18694E-04
        -0.29789E-04
        -0.48329E-04
        -0.19934E-03
        -0.67867E-04
        -0.29160E-04
        -0.44902E-04
        -0.62186E-04
        -0.68541E-04
        -0.23241E-06
        -0.10484E-03
        -0.22103E-03
        -0.12015E-02
        -0.19965E-02
        -0.33130E-02
        -0.47392E-02
        -0.45351E-02
        -0.34715E-02
        -0.31976E-02
        -0.31228E-02
        -0.12357E-02
        -0.13771E-03
        -0.21491E-04
        -0.16697E-04
        -0.25897E-05
        -0.24740E-03
        -0.99222E-03
        -0.19039E-02
        -0.31947E-02
        -0.39232E-02
        -0.30262E-02
        -0.27070E-02
        -0.26720E-02
        -0.13067E-02
        -0.34868E-03
        -0.31040E-03
        -0.95416E-04
        -0.37312E-04
        -0.32445E-04
        -0.22658E-05
        -0.54105E-04
        -0.11182E-04
        -0.70492E-05
        -0.87723E-04
        -0.38207E-04
        -0.82369E-04
        -0.21251E-04
        -0.38725E-03
        -0.13754E-03
        -0.28690E-05
        -0.39235E-03
        -0.13556E-04
        -0.16637E-05
        -0.10729E-05
        -0.23495E-04
        -0.69151E-06
        -0.18478E-04
        -0.87983E-05
        -0.30075E-05
        -0.19730E-05
        -0.38088E-04
        -0.18407E-05
        -0.21128E-06
        -0.60348E-06
        -0.78117E-06
        -0.35183E-04
        -0.15637E-04
        -0.91665E-06
        -0.70346E-05
        -0.52197E-05
        -0.80198E-06
        -0.10680E-04
        -0.38033E-04
        -0.22885E-03
        -0.18171E-03
        -0.13702E-03
        -0.73352E-04
        -0.37147E-05
        -0.18712E-04
        -0.29875E-04
        -0.48396E-04
        -0.19943E-03
        -0.67931E-04
        -0.29159E-04
        -0.44817E-04
        -0.62029E-04
        -0.68486E-04
        -0.22335E-06
        -0.10463E-03
        -0.22105E-03
        -0.12019E-02
        -0.19966E-02
        -0.33122E-02
        -0.47359E-02
        -0.45311E-02
        -0.34693E-02
        -0.31963E-02
        -0.31209E-02
        -0.12353E-02
        -0.13791E-03
        -0.21495E-04
        -0.16762E-04
        -0.25412E-05
        -0.24772E-03
        -0.99347E-03
        -0.19051E-02
        -0.31945E-02
        -0.39227E-02
        -0.30259E-02
        -0.27068E-02
        -0.26705E-02
        -0.13048E-02
        -0.34793E-03
        -0.30957E-03
        -0.95510E-04
        -0.37306E-04
        -0.32476E-04
        -0.22976E-05
        -0.54119E-04
        -0.11199E-04
        -0.70591E-05
        -0.87950E-04
        -0.38350E-04
        -0.82876E-04
        -0.21288E-04
        -0.38721E-03
        -0.13763E-03
        -0.28741E-05
        -0.39334E-03
        -0.13561E-04
        -0.16940E-05
        -0.10693E-05
        -0.23531E-04
        -0.68203E-06
        -0.18570E-04
        -0.88094E-05
        -0.30163E-05
        -0.19674E-05
        -0.38368E-04
        -0.18267E-05
        -0.21765E-06
        -0.61431E-06
        -0.75965E-06
        -0.35277E-04
        -0.15633E-04
        -0.90495E-06
        -0.70659E-05
        -0.52388E-05
        -0.78329E-06
        -0.10698E-04
        -0.38039E-04
        -0.22959E-03
        -0.18252E-03
        -0.13736E-03
        -0.73511E-04
        -0.36749E-05
        -0.18732E-04
        -0.29960E-04
        -0.48463E-04
        -0.19952E-03
        -0.67991E-04
        -0.29156E-04
        -0.44730E-04
        -0.61872E-04
        -0.68433E-04
        -0.21446E-06
        -0.10443E-03
        -0.22107E-03
        -0.12022E-02
        -0.19966E-02
        -0.33114E-02
        -0.47326E-02
        -0.45271E-02
        -0.34672E-02
        -0.31949E-02
        -0.31189E-02
        -0.12349E-02
        -0.13812E-03
        -0.21497E-04
        -0.16827E-04
        -0.24932E-05
        -0.24803E-03
        -0.99473E-03
        -0.19062E-02
        -0.31943E-02
        -0.39222E-02
        -0.30256E-02
        -0.27067E-02
        -0.26691E-02
        -0.13029E-02
        -0.34719E-03
        -0.30874E-03
        -0.95603E-04
        -0.37301E-04
        -0.32506E-04
        -0.23296E-05
        -0.54132E-04
        -0.11216E-04
        -0.70689E-05
        -0.88177E-04
        -0.38494E-04
        -0.83384E-04
        -0.21326E-04
        -0.38717E-03
        -0.13772E-03
        -0.28792E-05
        -0.39435E-03
        -0.13566E-04
        -0.17250E-05
        -0.10657E-05
        -0.23566E-04
        -0.67301E-06
        -0.18662E-04
        -0.88201E-05
        -0.30250E-05
        -0.19620E-05
        -0.38648E-04
        -0.18125E-05
        -0.22439E-06
        -0.62511E-06
        -0.73850E-06
        -0.35366E-04
        -0.15629E-04
        -0.89349E-06
        -0.70972E-05
        -0.52578E-05
        -0.76468E-06
        -0.10715E-04
        -0.38043E-04
        -0.23035E-03
        -0.18332E-03
        -0.13769E-03
        -0.73668E-04
        -0.36355E-05
        -0.18752E-04
        -0.30045E-04
        -0.48532E-04
        -0.19962E-03
        -0.68055E-04
        -0.29153E-04
        -0.44646E-04
        -0.61714E-04
        -0.68375E-04
        -0.20568E-06
        -0.10423E-03
        -0.22108E-03
        -0.12026E-02
        -0.19966E-02
        -0.33106E-02
        -0.47293E-02
        -0.45231E-02
        -0.34651E-02
        -0.31936E-02
        -0.31168E-02
        -0.12346E-02
        -0.13832E-03
        -0.21496E-04
        -0.16892E-04
        -0.24455E-05
        -0.24835E-03
        -0.99599E-03
        -0.19073E-02
        -0.31942E-02
        -0.39217E-02
        -0.30253E-02
        -0.27066E-02
        -0.26676E-02
        -0.13011E-02
        -0.34645E-03
        -0.30791E-03
        -0.95698E-04
        -0.37296E-04
        -0.32539E-04
        -0.23617E-05
        -0.54148E-04
        -0.11234E-04
        -0.70797E-05
        -0.88404E-04
        -0.38640E-04
        -0.83892E-04
        -0.21364E-04
        -0.38714E-03
        -0.13781E-03
        -0.28836E-05
        -0.39535E-03
        -0.13571E-04
        -0.17566E-05
        -0.10621E-05
        -0.23603E-04
        -0.66429E-06
        -0.18755E-04
        -0.88309E-05
        -0.30331E-05
        -0.19570E-05
        -0.38930E-04
        -0.17989E-05
        -0.23106E-06
        -0.63555E-06
        -0.71790E-06
        -0.35454E-04
        -0.15626E-04
        -0.88232E-06
        -0.71287E-05
        -0.52773E-05
        -0.74648E-06
        -0.10732E-04
        -0.38046E-04
        -0.23111E-03
        -0.18413E-03
        -0.13801E-03
        -0.73822E-04
        -0.35969E-05
        -0.18774E-04
        -0.30129E-04
        -0.48597E-04
        -0.19971E-03
        -0.68117E-04
        -0.29151E-04
        -0.44561E-04
        -0.61558E-04
        -0.68323E-04
        -0.19715E-06
        -0.10402E-03
        -0.22110E-03
        -0.12030E-02
        -0.19966E-02
        -0.33098E-02
        -0.47261E-02
        -0.45192E-02
        -0.34630E-02
        -0.31922E-02
        -0.31146E-02
        -0.12343E-02
        -0.13852E-03
        -0.21491E-04
        -0.16956E-04
        -0.23982E-05
        -0.24866E-03
        -0.99724E-03
        -0.19085E-02
        -0.31940E-02
        -0.39212E-02
        -0.30250E-02
        -0.27064E-02
        -0.26661E-02
        -0.12992E-02
        -0.34571E-03
        -0.30708E-03
        -0.96643E-04
        -0.37636E-04
        -0.32874E-04
        -0.24140E-05
        -0.54657E-04
        -0.11351E-04
        -0.71566E-05
        -0.89410E-04
        -0.39121E-04
        -0.85122E-04
        -0.21595E-04
        -0.39059E-03
        -0.13912E-03
        -0.29144E-05
        -0.39997E-03
        -0.13700E-04
        -0.18024E-05
        -0.10679E-05
        -0.23848E-04
        -0.66250E-06
        -0.19006E-04
        -0.89190E-05
        -0.30626E-05
        -0.19720E-05
        -0.39553E-04
        -0.18058E-05
        -0.23941E-06
        -0.64946E-06
        -0.70787E-06
        -0.35871E-04
        -0.15767E-04
        -0.88234E-06
        -0.72223E-05
        -0.53433E-05
        -0.73686E-06
        -0.10835E-04
        -0.38371E-04
        -0.23394E-03
        -0.18658E-03
        -0.13958E-03
        -0.74636E-04
        -0.36002E-05
        -0.18973E-04
        -0.30442E-04
        -0.49052E-04
        -0.20148E-03
        -0.68742E-04
        -0.29384E-04
        -0.44860E-04
        -0.61949E-04
        -0.68876E-04
        -0.19058E-06
        -0.10481E-03
        -0.22332E-03
        -0.12151E-02
        -0.20159E-02
        -0.33416E-02
        -0.47709E-02
        -0.45620E-02
        -0.34967E-02
        -0.32240E-02
        -0.31454E-02
        -0.12468E-02
        -0.14003E-03
        -0.21676E-04
        -0.17169E-04
        -0.23747E-05
        -0.25111E-03
        -0.10071E-02
        -0.19273E-02
        -0.32253E-02
        -0.39593E-02
        -0.30531E-02
        -0.27312E-02
        -0.26897E-02
        -0.13096E-02
        -0.34824E-03
        -0.30916E-03
        -0.21674E-03
        -0.85135E-04
        -0.73525E-04
        -0.54881E-05
        -0.11402E-03
        -0.24140E-04
        -0.16141E-04
        -0.19907E-03
        -0.87445E-04
        -0.18879E-03
        -0.47099E-04
        -0.78705E-03
        -0.28853E-03
        -0.63071E-05
        -0.81584E-03
        -0.30775E-04
        -0.40780E-05
        -0.23939E-05
        -0.52221E-04
        -0.14507E-05
        -0.39454E-04
        -0.18950E-04
        -0.63615E-05
        -0.43804E-05
        -0.89497E-04
        -0.40745E-05
        -0.53551E-06
        -0.14721E-05
        -0.15890E-05
        -0.80893E-04
        -0.35428E-04
        -0.19700E-05
        -0.16336E-04
        -0.12057E-04
        -0.14421E-05
        -0.22984E-04
        -0.81399E-04
        -0.49834E-03
        -0.40889E-03
        -0.30792E-03
        -0.16020E-03
        -0.78052E-05
        -0.41264E-04
        -0.64222E-04
        -0.10281E-03
        -0.39906E-03
        -0.14317E-03
        -0.62632E-04
        -0.96559E-04
        -0.13220E-03
        -0.14025E-03
        -0.39012E-06
        -0.16669E-03
        -0.35465E-03
        -0.19310E-02
        -0.32194E-02
        -0.53325E-02
        -0.76594E-02
        -0.74905E-02
        -0.58384E-02
        -0.53640E-02
        -0.51746E-02
        -0.20547E-02
        -0.22967E-03
        -0.36213E-04
        -0.28926E-04
        -0.38410E-05
        -0.40231E-03
        -0.16044E-02
        -0.30409E-02
        -0.50886E-02
        -0.62620E-02
        -0.49213E-02
        -0.44387E-02
        -0.43423E-02
        -0.21277E-02
        -0.56192E-03
        -0.49506E-03
  
SCALARS                      strain_zz  double 1
LOOKUP_TABLE default
         0.75328E+01
         0.74262E+01
         0.74937E+01
         0.76151E+01
        -0.28482E-08
        -0.31938E-08
        -0.30582E-08
        -0.27782E-08
         0.74212E+01
         0.74580E+01
        -0.28720E-08
        -0.27794E-08
         0.72716E+01
         0.72659E+01
        -0.34126E-08
        -0.32087E-08
         0.75973E+01
         0.72742E+01
        -0.25215E-08
        -0.27968E-08
         0.71554E+01
         0.70627E+01
         0.72094E+01
        -0.33822E-08
        -0.29538E-08
        -0.30501E-08
         0.70666E+01
         0.69316E+01
        -0.32448E-08
        -0.27364E-08
         0.75915E+01
         0.74510E+01
         0.77276E+01
        -0.27690E-08
        -0.25742E-08
        -0.25028E-08
         0.75100E+01
         0.73311E+01
        -0.29294E-08
        -0.26731E-08
         0.74389E+01
         0.73006E+01
        -0.25319E-08
        -0.22414E-08
         0.75558E+01
         0.76079E+01
        -0.27746E-08
        -0.31002E-08
         0.71902E+01
        -0.27105E-08
         0.75978E+01
        -0.31850E-08
         0.70279E+01
        -0.28624E-08
         0.69855E+01
        -0.27456E-08
         0.69859E+01
         0.71368E+01
        -0.27975E-08
        -0.27244E-08
         0.75886E+01
         0.75343E+01
        -0.28052E-08
        -0.31712E-08
         0.76223E+01
        -0.27068E-08
         0.75580E+01
        -0.29541E-08
         0.73868E+01
         0.73712E+01
        -0.28436E-08
        -0.29796E-08
         0.73334E+01
        -0.30046E-08
         0.68835E+01
        -0.23739E-08
         0.68598E+01
        -0.23042E-08
         0.68712E+01
        -0.24295E-08
         0.69354E+01
         0.70040E+01
        -0.23148E-08
        -0.24133E-08
         0.71411E+01
        -0.22477E-08
         0.75527E+01
        -0.29475E-08
         0.74878E+01
        -0.30167E-08
         0.74337E+01
         0.74065E+01
        -0.28970E-08
        -0.29308E-08
         0.74429E+01
        -0.26621E-08
         0.74682E+01
        -0.26241E-08
         0.74448E+01
        -0.28091E-08
         0.74354E+01
         0.74596E+01
        -0.27547E-08
        -0.28356E-08
         0.73031E+01
         0.73623E+01
        -0.21388E-08
        -0.20117E-08
         0.72898E+01
        -0.20423E-08
         0.73581E+01
        -0.19582E-08
         0.72897E+01
        -0.19309E-08
         0.71361E+01
        -0.18247E-08
         0.69865E+01
        -0.16211E-08
         0.68976E+01
        -0.14597E-08
         0.68886E+01
        -0.14495E-08
         0.68916E+01
        -0.15720E-08
         0.69883E+01
        -0.16521E-08
         0.71665E+01
        -0.15085E-08
         0.73629E+01
        -0.13598E-08
         0.74798E+01
        -0.13582E-08
         0.75950E+01
        -0.15181E-08
         0.76709E+01
        -0.17310E-08
         0.76672E+01
        -0.18597E-08
         0.74865E+01
        -0.20084E-08
         0.73608E+01
        -0.21517E-08
         0.73141E+01
        -0.19711E-08
         0.73809E+01
        -0.17292E-08
         0.74177E+01
        -0.17239E-08
         0.73602E+01
        -0.18861E-08
         0.73630E+01
        -0.20107E-08
         0.74065E+01
        -0.19082E-08
         0.74633E+01
        -0.18448E-08
        -0.49609E+00
        -0.49708E+00
        -0.49697E+00
        -0.49559E+00
        -0.49764E+00
        -0.49684E+00
        -0.49782E+00
        -0.49741E+00
        -0.49584E+00
        -0.49692E+00
        -0.49801E+00
        -0.49790E+00
        -0.49786E+00
        -0.49793E+00
        -0.49788E+00
        -0.49566E+00
        -0.49596E+00
        -0.49508E+00
        -0.49717E+00
        -0.49689E+00
        -0.49720E+00
        -0.49694E+00
        -0.49739E+00
        -0.49736E+00
        -0.49690E+00
        -0.49695E+00
        -0.49763E+00
        -0.49759E+00
        -0.49789E+00
        -0.49735E+00
        -0.49582E+00
        -0.49710E+00
        -0.49583E+00
        -0.49673E+00
        -0.49791E+00
        -0.49788E+00
        -0.49772E+00
        -0.49783E+00
        -0.49788E+00
        -0.49794E+00
        -0.49775E+00
        -0.49785E+00
        -0.49717E+00
        -0.49733E+00
        -0.49772E+00
        -0.49790E+00
        -0.49781E+00
        -0.49719E+00
        -0.49726E+00
        -0.49776E+00
        -0.49791E+00
        -0.49759E+00
        -0.49612E+00
        -0.49665E+00
        -0.49648E+00
        -0.49651E+00
        -0.49634E+00
        -0.49586E+00
        -0.49551E+00
        -0.49558E+00
        -0.49572E+00
        -0.49558E+00
        -0.49543E+00
        -0.49644E+00
        -0.49690E+00
        -0.49703E+00
        -0.49695E+00
        -0.49682E+00
        -0.49674E+00
        -0.49667E+00
        -0.49626E+00
        -0.49636E+00
        -0.49668E+00
        -0.49678E+00
        -0.49674E+00
        -0.49659E+00
        -0.49679E+00
        -0.49679E+00
         0.12238E-03
         0.45759E-04
         0.44207E-04
         0.35265E-04
         0.12556E-03
         0.75317E-04
         0.55287E-05
         0.90668E-04
         0.62889E-04
         0.77946E-04
         0.33088E-05
         0.39629E-03
         0.23374E-03
         0.18918E-04
         0.42272E-03
         0.61272E-04
         0.26672E-04
         0.22113E-04
         0.25653E-04
         0.98638E-05
         0.24290E-03
         0.22243E-03
         0.19586E-03
         0.10248E-04
         0.21649E-04
         0.21082E-05
        -0.15753E-05
        -0.40875E-04
        -0.14702E-04
         0.30579E-04
         0.45676E-04
         0.11015E-04
         0.33383E-04
         0.38074E-04
         0.18944E-03
         0.68703E-04
         0.11798E-03
         0.27471E-03
         0.15911E-03
         0.14222E-03
         0.30033E-03
         0.24218E-03
         0.24746E-03
         0.14154E-03
         0.11277E-03
         0.21812E-03
         0.96946E-04
         0.73445E-04
         0.56528E-04
         0.80796E-04
         0.18985E-03
         0.10380E-03
         0.33637E-02
         0.35569E-02
         0.38668E-02
         0.38336E-02
         0.43727E-02
         0.50485E-02
         0.46438E-02
         0.36834E-02
         0.34924E-02
         0.39830E-02
         0.38226E-02
         0.37151E-02
         0.25334E-02
         0.23014E-02
         0.27543E-02
         0.31464E-02
         0.33923E-02
         0.40496E-02
         0.37509E-02
         0.39771E-02
         0.32269E-02
         0.29030E-02
         0.32910E-02
         0.31448E-02
         0.33431E-02
         0.32989E-02
         0.12153E-03
         0.44735E-04
         0.43216E-04
         0.34385E-04
         0.12426E-03
         0.74140E-04
         0.44552E-05
         0.89709E-04
         0.61958E-04
         0.77215E-04
         0.20304E-05
         0.39477E-03
         0.23261E-03
         0.17383E-04
         0.42214E-03
         0.60271E-04
         0.25557E-04
         0.21164E-04
         0.24464E-04
         0.85557E-05
         0.24164E-03
         0.22113E-03
         0.19449E-03
         0.90050E-05
         0.20588E-04
         0.92224E-06
        -0.27670E-05
        -0.42186E-04
        -0.16006E-04
         0.29308E-04
         0.44700E-04
         0.98864E-05
         0.32374E-04
         0.37154E-04
         0.18827E-03
         0.67490E-04
         0.11675E-03
         0.27410E-03
         0.15845E-03
         0.14123E-03
         0.29924E-03
         0.24098E-03
         0.24614E-03
         0.14024E-03
         0.11148E-03
         0.21675E-03
         0.95702E-04
         0.72255E-04
         0.55312E-04
         0.79533E-04
         0.18842E-03
         0.10240E-03
         0.33590E-02
         0.35529E-02
         0.38645E-02
         0.38315E-02
         0.43690E-02
         0.50426E-02
         0.46375E-02
         0.36789E-02
         0.34880E-02
         0.39780E-02
         0.38187E-02
         0.37129E-02
         0.25308E-02
         0.22993E-02
         0.27529E-02
         0.31458E-02
         0.33918E-02
         0.40491E-02
         0.37482E-02
         0.39742E-02
         0.32239E-02
         0.29006E-02
         0.32867E-02
         0.31385E-02
         0.33373E-02
         0.32932E-02
         0.12193E-03
         0.44958E-04
         0.43474E-04
         0.34680E-04
         0.12447E-03
         0.74382E-04
         0.47530E-05
         0.90164E-04
         0.62273E-04
         0.77790E-04
         0.22891E-05
         0.39503E-03
         0.23304E-03
         0.17430E-04
         0.42340E-03
         0.60142E-04
         0.25575E-04
         0.21382E-04
         0.24193E-04
         0.82818E-05
         0.24147E-03
         0.22102E-03
         0.19359E-03
         0.81073E-05
         0.20315E-04
         0.90355E-07
        -0.24917E-05
        -0.42381E-04
        -0.16492E-04
         0.28461E-04
         0.44780E-04
         0.96247E-05
         0.32573E-04
         0.37488E-04
         0.18879E-03
         0.67752E-04
         0.11696E-03
         0.27527E-03
         0.15945E-03
         0.14172E-03
         0.29961E-03
         0.24071E-03
         0.24546E-03
         0.13938E-03
         0.11123E-03
         0.21692E-03
         0.95930E-04
         0.72512E-04
         0.55477E-04
         0.79688E-04
         0.18858E-03
         0.10248E-03
         0.33572E-02
         0.35518E-02
         0.38652E-02
         0.38321E-02
         0.43680E-02
         0.50397E-02
         0.46342E-02
         0.36775E-02
         0.34868E-02
         0.39761E-02
         0.38177E-02
         0.37132E-02
         0.25304E-02
         0.22995E-02
         0.27538E-02
         0.31469E-02
         0.33932E-02
         0.40510E-02
         0.37484E-02
         0.39745E-02
         0.32239E-02
         0.29009E-02
         0.32852E-02
         0.31350E-02
         0.33340E-02
         0.32902E-02
         0.12194E-03
         0.44887E-04
         0.43426E-04
         0.34581E-04
         0.12426E-03
         0.74226E-04
         0.47207E-05
         0.90205E-04
         0.62102E-04
         0.77766E-04
         0.21576E-05
         0.39486E-03
         0.23312E-03
         0.17016E-04
         0.42412E-03
         0.59375E-04
         0.24955E-04
         0.21188E-04
         0.23161E-04
         0.71750E-05
         0.24055E-03
         0.22013E-03
         0.19155E-03
         0.60997E-05
         0.18989E-04
        -0.18031E-05
        -0.27968E-05
        -0.43442E-04
        -0.18115E-04
         0.26208E-04
         0.44350E-04
         0.86085E-05
         0.32369E-04
         0.37359E-04
         0.18878E-03
         0.67596E-04
         0.11681E-03
         0.27589E-03
         0.15989E-03
         0.14153E-03
         0.29920E-03
         0.23933E-03
         0.24353E-03
         0.13736E-03
         0.11018E-03
         0.21638E-03
         0.95544E-04
         0.72285E-04
         0.55160E-04
         0.79304E-04
         0.18820E-03
         0.10210E-03
         0.33544E-02
         0.35499E-02
         0.38648E-02
         0.38318E-02
         0.43663E-02
         0.50361E-02
         0.46299E-02
         0.36751E-02
         0.34846E-02
         0.39732E-02
         0.38156E-02
         0.37123E-02
         0.25288E-02
         0.22988E-02
         0.27539E-02
         0.31469E-02
         0.33933E-02
         0.40519E-02
         0.37476E-02
         0.39736E-02
         0.32229E-02
         0.29001E-02
         0.32825E-02
         0.31306E-02
         0.33301E-02
         0.32865E-02
         0.12184E-03
         0.44725E-04
         0.43315E-04
         0.34476E-04
         0.12403E-03
         0.74033E-04
         0.46334E-05
         0.90146E-04
         0.61870E-04
         0.77708E-04
         0.20181E-05
         0.39474E-03
         0.23318E-03
         0.16587E-04
         0.42494E-03
         0.58894E-04
         0.24485E-04
         0.21005E-04
         0.22492E-04
         0.63678E-05
         0.23999E-03
         0.21949E-03
         0.19032E-03
         0.48536E-05
         0.18116E-04
        -0.30178E-05
        -0.30621E-05
        -0.44209E-04
        -0.19218E-04
         0.24744E-04
         0.43900E-04
         0.78699E-05
         0.32025E-04
         0.37168E-04
         0.18877E-03
         0.67408E-04
         0.11662E-03
         0.27660E-03
         0.16041E-03
         0.14150E-03
         0.29907E-03
         0.23851E-03
         0.24232E-03
         0.13612E-03
         0.10950E-03
         0.21604E-03
         0.95211E-04
         0.71932E-04
         0.54710E-04
         0.78820E-04
         0.18772E-03
         0.10164E-03
         0.33517E-02
         0.35480E-02
         0.38644E-02
         0.38316E-02
         0.43648E-02
         0.50326E-02
         0.46259E-02
         0.36729E-02
         0.34825E-02
         0.39705E-02
         0.38139E-02
         0.37118E-02
         0.25278E-02
         0.22982E-02
         0.27543E-02
         0.31478E-02
         0.33942E-02
         0.40533E-02
         0.37471E-02
         0.39728E-02
         0.32218E-02
         0.28994E-02
         0.32798E-02
         0.31261E-02
         0.33261E-02
         0.32828E-02
         0.12136E-03
         0.44395E-04
         0.43204E-04
         0.34652E-04
         0.12409E-03
         0.74182E-04
         0.45909E-05
         0.89887E-04
         0.61489E-04
         0.77441E-04
         0.21319E-05
         0.39505E-03
         0.23350E-03
         0.16377E-04
         0.42625E-03
         0.59109E-04
         0.24443E-04
         0.21230E-04
         0.22668E-04
         0.64479E-05
         0.24026E-03
         0.21971E-03
         0.19039E-03
         0.48252E-05
         0.17915E-04
        -0.31916E-05
        -0.31052E-05
        -0.44309E-04
        -0.19093E-04
         0.24806E-04
         0.43345E-04
         0.74773E-05
         0.31486E-04
         0.37140E-04
         0.18910E-03
         0.67394E-04
         0.11655E-03
         0.27778E-03
         0.16145E-03
         0.14223E-03
         0.29982E-03
         0.23898E-03
         0.24258E-03
         0.13611E-03
         0.10942E-03
         0.21602E-03
         0.94930E-04
         0.71226E-04
         0.53800E-04
         0.78234E-04
         0.18743E-03
         0.10149E-03
         0.33498E-02
         0.35469E-02
         0.38649E-02
         0.38320E-02
         0.43637E-02
         0.50297E-02
         0.46226E-02
         0.36714E-02
         0.34814E-02
         0.39689E-02
         0.38134E-02
         0.37127E-02
         0.25280E-02
         0.22986E-02
         0.27556E-02
         0.31502E-02
         0.33968E-02
         0.40555E-02
         0.37469E-02
         0.39725E-02
         0.32210E-02
         0.28987E-02
         0.32773E-02
         0.31221E-02
         0.33226E-02
         0.32798E-02
         0.12054E-03
         0.43790E-04
         0.42885E-04
         0.34608E-04
         0.12387E-03
         0.74113E-04
         0.41926E-05
         0.89187E-04
         0.60756E-04
         0.76795E-04
         0.18366E-05
         0.39493E-03
         0.23349E-03
         0.15713E-04
         0.42708E-03
         0.59043E-04
         0.24073E-04
         0.21154E-04
         0.22579E-04
         0.62366E-05
         0.24025E-03
         0.21965E-03
         0.19033E-03
         0.46719E-05
         0.17496E-04
        -0.35026E-05
        -0.35736E-05
        -0.44708E-04
        -0.19157E-04
         0.24734E-04
         0.42529E-04
         0.68325E-05
         0.30695E-04
         0.36877E-04
         0.18907E-03
         0.67123E-04
         0.11624E-03
         0.27849E-03
         0.16207E-03
         0.14259E-03
         0.30025E-03
         0.23925E-03
         0.24270E-03
         0.13598E-03
         0.10906E-03
         0.21558E-03
         0.94261E-04
         0.70177E-04
         0.52572E-04
         0.77347E-04
         0.18687E-03
         0.10111E-03
         0.33471E-02
         0.35451E-02
         0.38647E-02
         0.38319E-02
         0.43620E-02
         0.50260E-02
         0.46185E-02
         0.36693E-02
         0.34794E-02
         0.39663E-02
         0.38120E-02
         0.37131E-02
         0.25278E-02
         0.22985E-02
         0.27563E-02
         0.31523E-02
         0.33991E-02
         0.40571E-02
         0.37459E-02
         0.39714E-02
         0.32197E-02
         0.28975E-02
         0.32743E-02
         0.31176E-02
         0.33187E-02
         0.32761E-02
         0.12040E-03
         0.43565E-04
         0.42774E-04
         0.34531E-04
         0.12364E-03
         0.73924E-04
         0.40183E-05
         0.89031E-04
         0.60641E-04
         0.76922E-04
         0.16330E-05
         0.39475E-03
         0.23349E-03
         0.15232E-04
         0.42784E-03
         0.58994E-04
         0.23974E-04
         0.21006E-04
         0.22500E-04
         0.60658E-05
         0.24020E-03
         0.21950E-03
         0.19025E-03
         0.45537E-05
         0.17534E-04
        -0.36819E-05
        -0.37565E-05
        -0.44925E-04
        -0.19309E-04
         0.24672E-04
         0.42313E-04
         0.65687E-05
         0.30401E-04
         0.36739E-04
         0.18908E-03
         0.66970E-04
         0.11604E-03
         0.27915E-03
         0.16265E-03
         0.14282E-03
         0.30048E-03
         0.23935E-03
         0.24270E-03
         0.13589E-03
         0.10886E-03
         0.21541E-03
         0.94074E-04
         0.69932E-04
         0.52195E-04
         0.76934E-04
         0.18647E-03
         0.10070E-03
         0.33444E-02
         0.35431E-02
         0.38643E-02
         0.38317E-02
         0.43603E-02
         0.50224E-02
         0.46144E-02
         0.36670E-02
         0.34772E-02
         0.39634E-02
         0.38103E-02
         0.37134E-02
         0.25275E-02
         0.22981E-02
         0.27568E-02
         0.31541E-02
         0.34010E-02
         0.40585E-02
         0.37450E-02
         0.39706E-02
         0.32189E-02
         0.28970E-02
         0.32716E-02
         0.31131E-02
         0.33147E-02
         0.32723E-02
         0.12070E-03
         0.43718E-04
         0.42920E-04
         0.34620E-04
         0.12369E-03
         0.73903E-04
         0.42350E-05
         0.89387E-04
         0.60952E-04
         0.77597E-04
         0.17999E-05
         0.39494E-03
         0.23383E-03
         0.15209E-04
         0.42905E-03
         0.59309E-04
         0.24236E-04
         0.21093E-04
         0.22744E-04
         0.62178E-05
         0.24047E-03
         0.21968E-03
         0.19048E-03
         0.47569E-05
         0.18007E-04
        -0.34951E-05
        -0.34226E-05
        -0.44699E-04
        -0.19072E-04
         0.24963E-04
         0.42557E-04
         0.67011E-05
         0.30463E-04
         0.36818E-04
         0.18946E-03
         0.67099E-04
         0.11614E-03
         0.28029E-03
         0.16364E-03
         0.14344E-03
         0.30113E-03
         0.23984E-03
         0.24302E-03
         0.13615E-03
         0.10903E-03
         0.21564E-03
         0.94270E-04
         0.70137E-04
         0.52282E-04
         0.76915E-04
         0.18641E-03
         0.10050E-03
         0.33424E-02
         0.35419E-02
         0.38645E-02
         0.38318E-02
         0.43592E-02
         0.50194E-02
         0.46109E-02
         0.36653E-02
         0.34756E-02
         0.39612E-02
         0.38094E-02
         0.37143E-02
         0.25277E-02
         0.22982E-02
         0.27579E-02
         0.31565E-02
         0.34036E-02
         0.40608E-02
         0.37448E-02
         0.39705E-02
         0.32187E-02
         0.28971E-02
         0.32696E-02
         0.31093E-02
         0.33112E-02
         0.32692E-02
         0.12079E-03
         0.43704E-04
         0.42925E-04
         0.34586E-04
         0.12357E-03
         0.73774E-04
         0.42651E-05
         0.89449E-04
         0.60968E-04
         0.77930E-04
         0.17226E-05
         0.39483E-03
         0.23401E-03
         0.14844E-04
         0.42981E-03
         0.59321E-04
         0.24203E-04
         0.20937E-04
         0.22683E-04
         0.60779E-05
         0.24048E-03
         0.21958E-03
         0.19045E-03
         0.46792E-05
         0.18226E-04
        -0.35722E-05
        -0.34595E-05
        -0.44734E-04
        -0.19065E-04
         0.24998E-04
         0.42540E-04
         0.66119E-05
         0.30279E-04
         0.36723E-04
         0.18958E-03
         0.67021E-04
         0.11607E-03
         0.28099E-03
         0.16434E-03
         0.14380E-03
         0.30149E-03
         0.24006E-03
         0.24304E-03
         0.13618E-03
         0.10900E-03
         0.21563E-03
         0.94208E-04
         0.70040E-04
         0.52074E-04
         0.76653E-04
         0.18615E-03
         0.10016E-03
         0.33398E-02
         0.35401E-02
         0.38642E-02
         0.38317E-02
         0.43577E-02
         0.50158E-02
         0.46066E-02
         0.36630E-02
         0.34737E-02
         0.39584E-02
         0.38078E-02
         0.37146E-02
         0.25273E-02
         0.22980E-02
         0.27586E-02
         0.31585E-02
         0.34060E-02
         0.40626E-02
         0.37442E-02
         0.39697E-02
         0.32178E-02
         0.28965E-02
         0.32672E-02
         0.31052E-02
         0.33074E-02
         0.32655E-02
         0.12079E-03
         0.43588E-04
         0.42876E-04
         0.34587E-04
         0.12338E-03
         0.73673E-04
         0.42294E-05
         0.89472E-04
         0.60996E-04
         0.78266E-04
         0.16342E-05
         0.39469E-03
         0.23413E-03
         0.14505E-04
         0.43057E-03
         0.59294E-04
         0.24195E-04
         0.20835E-04
         0.22602E-04
         0.59641E-05
         0.24047E-03
         0.21949E-03
         0.19040E-03
         0.45593E-05
         0.18445E-04
        -0.37133E-05
        -0.34764E-05
        -0.44798E-04
        -0.19066E-04
         0.25054E-04
         0.42483E-04
         0.64736E-05
         0.30151E-04
         0.36726E-04
         0.18961E-03
         0.66895E-04
         0.11595E-03
         0.28170E-03
         0.16503E-03
         0.14416E-03
         0.30190E-03
         0.24030E-03
         0.24307E-03
         0.13617E-03
         0.10893E-03
         0.21560E-03
         0.94153E-04
         0.69957E-04
         0.51873E-04
         0.76407E-04
         0.18590E-03
         0.99877E-04
         0.33371E-02
         0.35382E-02
         0.38639E-02
         0.38316E-02
         0.43562E-02
         0.50122E-02
         0.46023E-02
         0.36607E-02
         0.34718E-02
         0.39557E-02
         0.38065E-02
         0.37149E-02
         0.25269E-02
         0.22978E-02
         0.27593E-02
         0.31604E-02
         0.34082E-02
         0.40643E-02
         0.37435E-02
         0.39690E-02
         0.32170E-02
         0.28960E-02
         0.32647E-02
         0.31009E-02
         0.33035E-02
         0.32618E-02
         0.12100E-03
         0.43635E-04
         0.42951E-04
         0.34708E-04
         0.12338E-03
         0.73710E-04
         0.43906E-05
         0.89762E-04
         0.61218E-04
         0.78820E-04
         0.17959E-05
         0.39482E-03
         0.23437E-03
         0.14466E-04
         0.43176E-03
         0.59519E-04
         0.24353E-04
         0.20922E-04
         0.22762E-04
         0.60805E-05
         0.24070E-03
         0.21965E-03
         0.19057E-03
         0.46839E-05
         0.18824E-04
        -0.35962E-05
        -0.32512E-05
        -0.44656E-04
        -0.18805E-04
         0.25362E-04
         0.42692E-04
         0.65600E-05
         0.30238E-04
         0.36884E-04
         0.18992E-03
         0.66972E-04
         0.11597E-03
         0.28281E-03
         0.16602E-03
         0.14485E-03
         0.30257E-03
         0.24074E-03
         0.24335E-03
         0.13636E-03
         0.10904E-03
         0.21576E-03
         0.94290E-04
         0.70093E-04
         0.51898E-04
         0.76367E-04
         0.18584E-03
         0.99753E-04
         0.33350E-02
         0.35369E-02
         0.38642E-02
         0.38319E-02
         0.43547E-02
         0.50088E-02
         0.45987E-02
         0.36591E-02
         0.34703E-02
         0.39536E-02
         0.38055E-02
         0.37156E-02
         0.25269E-02
         0.22980E-02
         0.27603E-02
         0.31627E-02
         0.34107E-02
         0.40664E-02
         0.37432E-02
         0.39688E-02
         0.32167E-02
         0.28960E-02
         0.32627E-02
         0.30970E-02
         0.33001E-02
         0.32587E-02
         0.12108E-03
         0.43543E-04
         0.42905E-04
         0.34664E-04
         0.12319E-03
         0.73552E-04
         0.43298E-05
         0.89796E-04
         0.61270E-04
         0.79126E-04
         0.16630E-05
         0.39464E-03
         0.23439E-03
         0.14071E-04
         0.43257E-03
         0.59518E-04
         0.24318E-04
         0.20757E-04
         0.22655E-04
         0.59211E-05
         0.24062E-03
         0.21948E-03
         0.19044E-03
         0.45458E-05
         0.18967E-04
        -0.37204E-05
        -0.34019E-05
        -0.44861E-04
        -0.18900E-04
         0.25370E-04
         0.42644E-04
         0.64285E-05
         0.30028E-04
         0.36801E-04
         0.18996E-03
         0.66832E-04
         0.11579E-03
         0.28350E-03
         0.16663E-03
         0.14511E-03
         0.30282E-03
         0.24082E-03
         0.24331E-03
         0.13625E-03
         0.10890E-03
         0.21567E-03
         0.94193E-04
         0.69950E-04
         0.51667E-04
         0.76110E-04
         0.18555E-03
         0.99400E-04
         0.33322E-02
         0.35351E-02
         0.38638E-02
         0.38316E-02
         0.43529E-02
         0.50050E-02
         0.45946E-02
         0.36568E-02
         0.34682E-02
         0.39507E-02
         0.38038E-02
         0.37156E-02
         0.25264E-02
         0.22976E-02
         0.27609E-02
         0.31645E-02
         0.34126E-02
         0.40679E-02
         0.37425E-02
         0.39680E-02
         0.32158E-02
         0.28956E-02
         0.32603E-02
         0.30928E-02
         0.32962E-02
         0.32550E-02
         0.12120E-03
         0.43512E-04
         0.42914E-04
         0.34684E-04
         0.12309E-03
         0.73465E-04
         0.43693E-05
         0.89928E-04
         0.61421E-04
         0.79588E-04
         0.16577E-05
         0.39462E-03
         0.23457E-03
         0.13837E-04
         0.43350E-03
         0.59606E-04
         0.24412E-04
         0.20699E-04
         0.22675E-04
         0.58805E-05
         0.24066E-03
         0.21945E-03
         0.19045E-03
         0.45189E-05
         0.19248E-04
        -0.37596E-05
        -0.33339E-05
        -0.44897E-04
        -0.18876E-04
         0.25464E-04
         0.42654E-04
         0.63695E-05
         0.29911E-04
         0.36803E-04
         0.19011E-03
         0.66772E-04
         0.11572E-03
         0.28433E-03
         0.16733E-03
         0.14550E-03
         0.30328E-03
         0.24110E-03
         0.24342E-03
         0.13630E-03
         0.10890E-03
         0.21571E-03
         0.94194E-04
         0.69907E-04
         0.51516E-04
         0.75930E-04
         0.18537E-03
         0.99137E-04
         0.33298E-02
         0.35334E-02
         0.38636E-02
         0.38315E-02
         0.43515E-02
         0.50016E-02
         0.45906E-02
         0.36546E-02
         0.34662E-02
         0.39481E-02
         0.38026E-02
         0.37161E-02
         0.25262E-02
         0.22974E-02
         0.27616E-02
         0.31666E-02
         0.34149E-02
         0.40697E-02
         0.37419E-02
         0.39674E-02
         0.32151E-02
         0.28952E-02
         0.32580E-02
         0.30887E-02
         0.32923E-02
         0.32514E-02
         0.12159E-03
         0.43802E-04
         0.43192E-04
         0.34920E-04
         0.12329E-03
         0.73628E-04
         0.47686E-05
         0.90383E-04
         0.61766E-04
         0.80299E-04
         0.20237E-05
         0.39502E-03
         0.23512E-03
         0.13948E-04
         0.43483E-03
         0.59964E-04
         0.24741E-04
         0.20887E-04
         0.22986E-04
         0.61517E-05
         0.24108E-03
         0.21976E-03
         0.19080E-03
         0.47903E-05
         0.19844E-04
        -0.34937E-05
        -0.29206E-05
        -0.44499E-04
        -0.18423E-04
         0.25931E-04
         0.42998E-04
         0.66335E-05
         0.30077E-04
         0.37006E-04
         0.19062E-03
         0.67039E-04
         0.11598E-03
         0.28553E-03
         0.16849E-03
         0.14632E-03
         0.30407E-03
         0.24172E-03
         0.24383E-03
         0.13671E-03
         0.10925E-03
         0.21612E-03
         0.94535E-04
         0.70215E-04
         0.51664E-04
         0.75984E-04
         0.18543E-03
         0.99100E-04
         0.33280E-02
         0.35324E-02
         0.38640E-02
         0.38319E-02
         0.43506E-02
         0.49988E-02
         0.45871E-02
         0.36530E-02
         0.34649E-02
         0.39461E-02
         0.38018E-02
         0.37171E-02
         0.25264E-02
         0.22977E-02
         0.27630E-02
         0.31692E-02
         0.34179E-02
         0.40722E-02
         0.37420E-02
         0.39675E-02
         0.32151E-02
         0.28953E-02
         0.32561E-02
         0.30851E-02
         0.32892E-02
         0.32485E-02
         0.12161E-03
         0.43717E-04
         0.43150E-04
         0.34854E-04
         0.12307E-03
         0.73470E-04
         0.47217E-05
         0.90386E-04
         0.61780E-04
         0.80569E-04
         0.18952E-05
         0.39489E-03
         0.23525E-03
         0.13547E-04
         0.43559E-03
         0.59932E-04
         0.24676E-04
         0.20748E-04
         0.22834E-04
         0.59636E-05
         0.24105E-03
         0.21961E-03
         0.19074E-03
         0.46242E-05
         0.19963E-04
        -0.36672E-05
        -0.30523E-05
        -0.44641E-04
        -0.18387E-04
         0.25971E-04
         0.42983E-04
         0.64864E-05
         0.29916E-04
         0.36900E-04
         0.19063E-03
         0.66908E-04
         0.11587E-03
         0.28621E-03
         0.16915E-03
         0.14670E-03
         0.30441E-03
         0.24185E-03
         0.24376E-03
         0.13664E-03
         0.10913E-03
         0.21605E-03
         0.94462E-04
         0.70144E-04
         0.51456E-04
         0.75679E-04
         0.18512E-03
         0.98745E-04
         0.33251E-02
         0.35304E-02
         0.38636E-02
         0.38318E-02
         0.43491E-02
         0.49953E-02
         0.45828E-02
         0.36506E-02
         0.34628E-02
         0.39432E-02
         0.38001E-02
         0.37171E-02
         0.25258E-02
         0.22975E-02
         0.27637E-02
         0.31713E-02
         0.34201E-02
         0.40738E-02
         0.37412E-02
         0.39668E-02
         0.32142E-02
         0.28948E-02
         0.32536E-02
         0.30809E-02
         0.32854E-02
         0.32448E-02
         0.12155E-03
         0.43505E-04
         0.42979E-04
         0.34749E-04
         0.12278E-03
         0.73219E-04
         0.46047E-05
         0.90362E-04
         0.61737E-04
         0.80686E-04
         0.17357E-05
         0.39467E-03
         0.23527E-03
         0.13142E-04
         0.43631E-03
         0.59869E-04
         0.24533E-04
         0.20591E-04
         0.22716E-04
         0.58577E-05
         0.24100E-03
         0.21942E-03
         0.19065E-03
         0.44820E-05
         0.19945E-04
        -0.38376E-05
        -0.33995E-05
        -0.44867E-04
        -0.17866E-04
         0.26335E-04
         0.42897E-04
         0.62845E-05
         0.29757E-04
         0.36835E-04
         0.19060E-03
         0.66704E-04
         0.11567E-03
         0.28675E-03
         0.16980E-03
         0.14748E-03
         0.30487E-03
         0.24196E-03
         0.24363E-03
         0.13657E-03
         0.10896E-03
         0.21590E-03
         0.94300E-04
         0.70004E-04
         0.51230E-04
         0.75403E-04
         0.18483E-03
         0.98368E-04
         0.33224E-02
         0.35285E-02
         0.38632E-02
         0.38316E-02
         0.43474E-02
         0.49914E-02
         0.45784E-02
         0.36482E-02
         0.34607E-02
         0.39406E-02
         0.37982E-02
         0.37165E-02
         0.25252E-02
         0.22971E-02
         0.27643E-02
         0.31732E-02
         0.34222E-02
         0.40754E-02
         0.37404E-02
         0.39659E-02
         0.32134E-02
         0.28943E-02
         0.32510E-02
         0.30766E-02
         0.32814E-02
         0.32409E-02
         0.12193E-03
         0.43771E-04
         0.43276E-04
         0.35025E-04
         0.12301E-03
         0.73401E-04
         0.49630E-05
         0.90810E-04
         0.62022E-04
         0.81093E-04
         0.20681E-05
         0.39497E-03
         0.23573E-03
         0.13234E-04
         0.43758E-03
         0.60230E-04
         0.24787E-04
         0.20766E-04
         0.23071E-04
         0.63248E-05
         0.24136E-03
         0.21969E-03
         0.19095E-03
         0.47746E-05
         0.20316E-04
        -0.35471E-05
        -0.34416E-05
        -0.44621E-04
        -0.16389E-04
         0.27520E-04
         0.43203E-04
         0.65530E-05
         0.29920E-04
         0.37097E-04
         0.19114E-03
         0.67004E-04
         0.11591E-03
         0.28773E-03
         0.17101E-03
         0.14911E-03
         0.30592E-03
         0.24255E-03
         0.24391E-03
         0.13694E-03
         0.10931E-03
         0.21634E-03
         0.94655E-04
         0.70286E-04
         0.51401E-04
         0.75537E-04
         0.18497E-03
         0.98370E-04
         0.33206E-02
         0.35275E-02
         0.38638E-02
         0.38321E-02
         0.43462E-02
         0.49883E-02
         0.45749E-02
         0.36467E-02
         0.34595E-02
         0.39390E-02
         0.37967E-02
         0.37163E-02
         0.25252E-02
         0.22974E-02
         0.27655E-02
         0.31755E-02
         0.34249E-02
         0.40778E-02
         0.37406E-02
         0.39660E-02
         0.32134E-02
         0.28946E-02
         0.32493E-02
         0.30731E-02
         0.32782E-02
         0.32380E-02
         0.12113E-03
         0.42792E-04
         0.42360E-04
         0.34165E-04
         0.12179E-03
         0.72280E-04
         0.39497E-05
         0.89851E-04
         0.61140E-04
         0.80194E-04
         0.88236E-06
         0.39359E-03
         0.23464E-03
         0.11732E-04
         0.43710E-03
         0.59394E-04
         0.23775E-04
         0.19821E-04
         0.22026E-04
         0.52769E-05
         0.24023E-03
         0.21848E-03
         0.18981E-03
         0.37355E-05
         0.19318E-04
        -0.45366E-05
        -0.49166E-05
        -0.45864E-04
        -0.16875E-04
         0.26898E-04
         0.42335E-04
         0.55191E-05
         0.28907E-04
         0.36109E-04
         0.19004E-03
         0.65824E-04
         0.11468E-03
         0.28707E-03
         0.17057E-03
         0.14879E-03
         0.30515E-03
         0.24150E-03
         0.24271E-03
         0.13586E-03
         0.10812E-03
         0.21503E-03
         0.93496E-04
         0.69213E-04
         0.50230E-04
         0.74213E-04
         0.18347E-03
         0.96959E-04
         0.33158E-02
         0.35236E-02
         0.38613E-02
         0.38297E-02
         0.43424E-02
         0.49827E-02
         0.45686E-02
         0.36422E-02
         0.34554E-02
         0.39341E-02
         0.37925E-02
         0.37140E-02
         0.25229E-02
         0.22955E-02
         0.27643E-02
         0.31756E-02
         0.34251E-02
         0.40773E-02
         0.37376E-02
         0.39631E-02
         0.32106E-02
         0.28922E-02
         0.32448E-02
         0.30669E-02
         0.32725E-02
         0.32325E-02
         0.12179E-03
         0.42860E-04
         0.42574E-04
         0.34562E-04
         0.12208E-03
         0.72570E-04
         0.41660E-05
         0.90658E-04
         0.61962E-04
         0.81637E-04
         0.12347E-05
         0.39363E-03
         0.23451E-03
         0.12292E-04
         0.43867E-03
         0.60240E-04
         0.24583E-04
         0.20290E-04
         0.22642E-04
         0.58543E-05
         0.24086E-03
         0.21888E-03
         0.19070E-03
         0.45130E-05
         0.20747E-04
        -0.38163E-05
        -0.36367E-05
        -0.44453E-04
        -0.15629E-04
         0.28086E-04
         0.42991E-04
         0.59579E-05
         0.29126E-04
         0.35987E-04
         0.19043E-03
         0.65719E-04
         0.11430E-03
         0.28879E-03
         0.17234E-03
         0.15003E-03
         0.30609E-03
         0.24247E-03
         0.24359E-03
         0.13673E-03
         0.10859E-03
         0.21532E-03
         0.93726E-04
         0.69707E-04
         0.50497E-04
         0.74074E-04
         0.18340E-03
         0.96749E-04
         0.33142E-02
         0.35231E-02
         0.38615E-02
         0.38293E-02
         0.43400E-02
         0.49786E-02
         0.45657E-02
         0.36414E-02
         0.34545E-02
         0.39317E-02
         0.37915E-02
         0.37154E-02
         0.25238E-02
         0.22958E-02
         0.27660E-02
         0.31790E-02
         0.34286E-02
         0.40800E-02
         0.37375E-02
         0.39626E-02
         0.32105E-02
         0.28926E-02
         0.32436E-02
         0.30642E-02
         0.32699E-02
         0.32301E-02
         0.37791E-02
         0.38571E-02
         0.38275E-02
         0.34882E-02
         0.45010E-02
         0.41592E-02
         0.41329E-02
         0.42722E-02
         0.36561E-02
         0.42757E-02
         0.45995E-02
         0.57094E-02
         0.50017E-02
         0.47603E-02
         0.59100E-02
         0.35739E-02
         0.38048E-02
         0.33230E-02
         0.39635E-02
         0.41282E-02
         0.46244E-02
         0.46370E-02
         0.43977E-02
         0.37751E-02
         0.42281E-02
         0.36081E-02
         0.46982E-02
         0.45136E-02
         0.45464E-02
         0.43801E-02
         0.35939E-02
         0.37419E-02
         0.35056E-02
         0.36652E-02
         0.50618E-02
         0.44314E-02
         0.44865E-02
         0.54817E-02
         0.51710E-02
         0.50703E-02
         0.53717E-02
         0.50299E-02
         0.47815E-02
         0.42208E-02
         0.43696E-02
         0.51164E-02
         0.45288E-02
         0.41996E-02
         0.40816E-02
         0.42631E-02
         0.48255E-02
         0.43210E-02
         0.11862E-01
         0.11867E-01
         0.12374E-01
         0.12052E-01
         0.12800E-01
         0.13838E-01
         0.13470E-01
         0.12454E-01
         0.12346E-01
         0.13075E-01
         0.12668E-01
         0.12093E-01
         0.99753E-02
         0.93225E-02
         0.99073E-02
         0.10497E-01
         0.10837E-01
         0.12140E-01
         0.12361E-01
         0.12605E-01
         0.11144E-01
         0.10555E-01
         0.11182E-01
         0.10920E-01
         0.11059E-01
         0.11024E-01
         0.39759E-01
         0.41500E-01
         0.40917E-01
         0.37437E-01
         0.45887E-01
         0.43116E-01
         0.44751E-01
         0.45211E-01
         0.38835E-01
         0.45181E-01
         0.49014E-01
         0.55307E-01
         0.50066E-01
         0.50438E-01
         0.57277E-01
         0.38096E-01
         0.40801E-01
         0.35769E-01
         0.42103E-01
         0.44204E-01
         0.46000E-01
         0.46936E-01
         0.44158E-01
         0.40534E-01
         0.45618E-01
         0.39150E-01
         0.50260E-01
         0.49366E-01
         0.49593E-01
         0.47185E-01
         0.38475E-01
         0.40361E-01
         0.37723E-01
         0.39387E-01
         0.50211E-01
         0.46037E-01
         0.46244E-01
         0.55311E-01
         0.53753E-01
         0.53081E-01
         0.54227E-01
         0.51495E-01
         0.48784E-01
         0.43072E-01
         0.44750E-01
         0.50232E-01
         0.46407E-01
         0.43690E-01
         0.42822E-01
         0.44369E-01
         0.48192E-01
         0.44514E-01
         0.83137E-01
         0.81405E-01
         0.83529E-01
         0.81071E-01
         0.84033E-01
         0.88972E-01
         0.89800E-01
         0.88260E-01
         0.88532E-01
         0.91118E-01
         0.88491E-01
         0.83468E-01
         0.73741E-01
         0.69597E-01
         0.70436E-01
         0.71828E-01
         0.72816E-01
         0.79386E-01
         0.84038E-01
         0.84679E-01
         0.77834E-01
         0.75166E-01
         0.77995E-01
         0.77234E-01
         0.76687E-01
         0.76373E-01
  
SCALARS                      strain_yz  double 1
LOOKUP_TABLE default
        -0.83376E-02
         0.26542E-02
         0.70920E-02
         0.38307E-02
        -0.22033E-09
        -0.60727E-10
        -0.27305E-09
        -0.20827E-09
         0.25814E-01
        -0.17233E-01
        -0.40635E-09
        -0.35775E-09
         0.21232E-01
         0.10770E-02
         0.29081E-09
        -0.18645E-10
        -0.83602E-02
        -0.27240E-01
         0.42785E-11
         0.43778E-10
         0.13414E-01
         0.48433E-01
         0.53785E-01
         0.66663E-09
         0.11513E-08
         0.96230E-09
         0.47811E-02
         0.46181E-01
         0.47952E-09
         0.93027E-09
        -0.95320E-02
        -0.78465E-02
         0.74464E-02
         0.24859E-09
         0.25377E-09
        -0.52686E-11
        -0.27413E-01
        -0.24512E-01
         0.45746E-09
         0.35592E-09
        -0.26172E-01
        -0.15714E-01
         0.34572E-09
         0.31594E-09
        -0.24901E-01
        -0.87652E-02
        -0.11468E-10
         0.17739E-09
        -0.19804E-01
         0.83520E-10
        -0.23171E-02
        -0.67645E-11
        -0.10840E-02
         0.32307E-09
         0.70434E-02
         0.18793E-09
         0.22981E-01
        -0.43724E-02
         0.50985E-11
        -0.10348E-10
        -0.11546E-01
        -0.41223E-01
        -0.69466E-10
        -0.25984E-09
        -0.70667E-02
        -0.14022E-09
        -0.29569E-01
        -0.17082E-09
         0.22408E-01
         0.11782E-01
        -0.21110E-10
         0.27873E-09
         0.40530E-01
         0.61205E-09
         0.57292E-01
         0.59261E-09
         0.57165E-01
         0.44986E-09
         0.47367E-01
         0.37706E-09
         0.71710E-01
         0.56798E-01
         0.24188E-09
        -0.53629E-10
         0.84530E-02
        -0.60008E-11
        -0.38873E-01
        -0.37591E-09
        -0.89513E-01
        -0.65808E-09
        -0.12242E+00
        -0.74954E-01
        -0.97606E-09
        -0.79003E-09
        -0.53499E-01
        -0.61327E-09
        -0.48509E-01
        -0.62741E-09
        -0.46764E-01
        -0.67460E-09
        -0.77573E-01
        -0.65078E-01
        -0.62734E-09
        -0.30059E-09
         0.49375E-01
        -0.19184E-01
         0.22059E-09
        -0.27412E-09
         0.12083E+00
         0.73384E-09
         0.17828E+00
         0.10734E-08
         0.21191E+00
         0.13257E-08
         0.23245E+00
         0.13150E-08
         0.25586E+00
         0.10406E-08
         0.25084E+00
         0.80532E-09
         0.23516E+00
         0.74902E-09
         0.20952E+00
         0.71264E-09
         0.15988E+00
         0.45543E-09
         0.11722E+00
         0.15036E-09
         0.64051E-01
         0.97159E-10
        -0.48326E-02
         0.14604E-09
        -0.67119E-01
         0.75426E-10
        -0.12404E+00
        -0.22810E-09
        -0.19178E+00
        -0.64385E-09
        -0.20046E+00
        -0.10054E-08
        -0.20783E+00
        -0.13181E-08
        -0.26074E+00
        -0.13169E-08
        -0.27811E+00
        -0.11496E-08
        -0.26082E+00
        -0.11204E-08
        -0.20677E+00
        -0.11274E-08
        -0.14059E+00
        -0.89150E-09
        -0.10152E+00
        -0.52718E-09
        -0.74837E-01
        -0.40762E-09
        -0.75725E-02
        -0.39208E-02
        -0.34224E-02
        -0.10611E-02
        -0.35070E-02
        -0.37285E-02
        -0.39304E-03
        -0.60427E-02
        -0.51790E-02
        -0.76057E-02
         0.39679E-02
         0.16926E-01
         0.11573E-01
         0.13422E-02
         0.17106E-01
         0.20048E-02
        -0.17768E-02
         0.11427E-02
         0.14946E-02
        -0.11296E-02
         0.10375E-02
         0.85546E-03
        -0.28744E-02
         0.24224E-03
        -0.51925E-02
         0.76765E-03
         0.39747E-04
         0.69496E-03
         0.84288E-03
        -0.40708E-02
         0.19572E-02
        -0.21251E-02
         0.14233E-02
        -0.34693E-03
         0.57164E-03
         0.31026E-02
         0.69608E-02
         0.15040E-01
         0.13741E-01
         0.11594E-01
         0.10904E-01
         0.27159E-02
        -0.22245E-02
        -0.61007E-02
        -0.10075E-01
        -0.16426E-01
        -0.10795E-01
        -0.77484E-02
        -0.82666E-02
        -0.87769E-02
        -0.10283E-01
        -0.47065E-02
         0.88086E-02
        -0.10628E-01
         0.28773E-01
         0.39788E-01
         0.50724E-01
         0.60149E-01
         0.60345E-01
         0.54568E-01
         0.51934E-01
         0.49081E-01
         0.31673E-01
         0.13980E-01
         0.61575E-02
         0.27155E-02
        -0.41629E-02
        -0.16468E-01
        -0.30271E-01
        -0.39472E-01
        -0.47546E-01
        -0.54597E-01
        -0.51502E-01
        -0.48677E-01
        -0.45275E-01
        -0.31434E-01
        -0.18405E-01
        -0.16174E-01
        -0.13716E-01
        -0.86507E-02
        -0.80051E-02
        -0.18988E-02
        -0.10397E-01
        -0.46762E-02
        -0.37081E-02
        -0.12963E-01
        -0.85009E-02
        -0.12192E-01
         0.64460E-02
         0.27895E-01
         0.16527E-01
         0.23751E-02
         0.27483E-01
         0.52015E-02
        -0.15763E-02
         0.15049E-02
         0.67831E-02
         0.13114E-02
         0.58462E-02
         0.41508E-02
        -0.24064E-02
         0.20312E-02
        -0.82102E-02
         0.20308E-02
         0.50959E-03
         0.94732E-03
        -0.15132E-02
        -0.81900E-02
         0.56057E-02
         0.14767E-02
         0.36233E-02
         0.31460E-02
        -0.15000E-02
         0.45727E-02
         0.87304E-02
         0.20888E-01
         0.18420E-01
         0.16233E-01
         0.11925E-01
        -0.29468E-02
        -0.60697E-02
        -0.75820E-02
        -0.97632E-02
        -0.19943E-01
        -0.11605E-01
        -0.76743E-02
        -0.96453E-02
        -0.11387E-01
        -0.11798E-01
        -0.88523E-03
         0.14697E-01
        -0.21022E-01
         0.48917E-01
         0.63217E-01
         0.81580E-01
         0.97880E-01
         0.95884E-01
         0.83754E-01
         0.80268E-01
         0.79407E-01
         0.49867E-01
         0.16436E-01
         0.65510E-02
         0.56136E-02
        -0.25997E-02
        -0.22051E-01
        -0.44173E-01
        -0.61469E-01
        -0.80005E-01
        -0.88710E-01
        -0.77913E-01
        -0.73667E-01
        -0.73439E-01
        -0.51710E-01
        -0.26861E-01
        -0.25434E-01
        -0.13724E-01
        -0.86522E-02
        -0.80091E-02
        -0.19127E-02
        -0.10398E-01
        -0.46798E-02
        -0.37127E-02
        -0.12985E-01
        -0.85162E-02
        -0.12238E-01
         0.64499E-02
         0.27893E-01
         0.16531E-01
         0.23751E-02
         0.27518E-01
         0.52018E-02
        -0.15906E-02
         0.15027E-02
         0.67877E-02
         0.13041E-02
         0.58606E-02
         0.41548E-02
        -0.24070E-02
         0.20302E-02
        -0.82474E-02
         0.20271E-02
         0.51559E-03
         0.95262E-03
        -0.15032E-02
        -0.82073E-02
         0.56067E-02
         0.14734E-02
         0.36313E-02
         0.31512E-02
        -0.14859E-02
         0.45756E-02
         0.87301E-02
         0.20920E-01
         0.18460E-01
         0.16252E-01
         0.11935E-01
        -0.29389E-02
        -0.60760E-02
        -0.75859E-02
        -0.97635E-02
        -0.19944E-01
        -0.11606E-01
        -0.76697E-02
        -0.96324E-02
        -0.11371E-01
        -0.11793E-01
        -0.87183E-03
         0.14683E-01
        -0.21023E-01
         0.48926E-01
         0.63217E-01
         0.81571E-01
         0.97847E-01
         0.95844E-01
         0.83729E-01
         0.80251E-01
         0.79386E-01
         0.49856E-01
         0.16444E-01
         0.65505E-02
         0.56252E-02
        -0.25785E-02
        -0.22063E-01
        -0.44193E-01
        -0.61483E-01
        -0.80003E-01
        -0.88704E-01
        -0.77908E-01
        -0.73664E-01
        -0.73420E-01
        -0.51674E-01
        -0.26832E-01
        -0.25401E-01
        -0.13733E-01
        -0.86539E-02
        -0.80131E-02
        -0.19268E-02
        -0.10399E-01
        -0.46837E-02
        -0.37174E-02
        -0.13007E-01
        -0.85315E-02
        -0.12283E-01
         0.64537E-02
         0.27890E-01
         0.16535E-01
         0.23749E-02
         0.27553E-01
         0.52021E-02
        -0.16051E-02
         0.15004E-02
         0.67924E-02
         0.12967E-02
         0.58753E-02
         0.41586E-02
        -0.24079E-02
         0.20290E-02
        -0.82842E-02
         0.20229E-02
         0.52201E-03
         0.95825E-03
        -0.14923E-02
        -0.82240E-02
         0.56076E-02
         0.14695E-02
         0.36394E-02
         0.31563E-02
        -0.14718E-02
         0.45788E-02
         0.87295E-02
         0.20952E-01
         0.18500E-01
         0.16271E-01
         0.11944E-01
        -0.29301E-02
        -0.60818E-02
        -0.75908E-02
        -0.97647E-02
        -0.19944E-01
        -0.11607E-01
        -0.76650E-02
        -0.96197E-02
        -0.11356E-01
        -0.11788E-01
        -0.85848E-03
         0.14669E-01
        -0.21024E-01
         0.48935E-01
         0.63218E-01
         0.81561E-01
         0.97814E-01
         0.95804E-01
         0.83704E-01
         0.80234E-01
         0.79364E-01
         0.49846E-01
         0.16452E-01
         0.65501E-02
         0.56367E-02
        -0.25572E-02
        -0.22075E-01
        -0.44214E-01
        -0.61497E-01
        -0.80002E-01
        -0.88699E-01
        -0.77902E-01
        -0.73661E-01
        -0.73401E-01
        -0.51637E-01
        -0.26802E-01
        -0.25368E-01
        -0.13741E-01
        -0.86555E-02
        -0.80172E-02
        -0.19409E-02
        -0.10401E-01
        -0.46874E-02
        -0.37223E-02
        -0.13028E-01
        -0.85469E-02
        -0.12328E-01
         0.64576E-02
         0.27888E-01
         0.16539E-01
         0.23749E-02
         0.27588E-01
         0.52025E-02
        -0.16199E-02
         0.14980E-02
         0.67974E-02
         0.12888E-02
         0.58902E-02
         0.41622E-02
        -0.24100E-02
         0.20270E-02
        -0.83197E-02
         0.20173E-02
         0.52864E-03
         0.96571E-03
        -0.14788E-02
        -0.82392E-02
         0.56080E-02
         0.14642E-02
         0.36474E-02
         0.31614E-02
        -0.14577E-02
         0.45817E-02
         0.87289E-02
         0.20985E-01
         0.18541E-01
         0.16292E-01
         0.11955E-01
        -0.29190E-02
        -0.60866E-02
        -0.75982E-02
        -0.97676E-02
        -0.19945E-01
        -0.11609E-01
        -0.76603E-02
        -0.96069E-02
        -0.11341E-01
        -0.11783E-01
        -0.84516E-03
         0.14656E-01
        -0.21025E-01
         0.48944E-01
         0.63218E-01
         0.81551E-01
         0.97781E-01
         0.95764E-01
         0.83679E-01
         0.80218E-01
         0.79342E-01
         0.49837E-01
         0.16462E-01
         0.65502E-02
         0.56481E-02
        -0.25357E-02
        -0.22088E-01
        -0.44238E-01
        -0.61514E-01
        -0.80001E-01
        -0.88693E-01
        -0.77897E-01
        -0.73658E-01
        -0.73383E-01
        -0.51600E-01
        -0.26773E-01
        -0.25334E-01
        -0.13750E-01
        -0.86571E-02
        -0.80212E-02
        -0.19550E-02
        -0.10402E-01
        -0.46912E-02
        -0.37269E-02
        -0.13050E-01
        -0.85623E-02
        -0.12372E-01
         0.64615E-02
         0.27886E-01
         0.16544E-01
         0.23751E-02
         0.27624E-01
         0.52030E-02
        -0.16348E-02
         0.14957E-02
         0.68026E-02
         0.12805E-02
         0.59053E-02
         0.41653E-02
        -0.24131E-02
         0.20241E-02
        -0.83540E-02
         0.20104E-02
         0.53602E-03
         0.97483E-03
        -0.14626E-02
        -0.82527E-02
         0.56080E-02
         0.14573E-02
         0.36554E-02
         0.31665E-02
        -0.14435E-02
         0.45847E-02
         0.87285E-02
         0.21017E-01
         0.18582E-01
         0.16313E-01
         0.11968E-01
        -0.29053E-02
        -0.60903E-02
        -0.76084E-02
        -0.97724E-02
        -0.19948E-01
        -0.11612E-01
        -0.76562E-02
        -0.95943E-02
        -0.11325E-01
        -0.11778E-01
        -0.83176E-03
         0.14642E-01
        -0.21027E-01
         0.48953E-01
         0.63219E-01
         0.81541E-01
         0.97748E-01
         0.95723E-01
         0.83653E-01
         0.80201E-01
         0.79320E-01
         0.49828E-01
         0.16473E-01
         0.65508E-02
         0.56592E-02
        -0.25142E-02
        -0.22102E-01
        -0.44265E-01
        -0.61533E-01
        -0.80000E-01
        -0.88688E-01
        -0.77892E-01
        -0.73655E-01
        -0.73364E-01
        -0.51563E-01
        -0.26744E-01
        -0.25301E-01
        -0.13758E-01
        -0.86581E-02
        -0.80251E-02
        -0.19692E-02
        -0.10403E-01
        -0.46949E-02
        -0.37310E-02
        -0.13071E-01
        -0.85778E-02
        -0.12415E-01
         0.64659E-02
         0.27884E-01
         0.16548E-01
         0.23755E-02
         0.27659E-01
         0.52037E-02
        -0.16501E-02
         0.14934E-02
         0.68078E-02
         0.12720E-02
         0.59204E-02
         0.41682E-02
        -0.24168E-02
         0.20210E-02
        -0.83874E-02
         0.20030E-02
         0.54396E-03
         0.98492E-03
        -0.14452E-02
        -0.82655E-02
         0.56077E-02
         0.14496E-02
         0.36635E-02
         0.31719E-02
        -0.14292E-02
         0.45881E-02
         0.87284E-02
         0.21050E-01
         0.18624E-01
         0.16335E-01
         0.11981E-01
        -0.28909E-02
        -0.60935E-02
        -0.76194E-02
        -0.97784E-02
        -0.19951E-01
        -0.11615E-01
        -0.76528E-02
        -0.95824E-02
        -0.11310E-01
        -0.11773E-01
        -0.81837E-03
         0.14628E-01
        -0.21028E-01
         0.48962E-01
         0.63219E-01
         0.81531E-01
         0.97715E-01
         0.95683E-01
         0.83628E-01
         0.80184E-01
         0.79298E-01
         0.49821E-01
         0.16485E-01
         0.65518E-02
         0.56704E-02
        -0.24928E-02
        -0.22116E-01
        -0.44293E-01
        -0.61552E-01
        -0.79999E-01
        -0.88682E-01
        -0.77887E-01
        -0.73652E-01
        -0.73346E-01
        -0.51527E-01
        -0.26714E-01
        -0.25267E-01
        -0.13765E-01
        -0.86579E-02
        -0.80290E-02
        -0.19838E-02
        -0.10404E-01
        -0.46987E-02
        -0.37342E-02
        -0.13089E-01
        -0.85936E-02
        -0.12456E-01
         0.64711E-02
         0.27882E-01
         0.16553E-01
         0.23773E-02
         0.27694E-01
         0.52045E-02
        -0.16658E-02
         0.14911E-02
         0.68131E-02
         0.12635E-02
         0.59357E-02
         0.41713E-02
        -0.24205E-02
         0.20180E-02
        -0.84200E-02
         0.19955E-02
         0.55331E-03
         0.99565E-03
        -0.14275E-02
        -0.82780E-02
         0.56072E-02
         0.14414E-02
         0.36719E-02
         0.31775E-02
        -0.14148E-02
         0.45916E-02
         0.87286E-02
         0.21084E-01
         0.18666E-01
         0.16358E-01
         0.11995E-01
        -0.28761E-02
        -0.60965E-02
        -0.76304E-02
        -0.97849E-02
        -0.19955E-01
        -0.11620E-01
        -0.76515E-02
        -0.95723E-02
        -0.11296E-01
        -0.11768E-01
        -0.80481E-03
         0.14614E-01
        -0.21029E-01
         0.48971E-01
         0.63220E-01
         0.81521E-01
         0.97681E-01
         0.95642E-01
         0.83603E-01
         0.80168E-01
         0.79275E-01
         0.49813E-01
         0.16497E-01
         0.65527E-02
         0.56816E-02
        -0.24712E-02
        -0.22131E-01
        -0.44322E-01
        -0.61571E-01
        -0.79997E-01
        -0.88676E-01
        -0.77882E-01
        -0.73650E-01
        -0.73327E-01
        -0.51490E-01
        -0.26685E-01
        -0.25234E-01
        -0.13772E-01
        -0.86573E-02
        -0.80329E-02
        -0.19986E-02
        -0.10406E-01
        -0.47025E-02
        -0.37367E-02
        -0.13107E-01
        -0.86096E-02
        -0.12496E-01
         0.64769E-02
         0.27881E-01
         0.16559E-01
         0.23794E-02
         0.27730E-01
         0.52055E-02
        -0.16817E-02
         0.14887E-02
         0.68183E-02
         0.12550E-02
         0.59509E-02
         0.41744E-02
        -0.24241E-02
         0.20150E-02
        -0.84523E-02
         0.19880E-02
         0.56303E-03
         0.10067E-02
        -0.14098E-02
        -0.82904E-02
         0.56066E-02
         0.14328E-02
         0.36805E-02
         0.31833E-02
        -0.14004E-02
         0.45954E-02
         0.87293E-02
         0.21117E-01
         0.18708E-01
         0.16380E-01
         0.12008E-01
        -0.28613E-02
        -0.60994E-02
        -0.76416E-02
        -0.97915E-02
        -0.19959E-01
        -0.11625E-01
        -0.76509E-02
        -0.95632E-02
        -0.11282E-01
        -0.11763E-01
        -0.79126E-03
         0.14601E-01
        -0.21030E-01
         0.48979E-01
         0.63220E-01
         0.81511E-01
         0.97648E-01
         0.95601E-01
         0.83577E-01
         0.80151E-01
         0.79253E-01
         0.49805E-01
         0.16509E-01
         0.65536E-02
         0.56930E-02
        -0.24497E-02
        -0.22145E-01
        -0.44350E-01
        -0.61589E-01
        -0.79995E-01
        -0.88670E-01
        -0.77879E-01
        -0.73649E-01
        -0.73307E-01
        -0.51453E-01
        -0.26656E-01
        -0.25200E-01
        -0.13779E-01
        -0.86568E-02
        -0.80368E-02
        -0.20134E-02
        -0.10407E-01
        -0.47062E-02
        -0.37392E-02
        -0.13125E-01
        -0.86256E-02
        -0.12536E-01
         0.64825E-02
         0.27879E-01
         0.16564E-01
         0.23819E-02
         0.27765E-01
         0.52065E-02
        -0.16976E-02
         0.14863E-02
         0.68236E-02
         0.12464E-02
         0.59661E-02
         0.41776E-02
        -0.24277E-02
         0.20121E-02
        -0.84845E-02
         0.19806E-02
         0.57299E-03
         0.10175E-02
        -0.13921E-02
        -0.83027E-02
         0.56060E-02
         0.14243E-02
         0.36890E-02
         0.31891E-02
        -0.13858E-02
         0.45989E-02
         0.87298E-02
         0.21151E-01
         0.18751E-01
         0.16402E-01
         0.12022E-01
        -0.28466E-02
        -0.61024E-02
        -0.76528E-02
        -0.97984E-02
        -0.19964E-01
        -0.11630E-01
        -0.76505E-02
        -0.95541E-02
        -0.11268E-01
        -0.11758E-01
        -0.77764E-03
         0.14587E-01
        -0.21031E-01
         0.48988E-01
         0.63221E-01
         0.81502E-01
         0.97615E-01
         0.95560E-01
         0.83552E-01
         0.80135E-01
         0.79230E-01
         0.49796E-01
         0.16521E-01
         0.65547E-02
         0.57045E-02
        -0.24282E-02
        -0.22159E-01
        -0.44378E-01
        -0.61607E-01
        -0.79992E-01
        -0.88665E-01
        -0.77875E-01
        -0.73647E-01
        -0.73288E-01
        -0.51416E-01
        -0.26627E-01
        -0.25167E-01
        -0.13786E-01
        -0.86561E-02
        -0.80406E-02
        -0.20281E-02
        -0.10408E-01
        -0.47099E-02
        -0.37418E-02
        -0.13143E-01
        -0.86415E-02
        -0.12576E-01
         0.64883E-02
         0.27878E-01
         0.16570E-01
         0.23840E-02
         0.27801E-01
         0.52075E-02
        -0.17136E-02
         0.14840E-02
         0.68287E-02
         0.12378E-02
         0.59813E-02
         0.41806E-02
        -0.24311E-02
         0.20091E-02
        -0.85166E-02
         0.19733E-02
         0.58269E-03
         0.10283E-02
        -0.13744E-02
        -0.83151E-02
         0.56053E-02
         0.14158E-02
         0.36974E-02
         0.31949E-02
        -0.13713E-02
         0.46027E-02
         0.87305E-02
         0.21185E-01
         0.18793E-01
         0.16425E-01
         0.12035E-01
        -0.28319E-02
        -0.61054E-02
        -0.76639E-02
        -0.98050E-02
        -0.19968E-01
        -0.11635E-01
        -0.76502E-02
        -0.95449E-02
        -0.11253E-01
        -0.11753E-01
        -0.76408E-03
         0.14573E-01
        -0.21032E-01
         0.48996E-01
         0.63221E-01
         0.81492E-01
         0.97581E-01
         0.95519E-01
         0.83526E-01
         0.80118E-01
         0.79207E-01
         0.49788E-01
         0.16533E-01
         0.65557E-02
         0.57160E-02
        -0.24068E-02
        -0.22174E-01
        -0.44406E-01
        -0.61626E-01
        -0.79990E-01
        -0.88659E-01
        -0.77872E-01
        -0.73646E-01
        -0.73269E-01
        -0.51379E-01
        -0.26598E-01
        -0.25134E-01
        -0.13793E-01
        -0.86553E-02
        -0.80444E-02
        -0.20428E-02
        -0.10410E-01
        -0.47137E-02
        -0.37446E-02
        -0.13160E-01
        -0.86576E-02
        -0.12616E-01
         0.64941E-02
         0.27877E-01
         0.16576E-01
         0.23863E-02
         0.27837E-01
         0.52085E-02
        -0.17296E-02
         0.14816E-02
         0.68339E-02
         0.12292E-02
         0.59965E-02
         0.41836E-02
        -0.24348E-02
         0.20062E-02
        -0.85487E-02
         0.19659E-02
         0.59255E-03
         0.10389E-02
        -0.13568E-02
        -0.83275E-02
         0.56047E-02
         0.14073E-02
         0.37059E-02
         0.32007E-02
        -0.13567E-02
         0.46063E-02
         0.87312E-02
         0.21219E-01
         0.18836E-01
         0.16447E-01
         0.12048E-01
        -0.28172E-02
        -0.61084E-02
        -0.76748E-02
        -0.98117E-02
        -0.19973E-01
        -0.11641E-01
        -0.76497E-02
        -0.95359E-02
        -0.11239E-01
        -0.11749E-01
        -0.75048E-03
         0.14559E-01
        -0.21033E-01
         0.49004E-01
         0.63222E-01
         0.81482E-01
         0.97548E-01
         0.95478E-01
         0.83501E-01
         0.80102E-01
         0.79185E-01
         0.49780E-01
         0.16545E-01
         0.65568E-02
         0.57273E-02
        -0.23852E-02
        -0.22188E-01
        -0.44434E-01
        -0.61644E-01
        -0.79988E-01
        -0.88653E-01
        -0.77868E-01
        -0.73644E-01
        -0.73249E-01
        -0.51342E-01
        -0.26569E-01
        -0.25100E-01
        -0.13800E-01
        -0.86547E-02
        -0.80482E-02
        -0.20577E-02
        -0.10411E-01
        -0.47174E-02
        -0.37470E-02
        -0.13178E-01
        -0.86737E-02
        -0.12656E-01
         0.64999E-02
         0.27875E-01
         0.16581E-01
         0.23886E-02
         0.27872E-01
         0.52096E-02
        -0.17457E-02
         0.14792E-02
         0.68392E-02
         0.12206E-02
         0.60117E-02
         0.41865E-02
        -0.24384E-02
         0.20034E-02
        -0.85808E-02
         0.19586E-02
         0.60220E-03
         0.10495E-02
        -0.13392E-02
        -0.83398E-02
         0.56040E-02
         0.13988E-02
         0.37144E-02
         0.32065E-02
        -0.13421E-02
         0.46100E-02
         0.87317E-02
         0.21253E-01
         0.18878E-01
         0.16469E-01
         0.12062E-01
        -0.28027E-02
        -0.61113E-02
        -0.76859E-02
        -0.98184E-02
        -0.19978E-01
        -0.11646E-01
        -0.76495E-02
        -0.95268E-02
        -0.11225E-01
        -0.11744E-01
        -0.73690E-03
         0.14545E-01
        -0.21034E-01
         0.49013E-01
         0.63222E-01
         0.81472E-01
         0.97515E-01
         0.95437E-01
         0.83475E-01
         0.80085E-01
         0.79162E-01
         0.49772E-01
         0.16557E-01
         0.65578E-02
         0.57386E-02
        -0.23636E-02
        -0.22203E-01
        -0.44462E-01
        -0.61663E-01
        -0.79986E-01
        -0.88647E-01
        -0.77864E-01
        -0.73642E-01
        -0.73229E-01
        -0.51305E-01
        -0.26540E-01
        -0.25067E-01
        -0.13807E-01
        -0.86540E-02
        -0.80521E-02
        -0.20726E-02
        -0.10412E-01
        -0.47212E-02
        -0.37496E-02
        -0.13195E-01
        -0.86897E-02
        -0.12695E-01
         0.65057E-02
         0.27874E-01
         0.16587E-01
         0.23906E-02
         0.27908E-01
         0.52106E-02
        -0.17618E-02
         0.14767E-02
         0.68443E-02
         0.12120E-02
         0.60269E-02
         0.41895E-02
        -0.24419E-02
         0.20005E-02
        -0.86128E-02
         0.19512E-02
         0.61212E-03
         0.10599E-02
        -0.13216E-02
        -0.83520E-02
         0.56034E-02
         0.13902E-02
         0.37228E-02
         0.32123E-02
        -0.13274E-02
         0.46138E-02
         0.87323E-02
         0.21287E-01
         0.18921E-01
         0.16491E-01
         0.12075E-01
        -0.27880E-02
        -0.61143E-02
        -0.76971E-02
        -0.98253E-02
        -0.19982E-01
        -0.11652E-01
        -0.76491E-02
        -0.95178E-02
        -0.11211E-01
        -0.11739E-01
        -0.72335E-03
         0.14531E-01
        -0.21035E-01
         0.49021E-01
         0.63223E-01
         0.81462E-01
         0.97481E-01
         0.95395E-01
         0.83450E-01
         0.80069E-01
         0.79139E-01
         0.49764E-01
         0.16569E-01
         0.65588E-02
         0.57500E-02
        -0.23421E-02
        -0.22217E-01
        -0.44490E-01
        -0.61681E-01
        -0.79984E-01
        -0.88641E-01
        -0.77861E-01
        -0.73641E-01
        -0.73210E-01
        -0.51268E-01
        -0.26511E-01
        -0.25033E-01
        -0.13814E-01
        -0.86534E-02
        -0.80559E-02
        -0.20874E-02
        -0.10414E-01
        -0.47249E-02
        -0.37524E-02
        -0.13213E-01
        -0.87058E-02
        -0.12735E-01
         0.65115E-02
         0.27872E-01
         0.16592E-01
         0.23929E-02
         0.27944E-01
         0.52115E-02
        -0.17779E-02
         0.14743E-02
         0.68495E-02
         0.12035E-02
         0.60421E-02
         0.41924E-02
        -0.24455E-02
         0.19977E-02
        -0.86448E-02
         0.19438E-02
         0.62178E-03
         0.10702E-02
        -0.13040E-02
        -0.83643E-02
         0.56027E-02
         0.13817E-02
         0.37312E-02
         0.32182E-02
        -0.13127E-02
         0.46175E-02
         0.87327E-02
         0.21321E-01
         0.18963E-01
         0.16513E-01
         0.12089E-01
        -0.27733E-02
        -0.61172E-02
        -0.77081E-02
        -0.98321E-02
        -0.19986E-01
        -0.11657E-01
        -0.76486E-02
        -0.95086E-02
        -0.11197E-01
        -0.11735E-01
        -0.70989E-03
         0.14517E-01
        -0.21036E-01
         0.49029E-01
         0.63223E-01
         0.81453E-01
         0.97448E-01
         0.95354E-01
         0.83424E-01
         0.80052E-01
         0.79115E-01
         0.49755E-01
         0.16581E-01
         0.65597E-02
         0.57615E-02
        -0.23207E-02
        -0.22231E-01
        -0.44519E-01
        -0.61700E-01
        -0.79982E-01
        -0.88636E-01
        -0.77857E-01
        -0.73639E-01
        -0.73190E-01
        -0.51232E-01
        -0.26482E-01
        -0.25000E-01
        -0.13821E-01
        -0.86528E-02
        -0.80597E-02
        -0.21023E-02
        -0.10415E-01
        -0.47286E-02
        -0.37550E-02
        -0.13230E-01
        -0.87219E-02
        -0.12775E-01
         0.65173E-02
         0.27871E-01
         0.16598E-01
         0.23948E-02
         0.27980E-01
         0.52125E-02
        -0.17941E-02
         0.14719E-02
         0.68547E-02
         0.11948E-02
         0.60573E-02
         0.41953E-02
        -0.24490E-02
         0.19949E-02
        -0.86769E-02
         0.19364E-02
         0.63161E-03
         0.10804E-02
        -0.12866E-02
        -0.83766E-02
         0.56020E-02
         0.13731E-02
         0.37397E-02
         0.32240E-02
        -0.12980E-02
         0.46213E-02
         0.87333E-02
         0.21355E-01
         0.19006E-01
         0.16535E-01
         0.12102E-01
        -0.27587E-02
        -0.61202E-02
        -0.77191E-02
        -0.98389E-02
        -0.19991E-01
        -0.11662E-01
        -0.76485E-02
        -0.94995E-02
        -0.11183E-01
        -0.11730E-01
        -0.69634E-03
         0.14503E-01
        -0.21037E-01
         0.49037E-01
         0.63224E-01
         0.81443E-01
         0.97414E-01
         0.95312E-01
         0.83398E-01
         0.80036E-01
         0.79092E-01
         0.49747E-01
         0.16593E-01
         0.65607E-02
         0.57729E-02
        -0.22992E-02
        -0.22245E-01
        -0.44547E-01
        -0.61718E-01
        -0.79980E-01
        -0.88630E-01
        -0.77853E-01
        -0.73637E-01
        -0.73171E-01
        -0.51195E-01
        -0.26454E-01
        -0.24966E-01
        -0.13828E-01
        -0.86520E-02
        -0.80635E-02
        -0.21171E-02
        -0.10416E-01
        -0.47323E-02
        -0.37576E-02
        -0.13248E-01
        -0.87381E-02
        -0.12814E-01
         0.65231E-02
         0.27870E-01
         0.16604E-01
         0.23971E-02
         0.28015E-01
         0.52135E-02
        -0.18104E-02
         0.14695E-02
         0.68599E-02
         0.11863E-02
         0.60726E-02
         0.41981E-02
        -0.24526E-02
         0.19922E-02
        -0.87089E-02
         0.19290E-02
         0.64119E-03
         0.10904E-02
        -0.12692E-02
        -0.83889E-02
         0.56014E-02
         0.13646E-02
         0.37481E-02
         0.32299E-02
        -0.12832E-02
         0.46249E-02
         0.87339E-02
         0.21390E-01
         0.19049E-01
         0.16557E-01
         0.12116E-01
        -0.27441E-02
        -0.61232E-02
        -0.77299E-02
        -0.98458E-02
        -0.19995E-01
        -0.11668E-01
        -0.76480E-02
        -0.94905E-02
        -0.11169E-01
        -0.11725E-01
        -0.68278E-03
         0.14489E-01
        -0.21038E-01
         0.49045E-01
         0.63224E-01
         0.81433E-01
         0.97381E-01
         0.95271E-01
         0.83373E-01
         0.80020E-01
         0.79068E-01
         0.49739E-01
         0.16605E-01
         0.65616E-02
         0.57841E-02
        -0.22776E-02
        -0.22260E-01
        -0.44575E-01
        -0.61737E-01
        -0.79977E-01
        -0.88624E-01
        -0.77850E-01
        -0.73635E-01
        -0.73151E-01
        -0.51158E-01
        -0.26425E-01
        -0.24933E-01
        -0.13834E-01
        -0.86513E-02
        -0.80673E-02
        -0.21319E-02
        -0.10418E-01
        -0.47360E-02
        -0.37604E-02
        -0.13265E-01
        -0.87544E-02
        -0.12854E-01
         0.65290E-02
         0.27868E-01
         0.16609E-01
         0.23990E-02
         0.28051E-01
         0.52146E-02
        -0.18268E-02
         0.14671E-02
         0.68651E-02
         0.11778E-02
         0.60877E-02
         0.42008E-02
        -0.24561E-02
         0.19894E-02
        -0.87408E-02
         0.19216E-02
         0.65102E-03
         0.11003E-02
        -0.12518E-02
        -0.84009E-02
         0.56006E-02
         0.13560E-02
         0.37565E-02
         0.32358E-02
        -0.12683E-02
         0.46286E-02
         0.87343E-02
         0.21424E-01
         0.19091E-01
         0.16578E-01
         0.12129E-01
        -0.27296E-02
        -0.61263E-02
        -0.77411E-02
        -0.98526E-02
        -0.20000E-01
        -0.11673E-01
        -0.76478E-02
        -0.94815E-02
        -0.11155E-01
        -0.11720E-01
        -0.66934E-03
         0.14475E-01
        -0.21039E-01
         0.49053E-01
         0.63225E-01
         0.81423E-01
         0.97347E-01
         0.95229E-01
         0.83347E-01
         0.80003E-01
         0.79044E-01
         0.49732E-01
         0.16617E-01
         0.65623E-02
         0.57953E-02
        -0.22562E-02
        -0.22274E-01
        -0.44603E-01
        -0.61755E-01
        -0.79975E-01
        -0.88618E-01
        -0.77846E-01
        -0.73634E-01
        -0.73131E-01
        -0.51121E-01
        -0.26397E-01
        -0.24900E-01
        -0.13841E-01
        -0.86506E-02
        -0.80712E-02
        -0.21468E-02
        -0.10419E-01
        -0.47397E-02
        -0.37630E-02
        -0.13282E-01
        -0.87707E-02
        -0.12893E-01
         0.65348E-02
         0.27867E-01
         0.16614E-01
         0.24011E-02
         0.28087E-01
         0.52155E-02
        -0.18434E-02
         0.14646E-02
         0.68703E-02
         0.11697E-02
         0.61029E-02
         0.42035E-02
        -0.24597E-02
         0.19866E-02
        -0.87728E-02
         0.19142E-02
         0.66075E-03
         0.11101E-02
        -0.12344E-02
        -0.84121E-02
         0.55999E-02
         0.13473E-02
         0.37648E-02
         0.32417E-02
        -0.12534E-02
         0.46324E-02
         0.87350E-02
         0.21459E-01
         0.19134E-01
         0.16599E-01
         0.12142E-01
        -0.27149E-02
        -0.61294E-02
        -0.77521E-02
        -0.98595E-02
        -0.20005E-01
        -0.11678E-01
        -0.76475E-02
        -0.94723E-02
        -0.11140E-01
        -0.11716E-01
        -0.65588E-03
         0.14461E-01
        -0.21040E-01
         0.49061E-01
         0.63225E-01
         0.81413E-01
         0.97313E-01
         0.95187E-01
         0.83321E-01
         0.79987E-01
         0.79019E-01
         0.49725E-01
         0.16630E-01
         0.65626E-02
         0.58065E-02
        -0.22348E-02
        -0.22288E-01
        -0.44631E-01
        -0.61773E-01
        -0.79973E-01
        -0.88612E-01
        -0.77843E-01
        -0.73632E-01
        -0.73112E-01
        -0.51084E-01
        -0.26369E-01
        -0.24866E-01
        -0.13848E-01
        -0.86500E-02
        -0.80750E-02
        -0.21617E-02
        -0.10420E-01
        -0.47433E-02
        -0.37656E-02
        -0.13299E-01
        -0.87872E-02
        -0.12933E-01
         0.65406E-02
         0.27866E-01
         0.16620E-01
         0.24032E-02
         0.28122E-01
         0.52165E-02
        -0.18602E-02
         0.14621E-02
         0.68755E-02
         0.11619E-02
         0.61181E-02
         0.42060E-02
        -0.24632E-02
         0.19839E-02
        -0.88048E-02
         0.19068E-02
         0.67091E-03
         0.11198E-02
        -0.12171E-02
        -0.84227E-02
         0.55992E-02
         0.13388E-02
         0.37731E-02
         0.32476E-02
        -0.12385E-02
         0.46361E-02
         0.87355E-02
         0.21494E-01
         0.19176E-01
         0.16619E-01
         0.12155E-01
        -0.27003E-02
        -0.61328E-02
        -0.77630E-02
        -0.98664E-02
        -0.20009E-01
        -0.11684E-01
        -0.76470E-02
        -0.94634E-02
        -0.11126E-01
        -0.11711E-01
        -0.64232E-03
         0.14447E-01
        -0.21040E-01
         0.49069E-01
         0.63225E-01
         0.81403E-01
         0.97280E-01
         0.95145E-01
         0.83296E-01
         0.79970E-01
         0.78993E-01
         0.49718E-01
         0.16642E-01
         0.65624E-02
         0.58177E-02
        -0.22133E-02
        -0.22302E-01
        -0.44660E-01
        -0.61792E-01
        -0.79971E-01
        -0.88606E-01
        -0.77839E-01
        -0.73630E-01
        -0.73092E-01
        -0.51048E-01
        -0.26341E-01
        -0.24833E-01
        -0.13855E-01
        -0.86494E-02
        -0.80790E-02
        -0.21766E-02
        -0.10422E-01
        -0.47470E-02
        -0.37685E-02
        -0.13316E-01
        -0.88038E-02
        -0.12972E-01
         0.65464E-02
         0.27864E-01
         0.16626E-01
         0.24051E-02
         0.28158E-01
         0.52176E-02
        -0.18771E-02
         0.14596E-02
         0.68808E-02
         0.11544E-02
         0.61333E-02
         0.42086E-02
        -0.24665E-02
         0.19813E-02
        -0.88369E-02
         0.18996E-02
         0.68080E-03
         0.11291E-02
        -0.12000E-02
        -0.84331E-02
         0.55985E-02
         0.13304E-02
         0.37815E-02
         0.32536E-02
        -0.12236E-02
         0.46397E-02
         0.87358E-02
         0.21529E-01
         0.19218E-01
         0.16638E-01
         0.12168E-01
        -0.26860E-02
        -0.61364E-02
        -0.77738E-02
        -0.98730E-02
        -0.20014E-01
        -0.11689E-01
        -0.76468E-02
        -0.94544E-02
        -0.11112E-01
        -0.11706E-01
        -0.62885E-03
         0.14433E-01
        -0.21042E-01
         0.49077E-01
         0.63226E-01
         0.81394E-01
         0.97246E-01
         0.95103E-01
         0.83270E-01
         0.79953E-01
         0.78966E-01
         0.49712E-01
         0.16654E-01
         0.65617E-02
         0.58288E-02
        -0.21918E-02
        -0.22316E-01
        -0.44688E-01
        -0.61810E-01
        -0.79970E-01
        -0.88601E-01
        -0.77835E-01
        -0.73628E-01
        -0.73072E-01
        -0.51011E-01
        -0.26313E-01
        -0.24799E-01
        -0.13915E-01
        -0.86833E-02
        -0.81154E-02
        -0.21993E-02
        -0.10463E-01
        -0.47683E-02
        -0.37863E-02
        -0.13383E-01
        -0.88531E-02
        -0.13058E-01
         0.65766E-02
         0.27964E-01
         0.16691E-01
         0.24159E-02
         0.28296E-01
         0.52391E-02
        -0.19002E-02
         0.14628E-02
         0.69119E-02
         0.11520E-02
         0.61697E-02
         0.42265E-02
        -0.24768E-02
         0.19876E-02
        -0.89011E-02
         0.19021E-02
         0.69245E-03
         0.11405E-02
        -0.11907E-02
        -0.84764E-02
         0.56204E-02
         0.13296E-02
         0.38040E-02
         0.32719E-02
        -0.12147E-02
         0.46585E-02
         0.87666E-02
         0.21642E-01
         0.19329E-01
         0.16719E-01
         0.12225E-01
        -0.26850E-02
        -0.61641E-02
        -0.78088E-02
        -0.99122E-02
        -0.20086E-01
        -0.11734E-01
        -0.76720E-02
        -0.94797E-02
        -0.11140E-01
        -0.11745E-01
        -0.61786E-03
         0.14467E-01
        -0.21117E-01
         0.49252E-01
         0.63442E-01
         0.81668E-01
         0.97562E-01
         0.95411E-01
         0.83552E-01
         0.80231E-01
         0.79234E-01
         0.49888E-01
         0.16721E-01
         0.65816E-02
         0.58583E-02
        -0.21785E-02
        -0.22398E-01
        -0.44853E-01
        -0.62030E-01
        -0.80244E-01
        -0.88902E-01
        -0.78092E-01
        -0.73870E-01
        -0.73297E-01
        -0.51148E-01
        -0.26374E-01
        -0.24850E-01
        -0.20713E-01
        -0.12978E-01
        -0.12062E-01
        -0.32973E-02
        -0.15008E-01
        -0.69087E-02
        -0.56477E-02
        -0.19832E-01
        -0.13159E-01
        -0.19314E-01
         0.96406E-02
         0.39365E-01
         0.23856E-01
         0.35270E-02
         0.40065E-01
         0.78072E-02
        -0.28407E-02
         0.21783E-02
         0.10163E-01
         0.16933E-02
         0.88277E-02
         0.61170E-02
        -0.35458E-02
         0.29443E-02
        -0.13297E-01
         0.28403E-02
         0.10278E-02
         0.17043E-02
        -0.17706E-02
        -0.12638E-01
         0.83760E-02
         0.19745E-02
         0.56885E-02
         0.48857E-02
        -0.16865E-02
         0.67379E-02
         0.12680E-01
         0.31324E-01
         0.28382E-01
         0.24633E-01
         0.17764E-01
        -0.39227E-02
        -0.90237E-02
        -0.11268E-01
        -0.14254E-01
        -0.28055E-01
        -0.16816E-01
        -0.11127E-01
        -0.13818E-01
        -0.16164E-01
        -0.16638E-01
        -0.87806E-03
         0.18024E-01
        -0.26297E-01
         0.61337E-01
         0.79232E-01
         0.10191E+00
         0.12203E+00
         0.12066E+00
         0.10657E+00
         0.10215E+00
         0.10028E+00
         0.63217E-01
         0.21154E-01
         0.84151E-02
         0.75265E-02
        -0.27421E-02
        -0.28055E-01
        -0.56014E-01
        -0.77024E-01
        -0.99564E-01
        -0.11043E+00
        -0.98023E-01
        -0.93139E-01
        -0.92073E-01
        -0.64460E-01
        -0.33129E-01
        -0.31097E-01
  
SCALARS                      strain_xz  double 1
LOOKUP_TABLE default
        -0.13759E-02
         0.92863E-02
         0.31527E-01
        -0.22746E-02
        -0.22805E-09
         0.80859E-10
         0.27038E-09
         0.53999E-10
         0.86145E-01
         0.58418E-01
         0.80872E-09
         0.72844E-09
        -0.34439E-02
         0.14018E-01
        -0.99743E-10
        -0.46725E-09
         0.33022E-02
         0.13502E-01
        -0.33751E-09
        -0.50266E-09
         0.18778E-01
         0.30349E-01
         0.30702E-01
        -0.33565E-09
        -0.15478E-09
         0.27041E-09
         0.32106E-01
         0.24482E-01
        -0.62830E-09
        -0.49840E-09
        -0.77084E-02
         0.16170E-01
        -0.17291E-02
         0.63969E-10
        -0.24720E-09
        -0.15230E-09
        -0.22131E-01
        -0.98979E-02
        -0.36702E-09
        -0.39078E-09
        -0.42842E-01
        -0.57258E-01
        -0.82788E-09
        -0.61052E-09
        -0.48087E-01
        -0.26147E-01
        -0.90916E-09
        -0.43760E-09
         0.11823E-01
        -0.27468E-09
        -0.33428E-01
        -0.76461E-10
         0.11458E-01
        -0.53673E-09
        -0.83918E-02
        -0.14198E-09
        -0.36732E-01
        -0.10797E-01
        -0.12163E-09
        -0.29398E-09
         0.82214E-03
        -0.22193E-01
         0.24326E-09
         0.16682E-09
         0.59704E-02
        -0.24469E-10
         0.19479E-01
         0.16095E-09
         0.11958E+00
         0.81340E-01
         0.10060E-08
         0.72959E-09
         0.51469E-01
         0.53124E-09
        -0.98907E-02
        -0.36749E-09
        -0.30601E-01
        -0.72124E-10
        -0.65256E-01
        -0.11190E-09
        -0.89126E-01
        -0.65313E-01
        -0.41008E-09
        -0.46899E-09
        -0.61391E-01
        -0.50438E-09
        -0.58252E-01
        -0.72618E-09
        -0.35345E-01
        -0.46317E-09
        -0.54455E-01
        -0.39557E-01
        -0.19768E-09
         0.27109E-09
         0.91770E-02
         0.31798E-09
         0.25456E-01
         0.13351E-09
         0.60551E-01
         0.32970E-09
         0.89228E-01
         0.61818E-01
         0.76021E-09
         0.79329E-09
         0.20735E+00
         0.23567E+00
         0.14047E-08
         0.13843E-08
         0.20443E+00
         0.12000E-08
         0.19202E+00
         0.89680E-09
         0.13375E+00
         0.49283E-09
         0.90890E-01
         0.52700E-10
         0.31531E-01
        -0.18770E-09
        -0.38961E-01
        -0.15017E-09
        -0.92575E-01
        -0.14760E-09
        -0.13773E+00
        -0.33285E-09
        -0.19384E+00
        -0.63325E-09
        -0.25573E+00
        -0.75568E-09
        -0.29609E+00
        -0.71300E-09
        -0.29580E+00
        -0.77533E-09
        -0.28385E+00
        -0.10063E-08
        -0.26300E+00
        -0.11866E-08
        -0.23173E+00
        -0.11031E-08
        -0.17118E+00
        -0.89646E-09
        -0.95200E-01
        -0.42321E-09
        -0.80146E-02
         0.80812E-10
         0.53838E-01
         0.19620E-09
         0.85518E-01
         0.32083E-09
         0.12537E+00
         0.62788E-09
         0.16530E+00
         0.10303E-08
         0.22151E+00
         0.12379E-08
         0.26087E+00
         0.12661E-08
        -0.23451E-02
         0.12222E-02
         0.14337E-02
        -0.28821E-02
         0.11181E-01
         0.86444E-02
         0.13056E-02
        -0.19179E-02
        -0.98781E-03
        -0.17600E-02
         0.96587E-03
         0.41821E-02
         0.87397E-02
        -0.27953E-02
        -0.33626E-02
         0.38360E-02
         0.32202E-02
        -0.14913E-02
        -0.23260E-02
        -0.25015E-02
        -0.13681E-01
        -0.14564E-01
        -0.13158E-01
        -0.40884E-02
         0.16387E-02
        -0.12211E-02
        -0.39246E-02
        -0.44007E-03
        -0.45023E-02
        -0.30959E-02
         0.34254E-02
         0.67319E-03
        -0.16141E-02
        -0.52249E-03
         0.16522E-01
         0.10534E-01
         0.95352E-02
        -0.66740E-02
        -0.38013E-02
        -0.81249E-02
        -0.16706E-01
        -0.15597E-01
        -0.15401E-01
        -0.11321E-01
        -0.81213E-02
        -0.63482E-02
         0.11931E-02
         0.49830E-02
         0.14410E-02
         0.45687E-02
         0.12199E-01
         0.10280E-01
         0.48125E-01
         0.50674E-01
         0.45282E-01
         0.38552E-01
         0.28710E-01
         0.14609E-01
        -0.86516E-03
        -0.10376E-01
        -0.15811E-01
        -0.27145E-01
        -0.44203E-01
        -0.54031E-01
        -0.49527E-01
        -0.47508E-01
        -0.50224E-01
        -0.50240E-01
        -0.45647E-01
        -0.39949E-01
        -0.20160E-01
         0.31909E-02
         0.12277E-01
         0.13683E-01
         0.23166E-01
         0.36942E-01
         0.48018E-01
         0.50502E-01
        -0.46572E-02
         0.95604E-03
        -0.18201E-02
        -0.52996E-02
         0.10871E-01
         0.92898E-02
         0.27066E-02
        -0.59084E-02
        -0.27148E-02
        -0.56171E-02
        -0.11348E-02
         0.41398E-02
         0.13620E-01
        -0.10445E-01
        -0.10818E-01
         0.91498E-02
         0.50938E-02
        -0.30509E-02
        -0.20532E-02
        -0.36057E-02
        -0.21393E-01
        -0.20389E-01
        -0.20120E-01
        -0.48665E-02
         0.27641E-02
         0.18611E-02
        -0.10093E-01
         0.13402E-02
        -0.33779E-02
        -0.46063E-02
         0.70297E-02
         0.45488E-02
        -0.45594E-02
        -0.39350E-02
         0.19386E-01
         0.10700E-01
         0.12274E-01
        -0.11997E-01
        -0.20086E-02
        -0.58237E-02
        -0.21395E-01
        -0.22008E-01
        -0.21512E-01
        -0.15555E-01
        -0.11978E-01
        -0.70086E-02
         0.75748E-02
         0.89425E-02
        -0.11821E-02
         0.14233E-02
         0.14589E-01
         0.12851E-01
         0.80987E-01
         0.81610E-01
         0.73254E-01
         0.60420E-01
         0.45077E-01
         0.20758E-01
        -0.51543E-02
        -0.16704E-01
        -0.22006E-01
        -0.40335E-01
        -0.71645E-01
        -0.84522E-01
        -0.70898E-01
        -0.67455E-01
        -0.74306E-01
        -0.76518E-01
        -0.69836E-01
        -0.66048E-01
        -0.33654E-01
         0.87468E-02
         0.19349E-01
         0.19604E-01
         0.34851E-01
         0.60344E-01
         0.77236E-01
         0.76993E-01
        -0.46660E-02
         0.95959E-03
        -0.18235E-02
        -0.53031E-02
         0.10860E-01
         0.92812E-02
         0.27238E-02
        -0.58934E-02
        -0.27178E-02
        -0.56126E-02
        -0.11118E-02
         0.41499E-02
         0.13628E-01
        -0.10419E-01
        -0.10812E-01
         0.91593E-02
         0.51050E-02
        -0.30425E-02
        -0.20522E-02
        -0.35994E-02
        -0.21391E-01
        -0.20386E-01
        -0.20118E-01
        -0.48668E-02
         0.27703E-02
         0.18642E-02
        -0.10096E-01
         0.13150E-02
        -0.34016E-02
        -0.46092E-02
         0.70399E-02
         0.45482E-02
        -0.45404E-02
        -0.39368E-02
         0.19396E-01
         0.10695E-01
         0.12270E-01
        -0.12016E-01
        -0.20279E-02
        -0.58420E-02
        -0.21408E-01
        -0.22021E-01
        -0.21513E-01
        -0.15552E-01
        -0.11974E-01
        -0.70049E-02
         0.75733E-02
         0.89455E-02
        -0.11735E-02
         0.14184E-02
         0.14579E-01
         0.12832E-01
         0.80959E-01
         0.81589E-01
         0.73247E-01
         0.60420E-01
         0.45063E-01
         0.20752E-01
        -0.51601E-02
        -0.16715E-01
        -0.21988E-01
        -0.40319E-01
        -0.71635E-01
        -0.84524E-01
        -0.70891E-01
        -0.67451E-01
        -0.74316E-01
        -0.76535E-01
        -0.69848E-01
        -0.66061E-01
        -0.33645E-01
         0.87508E-02
         0.19334E-01
         0.19596E-01
         0.34825E-01
         0.60307E-01
         0.77198E-01
         0.76959E-01
        -0.46749E-02
         0.96308E-03
        -0.18269E-02
        -0.53067E-02
         0.10849E-01
         0.92728E-02
         0.27411E-02
        -0.58785E-02
        -0.27206E-02
        -0.56079E-02
        -0.10889E-02
         0.41600E-02
         0.13636E-01
        -0.10393E-01
        -0.10806E-01
         0.91690E-02
         0.51163E-02
        -0.30339E-02
        -0.20511E-02
        -0.35933E-02
        -0.21390E-01
        -0.20384E-01
        -0.20117E-01
        -0.48670E-02
         0.27770E-02
         0.18676E-02
        -0.10099E-01
         0.12901E-02
        -0.34255E-02
        -0.46121E-02
         0.70505E-02
         0.45479E-02
        -0.45213E-02
        -0.39385E-02
         0.19406E-01
         0.10690E-01
         0.12266E-01
        -0.12035E-01
        -0.20471E-02
        -0.58605E-02
        -0.21422E-01
        -0.22034E-01
        -0.21515E-01
        -0.15551E-01
        -0.11970E-01
        -0.70015E-02
         0.75719E-02
         0.89485E-02
        -0.11646E-02
         0.14134E-02
         0.14570E-01
         0.12813E-01
         0.80931E-01
         0.81568E-01
         0.73241E-01
         0.60421E-01
         0.45050E-01
         0.20745E-01
        -0.51661E-02
        -0.16725E-01
        -0.21969E-01
        -0.40303E-01
        -0.71624E-01
        -0.84525E-01
        -0.70885E-01
        -0.67447E-01
        -0.74326E-01
        -0.76552E-01
        -0.69860E-01
        -0.66074E-01
        -0.33636E-01
         0.87548E-02
         0.19320E-01
         0.19589E-01
         0.34800E-01
         0.60270E-01
         0.77159E-01
         0.76925E-01
        -0.46837E-02
         0.96670E-03
        -0.18303E-02
        -0.53102E-02
         0.10839E-01
         0.92642E-02
         0.27582E-02
        -0.58635E-02
        -0.27231E-02
        -0.56024E-02
        -0.10660E-02
         0.41702E-02
         0.13644E-01
        -0.10368E-01
        -0.10801E-01
         0.91796E-02
         0.51283E-02
        -0.30254E-02
        -0.20503E-02
        -0.35869E-02
        -0.21388E-01
        -0.20383E-01
        -0.20117E-01
        -0.48673E-02
         0.27849E-02
         0.18717E-02
        -0.10101E-01
         0.12660E-02
        -0.34493E-02
        -0.46148E-02
         0.70618E-02
         0.45483E-02
        -0.45021E-02
        -0.39403E-02
         0.19415E-01
         0.10686E-01
         0.12262E-01
        -0.12054E-01
        -0.20663E-02
        -0.58789E-02
        -0.21436E-01
        -0.22048E-01
        -0.21518E-01
        -0.15549E-01
        -0.11965E-01
        -0.69978E-02
         0.75708E-02
         0.89515E-02
        -0.11558E-02
         0.14084E-02
         0.14560E-01
         0.12794E-01
         0.80904E-01
         0.81547E-01
         0.73234E-01
         0.60421E-01
         0.45036E-01
         0.20739E-01
        -0.51720E-02
        -0.16735E-01
        -0.21951E-01
        -0.40287E-01
        -0.71613E-01
        -0.84528E-01
        -0.70880E-01
        -0.67444E-01
        -0.74336E-01
        -0.76572E-01
        -0.69874E-01
        -0.66086E-01
        -0.33626E-01
         0.87588E-02
         0.19306E-01
         0.19581E-01
         0.34774E-01
         0.60233E-01
         0.77121E-01
         0.76891E-01
        -0.46924E-02
         0.97031E-03
        -0.18337E-02
        -0.53136E-02
         0.10828E-01
         0.92557E-02
         0.27755E-02
        -0.58483E-02
        -0.27252E-02
        -0.55960E-02
        -0.10431E-02
         0.41803E-02
         0.13653E-01
        -0.10342E-01
        -0.10795E-01
         0.91910E-02
         0.51407E-02
        -0.30168E-02
        -0.20491E-02
        -0.35804E-02
        -0.21388E-01
        -0.20382E-01
        -0.20118E-01
        -0.48676E-02
         0.27941E-02
         0.18765E-02
        -0.10104E-01
         0.12426E-02
        -0.34730E-02
        -0.46174E-02
         0.70739E-02
         0.45494E-02
        -0.44828E-02
        -0.39420E-02
         0.19425E-01
         0.10681E-01
         0.12258E-01
        -0.12074E-01
        -0.20854E-02
        -0.58975E-02
        -0.21450E-01
        -0.22062E-01
        -0.21522E-01
        -0.15548E-01
        -0.11961E-01
        -0.69937E-02
         0.75700E-02
         0.89549E-02
        -0.11470E-02
         0.14034E-02
         0.14551E-01
         0.12775E-01
         0.80876E-01
         0.81526E-01
         0.73228E-01
         0.60421E-01
         0.45022E-01
         0.20733E-01
        -0.51778E-02
        -0.16746E-01
        -0.21932E-01
        -0.40270E-01
        -0.71601E-01
        -0.84531E-01
        -0.70877E-01
        -0.67441E-01
        -0.74348E-01
        -0.76594E-01
        -0.69890E-01
        -0.66099E-01
        -0.33617E-01
         0.87627E-02
         0.19292E-01
         0.19573E-01
         0.34749E-01
         0.60197E-01
         0.77083E-01
         0.76856E-01
        -0.47008E-02
         0.97422E-03
        -0.18367E-02
        -0.53170E-02
         0.10818E-01
         0.92471E-02
         0.27928E-02
        -0.58329E-02
        -0.27272E-02
        -0.55894E-02
        -0.10202E-02
         0.41904E-02
         0.13661E-01
        -0.10316E-01
        -0.10789E-01
         0.92026E-02
         0.51531E-02
        -0.30082E-02
        -0.20480E-02
        -0.35742E-02
        -0.21388E-01
        -0.20381E-01
        -0.20120E-01
        -0.48680E-02
         0.28032E-02
         0.18814E-02
        -0.10105E-01
         0.12194E-02
        -0.34969E-02
        -0.46204E-02
         0.70860E-02
         0.45504E-02
        -0.44633E-02
        -0.39436E-02
         0.19435E-01
         0.10677E-01
         0.12254E-01
        -0.12093E-01
        -0.21045E-02
        -0.59161E-02
        -0.21465E-01
        -0.22077E-01
        -0.21527E-01
        -0.15547E-01
        -0.11956E-01
        -0.69902E-02
         0.75689E-02
         0.89581E-02
        -0.11379E-02
         0.13989E-02
         0.14543E-01
         0.12757E-01
         0.80848E-01
         0.81505E-01
         0.73221E-01
         0.60421E-01
         0.45008E-01
         0.20727E-01
        -0.51836E-02
        -0.16756E-01
        -0.21914E-01
        -0.40254E-01
        -0.71590E-01
        -0.84535E-01
        -0.70874E-01
        -0.67439E-01
        -0.74360E-01
        -0.76617E-01
        -0.69905E-01
        -0.66111E-01
        -0.33607E-01
         0.87663E-02
         0.19278E-01
         0.19566E-01
         0.34723E-01
         0.60160E-01
         0.77044E-01
         0.76822E-01
        -0.47086E-02
         0.97892E-03
        -0.18390E-02
        -0.53203E-02
         0.10807E-01
         0.92388E-02
         0.28104E-02
        -0.58171E-02
        -0.27293E-02
        -0.55832E-02
        -0.99714E-03
         0.42006E-02
         0.13669E-01
        -0.10290E-01
        -0.10783E-01
         0.92142E-02
         0.51650E-02
        -0.29995E-02
        -0.20471E-02
        -0.35682E-02
        -0.21387E-01
        -0.20380E-01
        -0.20121E-01
        -0.48686E-02
         0.28112E-02
         0.18857E-02
        -0.10108E-01
         0.11957E-02
        -0.35210E-02
        -0.46238E-02
         0.70973E-02
         0.45506E-02
        -0.44435E-02
        -0.39447E-02
         0.19445E-01
         0.10673E-01
         0.12251E-01
        -0.12112E-01
        -0.21238E-02
        -0.59350E-02
        -0.21480E-01
        -0.22093E-01
        -0.21532E-01
        -0.15547E-01
        -0.11952E-01
        -0.69871E-02
         0.75672E-02
         0.89611E-02
        -0.11281E-02
         0.13954E-02
         0.14535E-01
         0.12738E-01
         0.80820E-01
         0.81484E-01
         0.73214E-01
         0.60422E-01
         0.44994E-01
         0.20720E-01
        -0.51893E-02
        -0.16766E-01
        -0.21895E-01
        -0.40239E-01
        -0.71578E-01
        -0.84538E-01
        -0.70872E-01
        -0.67437E-01
        -0.74372E-01
        -0.76641E-01
        -0.69921E-01
        -0.66123E-01
        -0.33598E-01
         0.87693E-02
         0.19263E-01
         0.19558E-01
         0.34698E-01
         0.60124E-01
         0.77006E-01
         0.76788E-01
        -0.47160E-02
         0.98387E-03
        -0.18410E-02
        -0.53235E-02
         0.10797E-01
         0.92302E-02
         0.28282E-02
        -0.58012E-02
        -0.27316E-02
        -0.55772E-02
        -0.97404E-03
         0.42107E-02
         0.13678E-01
        -0.10264E-01
        -0.10777E-01
         0.92257E-02
         0.51767E-02
        -0.29908E-02
        -0.20460E-02
        -0.35625E-02
        -0.21387E-01
        -0.20380E-01
        -0.20123E-01
        -0.48691E-02
         0.28188E-02
         0.18897E-02
        -0.10110E-01
         0.11718E-02
        -0.35455E-02
        -0.46275E-02
         0.71084E-02
         0.45503E-02
        -0.44234E-02
        -0.39457E-02
         0.19456E-01
         0.10669E-01
         0.12248E-01
        -0.12130E-01
        -0.21431E-02
        -0.59539E-02
        -0.21494E-01
        -0.22109E-01
        -0.21537E-01
        -0.15547E-01
        -0.11949E-01
        -0.69845E-02
         0.75652E-02
         0.89639E-02
        -0.11179E-02
         0.13923E-02
         0.14527E-01
         0.12720E-01
         0.80792E-01
         0.81464E-01
         0.73207E-01
         0.60422E-01
         0.44980E-01
         0.20714E-01
        -0.51950E-02
        -0.16777E-01
        -0.21877E-01
        -0.40223E-01
        -0.71566E-01
        -0.84541E-01
        -0.70869E-01
        -0.67435E-01
        -0.74384E-01
        -0.76664E-01
        -0.69937E-01
        -0.66134E-01
        -0.33588E-01
         0.87721E-02
         0.19248E-01
         0.19551E-01
         0.34674E-01
         0.60087E-01
         0.76968E-01
         0.76754E-01
        -0.47233E-02
         0.98887E-03
        -0.18430E-02
        -0.53267E-02
         0.10787E-01
         0.92216E-02
         0.28459E-02
        -0.57854E-02
        -0.27338E-02
        -0.55713E-02
        -0.95103E-03
         0.42208E-02
         0.13686E-01
        -0.10239E-01
        -0.10771E-01
         0.92372E-02
         0.51884E-02
        -0.29821E-02
        -0.20449E-02
        -0.35566E-02
        -0.21387E-01
        -0.20379E-01
        -0.20125E-01
        -0.48698E-02
         0.28263E-02
         0.18937E-02
        -0.10112E-01
         0.11480E-02
        -0.35699E-02
        -0.46311E-02
         0.71195E-02
         0.45501E-02
        -0.44033E-02
        -0.39466E-02
         0.19467E-01
         0.10665E-01
         0.12245E-01
        -0.12149E-01
        -0.21624E-02
        -0.59727E-02
        -0.21509E-01
        -0.22124E-01
        -0.21542E-01
        -0.15547E-01
        -0.11945E-01
        -0.69819E-02
         0.75633E-02
         0.89667E-02
        -0.11078E-02
         0.13894E-02
         0.14520E-01
         0.12702E-01
         0.80765E-01
         0.81443E-01
         0.73200E-01
         0.60422E-01
         0.44966E-01
         0.20708E-01
        -0.52007E-02
        -0.16787E-01
        -0.21858E-01
        -0.40207E-01
        -0.71555E-01
        -0.84545E-01
        -0.70866E-01
        -0.67433E-01
        -0.74396E-01
        -0.76688E-01
        -0.69953E-01
        -0.66146E-01
        -0.33578E-01
         0.87749E-02
         0.19233E-01
         0.19543E-01
         0.34649E-01
         0.60051E-01
         0.76930E-01
         0.76719E-01
        -0.47307E-02
         0.99393E-03
        -0.18449E-02
        -0.53300E-02
         0.10777E-01
         0.92130E-02
         0.28637E-02
        -0.57695E-02
        -0.27361E-02
        -0.55654E-02
        -0.92801E-03
         0.42309E-02
         0.13695E-01
        -0.10213E-01
        -0.10765E-01
         0.92487E-02
         0.52000E-02
        -0.29735E-02
        -0.20437E-02
        -0.35509E-02
        -0.21387E-01
        -0.20378E-01
        -0.20127E-01
        -0.48704E-02
         0.28338E-02
         0.18977E-02
        -0.10114E-01
         0.11243E-02
        -0.35942E-02
        -0.46348E-02
         0.71305E-02
         0.45497E-02
        -0.43833E-02
        -0.39476E-02
         0.19477E-01
         0.10662E-01
         0.12242E-01
        -0.12168E-01
        -0.21817E-02
        -0.59917E-02
        -0.21524E-01
        -0.22140E-01
        -0.21547E-01
        -0.15547E-01
        -0.11942E-01
        -0.69790E-02
         0.75613E-02
         0.89696E-02
        -0.10977E-02
         0.13862E-02
         0.14512E-01
         0.12684E-01
         0.80737E-01
         0.81422E-01
         0.73193E-01
         0.60422E-01
         0.44952E-01
         0.20701E-01
        -0.52064E-02
        -0.16797E-01
        -0.21840E-01
        -0.40191E-01
        -0.71543E-01
        -0.84548E-01
        -0.70863E-01
        -0.67430E-01
        -0.74408E-01
        -0.76711E-01
        -0.69969E-01
        -0.66157E-01
        -0.33568E-01
         0.87776E-02
         0.19217E-01
         0.19535E-01
         0.34624E-01
         0.60015E-01
         0.76893E-01
         0.76685E-01
        -0.47381E-02
         0.99894E-03
        -0.18470E-02
        -0.53331E-02
         0.10767E-01
         0.92047E-02
         0.28814E-02
        -0.57536E-02
        -0.27383E-02
        -0.55596E-02
        -0.90495E-03
         0.42412E-02
         0.13704E-01
        -0.10188E-01
        -0.10759E-01
         0.92601E-02
         0.52117E-02
        -0.29649E-02
        -0.20429E-02
        -0.35449E-02
        -0.21386E-01
        -0.20378E-01
        -0.20128E-01
        -0.48711E-02
         0.28412E-02
         0.19016E-02
        -0.10117E-01
         0.11005E-02
        -0.36185E-02
        -0.46383E-02
         0.71415E-02
         0.45494E-02
        -0.43632E-02
        -0.39486E-02
         0.19488E-01
         0.10658E-01
         0.12239E-01
        -0.12187E-01
        -0.22011E-02
        -0.60105E-02
        -0.21539E-01
        -0.22155E-01
        -0.21553E-01
        -0.15547E-01
        -0.11938E-01
        -0.69765E-02
         0.75593E-02
         0.89725E-02
        -0.10875E-02
         0.13832E-02
         0.14505E-01
         0.12665E-01
         0.80709E-01
         0.81401E-01
         0.73186E-01
         0.60422E-01
         0.44938E-01
         0.20695E-01
        -0.52119E-02
        -0.16807E-01
        -0.21821E-01
        -0.40175E-01
        -0.71532E-01
        -0.84552E-01
        -0.70860E-01
        -0.67428E-01
        -0.74420E-01
        -0.76735E-01
        -0.69985E-01
        -0.66169E-01
        -0.33559E-01
         0.87802E-02
         0.19202E-01
         0.19528E-01
         0.34600E-01
         0.59978E-01
         0.76855E-01
         0.76651E-01
        -0.47454E-02
         0.10039E-02
        -0.18489E-02
        -0.53363E-02
         0.10757E-01
         0.91962E-02
         0.28992E-02
        -0.57377E-02
        -0.27405E-02
        -0.55537E-02
        -0.88196E-03
         0.42514E-02
         0.13712E-01
        -0.10162E-01
        -0.10753E-01
         0.92716E-02
         0.52234E-02
        -0.29563E-02
        -0.20418E-02
        -0.35392E-02
        -0.21386E-01
        -0.20377E-01
        -0.20130E-01
        -0.48718E-02
         0.28486E-02
         0.19057E-02
        -0.10119E-01
         0.10769E-02
        -0.36425E-02
        -0.46421E-02
         0.71526E-02
         0.45491E-02
        -0.43430E-02
        -0.39495E-02
         0.19499E-01
         0.10655E-01
         0.12236E-01
        -0.12206E-01
        -0.22206E-02
        -0.60296E-02
        -0.21554E-01
        -0.22170E-01
        -0.21558E-01
        -0.15547E-01
        -0.11935E-01
        -0.69740E-02
         0.75573E-02
         0.89754E-02
        -0.10773E-02
         0.13803E-02
         0.14497E-01
         0.12647E-01
         0.80681E-01
         0.81381E-01
         0.73179E-01
         0.60422E-01
         0.44924E-01
         0.20689E-01
        -0.52175E-02
        -0.16817E-01
        -0.21803E-01
        -0.40159E-01
        -0.71520E-01
        -0.84555E-01
        -0.70857E-01
        -0.67426E-01
        -0.74432E-01
        -0.76758E-01
        -0.70000E-01
        -0.66180E-01
        -0.33549E-01
         0.87829E-02
         0.19187E-01
         0.19520E-01
         0.34575E-01
         0.59942E-01
         0.76817E-01
         0.76617E-01
        -0.47529E-02
         0.10090E-02
        -0.18508E-02
        -0.53395E-02
         0.10747E-01
         0.91876E-02
         0.29169E-02
        -0.57218E-02
        -0.27427E-02
        -0.55477E-02
        -0.85903E-03
         0.42615E-02
         0.13721E-01
        -0.10136E-01
        -0.10747E-01
         0.92830E-02
         0.52350E-02
        -0.29476E-02
        -0.20408E-02
        -0.35333E-02
        -0.21385E-01
        -0.20377E-01
        -0.20132E-01
        -0.48725E-02
         0.28559E-02
         0.19097E-02
        -0.10122E-01
         0.10533E-02
        -0.36668E-02
        -0.46457E-02
         0.71636E-02
         0.45487E-02
        -0.43229E-02
        -0.39505E-02
         0.19509E-01
         0.10651E-01
         0.12233E-01
        -0.12225E-01
        -0.22401E-02
        -0.60485E-02
        -0.21569E-01
        -0.22186E-01
        -0.21563E-01
        -0.15547E-01
        -0.11931E-01
        -0.69710E-02
         0.75554E-02
         0.89782E-02
        -0.10671E-02
         0.13772E-02
         0.14489E-01
         0.12629E-01
         0.80653E-01
         0.81360E-01
         0.73172E-01
         0.60422E-01
         0.44911E-01
         0.20682E-01
        -0.52232E-02
        -0.16827E-01
        -0.21784E-01
        -0.40143E-01
        -0.71508E-01
        -0.84558E-01
        -0.70855E-01
        -0.67424E-01
        -0.74444E-01
        -0.76782E-01
        -0.70016E-01
        -0.66191E-01
        -0.33539E-01
         0.87856E-02
         0.19172E-01
         0.19513E-01
         0.34550E-01
         0.59906E-01
         0.76779E-01
         0.76583E-01
        -0.47603E-02
         0.10140E-02
        -0.18527E-02
        -0.53426E-02
         0.10737E-01
         0.91790E-02
         0.29344E-02
        -0.57059E-02
        -0.27449E-02
        -0.55417E-02
        -0.83614E-03
         0.42716E-02
         0.13729E-01
        -0.10111E-01
        -0.10740E-01
         0.92944E-02
         0.52466E-02
        -0.29390E-02
        -0.20400E-02
        -0.35276E-02
        -0.21385E-01
        -0.20376E-01
        -0.20134E-01
        -0.48732E-02
         0.28632E-02
         0.19136E-02
        -0.10124E-01
         0.10297E-02
        -0.36910E-02
        -0.46492E-02
         0.71746E-02
         0.45484E-02
        -0.43027E-02
        -0.39514E-02
         0.19520E-01
         0.10648E-01
         0.12230E-01
        -0.12243E-01
        -0.22596E-02
        -0.60677E-02
        -0.21584E-01
        -0.22201E-01
        -0.21568E-01
        -0.15547E-01
        -0.11928E-01
        -0.69684E-02
         0.75534E-02
         0.89811E-02
        -0.10569E-02
         0.13741E-02
         0.14482E-01
         0.12611E-01
         0.80625E-01
         0.81340E-01
         0.73165E-01
         0.60422E-01
         0.44897E-01
         0.20676E-01
        -0.52289E-02
        -0.16837E-01
        -0.21766E-01
        -0.40127E-01
        -0.71497E-01
        -0.84562E-01
        -0.70852E-01
        -0.67421E-01
        -0.74456E-01
        -0.76805E-01
        -0.70032E-01
        -0.66203E-01
        -0.33529E-01
         0.87881E-02
         0.19157E-01
         0.19505E-01
         0.34526E-01
         0.59869E-01
         0.76741E-01
         0.76549E-01
        -0.47677E-02
         0.10189E-02
        -0.18546E-02
        -0.53457E-02
         0.10727E-01
         0.91705E-02
         0.29521E-02
        -0.56900E-02
        -0.27471E-02
        -0.55358E-02
        -0.81326E-03
         0.42820E-02
         0.13738E-01
        -0.10085E-01
        -0.10734E-01
         0.93058E-02
         0.52582E-02
        -0.29304E-02
        -0.20390E-02
        -0.35217E-02
        -0.21385E-01
        -0.20375E-01
        -0.20135E-01
        -0.48739E-02
         0.28705E-02
         0.19176E-02
        -0.10126E-01
         0.10062E-02
        -0.37152E-02
        -0.46528E-02
         0.71856E-02
         0.45480E-02
        -0.42825E-02
        -0.39523E-02
         0.19530E-01
         0.10644E-01
         0.12228E-01
        -0.12262E-01
        -0.22791E-02
        -0.60867E-02
        -0.21599E-01
        -0.22217E-01
        -0.21573E-01
        -0.15547E-01
        -0.11924E-01
        -0.69659E-02
         0.75513E-02
         0.89839E-02
        -0.10465E-02
         0.13711E-02
         0.14474E-01
         0.12592E-01
         0.80597E-01
         0.81319E-01
         0.73158E-01
         0.60422E-01
         0.44883E-01
         0.20670E-01
        -0.52343E-02
        -0.16847E-01
        -0.21747E-01
        -0.40111E-01
        -0.71485E-01
        -0.84565E-01
        -0.70849E-01
        -0.67419E-01
        -0.74468E-01
        -0.76829E-01
        -0.70048E-01
        -0.66214E-01
        -0.33519E-01
         0.87907E-02
         0.19142E-01
         0.19498E-01
         0.34501E-01
         0.59833E-01
         0.76703E-01
         0.76515E-01
        -0.47751E-02
         0.10240E-02
        -0.18565E-02
        -0.53488E-02
         0.10717E-01
         0.91622E-02
         0.29696E-02
        -0.56740E-02
        -0.27492E-02
        -0.55298E-02
        -0.79037E-03
         0.42921E-02
         0.13747E-01
        -0.10060E-01
        -0.10728E-01
         0.93173E-02
         0.52698E-02
        -0.29219E-02
        -0.20379E-02
        -0.35160E-02
        -0.21384E-01
        -0.20375E-01
        -0.20137E-01
        -0.48747E-02
         0.28776E-02
         0.19216E-02
        -0.10128E-01
         0.98273E-03
        -0.37394E-02
        -0.46563E-02
         0.71965E-02
         0.45477E-02
        -0.42624E-02
        -0.39533E-02
         0.19541E-01
         0.10641E-01
         0.12225E-01
        -0.12280E-01
        -0.22987E-02
        -0.61056E-02
        -0.21613E-01
        -0.22232E-01
        -0.21578E-01
        -0.15546E-01
        -0.11921E-01
        -0.69631E-02
         0.75494E-02
         0.89868E-02
        -0.10363E-02
         0.13680E-02
         0.14467E-01
         0.12574E-01
         0.80569E-01
         0.81298E-01
         0.73151E-01
         0.60422E-01
         0.44869E-01
         0.20663E-01
        -0.52397E-02
        -0.16856E-01
        -0.21729E-01
        -0.40095E-01
        -0.71474E-01
        -0.84569E-01
        -0.70846E-01
        -0.67417E-01
        -0.74480E-01
        -0.76852E-01
        -0.70064E-01
        -0.66225E-01
        -0.33510E-01
         0.87933E-02
         0.19127E-01
         0.19490E-01
         0.34476E-01
         0.59797E-01
         0.76666E-01
         0.76481E-01
        -0.47825E-02
         0.10289E-02
        -0.18585E-02
        -0.53519E-02
         0.10707E-01
         0.91536E-02
         0.29872E-02
        -0.56581E-02
        -0.27513E-02
        -0.55236E-02
        -0.76750E-03
         0.43024E-02
         0.13755E-01
        -0.10034E-01
        -0.10722E-01
         0.93287E-02
         0.52815E-02
        -0.29133E-02
        -0.20370E-02
        -0.35101E-02
        -0.21384E-01
        -0.20374E-01
        -0.20139E-01
        -0.48755E-02
         0.28846E-02
         0.19255E-02
        -0.10130E-01
         0.95902E-03
        -0.37633E-02
        -0.46598E-02
         0.72076E-02
         0.45474E-02
        -0.42423E-02
        -0.39543E-02
         0.19552E-01
         0.10637E-01
         0.12222E-01
        -0.12298E-01
        -0.23185E-02
        -0.61248E-02
        -0.21628E-01
        -0.22247E-01
        -0.21583E-01
        -0.15547E-01
        -0.11917E-01
        -0.69605E-02
         0.75474E-02
         0.89897E-02
        -0.10261E-02
         0.13649E-02
         0.14459E-01
         0.12556E-01
         0.80541E-01
         0.81278E-01
         0.73144E-01
         0.60422E-01
         0.44855E-01
         0.20657E-01
        -0.52450E-02
        -0.16866E-01
        -0.21711E-01
        -0.40079E-01
        -0.71462E-01
        -0.84573E-01
        -0.70844E-01
        -0.67415E-01
        -0.74491E-01
        -0.76875E-01
        -0.70080E-01
        -0.66236E-01
        -0.33500E-01
         0.87958E-02
         0.19111E-01
         0.19483E-01
         0.34452E-01
         0.59760E-01
         0.76628E-01
         0.76447E-01
        -0.47899E-02
         0.10339E-02
        -0.18603E-02
        -0.53550E-02
         0.10697E-01
         0.91451E-02
         0.30048E-02
        -0.56422E-02
        -0.27532E-02
        -0.55167E-02
        -0.74465E-03
         0.43126E-02
         0.13764E-01
        -0.10009E-01
        -0.10715E-01
         0.93401E-02
         0.52930E-02
        -0.29047E-02
        -0.20363E-02
        -0.35044E-02
        -0.21384E-01
        -0.20373E-01
        -0.20141E-01
        -0.48761E-02
         0.28911E-02
         0.19296E-02
        -0.10131E-01
         0.93472E-03
        -0.37874E-02
        -0.46635E-02
         0.72186E-02
         0.45470E-02
        -0.42220E-02
        -0.39553E-02
         0.19562E-01
         0.10634E-01
         0.12219E-01
        -0.12316E-01
        -0.23388E-02
        -0.61435E-02
        -0.21641E-01
        -0.22261E-01
        -0.21588E-01
        -0.15547E-01
        -0.11914E-01
        -0.69577E-02
         0.75455E-02
         0.89926E-02
        -0.10159E-02
         0.13619E-02
         0.14452E-01
         0.12537E-01
         0.80513E-01
         0.81258E-01
         0.73137E-01
         0.60422E-01
         0.44841E-01
         0.20651E-01
        -0.52504E-02
        -0.16876E-01
        -0.21693E-01
        -0.40062E-01
        -0.71450E-01
        -0.84580E-01
        -0.70843E-01
        -0.67413E-01
        -0.74503E-01
        -0.76898E-01
        -0.70096E-01
        -0.66248E-01
        -0.33490E-01
         0.87984E-02
         0.19096E-01
         0.19475E-01
         0.34427E-01
         0.59724E-01
         0.76590E-01
         0.76413E-01
        -0.47973E-02
         0.10389E-02
        -0.18622E-02
        -0.53581E-02
         0.10687E-01
         0.91366E-02
         0.30223E-02
        -0.56262E-02
        -0.27549E-02
        -0.55092E-02
        -0.72187E-03
         0.43228E-02
         0.13772E-01
        -0.99829E-02
        -0.10708E-01
         0.93515E-02
         0.53044E-02
        -0.28962E-02
        -0.20354E-02
        -0.34986E-02
        -0.21383E-01
        -0.20372E-01
        -0.20143E-01
        -0.48769E-02
         0.28971E-02
         0.19336E-02
        -0.10132E-01
         0.90968E-03
        -0.38115E-02
        -0.46671E-02
         0.72296E-02
         0.45466E-02
        -0.42018E-02
        -0.39563E-02
         0.19573E-01
         0.10630E-01
         0.12216E-01
        -0.12334E-01
        -0.23598E-02
        -0.61625E-02
        -0.21653E-01
        -0.22273E-01
        -0.21592E-01
        -0.15547E-01
        -0.11911E-01
        -0.69552E-02
         0.75435E-02
         0.89955E-02
        -0.10056E-02
         0.13588E-02
         0.14444E-01
         0.12519E-01
         0.80485E-01
         0.81237E-01
         0.73129E-01
         0.60422E-01
         0.44827E-01
         0.20644E-01
        -0.52557E-02
        -0.16885E-01
        -0.21675E-01
        -0.40045E-01
        -0.71438E-01
        -0.84588E-01
        -0.70843E-01
        -0.67411E-01
        -0.74515E-01
        -0.76922E-01
        -0.70112E-01
        -0.66259E-01
        -0.33480E-01
         0.88009E-02
         0.19081E-01
         0.19468E-01
         0.34402E-01
         0.59688E-01
         0.76552E-01
         0.76379E-01
        -0.48047E-02
         0.10438E-02
        -0.18641E-02
        -0.53612E-02
         0.10677E-01
         0.91283E-02
         0.30397E-02
        -0.56104E-02
        -0.27565E-02
        -0.55015E-02
        -0.69926E-03
         0.43329E-02
         0.13781E-01
        -0.99571E-02
        -0.10702E-01
         0.93629E-02
         0.53158E-02
        -0.28877E-02
        -0.20344E-02
        -0.34930E-02
        -0.21383E-01
        -0.20371E-01
        -0.20144E-01
        -0.48777E-02
         0.29030E-02
         0.19375E-02
        -0.10132E-01
         0.88455E-03
        -0.38354E-02
        -0.46706E-02
         0.72407E-02
         0.45462E-02
        -0.41817E-02
        -0.39573E-02
         0.19584E-01
         0.10627E-01
         0.12213E-01
        -0.12351E-01
        -0.23809E-02
        -0.61808E-02
        -0.21665E-01
        -0.22286E-01
        -0.21595E-01
        -0.15547E-01
        -0.11907E-01
        -0.69526E-02
         0.75417E-02
         0.89986E-02
        -0.99537E-03
         0.13557E-02
         0.14437E-01
         0.12501E-01
         0.80458E-01
         0.81217E-01
         0.73123E-01
         0.60422E-01
         0.44813E-01
         0.20638E-01
        -0.52609E-02
        -0.16895E-01
        -0.21657E-01
        -0.40028E-01
        -0.71425E-01
        -0.84597E-01
        -0.70844E-01
        -0.67409E-01
        -0.74527E-01
        -0.76945E-01
        -0.70127E-01
        -0.66270E-01
        -0.33470E-01
         0.88037E-02
         0.19067E-01
         0.19460E-01
         0.34378E-01
         0.59652E-01
         0.76514E-01
         0.76345E-01
        -0.48302E-02
         0.10518E-02
        -0.18733E-02
        -0.53843E-02
         0.10705E-01
         0.91537E-02
         0.30666E-02
        -0.56177E-02
        -0.27683E-02
        -0.55161E-02
        -0.68216E-03
         0.43562E-02
         0.13838E-01
        -0.99714E-02
        -0.10736E-01
         0.94085E-02
         0.53468E-02
        -0.28907E-02
        -0.20406E-02
        -0.34997E-02
        -0.21457E-01
        -0.20443E-01
        -0.20216E-01
        -0.48964E-02
         0.29192E-02
         0.19482E-02
        -0.10172E-01
         0.86435E-03
        -0.38719E-02
        -0.46914E-02
         0.72783E-02
         0.45626E-02
        -0.41791E-02
        -0.39735E-02
         0.19665E-01
         0.10663E-01
         0.12255E-01
        -0.12414E-01
        -0.24091E-02
        -0.62208E-02
        -0.21757E-01
        -0.22380E-01
        -0.21678E-01
        -0.15601E-01
        -0.11946E-01
        -0.69738E-02
         0.75675E-02
         0.90354E-02
        -0.98998E-03
         0.13575E-02
         0.14482E-01
         0.12529E-01
         0.80711E-01
         0.81474E-01
         0.73370E-01
         0.60630E-01
         0.44956E-01
         0.20702E-01
        -0.52867E-02
        -0.16963E-01
        -0.21719E-01
        -0.40158E-01
        -0.71675E-01
        -0.84904E-01
        -0.71083E-01
        -0.67630E-01
        -0.74779E-01
        -0.77211E-01
        -0.70365E-01
        -0.66499E-01
        -0.33576E-01
         0.88389E-02
         0.19119E-01
         0.19518E-01
         0.34472E-01
         0.59821E-01
         0.76734E-01
         0.76565E-01
        -0.71937E-02
         0.15769E-02
        -0.27844E-02
        -0.80319E-02
         0.15339E-01
         0.13241E-01
         0.45848E-02
        -0.83098E-02
        -0.41098E-02
        -0.81459E-02
        -0.98538E-03
         0.61342E-02
         0.19777E-01
        -0.14531E-01
        -0.15188E-01
         0.14024E-01
         0.79484E-02
        -0.43038E-02
        -0.29988E-02
        -0.51544E-02
        -0.30646E-01
        -0.29572E-01
        -0.28954E-01
        -0.72532E-02
         0.43544E-02
         0.29119E-02
        -0.14955E-01
         0.12662E-02
        -0.58092E-02
        -0.69883E-02
         0.10854E-01
         0.67824E-02
        -0.62193E-02
        -0.59277E-02
         0.27663E-01
         0.15415E-01
         0.17725E-01
        -0.17976E-01
        -0.35497E-02
        -0.91736E-02
        -0.31609E-01
        -0.32756E-01
        -0.31705E-01
        -0.22505E-01
        -0.17174E-01
        -0.97389E-02
         0.10843E-01
         0.13120E-01
        -0.14349E-02
         0.19689E-02
         0.20510E-01
         0.18068E-01
         0.10063E+00
         0.10141E+00
         0.91364E-01
         0.75721E-01
         0.56094E-01
         0.25886E-01
        -0.66961E-02
        -0.21642E-01
        -0.27638E-01
        -0.50814E-01
        -0.90824E-01
        -0.10741E+00
        -0.90931E-01
        -0.86789E-01
        -0.94737E-01
        -0.96708E-01
        -0.87861E-01
        -0.82569E-01
        -0.41652E-01
         0.10987E-01
         0.23995E-01
         0.24605E-01
         0.43295E-01
         0.75398E-01
         0.96420E-01
         0.95864E-01
  
SCALARS                      strain_xy  double 1
LOOKUP_TABLE default
         0.18980E-05
         0.40338E-05
         0.36864E-04
        -0.14508E-05
        -0.25048E-19
         0.24479E-20
         0.36804E-19
         0.56064E-20
         0.36402E-03
        -0.16541E-03
         0.16382E-18
         0.12991E-18
        -0.11699E-04
         0.24129E-05
         0.14460E-19
        -0.43430E-20
        -0.45909E-05
        -0.58874E-04
         0.71988E-21
         0.10970E-19
         0.39352E-04
         0.22424E-03
         0.26121E-03
         0.11155E-18
         0.88831E-19
        -0.12972E-18
         0.23433E-04
         0.16489E-03
         0.15020E-18
         0.23114E-18
         0.12214E-04
        -0.20825E-04
        -0.21568E-05
        -0.79275E-20
         0.31273E-19
        -0.40000E-21
         0.10018E-03
         0.39201E-04
         0.83698E-19
         0.69336E-19
         0.18382E-03
         0.14474E-03
         0.14268E-18
         0.96159E-19
         0.19855E-03
         0.38143E-04
        -0.51978E-20
         0.38698E-19
        -0.36867E-04
         0.11437E-19
         0.12882E-04
        -0.25784E-21
        -0.18735E-05
         0.86442E-19
        -0.87905E-05
         0.13302E-19
        -0.12561E-03
         0.73419E-05
         0.30913E-21
        -0.15166E-20
        -0.15776E-05
         0.15142E-03
         0.84241E-20
         0.21608E-19
        -0.70282E-05
        -0.17104E-20
        -0.95507E-04
         0.13705E-19
         0.43709E-03
         0.15586E-03
         0.10586E-19
        -0.10138E-18
         0.33733E-03
        -0.16209E-18
        -0.81005E-04
         0.10857E-18
        -0.24742E-03
         0.16175E-19
        -0.43982E-03
         0.21033E-19
        -0.93603E-03
        -0.55613E-03
         0.49448E-19
        -0.12538E-19
        -0.80842E-04
        -0.15088E-20
         0.37545E-03
        -0.13608E-18
         0.52174E-03
        -0.15195E-18
         0.10940E-02
         0.48445E-03
        -0.96186E-19
         0.10677E-18
        -0.80529E-04
         0.97214E-19
        -0.20311E-03
         0.41760E-19
        -0.46469E-03
         0.11088E-18
        -0.11357E-02
        -0.66142E-03
         0.23775E-18
         0.11887E-18
         0.16563E-02
        -0.73859E-03
        -0.15447E-18
         0.18917E-18
         0.39936E-02
        -0.43901E-18
         0.55975E-02
        -0.47989E-18
         0.45861E-02
        -0.32570E-18
         0.33199E-02
        -0.34547E-19
         0.12183E-02
         0.97373E-19
        -0.14291E-02
         0.60289E-19
        -0.31715E-02
         0.55114E-19
        -0.42077E-02
         0.11825E-18
        -0.46793E-02
         0.14377E-18
        -0.47548E-02
         0.56644E-19
        -0.31110E-02
         0.34534E-19
         0.23733E-03
         0.56446E-19
         0.31900E-02
         0.37837E-19
         0.54844E-02
        -0.13493E-18
         0.74729E-02
        -0.35405E-18
         0.56910E-02
        -0.44931E-18
         0.32303E-02
        -0.27808E-18
         0.33960E-03
         0.53053E-19
        -0.24584E-02
         0.11244E-18
        -0.36759E-02
         0.17920E-18
        -0.42349E-02
         0.35288E-18
        -0.37929E-02
         0.45790E-18
        -0.36952E-02
         0.32532E-18
        -0.32320E-02
         0.25728E-18
        -0.75849E-05
         0.20461E-05
         0.20951E-05
        -0.13065E-05
         0.16739E-04
         0.13763E-04
         0.21905E-06
        -0.49479E-05
        -0.21853E-05
        -0.57158E-05
        -0.16358E-05
        -0.30213E-04
        -0.43175E-04
         0.16014E-05
         0.24552E-04
        -0.32852E-05
         0.24439E-05
         0.72816E-06
         0.14843E-05
        -0.12066E-05
         0.60605E-05
         0.53200E-05
        -0.16147E-04
         0.42282E-06
         0.36333E-05
         0.40027E-06
         0.66592E-07
         0.13056E-06
         0.16199E-05
        -0.53806E-05
        -0.28637E-05
         0.61084E-06
         0.98137E-06
        -0.77406E-07
        -0.40313E-05
        -0.13951E-04
        -0.28333E-04
         0.42847E-04
         0.22295E-04
         0.40207E-04
         0.77753E-04
         0.18081E-04
        -0.14628E-04
        -0.29488E-04
        -0.34928E-04
        -0.44507E-04
         0.54981E-05
         0.16485E-04
         0.50862E-05
         0.17117E-04
         0.53541E-04
         0.20655E-04
        -0.18103E-03
         0.22997E-03
        -0.55639E-03
        -0.65504E-03
        -0.62193E-03
        -0.37532E-03
         0.22301E-04
         0.24182E-03
         0.35071E-03
         0.56904E-03
         0.59799E-03
         0.32257E-03
         0.13022E-03
         0.55083E-04
        -0.89278E-04
        -0.35332E-03
        -0.59010E-03
        -0.67341E-03
        -0.40932E-03
         0.74398E-04
         0.27001E-03
         0.28440E-03
         0.44787E-03
         0.49585E-03
         0.37739E-03
         0.34879E-03
        -0.31845E-04
         0.41230E-05
        -0.72635E-05
        -0.50164E-05
         0.56346E-04
         0.21656E-04
         0.50033E-05
        -0.38183E-04
        -0.11505E-04
        -0.34142E-04
         0.36465E-05
        -0.57581E-04
        -0.11222E-03
         0.12367E-04
         0.14825E-03
        -0.23726E-04
         0.40028E-05
         0.22889E-05
         0.69428E-05
         0.23573E-05
         0.62357E-04
         0.42194E-04
        -0.24139E-04
         0.49278E-05
         0.11313E-04
        -0.18842E-05
         0.25640E-05
        -0.63289E-06
        -0.25481E-05
        -0.18807E-04
        -0.19645E-04
        -0.33486E-05
         0.82356E-05
         0.61715E-05
         0.14498E-04
        -0.24392E-04
        -0.53421E-04
         0.12494E-03
         0.18447E-04
         0.47132E-04
         0.12721E-03
        -0.32334E-04
        -0.65101E-04
        -0.58797E-04
        -0.58304E-04
        -0.69688E-04
         0.43824E-04
         0.34213E-04
        -0.56841E-05
         0.80794E-05
         0.85810E-04
         0.56716E-05
        -0.59436E-03
         0.85678E-03
        -0.17898E-02
        -0.19078E-02
        -0.18373E-02
        -0.10154E-02
         0.24695E-03
         0.69873E-03
         0.88212E-03
         0.15999E-02
         0.17845E-02
         0.69382E-03
         0.23183E-03
         0.18899E-03
        -0.96432E-04
        -0.84248E-03
        -0.15405E-02
        -0.20280E-02
        -0.13448E-02
         0.38758E-03
         0.75273E-03
         0.72099E-03
         0.12780E-02
         0.15580E-02
         0.10360E-02
         0.97784E-03
        -0.31925E-04
         0.41391E-05
        -0.72809E-05
        -0.50566E-05
         0.56298E-04
         0.21653E-04
         0.50414E-05
        -0.38151E-04
        -0.11539E-04
        -0.34242E-04
         0.35748E-05
        -0.57716E-04
        -0.11232E-03
         0.12337E-04
         0.14836E-03
        -0.23752E-04
         0.40481E-05
         0.22791E-05
         0.69441E-05
         0.23400E-05
         0.62505E-04
         0.42229E-04
        -0.24143E-04
         0.49257E-05
         0.11390E-04
        -0.18839E-05
         0.25950E-05
        -0.62446E-06
        -0.25491E-05
        -0.18859E-04
        -0.19677E-04
        -0.33408E-05
         0.82194E-05
         0.61844E-05
         0.14369E-04
        -0.24397E-04
        -0.53401E-04
         0.12533E-03
         0.18663E-04
         0.47336E-04
         0.12739E-03
        -0.32266E-04
        -0.65171E-04
        -0.58818E-04
        -0.58285E-04
        -0.69652E-04
         0.43820E-04
         0.34204E-04
        -0.56350E-05
         0.80410E-05
         0.85718E-04
         0.55774E-05
        -0.59360E-03
         0.85660E-03
        -0.17900E-02
        -0.19078E-02
        -0.18365E-02
        -0.10148E-02
         0.24712E-03
         0.69896E-03
         0.88118E-03
         0.15988E-02
         0.17838E-02
         0.69416E-03
         0.23179E-03
         0.18936E-03
        -0.95658E-04
        -0.84310E-03
        -0.15414E-02
        -0.20289E-02
        -0.13444E-02
         0.38773E-03
         0.75213E-03
         0.72067E-03
         0.12767E-02
         0.15560E-02
         0.10343E-02
         0.97612E-03
        -0.32006E-04
         0.41549E-05
        -0.72982E-05
        -0.50972E-05
         0.56249E-04
         0.21652E-04
         0.50798E-05
        -0.38118E-04
        -0.11571E-04
        -0.34340E-04
         0.35032E-05
        -0.57851E-04
        -0.11241E-03
         0.12305E-04
         0.14846E-03
        -0.23779E-04
         0.40941E-05
         0.22693E-05
         0.69455E-05
         0.23227E-05
         0.62656E-04
         0.42264E-04
        -0.24150E-04
         0.49230E-05
         0.11469E-04
        -0.18834E-05
         0.26281E-05
        -0.61627E-06
        -0.25484E-05
        -0.18909E-04
        -0.19710E-04
        -0.33317E-05
         0.82030E-05
         0.61971E-05
         0.14240E-04
        -0.24403E-04
        -0.53380E-04
         0.12573E-03
         0.18881E-04
         0.47541E-04
         0.12757E-03
        -0.32189E-04
        -0.65238E-04
        -0.58849E-04
        -0.58272E-04
        -0.69620E-04
         0.43817E-04
         0.34194E-04
        -0.55852E-05
         0.80018E-05
         0.85629E-04
         0.54840E-05
        -0.59284E-03
         0.85643E-03
        -0.17902E-02
        -0.19078E-02
        -0.18357E-02
        -0.10141E-02
         0.24730E-03
         0.69918E-03
         0.88026E-03
         0.15977E-02
         0.17832E-02
         0.69452E-03
         0.23175E-03
         0.18974E-03
        -0.94881E-04
        -0.84375E-03
        -0.15424E-02
        -0.20298E-02
        -0.13440E-02
         0.38788E-03
         0.75153E-03
         0.72036E-03
         0.12755E-02
         0.15539E-02
         0.10327E-02
         0.97440E-03
        -0.32086E-04
         0.41713E-05
        -0.73153E-05
        -0.51380E-05
         0.56200E-04
         0.21649E-04
         0.51182E-05
        -0.38084E-04
        -0.11603E-04
        -0.34431E-04
         0.34317E-05
        -0.57989E-04
        -0.11251E-03
         0.12275E-04
         0.14857E-03
        -0.23809E-04
         0.41413E-05
         0.22594E-05
         0.69476E-05
         0.23045E-05
         0.62811E-04
         0.42297E-04
        -0.24171E-04
         0.49184E-05
         0.11551E-04
        -0.18824E-05
         0.26621E-05
        -0.60945E-06
        -0.25428E-05
        -0.18955E-04
        -0.19743E-04
        -0.33200E-05
         0.81861E-05
         0.62100E-05
         0.14110E-04
        -0.24408E-04
        -0.53359E-04
         0.12612E-03
         0.19100E-04
         0.47750E-04
         0.12777E-03
        -0.32087E-04
        -0.65299E-04
        -0.58901E-04
        -0.58266E-04
        -0.69586E-04
         0.43818E-04
         0.34185E-04
        -0.55353E-05
         0.79626E-05
         0.85535E-04
         0.53909E-05
        -0.59208E-03
         0.85626E-03
        -0.17903E-02
        -0.19078E-02
        -0.18349E-02
        -0.10135E-02
         0.24748E-03
         0.69940E-03
         0.87933E-03
         0.15966E-02
         0.17826E-02
         0.69495E-03
         0.23174E-03
         0.19012E-03
        -0.94098E-04
        -0.84447E-03
        -0.15436E-02
        -0.20307E-02
        -0.13436E-02
         0.38804E-03
         0.75092E-03
         0.72005E-03
         0.12742E-02
         0.15518E-02
         0.10310E-02
         0.97268E-03
        -0.32166E-04
         0.41876E-05
        -0.73326E-05
        -0.51786E-05
         0.56152E-04
         0.21646E-04
         0.51566E-05
        -0.38049E-04
        -0.11633E-04
        -0.34515E-04
         0.33600E-05
        -0.58124E-04
        -0.11261E-03
         0.12245E-04
         0.14868E-03
        -0.23840E-04
         0.41897E-05
         0.22494E-05
         0.69491E-05
         0.22855E-05
         0.62971E-04
         0.42326E-04
        -0.24204E-04
         0.49118E-05
         0.11636E-04
        -0.18806E-05
         0.26998E-05
        -0.60387E-06
        -0.25322E-05
        -0.18997E-04
        -0.19777E-04
        -0.33052E-05
         0.81689E-05
         0.62228E-05
         0.13979E-04
        -0.24413E-04
        -0.53340E-04
         0.12652E-03
         0.19319E-04
         0.47964E-04
         0.12800E-03
        -0.31958E-04
        -0.65351E-04
        -0.58977E-04
        -0.58272E-04
        -0.69554E-04
         0.43822E-04
         0.34180E-04
        -0.54859E-05
         0.79238E-05
         0.85446E-04
         0.52975E-05
        -0.59132E-03
         0.85609E-03
        -0.17905E-02
        -0.19079E-02
        -0.18341E-02
        -0.10128E-02
         0.24765E-03
         0.69962E-03
         0.87840E-03
         0.15955E-02
         0.17820E-02
         0.69546E-03
         0.23175E-03
         0.19049E-03
        -0.93315E-04
        -0.84525E-03
        -0.15449E-02
        -0.20317E-02
        -0.13432E-02
         0.38819E-03
         0.75032E-03
         0.71973E-03
         0.12730E-02
         0.15498E-02
         0.10294E-02
         0.97096E-03
        -0.32243E-04
         0.42050E-05
        -0.73482E-05
        -0.52197E-05
         0.56104E-04
         0.21643E-04
         0.51945E-05
        -0.38008E-04
        -0.11662E-04
        -0.34594E-04
         0.32884E-05
        -0.58260E-04
        -0.11271E-03
         0.12217E-04
         0.14879E-03
        -0.23873E-04
         0.42391E-05
         0.22396E-05
         0.69505E-05
         0.22664E-05
         0.63132E-04
         0.42355E-04
        -0.24243E-04
         0.49046E-05
         0.11721E-04
        -0.18785E-05
         0.27403E-05
        -0.59872E-06
        -0.25194E-05
        -0.19038E-04
        -0.19810E-04
        -0.32885E-05
         0.81516E-05
         0.62358E-05
         0.13848E-04
        -0.24421E-04
        -0.53324E-04
         0.12692E-03
         0.19540E-04
         0.48181E-04
         0.12822E-03
        -0.31821E-04
        -0.65400E-04
        -0.59059E-04
        -0.58286E-04
        -0.69531E-04
         0.43828E-04
         0.34177E-04
        -0.54358E-05
         0.78876E-05
         0.85357E-04
         0.52046E-05
        -0.59056E-03
         0.85591E-03
        -0.17907E-02
        -0.19079E-02
        -0.18333E-02
        -0.10122E-02
         0.24782E-03
         0.69984E-03
         0.87748E-03
         0.15945E-02
         0.17814E-02
         0.69600E-03
         0.23178E-03
         0.19085E-03
        -0.92533E-04
        -0.84606E-03
        -0.15462E-02
        -0.20327E-02
        -0.13428E-02
         0.38832E-03
         0.74971E-03
         0.71942E-03
         0.12717E-02
         0.15477E-02
         0.10277E-02
         0.96925E-03
        -0.32313E-04
         0.42252E-05
        -0.73611E-05
        -0.52617E-05
         0.56058E-04
         0.21642E-04
         0.52317E-05
        -0.37960E-04
        -0.11693E-04
        -0.34670E-04
         0.32168E-05
        -0.58399E-04
        -0.11282E-03
         0.12196E-04
         0.14890E-03
        -0.23907E-04
         0.42892E-05
         0.22297E-05
         0.69527E-05
         0.22475E-05
         0.63294E-04
         0.42385E-04
        -0.24282E-04
         0.48978E-05
         0.11800E-04
        -0.18758E-05
         0.27880E-05
        -0.59347E-06
        -0.25057E-05
        -0.19081E-04
        -0.19840E-04
        -0.32699E-05
         0.81339E-05
         0.62487E-05
         0.13716E-04
        -0.24430E-04
        -0.53311E-04
         0.12732E-03
         0.19764E-04
         0.48401E-04
         0.12846E-03
        -0.31680E-04
        -0.65447E-04
        -0.59143E-04
        -0.58306E-04
        -0.69514E-04
         0.43835E-04
         0.34183E-04
        -0.53832E-05
         0.78577E-05
         0.85275E-04
         0.51110E-05
        -0.58980E-03
         0.85574E-03
        -0.17908E-02
        -0.19079E-02
        -0.18325E-02
        -0.10115E-02
         0.24799E-03
         0.70005E-03
         0.87656E-03
         0.15934E-02
         0.17808E-02
         0.69655E-03
         0.23180E-03
         0.19123E-03
        -0.91749E-04
        -0.84687E-03
        -0.15475E-02
        -0.20337E-02
        -0.13424E-02
         0.38843E-03
         0.74910E-03
         0.71913E-03
         0.12705E-02
         0.15457E-02
         0.10261E-02
         0.96753E-03
        -0.32380E-04
         0.42463E-05
        -0.73726E-05
        -0.53041E-05
         0.56014E-04
         0.21639E-04
         0.52684E-05
        -0.37908E-04
        -0.11724E-04
        -0.34744E-04
         0.31451E-05
        -0.58536E-04
        -0.11292E-03
         0.12176E-04
         0.14901E-03
        -0.23942E-04
         0.43398E-05
         0.22196E-05
         0.69544E-05
         0.22288E-05
         0.63455E-04
         0.42415E-04
        -0.24320E-04
         0.48911E-05
         0.11877E-04
        -0.18728E-05
         0.28376E-05
        -0.58804E-06
        -0.24917E-05
        -0.19125E-04
        -0.19868E-04
        -0.32502E-05
         0.81160E-05
         0.62616E-05
         0.13584E-04
        -0.24442E-04
        -0.53303E-04
         0.12772E-03
         0.19989E-04
         0.48621E-04
         0.12869E-03
        -0.31539E-04
        -0.65495E-04
        -0.59229E-04
        -0.58328E-04
        -0.69504E-04
         0.43844E-04
         0.34191E-04
        -0.53297E-05
         0.78307E-05
         0.85195E-04
         0.50178E-05
        -0.58905E-03
         0.85557E-03
        -0.17909E-02
        -0.19079E-02
        -0.18317E-02
        -0.10109E-02
         0.24816E-03
         0.70027E-03
         0.87564E-03
         0.15923E-02
         0.17803E-02
         0.69708E-03
         0.23183E-03
         0.19160E-03
        -0.90963E-04
        -0.84768E-03
        -0.15489E-02
        -0.20347E-02
        -0.13420E-02
         0.38853E-03
         0.74848E-03
         0.71884E-03
         0.12692E-02
         0.15436E-02
         0.10245E-02
         0.96581E-03
        -0.32448E-04
         0.42676E-05
        -0.73840E-05
        -0.53466E-05
         0.55968E-04
         0.21636E-04
         0.53050E-05
        -0.37855E-04
        -0.11756E-04
        -0.34819E-04
         0.30734E-05
        -0.58674E-04
        -0.11303E-03
         0.12158E-04
         0.14912E-03
        -0.23976E-04
         0.43909E-05
         0.22097E-05
         0.69560E-05
         0.22100E-05
         0.63616E-04
         0.42446E-04
        -0.24359E-04
         0.48846E-05
         0.11954E-04
        -0.18698E-05
         0.28885E-05
        -0.58230E-06
        -0.24774E-05
        -0.19169E-04
        -0.19897E-04
        -0.32308E-05
         0.80979E-05
         0.62745E-05
         0.13450E-04
        -0.24452E-04
        -0.53293E-04
         0.12812E-03
         0.20215E-04
         0.48841E-04
         0.12892E-03
        -0.31399E-04
        -0.65543E-04
        -0.59317E-04
        -0.58352E-04
        -0.69494E-04
         0.43852E-04
         0.34199E-04
        -0.52763E-05
         0.78046E-05
         0.85119E-04
         0.49243E-05
        -0.58829E-03
         0.85540E-03
        -0.17911E-02
        -0.19079E-02
        -0.18309E-02
        -0.10102E-02
         0.24832E-03
         0.70048E-03
         0.87472E-03
         0.15912E-02
         0.17797E-02
         0.69762E-03
         0.23186E-03
         0.19198E-03
        -0.90180E-04
        -0.84849E-03
        -0.15502E-02
        -0.20356E-02
        -0.13415E-02
         0.38863E-03
         0.74785E-03
         0.71854E-03
         0.12680E-02
         0.15416E-02
         0.10228E-02
         0.96410E-03
        -0.32515E-04
         0.42891E-05
        -0.73953E-05
        -0.53890E-05
         0.55922E-04
         0.21633E-04
         0.53418E-05
        -0.37802E-04
        -0.11787E-04
        -0.34893E-04
         0.30017E-05
        -0.58812E-04
        -0.11314E-03
         0.12138E-04
         0.14922E-03
        -0.24011E-04
         0.44422E-05
         0.21998E-05
         0.69575E-05
         0.21912E-05
         0.63777E-04
         0.42475E-04
        -0.24395E-04
         0.48782E-05
         0.12032E-04
        -0.18668E-05
         0.29381E-05
        -0.57632E-06
        -0.24626E-05
        -0.19213E-04
        -0.19926E-04
        -0.32112E-05
         0.80794E-05
         0.62874E-05
         0.13316E-04
        -0.24465E-04
        -0.53284E-04
         0.12853E-03
         0.20442E-04
         0.49064E-04
         0.12916E-03
        -0.31259E-04
        -0.65591E-04
        -0.59403E-04
        -0.58374E-04
        -0.69481E-04
         0.43861E-04
         0.34209E-04
        -0.52232E-05
         0.77770E-05
         0.85038E-04
         0.48315E-05
        -0.58752E-03
         0.85522E-03
        -0.17912E-02
        -0.19080E-02
        -0.18302E-02
        -0.10095E-02
         0.24849E-03
         0.70068E-03
         0.87380E-03
         0.15901E-02
         0.17791E-02
         0.69815E-03
         0.23188E-03
         0.19236E-03
        -0.89399E-04
        -0.84931E-03
        -0.15515E-02
        -0.20366E-02
        -0.13411E-02
         0.38872E-03
         0.74723E-03
         0.71825E-03
         0.12667E-02
         0.15396E-02
         0.10212E-02
         0.96239E-03
        -0.32582E-04
         0.43103E-05
        -0.74070E-05
        -0.54313E-05
         0.55877E-04
         0.21630E-04
         0.53788E-05
        -0.37748E-04
        -0.11819E-04
        -0.34967E-04
         0.29297E-05
        -0.58951E-04
        -0.11325E-03
         0.12119E-04
         0.14933E-03
        -0.24045E-04
         0.44939E-05
         0.21899E-05
         0.69598E-05
         0.21722E-05
         0.63938E-04
         0.42504E-04
        -0.24434E-04
         0.48718E-05
         0.12109E-04
        -0.18637E-05
         0.29885E-05
        -0.56998E-06
        -0.24475E-05
        -0.19256E-04
        -0.19954E-04
        -0.31917E-05
         0.80610E-05
         0.63004E-05
         0.13182E-04
        -0.24476E-04
        -0.53276E-04
         0.12893E-03
         0.20670E-04
         0.49283E-04
         0.12939E-03
        -0.31119E-04
        -0.65639E-04
        -0.59487E-04
        -0.58397E-04
        -0.69472E-04
         0.43870E-04
         0.34218E-04
        -0.51699E-05
         0.77501E-05
         0.84962E-04
         0.47387E-05
        -0.58676E-03
         0.85504E-03
        -0.17913E-02
        -0.19080E-02
        -0.18294E-02
        -0.10089E-02
         0.24864E-03
         0.70089E-03
         0.87288E-03
         0.15890E-02
         0.17785E-02
         0.69868E-03
         0.23191E-03
         0.19274E-03
        -0.88613E-04
        -0.85012E-03
        -0.15529E-02
        -0.20375E-02
        -0.13407E-02
         0.38881E-03
         0.74660E-03
         0.71795E-03
         0.12655E-02
         0.15375E-02
         0.10196E-02
         0.96068E-03
        -0.32649E-04
         0.43316E-05
        -0.74182E-05
        -0.54740E-05
         0.55832E-04
         0.21627E-04
         0.54155E-05
        -0.37694E-04
        -0.11850E-04
        -0.35040E-04
         0.28578E-05
        -0.59090E-04
        -0.11336E-03
         0.12101E-04
         0.14944E-03
        -0.24080E-04
         0.45457E-05
         0.21800E-05
         0.69615E-05
         0.21535E-05
         0.64099E-04
         0.42532E-04
        -0.24472E-04
         0.48656E-05
         0.12186E-04
        -0.18607E-05
         0.30379E-05
        -0.56342E-06
        -0.24317E-05
        -0.19300E-04
        -0.19983E-04
        -0.31721E-05
         0.80420E-05
         0.63134E-05
         0.13047E-04
        -0.24487E-04
        -0.53266E-04
         0.12934E-03
         0.20900E-04
         0.49507E-04
         0.12962E-03
        -0.30980E-04
        -0.65686E-04
        -0.59572E-04
        -0.58420E-04
        -0.69463E-04
         0.43878E-04
         0.34228E-04
        -0.51166E-05
         0.77241E-05
         0.84883E-04
         0.46462E-05
        -0.58600E-03
         0.85486E-03
        -0.17915E-02
        -0.19080E-02
        -0.18286E-02
        -0.10083E-02
         0.24880E-03
         0.70110E-03
         0.87197E-03
         0.15879E-02
         0.17779E-02
         0.69922E-03
         0.23194E-03
         0.19311E-03
        -0.87825E-04
        -0.85093E-03
        -0.15542E-02
        -0.20385E-02
        -0.13402E-02
         0.38891E-03
         0.74597E-03
         0.71766E-03
         0.12643E-02
         0.15355E-02
         0.10180E-02
         0.95898E-03
        -0.32716E-04
         0.43531E-05
        -0.74294E-05
        -0.55168E-05
         0.55786E-04
         0.21624E-04
         0.54523E-05
        -0.37640E-04
        -0.11882E-04
        -0.35112E-04
         0.27860E-05
        -0.59228E-04
        -0.11347E-03
         0.12080E-04
         0.14955E-03
        -0.24114E-04
         0.45978E-05
         0.21700E-05
         0.69634E-05
         0.21349E-05
         0.64260E-04
         0.42562E-04
        -0.24510E-04
         0.48594E-05
         0.12262E-04
        -0.18575E-05
         0.30886E-05
        -0.55652E-06
        -0.24158E-05
        -0.19343E-04
        -0.20011E-04
        -0.31524E-05
         0.80228E-05
         0.63264E-05
         0.12911E-04
        -0.24500E-04
        -0.53257E-04
         0.12974E-03
         0.21131E-04
         0.49729E-04
         0.12986E-03
        -0.30839E-04
        -0.65733E-04
        -0.59659E-04
        -0.58445E-04
        -0.69447E-04
         0.43887E-04
         0.34237E-04
        -0.50632E-05
         0.76972E-05
         0.84801E-04
         0.45541E-05
        -0.58523E-03
         0.85469E-03
        -0.17916E-02
        -0.19080E-02
        -0.18278E-02
        -0.10076E-02
         0.24897E-03
         0.70130E-03
         0.87104E-03
         0.15868E-02
         0.17773E-02
         0.69975E-03
         0.23196E-03
         0.19349E-03
        -0.87039E-04
        -0.85174E-03
        -0.15556E-02
        -0.20395E-02
        -0.13398E-02
         0.38900E-03
         0.74535E-03
         0.71737E-03
         0.12630E-02
         0.15335E-02
         0.10164E-02
         0.95727E-03
        -0.32783E-04
         0.43742E-05
        -0.74406E-05
        -0.55596E-05
         0.55743E-04
         0.21621E-04
         0.54892E-05
        -0.37585E-04
        -0.11913E-04
        -0.35184E-04
         0.27142E-05
        -0.59365E-04
        -0.11358E-03
         0.12061E-04
         0.14965E-03
        -0.24148E-04
         0.46502E-05
         0.21601E-05
         0.69658E-05
         0.21164E-05
         0.64421E-04
         0.42590E-04
        -0.24548E-04
         0.48532E-05
         0.12339E-04
        -0.18543E-05
         0.31381E-05
        -0.54939E-06
        -0.23995E-05
        -0.19386E-04
        -0.20039E-04
        -0.31329E-05
         0.80035E-05
         0.63394E-05
         0.12775E-04
        -0.24511E-04
        -0.53247E-04
         0.13015E-03
         0.21363E-04
         0.49953E-04
         0.13009E-03
        -0.30698E-04
        -0.65781E-04
        -0.59745E-04
        -0.58468E-04
        -0.69438E-04
         0.43896E-04
         0.34246E-04
        -0.50100E-05
         0.76704E-05
         0.84725E-04
         0.44630E-05
        -0.58447E-03
         0.85451E-03
        -0.17917E-02
        -0.19080E-02
        -0.18270E-02
        -0.10069E-02
         0.24913E-03
         0.70149E-03
         0.87012E-03
         0.15857E-02
         0.17768E-02
         0.70029E-03
         0.23199E-03
         0.19387E-03
        -0.86256E-04
        -0.85255E-03
        -0.15569E-02
        -0.20404E-02
        -0.13394E-02
         0.38909E-03
         0.74473E-03
         0.71708E-03
         0.12618E-02
         0.15314E-02
         0.10148E-02
         0.95556E-03
        -0.32851E-04
         0.43952E-05
        -0.74518E-05
        -0.56025E-05
         0.55697E-04
         0.21618E-04
         0.55261E-05
        -0.37530E-04
        -0.11945E-04
        -0.35256E-04
         0.26423E-05
        -0.59506E-04
        -0.11368E-03
         0.12041E-04
         0.14976E-03
        -0.24182E-04
         0.47030E-05
         0.21503E-05
         0.69676E-05
         0.20977E-05
         0.64583E-04
         0.42618E-04
        -0.24585E-04
         0.48471E-05
         0.12417E-04
        -0.18511E-05
         0.31884E-05
        -0.54192E-06
        -0.23829E-05
        -0.19430E-04
        -0.20068E-04
        -0.31131E-05
         0.79839E-05
         0.63524E-05
         0.12639E-04
        -0.24523E-04
        -0.53239E-04
         0.13056E-03
         0.21596E-04
         0.50176E-04
         0.13033E-03
        -0.30557E-04
        -0.65829E-04
        -0.59830E-04
        -0.58490E-04
        -0.69429E-04
         0.43904E-04
         0.34256E-04
        -0.49561E-05
         0.76440E-05
         0.84646E-04
         0.43714E-05
        -0.58371E-03
         0.85433E-03
        -0.17919E-02
        -0.19080E-02
        -0.18262E-02
        -0.10063E-02
         0.24928E-03
         0.70168E-03
         0.86921E-03
         0.15846E-02
         0.17762E-02
         0.70082E-03
         0.23201E-03
         0.19425E-03
        -0.85470E-04
        -0.85336E-03
        -0.15582E-02
        -0.20414E-02
        -0.13390E-02
         0.38917E-03
         0.74411E-03
         0.71679E-03
         0.12605E-02
         0.15294E-02
         0.10132E-02
         0.95386E-03
        -0.32918E-04
         0.44166E-05
        -0.74630E-05
        -0.56452E-05
         0.55651E-04
         0.21616E-04
         0.55628E-05
        -0.37474E-04
        -0.11976E-04
        -0.35327E-04
         0.25702E-05
        -0.59645E-04
        -0.11380E-03
         0.12022E-04
         0.14986E-03
        -0.24217E-04
         0.47562E-05
         0.21405E-05
         0.69694E-05
         0.20792E-05
         0.64744E-04
         0.42646E-04
        -0.24623E-04
         0.48412E-05
         0.12493E-04
        -0.18479E-05
         0.32374E-05
        -0.53417E-06
        -0.23660E-05
        -0.19473E-04
        -0.20096E-04
        -0.30936E-05
         0.79642E-05
         0.63656E-05
         0.12501E-04
        -0.24534E-04
        -0.53230E-04
         0.13096E-03
         0.21830E-04
         0.50397E-04
         0.13056E-03
        -0.30416E-04
        -0.65877E-04
        -0.59913E-04
        -0.58515E-04
        -0.69416E-04
         0.43913E-04
         0.34265E-04
        -0.49029E-05
         0.76171E-05
         0.84568E-04
         0.42800E-05
        -0.58294E-03
         0.85414E-03
        -0.17920E-02
        -0.19081E-02
        -0.18254E-02
        -0.10056E-02
         0.24942E-03
         0.70186E-03
         0.86829E-03
         0.15835E-02
         0.17756E-02
         0.70136E-03
         0.23204E-03
         0.19462E-03
        -0.84683E-04
        -0.85416E-03
        -0.15596E-02
        -0.20424E-02
        -0.13385E-02
         0.38926E-03
         0.74348E-03
         0.71650E-03
         0.12593E-02
         0.15273E-02
         0.10116E-02
         0.95215E-03
        -0.32985E-04
         0.44377E-05
        -0.74743E-05
        -0.56881E-05
         0.55607E-04
         0.21612E-04
         0.55999E-05
        -0.37418E-04
        -0.12008E-04
        -0.35396E-04
         0.24981E-05
        -0.59784E-04
        -0.11390E-03
         0.12000E-04
         0.14996E-03
        -0.24251E-04
         0.48099E-05
         0.21307E-05
         0.69714E-05
         0.20609E-05
         0.64905E-04
         0.42671E-04
        -0.24660E-04
         0.48353E-05
         0.12570E-04
        -0.18445E-05
         0.32877E-05
        -0.52601E-06
        -0.23485E-05
        -0.19515E-04
        -0.20124E-04
        -0.30740E-05
         0.79444E-05
         0.63788E-05
         0.12363E-04
        -0.24545E-04
        -0.53219E-04
         0.13137E-03
         0.22068E-04
         0.50622E-04
         0.13079E-03
        -0.30276E-04
        -0.65925E-04
        -0.60000E-04
        -0.58538E-04
        -0.69407E-04
         0.43922E-04
         0.34275E-04
        -0.48500E-05
         0.75903E-05
         0.84489E-04
         0.41897E-05
        -0.58217E-03
         0.85396E-03
        -0.17921E-02
        -0.19081E-02
        -0.18246E-02
        -0.10050E-02
         0.24957E-03
         0.70205E-03
         0.86738E-03
         0.15824E-02
         0.17750E-02
         0.70191E-03
         0.23205E-03
         0.19499E-03
        -0.83900E-04
        -0.85497E-03
        -0.15609E-02
        -0.20433E-02
        -0.13381E-02
         0.38935E-03
         0.74286E-03
         0.71621E-03
         0.12581E-02
         0.15253E-02
         0.10100E-02
         0.95045E-03
        -0.33052E-04
         0.44588E-05
        -0.74853E-05
        -0.57312E-05
         0.55562E-04
         0.21609E-04
         0.56367E-05
        -0.37361E-04
        -0.12038E-04
        -0.35460E-04
         0.24259E-05
        -0.59923E-04
        -0.11401E-03
         0.11980E-04
         0.15006E-03
        -0.24285E-04
         0.48640E-05
         0.21208E-05
         0.69743E-05
         0.20434E-05
         0.65065E-04
         0.42697E-04
        -0.24699E-04
         0.48291E-05
         0.12644E-04
        -0.18414E-05
         0.33373E-05
        -0.51726E-06
        -0.23307E-05
        -0.19557E-04
        -0.20152E-04
        -0.30540E-05
         0.79241E-05
         0.63920E-05
         0.12225E-04
        -0.24558E-04
        -0.53211E-04
         0.13177E-03
         0.22311E-04
         0.50840E-04
         0.13102E-03
        -0.30132E-04
        -0.65972E-04
        -0.60085E-04
        -0.58562E-04
        -0.69395E-04
         0.43930E-04
         0.34285E-04
        -0.47972E-05
         0.75636E-05
         0.84414E-04
         0.40994E-05
        -0.58141E-03
         0.85378E-03
        -0.17922E-02
        -0.19081E-02
        -0.18239E-02
        -0.10043E-02
         0.24971E-03
         0.70224E-03
         0.86648E-03
         0.15812E-02
         0.17745E-02
         0.70248E-03
         0.23206E-03
         0.19536E-03
        -0.83118E-04
        -0.85577E-03
        -0.15623E-02
        -0.20443E-02
        -0.13377E-02
         0.38944E-03
         0.74224E-03
         0.71591E-03
         0.12568E-02
         0.15233E-02
         0.10084E-02
         0.94875E-03
        -0.33120E-04
         0.44799E-05
        -0.74963E-05
        -0.57743E-05
         0.55516E-04
         0.21605E-04
         0.56736E-05
        -0.37303E-04
        -0.12068E-04
        -0.35520E-04
         0.23537E-05
        -0.60062E-04
        -0.11412E-03
         0.11960E-04
         0.15016E-03
        -0.24319E-04
         0.49190E-05
         0.21109E-05
         0.69764E-05
         0.20265E-05
         0.65227E-04
         0.42720E-04
        -0.24737E-04
         0.48232E-05
         0.12717E-04
        -0.18380E-05
         0.33887E-05
        -0.50781E-06
        -0.23127E-05
        -0.19597E-04
        -0.20180E-04
        -0.30344E-05
         0.79035E-05
         0.64052E-05
         0.12085E-04
        -0.24569E-04
        -0.53202E-04
         0.13218E-03
         0.22560E-04
         0.51058E-04
         0.13123E-03
        -0.29987E-04
        -0.66020E-04
        -0.60170E-04
        -0.58587E-04
        -0.69386E-04
         0.43939E-04
         0.34294E-04
        -0.47440E-05
         0.75372E-05
         0.84332E-04
         0.40087E-05
        -0.58064E-03
         0.85360E-03
        -0.17923E-02
        -0.19081E-02
        -0.18231E-02
        -0.10036E-02
         0.24985E-03
         0.70243E-03
         0.86558E-03
         0.15800E-02
         0.17740E-02
         0.70307E-03
         0.23205E-03
         0.19573E-03
        -0.82331E-04
        -0.85657E-03
        -0.15636E-02
        -0.20452E-02
        -0.13372E-02
         0.38952E-03
         0.74162E-03
         0.71562E-03
         0.12556E-02
         0.15213E-02
         0.10069E-02
         0.94705E-03
        -0.33187E-04
         0.45010E-05
        -0.75079E-05
        -0.58173E-05
         0.55474E-04
         0.21602E-04
         0.57106E-05
        -0.37246E-04
        -0.12098E-04
        -0.35579E-04
         0.22820E-05
        -0.60199E-04
        -0.11423E-03
         0.11938E-04
         0.15026E-03
        -0.24354E-04
         0.49744E-05
         0.21012E-05
         0.69784E-05
         0.20101E-05
         0.65388E-04
         0.42744E-04
        -0.24772E-04
         0.48178E-05
         0.12789E-04
        -0.18348E-05
         0.34388E-05
        -0.49789E-06
        -0.22945E-05
        -0.19636E-04
        -0.20209E-04
        -0.30151E-05
         0.78832E-05
         0.64187E-05
         0.11947E-04
        -0.24581E-04
        -0.53191E-04
         0.13258E-03
         0.22812E-04
         0.51269E-04
         0.13144E-03
        -0.29844E-04
        -0.66069E-04
        -0.60253E-04
        -0.58608E-04
        -0.69376E-04
         0.43949E-04
         0.34304E-04
        -0.46915E-05
         0.75101E-05
         0.84258E-04
         0.39190E-05
        -0.57987E-03
         0.85343E-03
        -0.17925E-02
        -0.19081E-02
        -0.18223E-02
        -0.10030E-02
         0.24999E-03
         0.70260E-03
         0.86468E-03
         0.15788E-02
         0.17734E-02
         0.70365E-03
         0.23203E-03
         0.19610E-03
        -0.81544E-04
        -0.85737E-03
        -0.15649E-02
        -0.20462E-02
        -0.13368E-02
         0.38962E-03
         0.74101E-03
         0.71532E-03
         0.12543E-02
         0.15193E-02
         0.10053E-02
         0.94536E-03
        -0.33548E-04
         0.45588E-05
        -0.75884E-05
        -0.59100E-05
         0.55924E-04
         0.21790E-04
         0.57964E-05
        -0.37532E-04
        -0.12233E-04
        -0.35959E-04
         0.22399E-05
        -0.60845E-04
        -0.11534E-03
         0.12029E-04
         0.15175E-03
        -0.24602E-04
         0.50714E-05
         0.21103E-05
         0.70405E-05
         0.20126E-05
         0.66100E-04
         0.43141E-04
        -0.24998E-04
         0.48578E-05
         0.12972E-04
        -0.18496E-05
         0.35168E-05
        -0.49219E-06
        -0.23018E-05
        -0.19853E-04
        -0.20417E-04
        -0.30279E-05
         0.79345E-05
         0.64891E-05
         0.11929E-04
        -0.24800E-04
        -0.53638E-04
         0.13419E-03
         0.23255E-04
         0.51937E-04
         0.13283E-03
        -0.30009E-04
        -0.66723E-04
        -0.60817E-04
        -0.59116E-04
        -0.69952E-04
         0.44334E-04
         0.34606E-04
        -0.46848E-05
         0.75492E-05
         0.84929E-04
         0.38647E-05
        -0.58473E-03
         0.86161E-03
        -0.18101E-02
        -0.19265E-02
        -0.18394E-02
        -0.10124E-02
         0.25278E-03
         0.70991E-03
         0.87274E-03
         0.15942E-02
         0.17912E-02
         0.71103E-03
         0.23410E-03
         0.19820E-03
        -0.81516E-04
        -0.86561E-03
        -0.15800E-02
        -0.20661E-02
        -0.13496E-02
         0.39364E-03
         0.74749E-03
         0.72163E-03
         0.12650E-02
         0.15317E-02
         0.10132E-02
         0.95252E-03
        -0.75276E-04
         0.10345E-04
        -0.16973E-04
        -0.13369E-04
         0.11654E-03
         0.46266E-04
         0.13103E-04
        -0.83411E-04
        -0.27312E-04
        -0.79626E-04
         0.48141E-05
        -0.12265E-03
        -0.23920E-03
         0.25985E-04
         0.30928E-03
        -0.55281E-04
         0.11410E-04
         0.47297E-05
         0.15409E-04
         0.44159E-05
         0.13697E-03
         0.91612E-04
        -0.51945E-04
         0.10791E-04
         0.29308E-04
        -0.41773E-05
         0.77923E-05
        -0.10937E-05
        -0.52135E-05
        -0.44730E-04
        -0.45908E-04
        -0.67667E-05
         0.17861E-04
         0.14629E-04
         0.23654E-04
        -0.52584E-04
        -0.11379E-03
         0.28599E-03
         0.51140E-04
         0.11467E-03
         0.28507E-03
        -0.65176E-04
        -0.14498E-03
        -0.12826E-03
        -0.12388E-03
        -0.13853E-03
         0.92316E-04
         0.73851E-04
        -0.10027E-04
         0.16103E-04
         0.17288E-03
         0.80274E-05
        -0.93067E-03
         0.13676E-02
        -0.28763E-02
        -0.30767E-02
        -0.29350E-02
        -0.16248E-02
         0.41568E-03
         0.11856E-02
         0.14514E-02
         0.26222E-02
         0.29520E-02
         0.11662E-02
         0.39131E-03
         0.33355E-03
        -0.13270E-03
        -0.13868E-02
        -0.25165E-02
        -0.32598E-02
        -0.21288E-02
         0.62302E-03
         0.12047E-02
         0.11726E-02
         0.20419E-02
         0.24887E-02
         0.16354E-02
         0.15261E-02
  
SCALARS                      strain_eq  double 1
LOOKUP_TABLE default
         0.61505E+01
         0.60635E+01
         0.61187E+01
         0.62177E+01
         0.23542E-08
         0.26103E-08
         0.25361E-08
         0.22820E-08
         0.60602E+01
         0.60898E+01
         0.25673E-08
         0.24552E-08
         0.59373E+01
         0.59326E+01
         0.28089E-08
         0.26749E-08
         0.62032E+01
         0.59394E+01
         0.20954E-08
         0.23567E-08
         0.58424E+01
         0.57671E+01
         0.58869E+01
         0.28929E-08
         0.27596E-08
         0.27449E-08
         0.57700E+01
         0.56599E+01
         0.28022E-08
         0.25450E-08
         0.61984E+01
         0.60837E+01
         0.63095E+01
         0.22802E-08
         0.21412E-08
         0.20511E-08
         0.61320E+01
         0.59859E+01
         0.24859E-08
         0.22663E-08
         0.60741E+01
         0.59613E+01
         0.23123E-08
         0.19948E-08
         0.61696E+01
         0.62119E+01
         0.24969E-08
         0.25893E-08
         0.58708E+01
         0.22378E-08
         0.62037E+01
         0.26020E-08
         0.57383E+01
         0.24465E-08
         0.57037E+01
         0.22582E-08
         0.57042E+01
         0.58272E+01
         0.22884E-08
         0.22503E-08
         0.61961E+01
         0.61519E+01
         0.23090E-08
         0.26137E-08
         0.62236E+01
         0.22162E-08
         0.61712E+01
         0.24272E-08
         0.60329E+01
         0.60193E+01
         0.25963E-08
         0.25946E-08
         0.59882E+01
         0.26257E-08
         0.56208E+01
         0.20988E-08
         0.56015E+01
         0.19535E-08
         0.56111E+01
         0.20350E-08
         0.56643E+01
         0.57197E+01
         0.19684E-08
         0.20445E-08
         0.58311E+01
         0.19254E-08
         0.61673E+01
         0.25852E-08
         0.61148E+01
         0.26326E-08
         0.60715E+01
         0.60482E+01
         0.26301E-08
         0.25801E-08
         0.60774E+01
         0.23153E-08
         0.60981E+01
         0.22670E-08
         0.60793E+01
         0.24520E-08
         0.60725E+01
         0.60916E+01
         0.25208E-08
         0.25139E-08
         0.59681E+01
         0.60175E+01
         0.23970E-08
         0.23137E-08
         0.59584E+01
         0.23278E-08
         0.60155E+01
         0.22727E-08
         0.59590E+01
         0.22700E-08
         0.58337E+01
         0.21281E-08
         0.57122E+01
         0.18008E-08
         0.56395E+01
         0.15216E-08
         0.56321E+01
         0.14758E-08
         0.56344E+01
         0.15723E-08
         0.57133E+01
         0.16220E-08
         0.58605E+01
         0.15194E-08
         0.60220E+01
         0.13867E-08
         0.61168E+01
         0.14352E-08
         0.62105E+01
         0.17012E-08
         0.62723E+01
         0.19860E-08
         0.62698E+01
         0.21167E-08
         0.61202E+01
         0.22602E-08
         0.60159E+01
         0.23752E-08
         0.59795E+01
         0.22161E-08
         0.60354E+01
         0.19511E-08
         0.60648E+01
         0.19473E-08
         0.60161E+01
         0.21429E-08
         0.60171E+01
         0.22739E-08
         0.60539E+01
         0.22002E-08
         0.61018E+01
         0.21512E-08
         0.40516E+00
         0.40589E+00
         0.40580E+00
         0.40466E+00
         0.40655E+00
         0.40582E+00
         0.40647E+00
         0.40620E+00
         0.40490E+00
         0.40584E+00
         0.40665E+00
         0.40703E+00
         0.40684E+00
         0.40658E+00
         0.40702E+00
         0.40474E+00
         0.40498E+00
         0.40424E+00
         0.40595E+00
         0.40572E+00
         0.40627E+00
         0.40610E+00
         0.40642E+00
         0.40612E+00
         0.40577E+00
         0.40576E+00
         0.40634E+00
         0.40628E+00
         0.40656E+00
         0.40613E+00
         0.40486E+00
         0.40589E+00
         0.40485E+00
         0.40558E+00
         0.40699E+00
         0.40671E+00
         0.40661E+00
         0.40692E+00
         0.40685E+00
         0.40689E+00
         0.40706E+00
         0.40690E+00
         0.40633E+00
         0.40634E+00
         0.40666E+00
         0.40704E+00
         0.40666E+00
         0.40609E+00
         0.40612E+00
         0.40658E+00
         0.40696E+00
         0.40649E+00
         0.40900E+00
         0.40989E+00
         0.41008E+00
         0.41042E+00
         0.41081E+00
         0.41113E+00
         0.41054E+00
         0.40970E+00
         0.40958E+00
         0.40979E+00
         0.40936E+00
         0.41043E+00
         0.40979E+00
         0.40953E+00
         0.40991E+00
         0.41022E+00
         0.41049E+00
         0.41069E+00
         0.40956E+00
         0.41017E+00
         0.41012E+00
         0.40980E+00
         0.40981E+00
         0.40931E+00
         0.40996E+00
         0.41022E+00
         0.16726E-01
         0.10050E-01
         0.94795E-02
         0.65004E-02
         0.17370E-01
         0.12009E-01
         0.53010E-02
         0.16450E-01
         0.10305E-01
         0.15501E-01
         0.75577E-02
         0.32567E-01
         0.24730E-01
         0.12369E-01
         0.34108E-01
         0.12153E-01
         0.61570E-02
         0.39282E-02
         0.81834E-02
         0.44304E-02
         0.25610E-01
         0.24027E-01
         0.23399E-01
         0.60892E-02
         0.10003E-01
         0.31808E-02
         0.11669E-01
         0.18953E-02
         0.42739E-02
         0.10850E-01
         0.10382E-01
         0.55224E-02
         0.67247E-02
         0.58175E-02
         0.22453E-01
         0.13436E-01
         0.17392E-01
         0.27816E-01
         0.21397E-01
         0.19915E-01
         0.28285E-01
         0.25641E-01
         0.25812E-01
         0.19982E-01
         0.17844E-01
         0.24411E-01
         0.16003E-01
         0.13607E-01
         0.11221E-01
         0.13251E-01
         0.21666E-01
         0.14875E-01
         0.95122E-01
         0.97398E-01
         0.10181E+00
         0.10107E+00
         0.10774E+00
         0.11568E+00
         0.11101E+00
         0.98706E-01
         0.96190E-01
         0.10294E+00
         0.10089E+00
         0.99518E-01
         0.82267E-01
         0.78204E-01
         0.85913E-01
         0.92024E-01
         0.95498E-01
         0.10429E+00
         0.10032E+00
         0.10303E+00
         0.92774E-01
         0.88087E-01
         0.93941E-01
         0.91835E-01
         0.94503E-01
         0.93707E-01
         0.16739E-01
         0.10052E-01
         0.94849E-02
         0.65097E-02
         0.17362E-01
         0.12002E-01
         0.53171E-02
         0.16466E-01
         0.10322E-01
         0.15546E-01
         0.75575E-02
         0.32566E-01
         0.24740E-01
         0.12340E-01
         0.34144E-01
         0.12163E-01
         0.61743E-02
         0.39183E-02
         0.81882E-02
         0.44206E-02
         0.25612E-01
         0.24025E-01
         0.23397E-01
         0.60891E-02
         0.10046E-01
         0.31800E-02
         0.11673E-01
         0.18753E-02
         0.42943E-02
         0.10869E-01
         0.10392E-01
         0.55206E-02
         0.67134E-02
         0.58228E-02
         0.22463E-01
         0.13433E-01
         0.17389E-01
         0.27860E-01
         0.21445E-01
         0.19943E-01
         0.28304E-01
         0.25654E-01
         0.25815E-01
         0.19981E-01
         0.17841E-01
         0.24409E-01
         0.16003E-01
         0.13606E-01
         0.11205E-01
         0.13232E-01
         0.21654E-01
         0.14852E-01
         0.95088E-01
         0.97375E-01
         0.10181E+00
         0.10107E+00
         0.10772E+00
         0.11564E+00
         0.11096E+00
         0.98680E-01
         0.96165E-01
         0.10291E+00
         0.10087E+00
         0.99521E-01
         0.82259E-01
         0.78201E-01
         0.85923E-01
         0.92045E-01
         0.95522E-01
         0.10431E+00
         0.10031E+00
         0.10303E+00
         0.92764E-01
         0.88081E-01
         0.93909E-01
         0.91775E-01
         0.94450E-01
         0.93657E-01
         0.16751E-01
         0.10054E-01
         0.94903E-02
         0.65191E-02
         0.17354E-01
         0.11996E-01
         0.53332E-02
         0.16482E-01
         0.10340E-01
         0.15592E-01
         0.75575E-02
         0.32565E-01
         0.24749E-01
         0.12311E-01
         0.34179E-01
         0.12173E-01
         0.61918E-02
         0.39083E-02
         0.81930E-02
         0.44110E-02
         0.25615E-01
         0.24024E-01
         0.23396E-01
         0.60888E-02
         0.10089E-01
         0.31791E-02
         0.11677E-01
         0.18560E-02
         0.43145E-02
         0.10888E-01
         0.10402E-01
         0.55188E-02
         0.67020E-02
         0.58281E-02
         0.22473E-01
         0.13429E-01
         0.17384E-01
         0.27903E-01
         0.21493E-01
         0.19971E-01
         0.28323E-01
         0.25668E-01
         0.25818E-01
         0.19982E-01
         0.17838E-01
         0.24409E-01
         0.16003E-01
         0.13605E-01
         0.11189E-01
         0.13214E-01
         0.21642E-01
         0.14829E-01
         0.95054E-01
         0.97352E-01
         0.10181E+00
         0.10107E+00
         0.10771E+00
         0.11560E+00
         0.11091E+00
         0.98654E-01
         0.96141E-01
         0.10288E+00
         0.10086E+00
         0.99525E-01
         0.82251E-01
         0.78197E-01
         0.85934E-01
         0.92069E-01
         0.95547E-01
         0.10433E+00
         0.10030E+00
         0.10302E+00
         0.92754E-01
         0.88076E-01
         0.93877E-01
         0.91715E-01
         0.94397E-01
         0.93607E-01
         0.16764E-01
         0.10057E-01
         0.94957E-02
         0.65285E-02
         0.17346E-01
         0.11989E-01
         0.53495E-02
         0.16498E-01
         0.10358E-01
         0.15636E-01
         0.75575E-02
         0.32564E-01
         0.24760E-01
         0.12282E-01
         0.34214E-01
         0.12184E-01
         0.62100E-02
         0.38983E-02
         0.81983E-02
         0.44010E-02
         0.25618E-01
         0.24023E-01
         0.23396E-01
         0.60882E-02
         0.10131E-01
         0.31777E-02
         0.11680E-01
         0.18389E-02
         0.43336E-02
         0.10905E-01
         0.10413E-01
         0.55174E-02
         0.66906E-02
         0.58334E-02
         0.22483E-01
         0.13425E-01
         0.17380E-01
         0.27946E-01
         0.21542E-01
         0.20000E-01
         0.28343E-01
         0.25682E-01
         0.25823E-01
         0.19984E-01
         0.17836E-01
         0.24408E-01
         0.16004E-01
         0.13605E-01
         0.11173E-01
         0.13196E-01
         0.21629E-01
         0.14806E-01
         0.95019E-01
         0.97328E-01
         0.10181E+00
         0.10107E+00
         0.10769E+00
         0.11556E+00
         0.11087E+00
         0.98628E-01
         0.96116E-01
         0.10285E+00
         0.10084E+00
         0.99530E-01
         0.82246E-01
         0.78195E-01
         0.85945E-01
         0.92095E-01
         0.95576E-01
         0.10436E+00
         0.10030E+00
         0.10301E+00
         0.92744E-01
         0.88070E-01
         0.93845E-01
         0.91655E-01
         0.94343E-01
         0.93557E-01
         0.16777E-01
         0.10059E-01
         0.95011E-02
         0.65378E-02
         0.17338E-01
         0.11982E-01
         0.53657E-02
         0.16513E-01
         0.10376E-01
         0.15679E-01
         0.75577E-02
         0.32563E-01
         0.24769E-01
         0.12253E-01
         0.34250E-01
         0.12196E-01
         0.62289E-02
         0.38882E-02
         0.82036E-02
         0.43907E-02
         0.25622E-01
         0.24022E-01
         0.23398E-01
         0.60872E-02
         0.10172E-01
         0.31755E-02
         0.11683E-01
         0.18241E-02
         0.43514E-02
         0.10920E-01
         0.10424E-01
         0.55162E-02
         0.66791E-02
         0.58386E-02
         0.22493E-01
         0.13422E-01
         0.17376E-01
         0.27990E-01
         0.21592E-01
         0.20031E-01
         0.28365E-01
         0.25697E-01
         0.25829E-01
         0.19988E-01
         0.17835E-01
         0.24409E-01
         0.16006E-01
         0.13605E-01
         0.11158E-01
         0.13178E-01
         0.21618E-01
         0.14783E-01
         0.94985E-01
         0.97305E-01
         0.10181E+00
         0.10107E+00
         0.10767E+00
         0.11553E+00
         0.11082E+00
         0.98601E-01
         0.96092E-01
         0.10282E+00
         0.10082E+00
         0.99536E-01
         0.82242E-01
         0.78193E-01
         0.85958E-01
         0.92124E-01
         0.95607E-01
         0.10438E+00
         0.10029E+00
         0.10301E+00
         0.92734E-01
         0.88065E-01
         0.93812E-01
         0.91595E-01
         0.94290E-01
         0.93508E-01
         0.16788E-01
         0.10061E-01
         0.95063E-02
         0.65472E-02
         0.17330E-01
         0.11975E-01
         0.53814E-02
         0.16528E-01
         0.10394E-01
         0.15722E-01
         0.75585E-02
         0.32562E-01
         0.24779E-01
         0.12224E-01
         0.34285E-01
         0.12208E-01
         0.62479E-02
         0.38781E-02
         0.82090E-02
         0.43807E-02
         0.25627E-01
         0.24022E-01
         0.23400E-01
         0.60863E-02
         0.10212E-01
         0.31731E-02
         0.11686E-01
         0.18104E-02
         0.43692E-02
         0.10934E-01
         0.10435E-01
         0.55146E-02
         0.66677E-02
         0.58439E-02
         0.22504E-01
         0.13419E-01
         0.17373E-01
         0.28034E-01
         0.21643E-01
         0.20062E-01
         0.28387E-01
         0.25712E-01
         0.25835E-01
         0.19993E-01
         0.17836E-01
         0.24412E-01
         0.16008E-01
         0.13605E-01
         0.11143E-01
         0.13160E-01
         0.21606E-01
         0.14761E-01
         0.94950E-01
         0.97282E-01
         0.10181E+00
         0.10107E+00
         0.10765E+00
         0.11549E+00
         0.11077E+00
         0.98575E-01
         0.96068E-01
         0.10279E+00
         0.10081E+00
         0.99543E-01
         0.82239E-01
         0.78192E-01
         0.85971E-01
         0.92155E-01
         0.95640E-01
         0.10441E+00
         0.10029E+00
         0.10300E+00
         0.92724E-01
         0.88059E-01
         0.93780E-01
         0.91535E-01
         0.94238E-01
         0.93458E-01
         0.16799E-01
         0.10061E-01
         0.95113E-02
         0.65566E-02
         0.17323E-01
         0.11969E-01
         0.53966E-02
         0.16540E-01
         0.10412E-01
         0.15762E-01
         0.75604E-02
         0.32562E-01
         0.24790E-01
         0.12195E-01
         0.34321E-01
         0.12220E-01
         0.62666E-02
         0.38679E-02
         0.82145E-02
         0.43709E-02
         0.25631E-01
         0.24022E-01
         0.23403E-01
         0.60856E-02
         0.10250E-01
         0.31702E-02
         0.11689E-01
         0.17970E-02
         0.43872E-02
         0.10949E-01
         0.10444E-01
         0.55119E-02
         0.66561E-02
         0.58490E-02
         0.22514E-01
         0.13416E-01
         0.17370E-01
         0.28078E-01
         0.21693E-01
         0.20094E-01
         0.28410E-01
         0.25727E-01
         0.25842E-01
         0.19998E-01
         0.17837E-01
         0.24415E-01
         0.16012E-01
         0.13606E-01
         0.11130E-01
         0.13143E-01
         0.21595E-01
         0.14739E-01
         0.94916E-01
         0.97259E-01
         0.10181E+00
         0.10108E+00
         0.10764E+00
         0.11545E+00
         0.11073E+00
         0.98548E-01
         0.96044E-01
         0.10276E+00
         0.10079E+00
         0.99550E-01
         0.82236E-01
         0.78190E-01
         0.85984E-01
         0.92185E-01
         0.95673E-01
         0.10443E+00
         0.10028E+00
         0.10300E+00
         0.92715E-01
         0.88055E-01
         0.93748E-01
         0.91475E-01
         0.94185E-01
         0.93408E-01
         0.16810E-01
         0.10061E-01
         0.95162E-02
         0.65661E-02
         0.17316E-01
         0.11962E-01
         0.54113E-02
         0.16551E-01
         0.10430E-01
         0.15801E-01
         0.75631E-02
         0.32562E-01
         0.24801E-01
         0.12167E-01
         0.34356E-01
         0.12232E-01
         0.62851E-02
         0.38577E-02
         0.82200E-02
         0.43614E-02
         0.25635E-01
         0.24022E-01
         0.23405E-01
         0.60848E-02
         0.10288E-01
         0.31672E-02
         0.11692E-01
         0.17842E-02
         0.44058E-02
         0.10963E-01
         0.10454E-01
         0.55086E-02
         0.66445E-02
         0.58541E-02
         0.22525E-01
         0.13414E-01
         0.17368E-01
         0.28123E-01
         0.21744E-01
         0.20126E-01
         0.28432E-01
         0.25743E-01
         0.25849E-01
         0.20004E-01
         0.17838E-01
         0.24419E-01
         0.16016E-01
         0.13609E-01
         0.11118E-01
         0.13126E-01
         0.21585E-01
         0.14717E-01
         0.94881E-01
         0.97236E-01
         0.10181E+00
         0.10108E+00
         0.10762E+00
         0.11541E+00
         0.11068E+00
         0.98522E-01
         0.96019E-01
         0.10273E+00
         0.10078E+00
         0.99556E-01
         0.82233E-01
         0.78189E-01
         0.85997E-01
         0.92216E-01
         0.95706E-01
         0.10446E+00
         0.10028E+00
         0.10299E+00
         0.92707E-01
         0.88051E-01
         0.93716E-01
         0.91415E-01
         0.94132E-01
         0.93358E-01
         0.16820E-01
         0.10061E-01
         0.95210E-02
         0.65756E-02
         0.17308E-01
         0.11955E-01
         0.54260E-02
         0.16563E-01
         0.10448E-01
         0.15841E-01
         0.75655E-02
         0.32562E-01
         0.24813E-01
         0.12139E-01
         0.34392E-01
         0.12244E-01
         0.63036E-02
         0.38475E-02
         0.82254E-02
         0.43517E-02
         0.25640E-01
         0.24022E-01
         0.23408E-01
         0.60842E-02
         0.10326E-01
         0.31642E-02
         0.11695E-01
         0.17717E-02
         0.44245E-02
         0.10978E-01
         0.10464E-01
         0.55054E-02
         0.66331E-02
         0.58591E-02
         0.22536E-01
         0.13412E-01
         0.17365E-01
         0.28168E-01
         0.21796E-01
         0.20157E-01
         0.28455E-01
         0.25759E-01
         0.25855E-01
         0.20010E-01
         0.17840E-01
         0.24423E-01
         0.16020E-01
         0.13611E-01
         0.11106E-01
         0.13109E-01
         0.21575E-01
         0.14695E-01
         0.94847E-01
         0.97213E-01
         0.10180E+00
         0.10108E+00
         0.10760E+00
         0.11537E+00
         0.11063E+00
         0.98495E-01
         0.95995E-01
         0.10269E+00
         0.10076E+00
         0.99563E-01
         0.82230E-01
         0.78187E-01
         0.86010E-01
         0.92247E-01
         0.95739E-01
         0.10448E+00
         0.10027E+00
         0.10298E+00
         0.92699E-01
         0.88047E-01
         0.93683E-01
         0.91356E-01
         0.94079E-01
         0.93309E-01
         0.16831E-01
         0.10061E-01
         0.95258E-02
         0.65851E-02
         0.17301E-01
         0.11948E-01
         0.54408E-02
         0.16574E-01
         0.10467E-01
         0.15880E-01
         0.75683E-02
         0.32563E-01
         0.24824E-01
         0.12110E-01
         0.34428E-01
         0.12256E-01
         0.63222E-02
         0.38374E-02
         0.82308E-02
         0.43422E-02
         0.25644E-01
         0.24022E-01
         0.23410E-01
         0.60836E-02
         0.10364E-01
         0.31612E-02
         0.11699E-01
         0.17597E-02
         0.44433E-02
         0.10992E-01
         0.10473E-01
         0.55020E-02
         0.66216E-02
         0.58642E-02
         0.22547E-01
         0.13410E-01
         0.17363E-01
         0.28212E-01
         0.21847E-01
         0.20189E-01
         0.28477E-01
         0.25774E-01
         0.25862E-01
         0.20016E-01
         0.17842E-01
         0.24427E-01
         0.16024E-01
         0.13613E-01
         0.11094E-01
         0.13093E-01
         0.21565E-01
         0.14673E-01
         0.94812E-01
         0.97190E-01
         0.10180E+00
         0.10108E+00
         0.10758E+00
         0.11533E+00
         0.11059E+00
         0.98469E-01
         0.95971E-01
         0.10266E+00
         0.10074E+00
         0.99569E-01
         0.82227E-01
         0.78186E-01
         0.86023E-01
         0.92278E-01
         0.95772E-01
         0.10451E+00
         0.10026E+00
         0.10298E+00
         0.92690E-01
         0.88043E-01
         0.93651E-01
         0.91296E-01
         0.94027E-01
         0.93259E-01
         0.16841E-01
         0.10061E-01
         0.95307E-02
         0.65946E-02
         0.17294E-01
         0.11942E-01
         0.54558E-02
         0.16585E-01
         0.10485E-01
         0.15920E-01
         0.75712E-02
         0.32563E-01
         0.24835E-01
         0.12082E-01
         0.34464E-01
         0.12268E-01
         0.63408E-02
         0.38273E-02
         0.82362E-02
         0.43324E-02
         0.25648E-01
         0.24022E-01
         0.23413E-01
         0.60831E-02
         0.10402E-01
         0.31583E-02
         0.11702E-01
         0.17480E-02
         0.44623E-02
         0.11007E-01
         0.10483E-01
         0.54988E-02
         0.66103E-02
         0.58693E-02
         0.22558E-01
         0.13408E-01
         0.17361E-01
         0.28257E-01
         0.21898E-01
         0.20220E-01
         0.28500E-01
         0.25790E-01
         0.25869E-01
         0.20021E-01
         0.17844E-01
         0.24431E-01
         0.16028E-01
         0.13615E-01
         0.11083E-01
         0.13076E-01
         0.21555E-01
         0.14651E-01
         0.94777E-01
         0.97167E-01
         0.10180E+00
         0.10108E+00
         0.10756E+00
         0.11529E+00
         0.11054E+00
         0.98442E-01
         0.95947E-01
         0.10263E+00
         0.10073E+00
         0.99576E-01
         0.82224E-01
         0.78184E-01
         0.86036E-01
         0.92308E-01
         0.95805E-01
         0.10453E+00
         0.10025E+00
         0.10297E+00
         0.92682E-01
         0.88039E-01
         0.93618E-01
         0.91236E-01
         0.93975E-01
         0.93210E-01
         0.16851E-01
         0.10061E-01
         0.95355E-02
         0.66041E-02
         0.17286E-01
         0.11935E-01
         0.54706E-02
         0.16596E-01
         0.10504E-01
         0.15959E-01
         0.75742E-02
         0.32563E-01
         0.24846E-01
         0.12054E-01
         0.34500E-01
         0.12280E-01
         0.63594E-02
         0.38171E-02
         0.82417E-02
         0.43229E-02
         0.25653E-01
         0.24022E-01
         0.23415E-01
         0.60826E-02
         0.10440E-01
         0.31555E-02
         0.11705E-01
         0.17367E-02
         0.44813E-02
         0.11021E-01
         0.10492E-01
         0.54955E-02
         0.65989E-02
         0.58744E-02
         0.22569E-01
         0.13405E-01
         0.17358E-01
         0.28302E-01
         0.21950E-01
         0.20252E-01
         0.28522E-01
         0.25806E-01
         0.25875E-01
         0.20027E-01
         0.17846E-01
         0.24435E-01
         0.16031E-01
         0.13618E-01
         0.11071E-01
         0.13060E-01
         0.21544E-01
         0.14629E-01
         0.94743E-01
         0.97144E-01
         0.10180E+00
         0.10108E+00
         0.10755E+00
         0.11525E+00
         0.11049E+00
         0.98416E-01
         0.95924E-01
         0.10260E+00
         0.10071E+00
         0.99582E-01
         0.82220E-01
         0.78183E-01
         0.86049E-01
         0.92339E-01
         0.95838E-01
         0.10455E+00
         0.10025E+00
         0.10296E+00
         0.92674E-01
         0.88035E-01
         0.93585E-01
         0.91177E-01
         0.93922E-01
         0.93160E-01
         0.16862E-01
         0.10061E-01
         0.95403E-02
         0.66137E-02
         0.17279E-01
         0.11928E-01
         0.54854E-02
         0.16608E-01
         0.10522E-01
         0.15998E-01
         0.75774E-02
         0.32563E-01
         0.24858E-01
         0.12026E-01
         0.34536E-01
         0.12292E-01
         0.63780E-02
         0.38069E-02
         0.82471E-02
         0.43133E-02
         0.25657E-01
         0.24022E-01
         0.23418E-01
         0.60821E-02
         0.10478E-01
         0.31526E-02
         0.11709E-01
         0.17258E-02
         0.45007E-02
         0.11036E-01
         0.10502E-01
         0.54922E-02
         0.65876E-02
         0.58795E-02
         0.22580E-01
         0.13404E-01
         0.17356E-01
         0.28347E-01
         0.22001E-01
         0.20283E-01
         0.28545E-01
         0.25821E-01
         0.25882E-01
         0.20032E-01
         0.17848E-01
         0.24438E-01
         0.16035E-01
         0.13620E-01
         0.11059E-01
         0.13043E-01
         0.21534E-01
         0.14607E-01
         0.94708E-01
         0.97122E-01
         0.10180E+00
         0.10108E+00
         0.10753E+00
         0.11521E+00
         0.11044E+00
         0.98389E-01
         0.95899E-01
         0.10257E+00
         0.10069E+00
         0.99589E-01
         0.82217E-01
         0.78181E-01
         0.86062E-01
         0.92369E-01
         0.95871E-01
         0.10458E+00
         0.10024E+00
         0.10296E+00
         0.92665E-01
         0.88031E-01
         0.93553E-01
         0.91117E-01
         0.93870E-01
         0.93111E-01
         0.16872E-01
         0.10061E-01
         0.95451E-02
         0.66233E-02
         0.17272E-01
         0.11921E-01
         0.55005E-02
         0.16619E-01
         0.10541E-01
         0.16038E-01
         0.75806E-02
         0.32563E-01
         0.24869E-01
         0.11998E-01
         0.34572E-01
         0.12304E-01
         0.63967E-02
         0.37968E-02
         0.82525E-02
         0.43039E-02
         0.25661E-01
         0.24022E-01
         0.23420E-01
         0.60816E-02
         0.10515E-01
         0.31497E-02
         0.11712E-01
         0.17153E-02
         0.45202E-02
         0.11050E-01
         0.10511E-01
         0.54890E-02
         0.65763E-02
         0.58846E-02
         0.22591E-01
         0.13401E-01
         0.17354E-01
         0.28392E-01
         0.22053E-01
         0.20315E-01
         0.28568E-01
         0.25836E-01
         0.25889E-01
         0.20038E-01
         0.17850E-01
         0.24442E-01
         0.16039E-01
         0.13622E-01
         0.11047E-01
         0.13026E-01
         0.21524E-01
         0.14585E-01
         0.94674E-01
         0.97099E-01
         0.10180E+00
         0.10108E+00
         0.10751E+00
         0.11517E+00
         0.11040E+00
         0.98362E-01
         0.95875E-01
         0.10253E+00
         0.10068E+00
         0.99595E-01
         0.82214E-01
         0.78180E-01
         0.86075E-01
         0.92400E-01
         0.95904E-01
         0.10460E+00
         0.10024E+00
         0.10295E+00
         0.92657E-01
         0.88027E-01
         0.93520E-01
         0.91057E-01
         0.93818E-01
         0.93061E-01
         0.16882E-01
         0.10061E-01
         0.95499E-02
         0.66330E-02
         0.17265E-01
         0.11914E-01
         0.55154E-02
         0.16630E-01
         0.10559E-01
         0.16077E-01
         0.75839E-02
         0.32564E-01
         0.24880E-01
         0.11970E-01
         0.34608E-01
         0.12317E-01
         0.64154E-02
         0.37867E-02
         0.82579E-02
         0.42942E-02
         0.25666E-01
         0.24022E-01
         0.23423E-01
         0.60811E-02
         0.10553E-01
         0.31468E-02
         0.11715E-01
         0.17052E-02
         0.45400E-02
         0.11064E-01
         0.10521E-01
         0.54857E-02
         0.65651E-02
         0.58896E-02
         0.22602E-01
         0.13400E-01
         0.17351E-01
         0.28437E-01
         0.22104E-01
         0.20346E-01
         0.28590E-01
         0.25852E-01
         0.25895E-01
         0.20044E-01
         0.17851E-01
         0.24446E-01
         0.16043E-01
         0.13624E-01
         0.11036E-01
         0.13010E-01
         0.21514E-01
         0.14563E-01
         0.94639E-01
         0.97076E-01
         0.10180E+00
         0.10108E+00
         0.10749E+00
         0.11513E+00
         0.11035E+00
         0.98335E-01
         0.95851E-01
         0.10250E+00
         0.10066E+00
         0.99602E-01
         0.82211E-01
         0.78179E-01
         0.86088E-01
         0.92431E-01
         0.95937E-01
         0.10463E+00
         0.10023E+00
         0.10294E+00
         0.92649E-01
         0.88023E-01
         0.93487E-01
         0.90998E-01
         0.93766E-01
         0.93011E-01
         0.16892E-01
         0.10060E-01
         0.95546E-02
         0.66426E-02
         0.17257E-01
         0.11908E-01
         0.55303E-02
         0.16641E-01
         0.10578E-01
         0.16116E-01
         0.75874E-02
         0.32564E-01
         0.24892E-01
         0.11941E-01
         0.34644E-01
         0.12329E-01
         0.64342E-02
         0.37766E-02
         0.82634E-02
         0.42848E-02
         0.25670E-01
         0.24022E-01
         0.23425E-01
         0.60807E-02
         0.10591E-01
         0.31440E-02
         0.11719E-01
         0.16954E-02
         0.45598E-02
         0.11079E-01
         0.10530E-01
         0.54825E-02
         0.65540E-02
         0.58948E-02
         0.22614E-01
         0.13398E-01
         0.17349E-01
         0.28482E-01
         0.22156E-01
         0.20377E-01
         0.28613E-01
         0.25867E-01
         0.25902E-01
         0.20049E-01
         0.17854E-01
         0.24450E-01
         0.16047E-01
         0.13626E-01
         0.11024E-01
         0.12993E-01
         0.21503E-01
         0.14541E-01
         0.94604E-01
         0.97053E-01
         0.10179E+00
         0.10108E+00
         0.10748E+00
         0.11509E+00
         0.11030E+00
         0.98308E-01
         0.95828E-01
         0.10247E+00
         0.10064E+00
         0.99609E-01
         0.82208E-01
         0.78177E-01
         0.86101E-01
         0.92462E-01
         0.95970E-01
         0.10465E+00
         0.10022E+00
         0.10294E+00
         0.92641E-01
         0.88019E-01
         0.93455E-01
         0.90938E-01
         0.93714E-01
         0.92962E-01
         0.16903E-01
         0.10060E-01
         0.95595E-02
         0.66522E-02
         0.17250E-01
         0.11901E-01
         0.55455E-02
         0.16653E-01
         0.10596E-01
         0.16155E-01
         0.75910E-02
         0.32564E-01
         0.24903E-01
         0.11913E-01
         0.34680E-01
         0.12341E-01
         0.64531E-02
         0.37665E-02
         0.82688E-02
         0.42752E-02
         0.25675E-01
         0.24022E-01
         0.23428E-01
         0.60804E-02
         0.10629E-01
         0.31411E-02
         0.11722E-01
         0.16857E-02
         0.45796E-02
         0.11093E-01
         0.10540E-01
         0.54794E-02
         0.65430E-02
         0.59001E-02
         0.22625E-01
         0.13395E-01
         0.17346E-01
         0.28527E-01
         0.22208E-01
         0.20408E-01
         0.28635E-01
         0.25883E-01
         0.25908E-01
         0.20055E-01
         0.17855E-01
         0.24454E-01
         0.16051E-01
         0.13629E-01
         0.11012E-01
         0.12976E-01
         0.21493E-01
         0.14519E-01
         0.94570E-01
         0.97030E-01
         0.10179E+00
         0.10108E+00
         0.10746E+00
         0.11505E+00
         0.11025E+00
         0.98281E-01
         0.95804E-01
         0.10244E+00
         0.10063E+00
         0.99616E-01
         0.82205E-01
         0.78176E-01
         0.86114E-01
         0.92492E-01
         0.96003E-01
         0.10467E+00
         0.10022E+00
         0.10293E+00
         0.92632E-01
         0.88014E-01
         0.93422E-01
         0.90878E-01
         0.93661E-01
         0.92912E-01
         0.16913E-01
         0.10060E-01
         0.95642E-02
         0.66619E-02
         0.17243E-01
         0.11894E-01
         0.55604E-02
         0.16664E-01
         0.10615E-01
         0.16194E-01
         0.75946E-02
         0.32564E-01
         0.24914E-01
         0.11885E-01
         0.34715E-01
         0.12353E-01
         0.64719E-02
         0.37564E-02
         0.82743E-02
         0.42660E-02
         0.25679E-01
         0.24022E-01
         0.23430E-01
         0.60798E-02
         0.10666E-01
         0.31385E-02
         0.11724E-01
         0.16761E-02
         0.45998E-02
         0.11106E-01
         0.10550E-01
         0.54760E-02
         0.65320E-02
         0.59052E-02
         0.22636E-01
         0.13394E-01
         0.17344E-01
         0.28572E-01
         0.22259E-01
         0.20438E-01
         0.28656E-01
         0.25897E-01
         0.25914E-01
         0.20060E-01
         0.17857E-01
         0.24458E-01
         0.16055E-01
         0.13631E-01
         0.11001E-01
         0.12960E-01
         0.21483E-01
         0.14497E-01
         0.94535E-01
         0.97008E-01
         0.10179E+00
         0.10108E+00
         0.10744E+00
         0.11501E+00
         0.11021E+00
         0.98254E-01
         0.95780E-01
         0.10240E+00
         0.10061E+00
         0.99626E-01
         0.82204E-01
         0.78174E-01
         0.86127E-01
         0.92522E-01
         0.96036E-01
         0.10470E+00
         0.10021E+00
         0.10293E+00
         0.92624E-01
         0.88010E-01
         0.93389E-01
         0.90819E-01
         0.93609E-01
         0.92863E-01
         0.16923E-01
         0.10060E-01
         0.95690E-02
         0.66716E-02
         0.17236E-01
         0.11887E-01
         0.55755E-02
         0.16675E-01
         0.10634E-01
         0.16232E-01
         0.75983E-02
         0.32565E-01
         0.24925E-01
         0.11857E-01
         0.34751E-01
         0.12365E-01
         0.64907E-02
         0.37462E-02
         0.82798E-02
         0.42568E-02
         0.25684E-01
         0.24021E-01
         0.23433E-01
         0.60795E-02
         0.10703E-01
         0.31357E-02
         0.11725E-01
         0.16663E-02
         0.46201E-02
         0.11119E-01
         0.10559E-01
         0.54728E-02
         0.65210E-02
         0.59104E-02
         0.22647E-01
         0.13392E-01
         0.17342E-01
         0.28617E-01
         0.22310E-01
         0.20467E-01
         0.28675E-01
         0.25909E-01
         0.25920E-01
         0.20066E-01
         0.17860E-01
         0.24462E-01
         0.16059E-01
         0.13633E-01
         0.10989E-01
         0.12943E-01
         0.21473E-01
         0.14475E-01
         0.94500E-01
         0.96985E-01
         0.10179E+00
         0.10108E+00
         0.10742E+00
         0.11497E+00
         0.11016E+00
         0.98227E-01
         0.95755E-01
         0.10236E+00
         0.10060E+00
         0.99639E-01
         0.82204E-01
         0.78173E-01
         0.86140E-01
         0.92553E-01
         0.96069E-01
         0.10472E+00
         0.10020E+00
         0.10292E+00
         0.92616E-01
         0.88006E-01
         0.93356E-01
         0.90759E-01
         0.93557E-01
         0.92813E-01
         0.16933E-01
         0.10060E-01
         0.95741E-02
         0.66814E-02
         0.17229E-01
         0.11881E-01
         0.55906E-02
         0.16686E-01
         0.10653E-01
         0.16271E-01
         0.76021E-02
         0.32565E-01
         0.24937E-01
         0.11828E-01
         0.34787E-01
         0.12377E-01
         0.65097E-02
         0.37362E-02
         0.82853E-02
         0.42479E-02
         0.25688E-01
         0.24021E-01
         0.23435E-01
         0.60792E-02
         0.10740E-01
         0.31331E-02
         0.11726E-01
         0.16566E-02
         0.46405E-02
         0.11132E-01
         0.10569E-01
         0.54697E-02
         0.65102E-02
         0.59157E-02
         0.22659E-01
         0.13390E-01
         0.17339E-01
         0.28663E-01
         0.22361E-01
         0.20495E-01
         0.28694E-01
         0.25921E-01
         0.25925E-01
         0.20072E-01
         0.17861E-01
         0.24466E-01
         0.16063E-01
         0.13636E-01
         0.10977E-01
         0.12927E-01
         0.21463E-01
         0.14453E-01
         0.94465E-01
         0.96962E-01
         0.10179E+00
         0.10108E+00
         0.10741E+00
         0.11493E+00
         0.11011E+00
         0.98201E-01
         0.95731E-01
         0.10233E+00
         0.10058E+00
         0.99652E-01
         0.82205E-01
         0.78172E-01
         0.86153E-01
         0.92583E-01
         0.96102E-01
         0.10475E+00
         0.10020E+00
         0.10291E+00
         0.92608E-01
         0.88002E-01
         0.93323E-01
         0.90700E-01
         0.93506E-01
         0.92764E-01
         0.17286E-01
         0.10580E-01
         0.10112E-01
         0.72948E-02
         0.17672E-01
         0.12392E-01
         0.65606E-02
         0.17119E-01
         0.11119E-01
         0.16736E-01
         0.85084E-02
         0.33011E-01
         0.25367E-01
         0.12469E-01
         0.35280E-01
         0.12773E-01
         0.72514E-02
         0.46213E-02
         0.89288E-02
         0.54278E-02
         0.26056E-01
         0.24401E-01
         0.23791E-01
         0.68363E-02
         0.11354E-01
         0.43085E-02
         0.12382E-01
         0.40388E-02
         0.59715E-02
         0.11745E-01
         0.11016E-01
         0.62807E-02
         0.71256E-02
         0.66544E-02
         0.23123E-01
         0.13915E-01
         0.17780E-01
         0.29156E-01
         0.22886E-01
         0.21011E-01
         0.29150E-01
         0.26351E-01
         0.26316E-01
         0.20438E-01
         0.18276E-01
         0.24905E-01
         0.16541E-01
         0.14110E-01
         0.11499E-01
         0.13417E-01
         0.21888E-01
         0.14909E-01
         0.95216E-01
         0.97712E-01
         0.10259E+00
         0.10186E+00
         0.10821E+00
         0.11579E+00
         0.11095E+00
         0.99015E-01
         0.96546E-01
         0.10318E+00
         0.10141E+00
         0.10045E+00
         0.82859E-01
         0.78776E-01
         0.86792E-01
         0.93264E-01
         0.96801E-01
         0.10553E+00
         0.10100E+00
         0.10373E+00
         0.93319E-01
         0.88676E-01
         0.94012E-01
         0.91353E-01
         0.94165E-01
         0.93422E-01
         0.41169E-01
         0.37095E-01
         0.36338E-01
         0.32169E-01
         0.44920E-01
         0.39201E-01
         0.37492E-01
         0.44489E-01
         0.35480E-01
         0.44122E-01
         0.41555E-01
         0.64467E-01
         0.54328E-01
         0.44655E-01
         0.68085E-01
         0.36208E-01
         0.34710E-01
         0.29731E-01
         0.36490E-01
         0.36632E-01
         0.52602E-01
         0.51814E-01
         0.49342E-01
         0.34308E-01
         0.40600E-01
         0.32309E-01
         0.44539E-01
         0.40382E-01
         0.41095E-01
         0.41981E-01
         0.35179E-01
         0.33949E-01
         0.32302E-01
         0.33360E-01
         0.52009E-01
         0.42312E-01
         0.45376E-01
         0.61473E-01
         0.54929E-01
         0.52912E-01
         0.60939E-01
         0.56738E-01
         0.55096E-01
         0.45623E-01
         0.44712E-01
         0.53462E-01
         0.44379E-01
         0.40831E-01
         0.38468E-01
         0.40816E-01
         0.49783E-01
         0.41920E-01
         0.13624E+00
         0.13811E+00
         0.14430E+00
         0.14291E+00
         0.15094E+00
         0.16145E+00
         0.15775E+00
         0.14486E+00
         0.14205E+00
         0.14971E+00
         0.14688E+00
         0.14370E+00
         0.12148E+00
         0.11558E+00
         0.12369E+00
         0.13029E+00
         0.13428E+00
         0.14571E+00
         0.14235E+00
         0.14570E+00
         0.13280E+00
         0.12710E+00
         0.13370E+00
         0.13082E+00
         0.13341E+00
         0.13210E+00
  
SCALARS                     nodal_mass  double 1
LOOKUP_TABLE default
         0.24608E-05
         0.19551E-05
         0.20945E-05
         0.35953E-05
         0.12304E-05
         0.97770E-06
         0.10472E-05
         0.17973E-05
         0.19315E-05
         0.24627E-05
         0.96570E-06
         0.12312E-05
         0.13823E-05
         0.16614E-05
         0.69133E-06
         0.83095E-06
         0.27274E-05
         0.20125E-05
         0.13635E-05
         0.10066E-05
         0.81737E-06
         0.15393E-05
         0.16929E-05
         0.40889E-06
         0.76975E-06
         0.84649E-06
         0.13859E-05
         0.17532E-05
         0.69345E-06
         0.87672E-06
         0.32470E-05
         0.25355E-05
         0.32225E-05
         0.16233E-05
         0.12675E-05
         0.16109E-05
         0.18980E-05
         0.21673E-05
         0.94902E-06
         0.10836E-05
         0.20482E-05
         0.22683E-05
         0.10242E-05
         0.11342E-05
         0.17426E-05
         0.10823E-05
         0.87140E-06
         0.54121E-06
         0.20598E-05
         0.10301E-05
         0.17103E-05
         0.85523E-06
         0.17977E-05
         0.89958E-06
         0.18362E-05
         0.91859E-06
         0.15911E-05
         0.19369E-05
         0.79575E-06
         0.96860E-06
         0.24553E-05
         0.17361E-05
         0.12277E-05
         0.86816E-06
         0.27409E-05
         0.13702E-05
         0.23792E-05
         0.11891E-05
         0.10821E-05
         0.16705E-05
         0.54106E-06
         0.83538E-06
         0.18955E-05
         0.94787E-06
         0.20026E-05
         0.10014E-05
         0.19316E-05
         0.96578E-06
         0.15181E-05
         0.75906E-06
         0.95443E-06
         0.15782E-05
         0.47723E-06
         0.78918E-06
         0.20886E-05
         0.10443E-05
         0.16867E-05
         0.84342E-06
         0.14838E-05
         0.74203E-06
         0.97224E-06
         0.16569E-05
         0.48620E-06
         0.82849E-06
         0.22482E-05
         0.11241E-05
         0.23568E-05
         0.11783E-05
         0.19018E-05
         0.95085E-06
         0.11709E-05
         0.20091E-05
         0.58544E-06
         0.10044E-05
         0.74681E-06
         0.94889E-06
         0.37348E-06
         0.47447E-06
         0.88885E-06
         0.44455E-06
         0.10466E-05
         0.52333E-06
         0.10205E-05
         0.51021E-06
         0.99108E-06
         0.49550E-06
         0.10560E-05
         0.52791E-06
         0.11142E-05
         0.55694E-06
         0.10497E-05
         0.52469E-06
         0.82085E-06
         0.41039E-06
         0.66950E-06
         0.33475E-06
         0.86397E-06
         0.43199E-06
         0.11504E-05
         0.57519E-06
         0.12637E-05
         0.63182E-06
         0.12132E-05
         0.60658E-06
         0.10948E-05
         0.54745E-06
         0.99429E-06
         0.49718E-06
         0.80759E-06
         0.40382E-06
         0.67982E-06
         0.33995E-06
         0.88797E-06
         0.44401E-06
         0.11753E-05
         0.58766E-06
         0.12140E-05
         0.60702E-06
         0.98236E-06
         0.49125E-06
         0.79766E-06
         0.39889E-06
         0.97540E-06
         0.48769E-06
         0.11548E-05
         0.57743E-06
         0.24609E-05
         0.19547E-05
         0.20946E-05
         0.35969E-05
         0.19318E-05
         0.24634E-05
         0.13815E-05
         0.16603E-05
         0.27283E-05
         0.20111E-05
         0.81658E-06
         0.15390E-05
         0.16927E-05
         0.13839E-05
         0.17528E-05
         0.32479E-05
         0.25367E-05
         0.32241E-05
         0.18980E-05
         0.21675E-05
         0.20481E-05
         0.22684E-05
         0.17424E-05
         0.10822E-05
         0.20589E-05
         0.17102E-05
         0.17950E-05
         0.18344E-05
         0.15904E-05
         0.19365E-05
         0.24555E-05
         0.17359E-05
         0.27423E-05
         0.23814E-05
         0.10820E-05
         0.16702E-05
         0.18953E-05
         0.20025E-05
         0.19317E-05
         0.15181E-05
         0.95442E-06
         0.15780E-05
         0.20884E-05
         0.16864E-05
         0.14835E-05
         0.97197E-06
         0.16567E-05
         0.22482E-05
         0.23571E-05
         0.19022E-05
         0.11709E-05
         0.20101E-05
         0.74658E-06
         0.94886E-06
         0.88841E-06
         0.10467E-05
         0.10207E-05
         0.99128E-06
         0.10565E-05
         0.11150E-05
         0.10503E-05
         0.82102E-06
         0.66954E-06
         0.86398E-06
         0.11506E-05
         0.12640E-05
         0.12133E-05
         0.10948E-05
         0.99421E-06
         0.80751E-06
         0.67970E-06
         0.88789E-06
         0.11752E-05
         0.12140E-05
         0.98215E-06
         0.79747E-06
         0.97551E-06
         0.11548E-05
         0.24611E-05
         0.19543E-05
         0.20949E-05
         0.35987E-05
         0.19321E-05
         0.24642E-05
         0.13808E-05
         0.16594E-05
         0.27293E-05
         0.20098E-05
         0.81582E-06
         0.15388E-05
         0.16927E-05
         0.13821E-05
         0.17525E-05
         0.32489E-05
         0.25379E-05
         0.32257E-05
         0.18982E-05
         0.21678E-05
         0.20480E-05
         0.22685E-05
         0.17423E-05
         0.10821E-05
         0.20580E-05
         0.17101E-05
         0.17924E-05
         0.18326E-05
         0.15898E-05
         0.19361E-05
         0.24558E-05
         0.17357E-05
         0.27438E-05
         0.23836E-05
         0.10821E-05
         0.16699E-05
         0.18951E-05
         0.20024E-05
         0.19318E-05
         0.15183E-05
         0.95445E-06
         0.15778E-05
         0.20884E-05
         0.16862E-05
         0.14831E-05
         0.97174E-06
         0.16566E-05
         0.22483E-05
         0.23575E-05
         0.19026E-05
         0.11709E-05
         0.20112E-05
         0.74636E-06
         0.94886E-06
         0.88800E-06
         0.10467E-05
         0.10210E-05
         0.99152E-06
         0.10570E-05
         0.11159E-05
         0.10509E-05
         0.82122E-06
         0.66961E-06
         0.86402E-06
         0.11507E-05
         0.12643E-05
         0.12135E-05
         0.10948E-05
         0.99417E-06
         0.80747E-06
         0.67961E-06
         0.88784E-06
         0.11752E-05
         0.12140E-05
         0.98197E-06
         0.79731E-06
         0.97565E-06
         0.11548E-05
         0.24612E-05
         0.19539E-05
         0.20950E-05
         0.36004E-05
         0.19324E-05
         0.24650E-05
         0.13801E-05
         0.16584E-05
         0.27303E-05
         0.20085E-05
         0.81504E-06
         0.15385E-05
         0.16925E-05
         0.13801E-05
         0.17521E-05
         0.32498E-05
         0.25390E-05
         0.32274E-05
         0.18982E-05
         0.21681E-05
         0.20479E-05
         0.22686E-05
         0.17421E-05
         0.10820E-05
         0.20571E-05
         0.17099E-05
         0.17897E-05
         0.18308E-05
         0.15891E-05
         0.19356E-05
         0.24561E-05
         0.17355E-05
         0.27453E-05
         0.23857E-05
         0.10820E-05
         0.16696E-05
         0.18948E-05
         0.20022E-05
         0.19320E-05
         0.15183E-05
         0.95445E-06
         0.15776E-05
         0.20883E-05
         0.16859E-05
         0.14828E-05
         0.97149E-06
         0.16564E-05
         0.22483E-05
         0.23578E-05
         0.19030E-05
         0.11710E-05
         0.20122E-05
         0.74613E-06
         0.94884E-06
         0.88756E-06
         0.10467E-05
         0.10212E-05
         0.99173E-06
         0.10574E-05
         0.11167E-05
         0.10515E-05
         0.82140E-06
         0.66966E-06
         0.86404E-06
         0.11509E-05
         0.12646E-05
         0.12136E-05
         0.10947E-05
         0.99410E-06
         0.80740E-06
         0.67950E-06
         0.88777E-06
         0.11752E-05
         0.12140E-05
         0.98177E-06
         0.79713E-06
         0.97576E-06
         0.11547E-05
         0.24613E-05
         0.19535E-05
         0.20952E-05
         0.36022E-05
         0.19327E-05
         0.24657E-05
         0.13794E-05
         0.16574E-05
         0.27313E-05
         0.20072E-05
         0.81426E-06
         0.15382E-05
         0.16924E-05
         0.13782E-05
         0.17517E-05
         0.32508E-05
         0.25402E-05
         0.32290E-05
         0.18983E-05
         0.21684E-05
         0.20479E-05
         0.22687E-05
         0.17420E-05
         0.10819E-05
         0.20563E-05
         0.17098E-05
         0.17870E-05
         0.18290E-05
         0.15884E-05
         0.19352E-05
         0.24563E-05
         0.17353E-05
         0.27467E-05
         0.23879E-05
         0.10820E-05
         0.16693E-05
         0.18946E-05
         0.20021E-05
         0.19321E-05
         0.15184E-05
         0.95445E-06
         0.15773E-05
         0.20882E-05
         0.16857E-05
         0.14824E-05
         0.97124E-06
         0.16563E-05
         0.22484E-05
         0.23582E-05
         0.19034E-05
         0.11710E-05
         0.20132E-05
         0.74590E-06
         0.94883E-06
         0.88713E-06
         0.10468E-05
         0.10215E-05
         0.99194E-06
         0.10579E-05
         0.11175E-05
         0.10521E-05
         0.82159E-06
         0.66972E-06
         0.86406E-06
         0.11510E-05
         0.12649E-05
         0.12138E-05
         0.10947E-05
         0.99404E-06
         0.80734E-06
         0.67940E-06
         0.88771E-06
         0.11752E-05
         0.12140E-05
         0.98157E-06
         0.79696E-06
         0.97588E-06
         0.11547E-05
         0.24615E-05
         0.19531E-05
         0.20954E-05
         0.36039E-05
         0.19331E-05
         0.24665E-05
         0.13787E-05
         0.16564E-05
         0.27322E-05
         0.20059E-05
         0.81349E-06
         0.15380E-05
         0.16923E-05
         0.13763E-05
         0.17514E-05
         0.32518E-05
         0.25414E-05
         0.32306E-05
         0.18984E-05
         0.21687E-05
         0.20478E-05
         0.22688E-05
         0.17418E-05
         0.10818E-05
         0.20554E-05
         0.17096E-05
         0.17843E-05
         0.18272E-05
         0.15878E-05
         0.19347E-05
         0.24566E-05
         0.17351E-05
         0.27482E-05
         0.23901E-05
         0.10820E-05
         0.16690E-05
         0.18943E-05
         0.20019E-05
         0.19322E-05
         0.15185E-05
         0.95446E-06
         0.15771E-05
         0.20881E-05
         0.16855E-05
         0.14821E-05
         0.97100E-06
         0.16562E-05
         0.22484E-05
         0.23586E-05
         0.19038E-05
         0.11710E-05
         0.20142E-05
         0.74568E-06
         0.94882E-06
         0.88671E-06
         0.10468E-05
         0.10217E-05
         0.99216E-06
         0.10583E-05
         0.11183E-05
         0.10528E-05
         0.82178E-06
         0.66977E-06
         0.86408E-06
         0.11512E-05
         0.12652E-05
         0.12139E-05
         0.10947E-05
         0.99398E-06
         0.80728E-06
         0.67930E-06
         0.88766E-06
         0.11752E-05
         0.12140E-05
         0.98138E-06
         0.79679E-06
         0.97601E-06
         0.11547E-05
         0.24616E-05
         0.19527E-05
         0.20956E-05
         0.36056E-05
         0.19334E-05
         0.24672E-05
         0.13779E-05
         0.16554E-05
         0.27332E-05
         0.20046E-05
         0.81271E-06
         0.15377E-05
         0.16922E-05
         0.13744E-05
         0.17510E-05
         0.32527E-05
         0.25425E-05
         0.32322E-05
         0.18984E-05
         0.21689E-05
         0.20477E-05
         0.22689E-05
         0.17416E-05
         0.10816E-05
         0.20545E-05
         0.17095E-05
         0.17817E-05
         0.18254E-05
         0.15871E-05
         0.19343E-05
         0.24568E-05
         0.17349E-05
         0.27496E-05
         0.23922E-05
         0.10820E-05
         0.16686E-05
         0.18941E-05
         0.20018E-05
         0.19324E-05
         0.15186E-05
         0.95446E-06
         0.15769E-05
         0.20880E-05
         0.16852E-05
         0.14817E-05
         0.97074E-06
         0.16560E-05
         0.22484E-05
         0.23589E-05
         0.19042E-05
         0.11710E-05
         0.20152E-05
         0.74544E-06
         0.94880E-06
         0.88627E-06
         0.10469E-05
         0.10219E-05
         0.99237E-06
         0.10588E-05
         0.11191E-05
         0.10534E-05
         0.82196E-06
         0.66982E-06
         0.86410E-06
         0.11513E-05
         0.12654E-05
         0.12140E-05
         0.10947E-05
         0.99391E-06
         0.80721E-06
         0.67919E-06
         0.88759E-06
         0.11751E-05
         0.12140E-05
         0.98118E-06
         0.79661E-06
         0.97612E-06
         0.11546E-05
         0.24618E-05
         0.19523E-05
         0.20957E-05
         0.36073E-05
         0.19337E-05
         0.24680E-05
         0.13772E-05
         0.16545E-05
         0.27341E-05
         0.20033E-05
         0.81194E-06
         0.15374E-05
         0.16921E-05
         0.13725E-05
         0.17506E-05
         0.32537E-05
         0.25437E-05
         0.32339E-05
         0.18985E-05
         0.21692E-05
         0.20476E-05
         0.22690E-05
         0.17414E-05
         0.10815E-05
         0.20536E-05
         0.17093E-05
         0.17790E-05
         0.18236E-05
         0.15864E-05
         0.19339E-05
         0.24571E-05
         0.17347E-05
         0.27511E-05
         0.23944E-05
         0.10820E-05
         0.16683E-05
         0.18938E-05
         0.20016E-05
         0.19325E-05
         0.15186E-05
         0.95446E-06
         0.15767E-05
         0.20878E-05
         0.16850E-05
         0.14814E-05
         0.97050E-06
         0.16559E-05
         0.22484E-05
         0.23593E-05
         0.19046E-05
         0.11711E-05
         0.20162E-05
         0.74522E-06
         0.94878E-06
         0.88584E-06
         0.10469E-05
         0.10222E-05
         0.99258E-06
         0.10593E-05
         0.11199E-05
         0.10540E-05
         0.82215E-06
         0.66988E-06
         0.86413E-06
         0.11515E-05
         0.12657E-05
         0.12142E-05
         0.10946E-05
         0.99385E-06
         0.80715E-06
         0.67909E-06
         0.88752E-06
         0.11751E-05
         0.12140E-05
         0.98098E-06
         0.79643E-06
         0.97624E-06
         0.11546E-05
         0.24619E-05
         0.19519E-05
         0.20959E-05
         0.36091E-05
         0.19340E-05
         0.24688E-05
         0.13765E-05
         0.16535E-05
         0.27351E-05
         0.20020E-05
         0.81117E-06
         0.15372E-05
         0.16920E-05
         0.13706E-05
         0.17503E-05
         0.32546E-05
         0.25448E-05
         0.32355E-05
         0.18986E-05
         0.21695E-05
         0.20475E-05
         0.22691E-05
         0.17413E-05
         0.10814E-05
         0.20527E-05
         0.17092E-05
         0.17763E-05
         0.18219E-05
         0.15858E-05
         0.19334E-05
         0.24573E-05
         0.17345E-05
         0.27525E-05
         0.23966E-05
         0.10820E-05
         0.16680E-05
         0.18936E-05
         0.20015E-05
         0.19326E-05
         0.15187E-05
         0.95447E-06
         0.15765E-05
         0.20878E-05
         0.16848E-05
         0.14810E-05
         0.97025E-06
         0.16557E-05
         0.22485E-05
         0.23597E-05
         0.19050E-05
         0.11711E-05
         0.20172E-05
         0.74499E-06
         0.94877E-06
         0.88541E-06
         0.10469E-05
         0.10224E-05
         0.99280E-06
         0.10597E-05
         0.11207E-05
         0.10546E-05
         0.82234E-06
         0.66994E-06
         0.86415E-06
         0.11517E-05
         0.12660E-05
         0.12143E-05
         0.10946E-05
         0.99379E-06
         0.80709E-06
         0.67898E-06
         0.88746E-06
         0.11751E-05
         0.12140E-05
         0.98079E-06
         0.79626E-06
         0.97636E-06
         0.11546E-05
         0.24621E-05
         0.19515E-05
         0.20961E-05
         0.36108E-05
         0.19343E-05
         0.24695E-05
         0.13758E-05
         0.16525E-05
         0.27361E-05
         0.20006E-05
         0.81039E-06
         0.15369E-05
         0.16919E-05
         0.13686E-05
         0.17499E-05
         0.32556E-05
         0.25460E-05
         0.32371E-05
         0.18986E-05
         0.21697E-05
         0.20474E-05
         0.22692E-05
         0.17411E-05
         0.10813E-05
         0.20519E-05
         0.17091E-05
         0.17736E-05
         0.18201E-05
         0.15851E-05
         0.19330E-05
         0.24575E-05
         0.17342E-05
         0.27540E-05
         0.23987E-05
         0.10820E-05
         0.16677E-05
         0.18933E-05
         0.20014E-05
         0.19328E-05
         0.15188E-05
         0.95448E-06
         0.15763E-05
         0.20876E-05
         0.16845E-05
         0.14807E-05
         0.97000E-06
         0.16556E-05
         0.22485E-05
         0.23600E-05
         0.19053E-05
         0.11711E-05
         0.20182E-05
         0.74476E-06
         0.94875E-06
         0.88498E-06
         0.10470E-05
         0.10227E-05
         0.99301E-06
         0.10602E-05
         0.11215E-05
         0.10553E-05
         0.82252E-06
         0.66999E-06
         0.86417E-06
         0.11518E-05
         0.12663E-05
         0.12145E-05
         0.10946E-05
         0.99373E-06
         0.80702E-06
         0.67888E-06
         0.88740E-06
         0.11751E-05
         0.12140E-05
         0.98058E-06
         0.79608E-06
         0.97648E-06
         0.11546E-05
         0.24622E-05
         0.19511E-05
         0.20963E-05
         0.36125E-05
         0.19346E-05
         0.24703E-05
         0.13751E-05
         0.16515E-05
         0.27370E-05
         0.19993E-05
         0.80962E-06
         0.15366E-05
         0.16917E-05
         0.13667E-05
         0.17495E-05
         0.32565E-05
         0.25471E-05
         0.32388E-05
         0.18987E-05
         0.21700E-05
         0.20473E-05
         0.22693E-05
         0.17409E-05
         0.10812E-05
         0.20510E-05
         0.17089E-05
         0.17710E-05
         0.18183E-05
         0.15844E-05
         0.19325E-05
         0.24578E-05
         0.17340E-05
         0.27554E-05
         0.24009E-05
         0.10820E-05
         0.16674E-05
         0.18931E-05
         0.20012E-05
         0.19329E-05
         0.15189E-05
         0.95448E-06
         0.15760E-05
         0.20875E-05
         0.16843E-05
         0.14803E-05
         0.96975E-06
         0.16555E-05
         0.22485E-05
         0.23604E-05
         0.19057E-05
         0.11712E-05
         0.20192E-05
         0.74453E-06
         0.94874E-06
         0.88455E-06
         0.10470E-05
         0.10229E-05
         0.99322E-06
         0.10606E-05
         0.11223E-05
         0.10559E-05
         0.82270E-06
         0.67004E-06
         0.86419E-06
         0.11520E-05
         0.12666E-05
         0.12146E-05
         0.10945E-05
         0.99366E-06
         0.80696E-06
         0.67877E-06
         0.88733E-06
         0.11751E-05
         0.12140E-05
         0.98038E-06
         0.79590E-06
         0.97660E-06
         0.11545E-05
         0.24623E-05
         0.19507E-05
         0.20964E-05
         0.36142E-05
         0.19349E-05
         0.24710E-05
         0.13743E-05
         0.16505E-05
         0.27380E-05
         0.19980E-05
         0.80885E-06
         0.15364E-05
         0.16916E-05
         0.13648E-05
         0.17492E-05
         0.32575E-05
         0.25483E-05
         0.32404E-05
         0.18988E-05
         0.21703E-05
         0.20473E-05
         0.22694E-05
         0.17407E-05
         0.10811E-05
         0.20501E-05
         0.17088E-05
         0.17683E-05
         0.18165E-05
         0.15837E-05
         0.19321E-05
         0.24580E-05
         0.17338E-05
         0.27569E-05
         0.24031E-05
         0.10820E-05
         0.16670E-05
         0.18928E-05
         0.20011E-05
         0.19330E-05
         0.15189E-05
         0.95448E-06
         0.15758E-05
         0.20874E-05
         0.16840E-05
         0.14800E-05
         0.96950E-06
         0.16553E-05
         0.22485E-05
         0.23608E-05
         0.19061E-05
         0.11712E-05
         0.20202E-05
         0.74430E-06
         0.94872E-06
         0.88412E-06
         0.10470E-05
         0.10231E-05
         0.99344E-06
         0.10611E-05
         0.11231E-05
         0.10565E-05
         0.82289E-06
         0.67009E-06
         0.86422E-06
         0.11521E-05
         0.12669E-05
         0.12147E-05
         0.10945E-05
         0.99360E-06
         0.80690E-06
         0.67867E-06
         0.88727E-06
         0.11750E-05
         0.12140E-05
         0.98019E-06
         0.79573E-06
         0.97672E-06
         0.11545E-05
         0.24625E-05
         0.19503E-05
         0.20966E-05
         0.36160E-05
         0.19352E-05
         0.24718E-05
         0.13736E-05
         0.16496E-05
         0.27389E-05
         0.19967E-05
         0.80807E-06
         0.15361E-05
         0.16915E-05
         0.13629E-05
         0.17488E-05
         0.32584E-05
         0.25495E-05
         0.32420E-05
         0.18988E-05
         0.21705E-05
         0.20472E-05
         0.22695E-05
         0.17406E-05
         0.10810E-05
         0.20492E-05
         0.17086E-05
         0.17656E-05
         0.18147E-05
         0.15831E-05
         0.19317E-05
         0.24583E-05
         0.17336E-05
         0.27583E-05
         0.24053E-05
         0.10820E-05
         0.16667E-05
         0.18926E-05
         0.20009E-05
         0.19331E-05
         0.15190E-05
         0.95449E-06
         0.15756E-05
         0.20873E-05
         0.16838E-05
         0.14796E-05
         0.96925E-06
         0.16552E-05
         0.22486E-05
         0.23611E-05
         0.19065E-05
         0.11712E-05
         0.20212E-05
         0.74407E-06
         0.94870E-06
         0.88368E-06
         0.10471E-05
         0.10234E-05
         0.99365E-06
         0.10616E-05
         0.11239E-05
         0.10571E-05
         0.82307E-06
         0.67014E-06
         0.86424E-06
         0.11523E-05
         0.12672E-05
         0.12149E-05
         0.10945E-05
         0.99354E-06
         0.80683E-06
         0.67856E-06
         0.88721E-06
         0.11750E-05
         0.12140E-05
         0.97999E-06
         0.79555E-06
         0.97684E-06
         0.11545E-05
         0.24626E-05
         0.19499E-05
         0.20968E-05
         0.36177E-05
         0.19355E-05
         0.24725E-05
         0.13729E-05
         0.16486E-05
         0.27399E-05
         0.19954E-05
         0.80730E-06
         0.15358E-05
         0.16914E-05
         0.13610E-05
         0.17484E-05
         0.32594E-05
         0.25506E-05
         0.32437E-05
         0.18989E-05
         0.21708E-05
         0.20471E-05
         0.22696E-05
         0.17404E-05
         0.10808E-05
         0.20483E-05
         0.17085E-05
         0.17629E-05
         0.18129E-05
         0.15824E-05
         0.19312E-05
         0.24585E-05
         0.17334E-05
         0.27598E-05
         0.24074E-05
         0.10820E-05
         0.16664E-05
         0.18923E-05
         0.20008E-05
         0.19333E-05
         0.15191E-05
         0.95449E-06
         0.15754E-05
         0.20872E-05
         0.16835E-05
         0.14793E-05
         0.96901E-06
         0.16550E-05
         0.22486E-05
         0.23615E-05
         0.19069E-05
         0.11713E-05
         0.20222E-05
         0.74384E-06
         0.94869E-06
         0.88325E-06
         0.10471E-05
         0.10236E-05
         0.99386E-06
         0.10620E-05
         0.11247E-05
         0.10577E-05
         0.82326E-06
         0.67020E-06
         0.86426E-06
         0.11524E-05
         0.12674E-05
         0.12150E-05
         0.10944E-05
         0.99348E-06
         0.80677E-06
         0.67846E-06
         0.88714E-06
         0.11750E-05
         0.12140E-05
         0.97979E-06
         0.79538E-06
         0.97696E-06
         0.11544E-05
         0.24628E-05
         0.19495E-05
         0.20970E-05
         0.36194E-05
         0.19358E-05
         0.24733E-05
         0.13722E-05
         0.16476E-05
         0.27409E-05
         0.19941E-05
         0.80652E-06
         0.15355E-05
         0.16913E-05
         0.13591E-05
         0.17481E-05
         0.32604E-05
         0.25518E-05
         0.32453E-05
         0.18990E-05
         0.21711E-05
         0.20470E-05
         0.22697E-05
         0.17402E-05
         0.10807E-05
         0.20474E-05
         0.17084E-05
         0.17603E-05
         0.18111E-05
         0.15817E-05
         0.19308E-05
         0.24588E-05
         0.17332E-05
         0.27613E-05
         0.24096E-05
         0.10819E-05
         0.16661E-05
         0.18921E-05
         0.20006E-05
         0.19334E-05
         0.15192E-05
         0.95450E-06
         0.15752E-05
         0.20871E-05
         0.16833E-05
         0.14789E-05
         0.96876E-06
         0.16549E-05
         0.22486E-05
         0.23619E-05
         0.19073E-05
         0.11713E-05
         0.20232E-05
         0.74362E-06
         0.94868E-06
         0.88282E-06
         0.10472E-05
         0.10238E-05
         0.99408E-06
         0.10625E-05
         0.11255E-05
         0.10584E-05
         0.82345E-06
         0.67025E-06
         0.86428E-06
         0.11526E-05
         0.12677E-05
         0.12152E-05
         0.10944E-05
         0.99342E-06
         0.80671E-06
         0.67836E-06
         0.88709E-06
         0.11750E-05
         0.12140E-05
         0.97959E-06
         0.79521E-06
         0.97708E-06
         0.11544E-05
         0.24629E-05
         0.19491E-05
         0.20972E-05
         0.36212E-05
         0.19361E-05
         0.24741E-05
         0.13715E-05
         0.16466E-05
         0.27418E-05
         0.19928E-05
         0.80575E-06
         0.15353E-05
         0.16912E-05
         0.13572E-05
         0.17477E-05
         0.32613E-05
         0.25529E-05
         0.32469E-05
         0.18990E-05
         0.21714E-05
         0.20469E-05
         0.22698E-05
         0.17400E-05
         0.10806E-05
         0.20466E-05
         0.17082E-05
         0.17576E-05
         0.18093E-05
         0.15810E-05
         0.19303E-05
         0.24590E-05
         0.17330E-05
         0.27627E-05
         0.24118E-05
         0.10819E-05
         0.16658E-05
         0.18919E-05
         0.20005E-05
         0.19335E-05
         0.15192E-05
         0.95450E-06
         0.15750E-05
         0.20870E-05
         0.16831E-05
         0.14786E-05
         0.96851E-06
         0.16548E-05
         0.22487E-05
         0.23622E-05
         0.19077E-05
         0.11713E-05
         0.20242E-05
         0.74339E-06
         0.94866E-06
         0.88239E-06
         0.10472E-05
         0.10241E-05
         0.99429E-06
         0.10630E-05
         0.11263E-05
         0.10590E-05
         0.82363E-06
         0.67030E-06
         0.86430E-06
         0.11527E-05
         0.12680E-05
         0.12153E-05
         0.10944E-05
         0.99335E-06
         0.80665E-06
         0.67825E-06
         0.88702E-06
         0.11749E-05
         0.12140E-05
         0.97939E-06
         0.79503E-06
         0.97720E-06
         0.11544E-05
         0.24631E-05
         0.19487E-05
         0.20973E-05
         0.36229E-05
         0.19364E-05
         0.24748E-05
         0.13707E-05
         0.16456E-05
         0.27428E-05
         0.19915E-05
         0.80498E-06
         0.15350E-05
         0.16911E-05
         0.13553E-05
         0.17473E-05
         0.32623E-05
         0.25541E-05
         0.32486E-05
         0.18991E-05
         0.21716E-05
         0.20468E-05
         0.22699E-05
         0.17399E-05
         0.10805E-05
         0.20457E-05
         0.17081E-05
         0.17549E-05
         0.18075E-05
         0.15804E-05
         0.19299E-05
         0.24592E-05
         0.17328E-05
         0.27642E-05
         0.24140E-05
         0.10819E-05
         0.16654E-05
         0.18916E-05
         0.20003E-05
         0.19337E-05
         0.15193E-05
         0.95450E-06
         0.15748E-05
         0.20869E-05
         0.16828E-05
         0.14782E-05
         0.96826E-06
         0.16546E-05
         0.22487E-05
         0.23626E-05
         0.19081E-05
         0.11714E-05
         0.20253E-05
         0.74316E-06
         0.94864E-06
         0.88196E-06
         0.10472E-05
         0.10243E-05
         0.99450E-06
         0.10634E-05
         0.11271E-05
         0.10596E-05
         0.82381E-06
         0.67036E-06
         0.86432E-06
         0.11529E-05
         0.12683E-05
         0.12154E-05
         0.10943E-05
         0.99329E-06
         0.80658E-06
         0.67815E-06
         0.88696E-06
         0.11749E-05
         0.12140E-05
         0.97919E-06
         0.79485E-06
         0.97732E-06
         0.11544E-05
         0.24632E-05
         0.19483E-05
         0.20975E-05
         0.36246E-05
         0.19368E-05
         0.24756E-05
         0.13700E-05
         0.16447E-05
         0.27437E-05
         0.19902E-05
         0.80421E-06
         0.15347E-05
         0.16910E-05
         0.13534E-05
         0.17470E-05
         0.32632E-05
         0.25552E-05
         0.32502E-05
         0.18992E-05
         0.21719E-05
         0.20467E-05
         0.22700E-05
         0.17397E-05
         0.10804E-05
         0.20448E-05
         0.17079E-05
         0.17523E-05
         0.18057E-05
         0.15797E-05
         0.19295E-05
         0.24595E-05
         0.17326E-05
         0.27656E-05
         0.24161E-05
         0.10819E-05
         0.16651E-05
         0.18914E-05
         0.20002E-05
         0.19338E-05
         0.15194E-05
         0.95451E-06
         0.15745E-05
         0.20868E-05
         0.16826E-05
         0.14779E-05
         0.96801E-06
         0.16545E-05
         0.22487E-05
         0.23630E-05
         0.19085E-05
         0.11714E-05
         0.20263E-05
         0.74293E-06
         0.94863E-06
         0.88153E-06
         0.10473E-05
         0.10245E-05
         0.99472E-06
         0.10639E-05
         0.11279E-05
         0.10602E-05
         0.82400E-06
         0.67041E-06
         0.86435E-06
         0.11530E-05
         0.12686E-05
         0.12156E-05
         0.10943E-05
         0.99323E-06
         0.80652E-06
         0.67804E-06
         0.88690E-06
         0.11749E-05
         0.12140E-05
         0.97900E-06
         0.79468E-06
         0.97744E-06
         0.11543E-05
         0.24633E-05
         0.19479E-05
         0.20977E-05
         0.36264E-05
         0.19371E-05
         0.24763E-05
         0.13693E-05
         0.16437E-05
         0.27447E-05
         0.19888E-05
         0.80343E-06
         0.15345E-05
         0.16908E-05
         0.13515E-05
         0.17466E-05
         0.32642E-05
         0.25564E-05
         0.32518E-05
         0.18992E-05
         0.21722E-05
         0.20466E-05
         0.22701E-05
         0.17395E-05
         0.10803E-05
         0.20439E-05
         0.17078E-05
         0.17496E-05
         0.18039E-05
         0.15790E-05
         0.19290E-05
         0.24597E-05
         0.17323E-05
         0.27671E-05
         0.24183E-05
         0.10819E-05
         0.16648E-05
         0.18911E-05
         0.20001E-05
         0.19339E-05
         0.15195E-05
         0.95452E-06
         0.15743E-05
         0.20867E-05
         0.16823E-05
         0.14775E-05
         0.96776E-06
         0.16543E-05
         0.22487E-05
         0.23633E-05
         0.19089E-05
         0.11714E-05
         0.20273E-05
         0.74270E-06
         0.94861E-06
         0.88109E-06
         0.10473E-05
         0.10248E-05
         0.99493E-06
         0.10643E-05
         0.11287E-05
         0.10609E-05
         0.82418E-06
         0.67046E-06
         0.86437E-06
         0.11532E-05
         0.12689E-05
         0.12157E-05
         0.10943E-05
         0.99316E-06
         0.80646E-06
         0.67794E-06
         0.88683E-06
         0.11749E-05
         0.12140E-05
         0.97879E-06
         0.79450E-06
         0.97755E-06
         0.11543E-05
         0.24635E-05
         0.19475E-05
         0.20979E-05
         0.36281E-05
         0.19374E-05
         0.24771E-05
         0.13686E-05
         0.16427E-05
         0.27456E-05
         0.19875E-05
         0.80266E-06
         0.15342E-05
         0.16907E-05
         0.13496E-05
         0.17463E-05
         0.32651E-05
         0.25575E-05
         0.32534E-05
         0.18993E-05
         0.21724E-05
         0.20466E-05
         0.22702E-05
         0.17393E-05
         0.10802E-05
         0.20430E-05
         0.17076E-05
         0.17469E-05
         0.18021E-05
         0.15784E-05
         0.19286E-05
         0.24600E-05
         0.17321E-05
         0.27685E-05
         0.24205E-05
         0.10819E-05
         0.16645E-05
         0.18909E-05
         0.19999E-05
         0.19341E-05
         0.15195E-05
         0.95452E-06
         0.15741E-05
         0.20866E-05
         0.16821E-05
         0.14772E-05
         0.96751E-06
         0.16542E-05
         0.22488E-05
         0.23637E-05
         0.19092E-05
         0.11715E-05
         0.20283E-05
         0.74247E-06
         0.94860E-06
         0.88066E-06
         0.10473E-05
         0.10250E-05
         0.99514E-06
         0.10648E-05
         0.11295E-05
         0.10615E-05
         0.82437E-06
         0.67052E-06
         0.86439E-06
         0.11533E-05
         0.12691E-05
         0.12159E-05
         0.10942E-05
         0.99310E-06
         0.80639E-06
         0.67783E-06
         0.88676E-06
         0.11748E-05
         0.12140E-05
         0.97859E-06
         0.79433E-06
         0.97767E-06
         0.11543E-05
         0.24636E-05
         0.19471E-05
         0.20980E-05
         0.36298E-05
         0.19377E-05
         0.24779E-05
         0.13679E-05
         0.16417E-05
         0.27466E-05
         0.19862E-05
         0.80189E-06
         0.15339E-05
         0.16906E-05
         0.13477E-05
         0.17459E-05
         0.32661E-05
         0.25587E-05
         0.32551E-05
         0.18994E-05
         0.21727E-05
         0.20465E-05
         0.22703E-05
         0.17392E-05
         0.10800E-05
         0.20421E-05
         0.17075E-05
         0.17443E-05
         0.18003E-05
         0.15777E-05
         0.19281E-05
         0.24602E-05
         0.17319E-05
         0.27700E-05
         0.24227E-05
         0.10819E-05
         0.16642E-05
         0.18906E-05
         0.19998E-05
         0.19342E-05
         0.15196E-05
         0.95453E-06
         0.15739E-05
         0.20865E-05
         0.16819E-05
         0.14768E-05
         0.96727E-06
         0.16541E-05
         0.22488E-05
         0.23640E-05
         0.19096E-05
         0.11715E-05
         0.20293E-05
         0.74225E-06
         0.94859E-06
         0.88023E-06
         0.10474E-05
         0.10253E-05
         0.99535E-06
         0.10653E-05
         0.11303E-05
         0.10621E-05
         0.82456E-06
         0.67057E-06
         0.86441E-06
         0.11535E-05
         0.12694E-05
         0.12160E-05
         0.10942E-05
         0.99304E-06
         0.80633E-06
         0.67773E-06
         0.88671E-06
         0.11748E-05
         0.12140E-05
         0.97840E-06
         0.79415E-06
         0.97780E-06
         0.11542E-05
         0.24637E-05
         0.19466E-05
         0.20982E-05
         0.36315E-05
         0.19380E-05
         0.24786E-05
         0.13671E-05
         0.16407E-05
         0.27475E-05
         0.19849E-05
         0.80110E-06
         0.15336E-05
         0.16905E-05
         0.13457E-05
         0.17455E-05
         0.32669E-05
         0.25598E-05
         0.32567E-05
         0.18994E-05
         0.21729E-05
         0.20464E-05
         0.22703E-05
         0.17390E-05
         0.10799E-05
         0.20412E-05
         0.17073E-05
         0.17416E-05
         0.17985E-05
         0.15770E-05
         0.19277E-05
         0.24604E-05
         0.17317E-05
         0.27714E-05
         0.24248E-05
         0.10819E-05
         0.16638E-05
         0.18903E-05
         0.19996E-05
         0.19343E-05
         0.15196E-05
         0.95451E-06
         0.15737E-05
         0.20864E-05
         0.16816E-05
         0.14765E-05
         0.96700E-06
         0.16539E-05
         0.22488E-05
         0.23644E-05
         0.19100E-05
         0.11715E-05
         0.20303E-05
         0.74200E-06
         0.94855E-06
         0.87978E-06
         0.10474E-05
         0.10255E-05
         0.99555E-06
         0.10657E-05
         0.11311E-05
         0.10627E-05
         0.82472E-06
         0.67061E-06
         0.86442E-06
         0.11536E-05
         0.12697E-05
         0.12161E-05
         0.10941E-05
         0.99295E-06
         0.80625E-06
         0.67761E-06
         0.88662E-06
         0.11748E-05
         0.12140E-05
         0.97818E-06
         0.79396E-06
         0.97790E-06
         0.11542E-05
         0.24639E-05
         0.19463E-05
         0.20984E-05
         0.36333E-05
         0.19383E-05
         0.24794E-05
         0.13664E-05
         0.16398E-05
         0.27485E-05
         0.19836E-05
         0.80034E-06
         0.15334E-05
         0.16904E-05
         0.13439E-05
         0.17452E-05
         0.32679E-05
         0.25610E-05
         0.32583E-05
         0.18995E-05
         0.21732E-05
         0.20463E-05
         0.22704E-05
         0.17388E-05
         0.10798E-05
         0.20404E-05
         0.17072E-05
         0.17389E-05
         0.17967E-05
         0.15763E-05
         0.19272E-05
         0.24607E-05
         0.17315E-05
         0.27729E-05
         0.24270E-05
         0.10819E-05
         0.16635E-05
         0.18901E-05
         0.19995E-05
         0.19345E-05
         0.15197E-05
         0.95453E-06
         0.15735E-05
         0.20863E-05
         0.16814E-05
         0.14761E-05
         0.96677E-06
         0.16538E-05
         0.22488E-05
         0.23647E-05
         0.19104E-05
         0.11716E-05
         0.20313E-05
         0.74179E-06
         0.94855E-06
         0.87936E-06
         0.10475E-05
         0.10257E-05
         0.99577E-06
         0.10662E-05
         0.11319E-05
         0.10633E-05
         0.82492E-06
         0.67068E-06
         0.86446E-06
         0.11538E-05
         0.12700E-05
         0.12163E-05
         0.10941E-05
         0.99291E-06
         0.80620E-06
         0.67752E-06
         0.88657E-06
         0.11748E-05
         0.12140E-05
         0.97800E-06
         0.79380E-06
         0.97803E-06
         0.11542E-05
         0.12320E-05
         0.97306E-06
         0.10493E-05
         0.18171E-05
         0.96926E-06
         0.12399E-05
         0.68306E-06
         0.81967E-06
         0.13745E-05
         0.99152E-06
         0.39999E-06
         0.76665E-06
         0.84519E-06
         0.67148E-06
         0.87252E-06
         0.16343E-05
         0.12808E-05
         0.16296E-05
         0.94981E-06
         0.10867E-05
         0.10232E-05
         0.11353E-05
         0.86940E-06
         0.53990E-06
         0.10200E-05
         0.85360E-06
         0.86884E-06
         0.89793E-06
         0.78802E-06
         0.96354E-06
         0.12305E-05
         0.86572E-06
         0.13869E-05
         0.12141E-05
         0.54095E-06
         0.83170E-06
         0.94503E-06
         0.99975E-06
         0.96729E-06
         0.75992E-06
         0.47728E-06
         0.78670E-06
         0.10432E-05
         0.84065E-06
         0.73800E-06
         0.48334E-06
         0.82688E-06
         0.11245E-05
         0.11825E-05
         0.95534E-06
         0.58581E-06
         0.10159E-05
         0.37085E-06
         0.47429E-06
         0.43959E-06
         0.52375E-06
         0.51294E-06
         0.49796E-06
         0.53322E-06
         0.56619E-06
         0.53185E-06
         0.41252E-06
         0.33536E-06
         0.43225E-06
         0.57696E-06
         0.63509E-06
         0.60820E-06
         0.54708E-06
         0.49646E-06
         0.40310E-06
         0.33875E-06
         0.44329E-06
         0.58740E-06
         0.60700E-06
         0.48897E-06
         0.39687E-06
         0.48906E-06
         0.57710E-06
  
SCALARS                 Poissons_ratio  double 1
LOOKUP_TABLE default
         0.30000E+00
         0.30000E+00
         0.30000E+00
         0.30000E+00
         0.30000E+00
         0.30000E+00
         0.30000E+00
         0.30000E+00
         0.30000E+00
         0.30000E+00
         0.30000E+00
         0.30000E+00
         0.30000E+00
         0.30000E+00
         0.30000E+00
         0.30000E+00
         0.30000E+00
         0.30000E+00
         0.30000E+00
         0.30000E+00
         0.30000E+00
         0.30000E+00
         0.30000E+00
         0.30000E+00
         0.30000E+00
         0.30000E+00
         0.30000E+00
         0.30000E+00
         0.30000E+00
         0.30000E+00
         0.30000E+00
         0.30000E+00
         0.30000E+00
         0.30000E+00
         0.30000E+00
         0.30000E+00
         0.30000E+00
         0.30000E+00
         0.30000E+00
         0.30000E+00
         0.30000E+00
         0.30000E+00
         0.30000E+00
         0.30000E+00
         0.30000E+00
         0.30000E+00
         0.30000E+00
         0.30000E+00
         0.30000E+00
         0.30000E+00
         0.30000E+00
         0.30000E+00
         0.30000E+00
         0.30000E+00
         0.30000E+00
         0.30000E+00
         0.30000E+00
         0.30000E+00
         0.30000E+00
         0.30000E+00
         0.30000E+00
         0.30000E+00
         0.30000E+00
         0.30000E+00
         0.30000E+00
         0.30000E+00
         0.30000E+00
         0.30000E+00
         0.30000E+00
         0.30000E+00
         0.30000E+00
         0.30000E+00
         0.30000E+00
         0.30000E+00
         0.30000E+00
         0.30000E+00
         0.30000E+00
         0.30000E+00
         0.30000E+00
         0.30000E+00
         0.30000E+00
         0.30000E+00
         0.30000E+00
         0.30000E+00
         0.30000E+00
         0.30000E+00
         0.30000E+00
         0.30000E+00
         0.30000E+00
         0.30000E+00
         0.30000E+00
         0.30000E+00
         0.30000E+00
         0.30000E+00
         0.30000E+00
         0.30000E+00
         0.30000E+00
         0.30000E+00
         0.30000E+00
         0.30000E+00
         0.30000E+00
         0.30000E+00
         0.30000E+00
         0.30000E+00
         0.30000E+00
         0.30000E+00
         0.30000E+00
         0.30000E+00
         0.30000E+00
         0.30000E+00
         0.30000E+00
         0.30000E+00
         0.30000E+00
         0.30000E+00
         0.30000E+00
         0.30000E+00
         0.30000E+00
         0.30000E+00
         0.30000E+00
         0.30000E+00
         0.30000E+00
         0.30000E+00
         0.30000E+00
         0.30000E+00
         0.30000E+00
         0.30000E+00
         0.30000E+00
         0.30000E+00
         0.30000E+00
         0.30000E+00
         0.30000E+00
         0.30000E+00
         0.30000E+00
         0.30000E+00
         0.30000E+00
         0.30000E+00
         0.30000E+00
         0.30000E+00
         0.30000E+00
         0.30000E+00
         0.30000E+00
         0.30000E+00
         0.30000E+00
         0.30000E+00
         0.30000E+00
         0.30000E+00
         0.30000E+00
         0.30000E+00
         0.30000E+00
         0.30000E+00
         0.30000E+00
         0.30000E+00
         0.30000E+00
         0.30000E+00
         0.30000E+00
         0.30000E+00
         0.30000E+00
         0.30000E+00
         0.30000E+00
         0.30000E+00
         0.30000E+00
         0.30000E+00
         0.30000E+00
         0.30000E+00
         0.30000E+00
         0.30000E+00
         0.30000E+00
         0.30000E+00
         0.30000E+00
         0.30000E+00
         0.30000E+00
         0.30000E+00
         0.30000E+00
         0.30000E+00
         0.30000E+00
         0.30000E+00
         0.30000E+00
         0.30000E+00
         0.30000E+00
         0.30000E+00
         0.30000E+00
         0.30000E+00
         0.30000E+00
         0.30000E+00
         0.30000E+00
         0.30000E+00
         0.30000E+00
         0.30000E+00
         0.30000E+00
         0.30000E+00
         0.30000E+00
         0.30000E+00
         0.30000E+00
         0.30000E+00
         0.30000E+00
         0.30000E+00
         0.30000E+00
         0.30000E+00
         0.30000E+00
         0.30000E+00
         0.30000E+00
         0.30000E+00
         0.30000E+00
         0.30000E+00
         0.30000E+00
         0.30000E+00
         0.30000E+00
         0.30000E+00
         0.30000E+00
         0.30000E+00
         0.30000E+00
         0.30000E+00
         0.30000E+00
         0.30000E+00
         0.30000E+00
         0.30000E+00
         0.30000E+00
         0.30000E+00
         0.30000E+00
         0.30000E+00
         0.30000E+00
         0.30000E+00
         0.30000E+00
         0.30000E+00
         0.30000E+00
         0.30000E+00
         0.30000E+00
         0.30000E+00
         0.30000E+00
         0.30000E+00
         0.30000E+00
         0.30000E+00
         0.30000E+00
         0.30000E+00
         0.30000E+00
         0.30000E+00
         0.30000E+00
         0.30000E+00
         0.30000E+00
         0.30000E+00
         0.30000E+00
         0.30000E+00
         0.30000E+00
         0.30000E+00
         0.30000E+00
         0.30000E+00
         0.30000E+00
         0.30000E+00
         0.30000E+00
         0.30000E+00
         0.30000E+00
         0.30000E+00
         0.30000E+00
         0.30000E+00
         0.30000E+00
         0.30000E+00
         0.30000E+00
         0.30000E+00
         0.30000E+00
         0.30000E+00
         0.30000E+00
         0.30000E+00
         0.30000E+00
         0.30000E+00
         0.30000E+00
         0.30000E+00
         0.30000E+00
         0.30000E+00
         0.30000E+00
         0.30000E+00
         0.30000E+00
         0.30000E+00
         0.30000E+00
         0.30000E+00
         0.30000E+00
         0.30000E+00
         0.30000E+00
         0.30000E+00
         0.30000E+00
         0.30000E+00
         0.30000E+00
         0.30000E+00
         0.30000E+00
         0.30000E+00
         0.30000E+00
         0.30000E+00
         0.30000E+00
         0.30000E+00
         0.30000E+00
         0.30000E+00
         0.30000E+00
         0.30000E+00
         0.30000E+00
         0.30000E+00
         0.30000E+00
         0.30000E+00
         0.30000E+00
         0.30000E+00
         0.30000E+00
         0.30000E+00
         0.30000E+00
         0.30000E+00
         0.30000E+00
         0.30000E+00
         0.30000E+00
         0.30000E+00
         0.30000E+00
         0.30000E+00
         0.30000E+00
         0.30000E+00
         0.30000E+00
         0.30000E+00
         0.30000E+00
         0.30000E+00
         0.30000E+00
         0.30000E+00
         0.30000E+00
         0.30000E+00
         0.30000E+00
         0.30000E+00
         0.30000E+00
         0.30000E+00
         0.30000E+00
         0.30000E+00
         0.30000E+00
         0.30000E+00
         0.30000E+00
         0.30000E+00
         0.30000E+00
         0.30000E+00
         0.30000E+00
         0.30000E+00
         0.30000E+00
         0.30000E+00
         0.30000E+00
         0.30000E+00
         0.30000E+00
         0.30000E+00
         0.30000E+00
         0.30000E+00
         0.30000E+00
         0.30000E+00
         0.30000E+00
         0.30000E+00
         0.30000E+00
         0.30000E+00
         0.30000E+00
         0.30000E+00
         0.30000E+00
         0.30000E+00
         0.30000E+00
         0.30000E+00
         0.30000E+00
         0.30000E+00
         0.30000E+00
         0.30000E+00
         0.30000E+00
         0.30000E+00
         0.30000E+00
         0.30000E+00
         0.30000E+00
         0.30000E+00
         0.30000E+00
         0.30000E+00
         0.30000E+00
         0.30000E+00
         0.30000E+00
         0.30000E+00
         0.30000E+00
         0.30000E+00
         0.30000E+00
         0.30000E+00
         0.30000E+00
         0.30000E+00
         0.30000E+00
         0.30000E+00
         0.30000E+00
         0.30000E+00
         0.30000E+00
         0.30000E+00
         0.30000E+00
         0.30000E+00
         0.30000E+00
         0.30000E+00
         0.30000E+00
         0.30000E+00
         0.30000E+00
         0.30000E+00
         0.30000E+00
         0.30000E+00
         0.30000E+00
         0.30000E+00
         0.30000E+00
         0.30000E+00
         0.30000E+00
         0.30000E+00
         0.30000E+00
         0.30000E+00
         0.30000E+00
         0.30000E+00
         0.30000E+00
         0.30000E+00
         0.30000E+00
         0.30000E+00
         0.30000E+00
         0.30000E+00
         0.30000E+00
         0.30000E+00
         0.30000E+00
         0.30000E+00
         0.30000E+00
         0.30000E+00
         0.30000E+00
         0.30000E+00
         0.30000E+00
         0.30000E+00
         0.30000E+00
         0.30000E+00
         0.30000E+00
         0.30000E+00
         0.30000E+00
         0.30000E+00
         0.30000E+00
         0.30000E+00
         0.30000E+00
         0.30000E+00
         0.30000E+00
         0.30000E+00
         0.30000E+00
         0.30000E+00
         0.30000E+00
         0.30000E+00
         0.30000E+00
         0.30000E+00
         0.30000E+00
         0.30000E+00
         0.30000E+00
         0.30000E+00
         0.30000E+00
         0.30000E+00
         0.30000E+00
         0.30000E+00
         0.30000E+00
         0.30000E+00
         0.30000E+00
         0.30000E+00
         0.30000E+00
         0.30000E+00
         0.30000E+00
         0.30000E+00
         0.30000E+00
         0.30000E+00
         0.30000E+00
         0.30000E+00
         0.30000E+00
         0.30000E+00
         0.30000E+00
         0.30000E+00
         0.30000E+00
         0.30000E+00
         0.30000E+00
         0.30000E+00
         0.30000E+00
         0.30000E+00
         0.30000E+00
         0.30000E+00
         0.30000E+00
         0.30000E+00
         0.30000E+00
         0.30000E+00
         0.30000E+00
         0.30000E+00
         0.30000E+00
         0.30000E+00
         0.30000E+00
         0.30000E+00
         0.30000E+00
         0.30000E+00
         0.30000E+00
         0.30000E+00
         0.30000E+00
         0.30000E+00
         0.30000E+00
         0.30000E+00
         0.30000E+00
         0.30000E+00
         0.30000E+00
         0.30000E+00
         0.30000E+00
         0.30000E+00
         0.30000E+00
         0.30000E+00
         0.30000E+00
         0.30000E+00
         0.30000E+00
         0.30000E+00
         0.30000E+00
         0.30000E+00
         0.30000E+00
         0.30000E+00
         0.30000E+00
         0.30000E+00
         0.30000E+00
         0.30000E+00
         0.30000E+00
         0.30000E+00
         0.30000E+00
         0.30000E+00
         0.30000E+00
         0.30000E+00
         0.30000E+00
         0.30000E+00
         0.30000E+00
         0.30000E+00
         0.30000E+00
         0.30000E+00
         0.30000E+00
         0.30000E+00
         0.30000E+00
         0.30000E+00
         0.30000E+00
         0.30000E+00
         0.30000E+00
         0.30000E+00
         0.30000E+00
         0.30000E+00
         0.30000E+00
         0.30000E+00
         0.30000E+00
         0.30000E+00
         0.30000E+00
         0.30000E+00
         0.30000E+00
         0.30000E+00
         0.30000E+00
         0.30000E+00
         0.30000E+00
         0.30000E+00
         0.30000E+00
         0.30000E+00
         0.30000E+00
         0.30000E+00
         0.30000E+00
         0.30000E+00
         0.30000E+00
         0.30000E+00
         0.30000E+00
         0.30000E+00
         0.30000E+00
         0.30000E+00
         0.30000E+00
         0.30000E+00
         0.30000E+00
         0.30000E+00
         0.30000E+00
         0.30000E+00
         0.30000E+00
         0.30000E+00
         0.30000E+00
         0.30000E+00
         0.30000E+00
         0.30000E+00
         0.30000E+00
         0.30000E+00
         0.30000E+00
         0.30000E+00
         0.30000E+00
         0.30000E+00
         0.30000E+00
         0.30000E+00
         0.30000E+00
         0.30000E+00
         0.30000E+00
         0.30000E+00
         0.30000E+00
         0.30000E+00
         0.30000E+00
         0.30000E+00
         0.30000E+00
         0.30000E+00
         0.30000E+00
         0.30000E+00
         0.30000E+00
         0.30000E+00
         0.30000E+00
         0.30000E+00
         0.30000E+00
         0.30000E+00
         0.30000E+00
         0.30000E+00
         0.30000E+00
         0.30000E+00
         0.30000E+00
         0.30000E+00
         0.30000E+00
         0.30000E+00
         0.30000E+00
         0.30000E+00
         0.30000E+00
         0.30000E+00
         0.30000E+00
         0.30000E+00
         0.30000E+00
         0.30000E+00
         0.30000E+00
         0.30000E+00
         0.30000E+00
         0.30000E+00
         0.30000E+00
         0.30000E+00
         0.30000E+00
         0.30000E+00
         0.30000E+00
         0.30000E+00
         0.30000E+00
         0.30000E+00
         0.30000E+00
         0.30000E+00
         0.30000E+00
         0.30000E+00
         0.30000E+00
         0.30000E+00
         0.30000E+00
         0.30000E+00
         0.30000E+00
         0.30000E+00
         0.30000E+00
         0.30000E+00
         0.30000E+00
         0.30000E+00
         0.30000E+00
         0.30000E+00
         0.30000E+00
         0.30000E+00
         0.30000E+00
         0.30000E+00
         0.30000E+00
         0.30000E+00
         0.30000E+00
         0.30000E+00
         0.30000E+00
         0.30000E+00
         0.30000E+00
         0.30000E+00
         0.30000E+00
         0.30000E+00
         0.30000E+00
         0.30000E+00
         0.30000E+00
         0.30000E+00
         0.30000E+00
         0.30000E+00
         0.30000E+00
         0.30000E+00
         0.30000E+00
         0.30000E+00
         0.30000E+00
         0.30000E+00
         0.30000E+00
         0.30000E+00
         0.30000E+00
         0.30000E+00
         0.30000E+00
         0.30000E+00
         0.30000E+00
         0.30000E+00
         0.30000E+00
         0.30000E+00
         0.30000E+00
         0.30000E+00
         0.30000E+00
         0.30000E+00
         0.30000E+00
         0.30000E+00
         0.30000E+00
         0.30000E+00
         0.30000E+00
         0.30000E+00
         0.30000E+00
         0.30000E+00
         0.30000E+00
         0.30000E+00
         0.30000E+00
         0.30000E+00
         0.30000E+00
         0.30000E+00
         0.30000E+00
         0.30000E+00
         0.30000E+00
         0.30000E+00
         0.30000E+00
         0.30000E+00
         0.30000E+00
         0.30000E+00
         0.30000E+00
         0.30000E+00
         0.30000E+00
         0.30000E+00
         0.30000E+00
         0.30000E+00
         0.30000E+00
         0.30000E+00
         0.30000E+00
         0.30000E+00
         0.30000E+00
         0.30000E+00
         0.30000E+00
         0.30000E+00
         0.30000E+00
         0.30000E+00
         0.30000E+00
         0.30000E+00
         0.30000E+00
         0.30000E+00
         0.30000E+00
         0.30000E+00
         0.30000E+00
         0.30000E+00
         0.30000E+00
         0.30000E+00
         0.30000E+00
         0.30000E+00
         0.30000E+00
         0.30000E+00
         0.30000E+00
         0.30000E+00
         0.30000E+00
         0.30000E+00
         0.30000E+00
         0.30000E+00
         0.30000E+00
         0.30000E+00
         0.30000E+00
         0.30000E+00
         0.30000E+00
         0.30000E+00
         0.30000E+00
         0.30000E+00
         0.30000E+00
         0.30000E+00
         0.30000E+00
         0.30000E+00
         0.30000E+00
         0.30000E+00
         0.30000E+00
         0.30000E+00
         0.30000E+00
         0.30000E+00
         0.30000E+00
         0.30000E+00
         0.30000E+00
         0.30000E+00
         0.30000E+00
         0.30000E+00
         0.30000E+00
         0.30000E+00
         0.30000E+00
         0.30000E+00
         0.30000E+00
         0.30000E+00
         0.30000E+00
         0.30000E+00
         0.30000E+00
         0.30000E+00
         0.30000E+00
         0.30000E+00
         0.30000E+00
         0.30000E+00
         0.30000E+00
         0.30000E+00
         0.30000E+00
         0.30000E+00
         0.30000E+00
         0.30000E+00
         0.30000E+00
         0.30000E+00
         0.30000E+00
         0.30000E+00
         0.30000E+00
         0.30000E+00
         0.30000E+00
         0.30000E+00
         0.30000E+00
         0.30000E+00
         0.30000E+00
         0.30000E+00
         0.30000E+00
         0.30000E+00
         0.30000E+00
         0.30000E+00
         0.30000E+00
         0.30000E+00
         0.30000E+00
         0.30000E+00
         0.30000E+00
         0.30000E+00
         0.30000E+00
         0.30000E+00
         0.30000E+00
         0.30000E+00
         0.30000E+00
         0.30000E+00
         0.30000E+00
         0.30000E+00
         0.30000E+00
         0.30000E+00
         0.30000E+00
         0.30000E+00
         0.30000E+00
         0.30000E+00
         0.30000E+00
         0.30000E+00
         0.30000E+00
         0.30000E+00
         0.30000E+00
         0.30000E+00
         0.30000E+00
         0.30000E+00
         0.30000E+00
         0.30000E+00
         0.30000E+00
         0.30000E+00
         0.30000E+00
         0.30000E+00
         0.30000E+00
         0.30000E+00
         0.30000E+00
         0.30000E+00
         0.30000E+00
         0.30000E+00
         0.30000E+00
         0.30000E+00
         0.30000E+00
         0.30000E+00
         0.30000E+00
         0.30000E+00
         0.30000E+00
         0.30000E+00
         0.30000E+00
         0.30000E+00
         0.30000E+00
         0.30000E+00
         0.30000E+00
         0.30000E+00
         0.30000E+00
         0.30000E+00
         0.30000E+00
         0.30000E+00
         0.30000E+00
         0.30000E+00
         0.30000E+00
         0.30000E+00
         0.30000E+00
         0.30000E+00
         0.30000E+00
         0.30000E+00
         0.30000E+00
         0.30000E+00
         0.30000E+00
         0.30000E+00
         0.30000E+00
         0.30000E+00
         0.30000E+00
         0.30000E+00
         0.30000E+00
         0.30000E+00
         0.30000E+00
         0.30000E+00
         0.30000E+00
         0.30000E+00
         0.30000E+00
         0.30000E+00
         0.30000E+00
         0.30000E+00
         0.30000E+00
         0.30000E+00
         0.30000E+00
         0.30000E+00
         0.30000E+00
         0.30000E+00
         0.30000E+00
         0.30000E+00
         0.30000E+00
         0.30000E+00
         0.30000E+00
         0.30000E+00
         0.30000E+00
         0.30000E+00
         0.30000E+00
         0.30000E+00
         0.30000E+00
         0.30000E+00
         0.30000E+00
         0.30000E+00
         0.30000E+00
         0.30000E+00
         0.30000E+00
         0.30000E+00
         0.30000E+00
         0.30000E+00
         0.30000E+00
         0.30000E+00
         0.30000E+00
         0.30000E+00
         0.30000E+00
         0.30000E+00
         0.30000E+00
         0.30000E+00
         0.30000E+00
         0.30000E+00
         0.30000E+00
         0.30000E+00
         0.30000E+00
         0.30000E+00
         0.30000E+00
         0.30000E+00
         0.30000E+00
         0.30000E+00
         0.30000E+00
         0.30000E+00
         0.30000E+00
         0.30000E+00
         0.30000E+00
         0.30000E+00
         0.30000E+00
         0.30000E+00
         0.30000E+00
         0.30000E+00
         0.30000E+00
         0.30000E+00
         0.30000E+00
         0.30000E+00
         0.30000E+00
         0.30000E+00
         0.30000E+00
         0.30000E+00
         0.30000E+00
         0.30000E+00
         0.30000E+00
         0.30000E+00
         0.30000E+00
         0.30000E+00
         0.30000E+00
         0.30000E+00
         0.30000E+00
         0.30000E+00
         0.30000E+00
         0.30000E+00
         0.30000E+00
         0.30000E+00
         0.30000E+00
         0.30000E+00
         0.30000E+00
         0.30000E+00
         0.30000E+00
         0.30000E+00
         0.30000E+00
         0.30000E+00
         0.30000E+00
         0.30000E+00
         0.30000E+00
         0.30000E+00
         0.30000E+00
         0.30000E+00
         0.30000E+00
         0.30000E+00
         0.30000E+00
         0.30000E+00
         0.30000E+00
         0.30000E+00
         0.30000E+00
         0.30000E+00
         0.30000E+00
         0.30000E+00
         0.30000E+00
         0.30000E+00
         0.30000E+00
         0.30000E+00
         0.30000E+00
         0.30000E+00
         0.30000E+00
         0.30000E+00
         0.30000E+00
         0.30000E+00
         0.30000E+00
         0.30000E+00
         0.30000E+00
         0.30000E+00
         0.30000E+00
         0.30000E+00
         0.30000E+00
         0.30000E+00
         0.30000E+00
         0.30000E+00
         0.30000E+00
         0.30000E+00
         0.30000E+00
         0.30000E+00
         0.30000E+00
         0.30000E+00
         0.30000E+00
         0.30000E+00
         0.30000E+00
         0.30000E+00
         0.30000E+00
         0.30000E+00
         0.30000E+00
         0.30000E+00
         0.30000E+00
         0.30000E+00
         0.30000E+00
         0.30000E+00
         0.30000E+00
         0.30000E+00
         0.30000E+00
         0.30000E+00
         0.30000E+00
         0.30000E+00
         0.30000E+00
         0.30000E+00
         0.30000E+00
         0.30000E+00
         0.30000E+00
         0.30000E+00
         0.30000E+00
         0.30000E+00
         0.30000E+00
         0.30000E+00
         0.30000E+00
         0.30000E+00
         0.30000E+00
         0.30000E+00
         0.30000E+00
         0.30000E+00
         0.30000E+00
         0.30000E+00
         0.30000E+00
         0.30000E+00
         0.30000E+00
         0.30000E+00
         0.30000E+00
         0.30000E+00
         0.30000E+00
         0.30000E+00
         0.30000E+00
         0.30000E+00
         0.30000E+00
         0.30000E+00
         0.30000E+00
         0.30000E+00
         0.30000E+00
         0.30000E+00
         0.30000E+00
         0.30000E+00
         0.30000E+00
         0.30000E+00
         0.30000E+00
         0.30000E+00
         0.30000E+00
         0.30000E+00
         0.30000E+00
         0.30000E+00
         0.30000E+00
         0.30000E+00
         0.30000E+00
         0.30000E+00
         0.30000E+00
         0.30000E+00
         0.30000E+00
         0.30000E+00
         0.30000E+00
         0.30000E+00
         0.30000E+00
         0.30000E+00
         0.30000E+00
         0.30000E+00
         0.30000E+00
         0.30000E+00
         0.30000E+00
         0.30000E+00
         0.30000E+00
         0.30000E+00
         0.30000E+00
         0.30000E+00
         0.30000E+00
         0.30000E+00
         0.30000E+00
         0.30000E+00
         0.30000E+00
         0.30000E+00
         0.30000E+00
         0.30000E+00
         0.30000E+00
         0.30000E+00
         0.30000E+00
         0.30000E+00
         0.30000E+00
         0.30000E+00
         0.30000E+00
         0.30000E+00
         0.30000E+00
         0.30000E+00
         0.30000E+00
         0.30000E+00
         0.30000E+00
         0.30000E+00
         0.30000E+00
         0.30000E+00
         0.30000E+00
         0.30000E+00
         0.30000E+00
         0.30000E+00
         0.30000E+00
         0.30000E+00
         0.30000E+00
         0.30000E+00
         0.30000E+00
         0.30000E+00
         0.30000E+00
         0.30000E+00
         0.30000E+00
         0.30000E+00
         0.30000E+00
         0.30000E+00
         0.30000E+00
         0.30000E+00
         0.30000E+00
         0.30000E+00
         0.30000E+00
         0.30000E+00
         0.30000E+00
         0.30000E+00
         0.30000E+00
         0.30000E+00
         0.30000E+00
         0.30000E+00
         0.30000E+00
         0.30000E+00
         0.30000E+00
         0.30000E+00
         0.30000E+00
         0.30000E+00
         0.30000E+00
         0.30000E+00
         0.30000E+00
         0.30000E+00
         0.30000E+00
         0.30000E+00
         0.30000E+00
         0.30000E+00
         0.30000E+00
         0.30000E+00
         0.30000E+00
         0.30000E+00
         0.30000E+00
         0.30000E+00
         0.30000E+00
         0.30000E+00
         0.30000E+00
         0.30000E+00
         0.30000E+00
         0.30000E+00
         0.30000E+00
         0.30000E+00
         0.30000E+00
         0.30000E+00
         0.30000E+00
         0.30000E+00
         0.30000E+00
         0.30000E+00
         0.30000E+00
         0.30000E+00
         0.30000E+00
         0.30000E+00
         0.30000E+00
         0.30000E+00
         0.30000E+00
         0.30000E+00
         0.30000E+00
         0.30000E+00
         0.30000E+00
         0.30000E+00
         0.30000E+00
         0.30000E+00
         0.30000E+00
         0.30000E+00
         0.30000E+00
         0.30000E+00
         0.30000E+00
         0.30000E+00
         0.30000E+00
         0.30000E+00
         0.30000E+00
         0.30000E+00
         0.30000E+00
         0.30000E+00
         0.30000E+00
         0.30000E+00
         0.30000E+00
         0.30000E+00
         0.30000E+00
         0.30000E+00
         0.30000E+00
         0.30000E+00
         0.30000E+00
         0.30000E+00
         0.30000E+00
         0.30000E+00
         0.30000E+00
         0.30000E+00
         0.30000E+00
         0.30000E+00
         0.30000E+00
         0.30000E+00
         0.30000E+00
         0.30000E+00
         0.30000E+00
         0.30000E+00
         0.30000E+00
         0.30000E+00
         0.30000E+00
         0.30000E+00
         0.30000E+00
         0.30000E+00
         0.30000E+00
         0.30000E+00
         0.30000E+00
         0.30000E+00
         0.30000E+00
         0.30000E+00
         0.30000E+00
         0.30000E+00
         0.30000E+00
         0.30000E+00
         0.30000E+00
         0.30000E+00
         0.30000E+00
         0.30000E+00
         0.30000E+00
         0.30000E+00
         0.30000E+00
         0.30000E+00
         0.30000E+00
         0.30000E+00
         0.30000E+00
         0.30000E+00
         0.30000E+00
         0.30000E+00
         0.30000E+00
         0.30000E+00
         0.30000E+00
         0.30000E+00
         0.30000E+00
         0.30000E+00
         0.30000E+00
         0.30000E+00
         0.30000E+00
         0.30000E+00
         0.30000E+00
         0.30000E+00
         0.30000E+00
         0.30000E+00
         0.30000E+00
         0.30000E+00
         0.30000E+00
         0.30000E+00
         0.30000E+00
         0.30000E+00
         0.30000E+00
         0.30000E+00
         0.30000E+00
         0.30000E+00
         0.30000E+00
         0.30000E+00
         0.30000E+00
         0.30000E+00
         0.30000E+00
         0.30000E+00
         0.30000E+00
         0.30000E+00
         0.30000E+00
         0.30000E+00
         0.30000E+00
         0.30000E+00
         0.30000E+00
         0.30000E+00
         0.30000E+00
         0.30000E+00
         0.30000E+00
         0.30000E+00
         0.30000E+00
         0.30000E+00
         0.30000E+00
         0.30000E+00
         0.30000E+00
         0.30000E+00
         0.30000E+00
         0.30000E+00
         0.30000E+00
         0.30000E+00
         0.30000E+00
         0.30000E+00
         0.30000E+00
         0.30000E+00
         0.30000E+00
         0.30000E+00
         0.30000E+00
         0.30000E+00
         0.30000E+00
         0.30000E+00
         0.30000E+00
         0.30000E+00
         0.30000E+00
         0.30000E+00
         0.30000E+00
         0.30000E+00
         0.30000E+00
         0.30000E+00
         0.30000E+00
         0.30000E+00
         0.30000E+00
         0.30000E+00
         0.30000E+00
         0.30000E+00
         0.30000E+00
         0.30000E+00
         0.30000E+00
         0.30000E+00
         0.30000E+00
         0.30000E+00
         0.30000E+00
         0.30000E+00
         0.30000E+00
         0.30000E+00
         0.30000E+00
         0.30000E+00
         0.30000E+00
         0.30000E+00
         0.30000E+00
         0.30000E+00
         0.30000E+00
         0.30000E+00
         0.30000E+00
         0.30000E+00
         0.30000E+00
         0.30000E+00
         0.30000E+00
         0.30000E+00
         0.30000E+00
         0.30000E+00
         0.30000E+00
         0.30000E+00
         0.30000E+00
         0.30000E+00
         0.30000E+00
         0.30000E+00
         0.30000E+00
         0.30000E+00
         0.30000E+00
         0.30000E+00
         0.30000E+00
         0.30000E+00
         0.30000E+00
         0.30000E+00
         0.30000E+00
         0.30000E+00
         0.30000E+00
         0.30000E+00
         0.30000E+00
         0.30000E+00
         0.30000E+00
         0.30000E+00
         0.30000E+00
         0.30000E+00
         0.30000E+00
         0.30000E+00
         0.30000E+00
         0.30000E+00
         0.30000E+00
         0.30000E+00
         0.30000E+00
         0.30000E+00
         0.30000E+00
         0.30000E+00
         0.30000E+00
         0.30000E+00
         0.30000E+00
         0.30000E+00
         0.30000E+00
         0.30000E+00
         0.30000E+00
         0.30000E+00
         0.30000E+00
         0.30000E+00
         0.30000E+00
         0.30000E+00
         0.30000E+00
         0.30000E+00
         0.30000E+00
         0.30000E+00
         0.30000E+00
         0.30000E+00
         0.30000E+00
         0.30000E+00
         0.30000E+00
         0.30000E+00
         0.30000E+00
         0.30000E+00
         0.30000E+00
         0.30000E+00
         0.30000E+00
         0.30000E+00
         0.30000E+00
         0.30000E+00
         0.30000E+00
         0.30000E+00
         0.30000E+00
         0.30000E+00
         0.30000E+00
         0.30000E+00
         0.30000E+00
         0.30000E+00
         0.30000E+00
         0.30000E+00
         0.30000E+00
         0.30000E+00
         0.30000E+00
         0.30000E+00
         0.30000E+00
         0.30000E+00
         0.30000E+00
         0.30000E+00
         0.30000E+00
         0.30000E+00
         0.30000E+00
         0.30000E+00
         0.30000E+00
         0.30000E+00
         0.30000E+00
         0.30000E+00
         0.30000E+00
         0.30000E+00
         0.30000E+00
         0.30000E+00
         0.30000E+00
         0.30000E+00
         0.30000E+00
         0.30000E+00
         0.30000E+00
         0.30000E+00
         0.30000E+00
         0.30000E+00
         0.30000E+00
         0.30000E+00
         0.30000E+00
         0.30000E+00
         0.30000E+00
         0.30000E+00
         0.30000E+00
         0.30000E+00
         0.30000E+00
         0.30000E+00
         0.30000E+00
         0.30000E+00
         0.30000E+00
         0.30000E+00
         0.30000E+00
         0.30000E+00
         0.30000E+00
         0.30000E+00
         0.30000E+00
         0.30000E+00
         0.30000E+00
         0.30000E+00
         0.30000E+00
         0.30000E+00
         0.30000E+00
         0.30000E+00
         0.30000E+00
         0.30000E+00
         0.30000E+00
         0.30000E+00
         0.30000E+00
         0.30000E+00
         0.30000E+00
         0.30000E+00
         0.30000E+00
         0.30000E+00
         0.30000E+00
         0.30000E+00
         0.30000E+00
         0.30000E+00
         0.30000E+00
         0.30000E+00
         0.30000E+00
         0.30000E+00
         0.30000E+00
         0.30000E+00
         0.30000E+00
         0.30000E+00
         0.30000E+00
         0.30000E+00
         0.30000E+00
         0.30000E+00
         0.30000E+00
         0.30000E+00
         0.30000E+00
         0.30000E+00
         0.30000E+00
         0.30000E+00
         0.30000E+00
         0.30000E+00
         0.30000E+00
         0.30000E+00
         0.30000E+00
         0.30000E+00
         0.30000E+00
         0.30000E+00
         0.30000E+00
         0.30000E+00
         0.30000E+00
         0.30000E+00
         0.30000E+00
         0.30000E+00
         0.30000E+00
         0.30000E+00
         0.30000E+00
         0.30000E+00
         0.30000E+00
         0.30000E+00
         0.30000E+00
         0.30000E+00
         0.30000E+00
         0.30000E+00
         0.30000E+00
         0.30000E+00
         0.30000E+00
         0.30000E+00
         0.30000E+00
         0.30000E+00
         0.30000E+00
         0.30000E+00
         0.30000E+00
         0.30000E+00
         0.30000E+00
         0.30000E+00
         0.30000E+00
         0.30000E+00
         0.30000E+00
         0.30000E+00
         0.30000E+00
         0.30000E+00
         0.30000E+00
         0.30000E+00
         0.30000E+00
         0.30000E+00
         0.30000E+00
         0.30000E+00
         0.30000E+00
         0.30000E+00
         0.30000E+00
         0.30000E+00
         0.30000E+00
         0.30000E+00
         0.30000E+00
         0.30000E+00
         0.30000E+00
         0.30000E+00
         0.30000E+00
         0.30000E+00
         0.30000E+00
         0.30000E+00
         0.30000E+00
         0.30000E+00
         0.30000E+00
         0.30000E+00
         0.30000E+00
         0.30000E+00
         0.30000E+00
         0.30000E+00
         0.30000E+00
         0.30000E+00
         0.30000E+00
         0.30000E+00
         0.30000E+00
         0.30000E+00
         0.30000E+00
         0.30000E+00
         0.30000E+00
         0.30000E+00
         0.30000E+00
         0.30000E+00
         0.30000E+00
         0.30000E+00
         0.30000E+00
         0.30000E+00
         0.30000E+00
         0.30000E+00
         0.30000E+00
         0.30000E+00
         0.30000E+00
         0.30000E+00
         0.30000E+00
         0.30000E+00
         0.30000E+00
         0.30000E+00
         0.30000E+00
         0.30000E+00
         0.30000E+00
         0.30000E+00
         0.30000E+00
         0.30000E+00
         0.30000E+00
         0.30000E+00
         0.30000E+00
         0.30000E+00
         0.30000E+00
         0.30000E+00
         0.30000E+00
         0.30000E+00
         0.30000E+00
         0.30000E+00
         0.30000E+00
         0.30000E+00
         0.30000E+00
         0.30000E+00
         0.30000E+00
         0.30000E+00
         0.30000E+00
         0.30000E+00
         0.30000E+00
         0.30000E+00
         0.30000E+00
         0.30000E+00
         0.30000E+00
         0.30000E+00
         0.30000E+00
         0.30000E+00
         0.30000E+00
         0.30000E+00
         0.30000E+00
         0.30000E+00
         0.30000E+00
         0.30000E+00
         0.30000E+00
         0.30000E+00
         0.30000E+00
         0.30000E+00
         0.30000E+00
         0.30000E+00
         0.30000E+00
         0.30000E+00
         0.30000E+00
         0.30000E+00
         0.30000E+00
         0.30000E+00
         0.30000E+00
         0.30000E+00
         0.30000E+00
         0.30000E+00
         0.30000E+00
         0.30000E+00
         0.30000E+00
         0.30000E+00
         0.30000E+00
         0.30000E+00
         0.30000E+00
         0.30000E+00
         0.30000E+00
         0.30000E+00
         0.30000E+00
         0.30000E+00
         0.30000E+00
         0.30000E+00
         0.30000E+00
         0.30000E+00
         0.30000E+00
         0.30000E+00
         0.30000E+00
         0.30000E+00
         0.30000E+00
         0.30000E+00
         0.30000E+00
         0.30000E+00
         0.30000E+00
         0.30000E+00
         0.30000E+00
         0.30000E+00
         0.30000E+00
         0.30000E+00
         0.30000E+00
         0.30000E+00
         0.30000E+00
         0.30000E+00
         0.30000E+00
         0.30000E+00
         0.30000E+00
         0.30000E+00
         0.30000E+00
         0.30000E+00
         0.30000E+00
         0.30000E+00
         0.30000E+00
         0.30000E+00
         0.30000E+00
         0.30000E+00
         0.30000E+00
         0.30000E+00
         0.30000E+00
         0.30000E+00
         0.30000E+00
         0.30000E+00
         0.30000E+00
         0.30000E+00
         0.30000E+00
         0.30000E+00
         0.30000E+00
         0.30000E+00
         0.30000E+00
         0.30000E+00
         0.30000E+00
         0.30000E+00
         0.30000E+00
         0.30000E+00
         0.30000E+00
         0.30000E+00
         0.30000E+00
         0.30000E+00
         0.30000E+00
         0.30000E+00
         0.30000E+00
         0.30000E+00
         0.30000E+00
         0.30000E+00
         0.30000E+00
         0.30000E+00
         0.30000E+00
         0.30000E+00
         0.30000E+00
         0.30000E+00
         0.30000E+00
         0.30000E+00
         0.30000E+00
         0.30000E+00
         0.30000E+00
         0.30000E+00
         0.30000E+00
         0.30000E+00
         0.30000E+00
         0.30000E+00
         0.30000E+00
         0.30000E+00
         0.30000E+00
         0.30000E+00
         0.30000E+00
         0.30000E+00
         0.30000E+00
         0.30000E+00
         0.30000E+00
         0.30000E+00
         0.30000E+00
         0.30000E+00
         0.30000E+00
         0.30000E+00
         0.30000E+00
         0.30000E+00
         0.30000E+00
         0.30000E+00
         0.30000E+00
         0.30000E+00
         0.30000E+00
         0.30000E+00
         0.30000E+00
         0.30000E+00
         0.30000E+00
         0.30000E+00
         0.30000E+00
         0.30000E+00
         0.30000E+00
         0.30000E+00
         0.30000E+00
         0.30000E+00
         0.30000E+00
         0.30000E+00
         0.30000E+00
         0.30000E+00
         0.30000E+00
         0.30000E+00
         0.30000E+00
         0.30000E+00
         0.30000E+00
         0.30000E+00
         0.30000E+00
         0.30000E+00
         0.30000E+00
         0.30000E+00
         0.30000E+00
         0.30000E+00
         0.30000E+00
         0.30000E+00
         0.30000E+00
         0.30000E+00
         0.30000E+00
         0.30000E+00
         0.30000E+00
         0.30000E+00
         0.30000E+00
         0.30000E+00
         0.30000E+00
         0.30000E+00
         0.30000E+00
         0.30000E+00
         0.30000E+00
         0.30000E+00
         0.30000E+00
         0.30000E+00
         0.30000E+00
         0.30000E+00
         0.30000E+00
         0.30000E+00
         0.30000E+00
         0.30000E+00
         0.30000E+00
         0.30000E+00
         0.30000E+00
         0.30000E+00
         0.30000E+00
         0.30000E+00
         0.30000E+00
         0.30000E+00
         0.30000E+00
         0.30000E+00
         0.30000E+00
         0.30000E+00
         0.30000E+00
         0.30000E+00
         0.30000E+00
         0.30000E+00
         0.30000E+00
         0.30000E+00
         0.30000E+00
         0.30000E+00
         0.30000E+00
         0.30000E+00
         0.30000E+00
         0.30000E+00
         0.30000E+00
         0.30000E+00
         0.30000E+00
         0.30000E+00
         0.30000E+00
         0.30000E+00
         0.30000E+00
         0.30000E+00
         0.30000E+00
         0.30000E+00
         0.30000E+00
         0.30000E+00
         0.30000E+00
         0.30000E+00
         0.30000E+00
         0.30000E+00
         0.30000E+00
         0.30000E+00
         0.30000E+00
         0.30000E+00
         0.30000E+00
         0.30000E+00
         0.30000E+00
         0.30000E+00
         0.30000E+00
         0.30000E+00
         0.30000E+00
         0.30000E+00
         0.30000E+00
         0.30000E+00
         0.30000E+00
         0.30000E+00
         0.30000E+00
         0.30000E+00
         0.30000E+00
         0.30000E+00
         0.30000E+00
         0.30000E+00
         0.30000E+00
         0.30000E+00
         0.30000E+00
         0.30000E+00
         0.30000E+00
         0.30000E+00
         0.30000E+00
         0.30000E+00
         0.30000E+00
         0.30000E+00
         0.30000E+00
         0.30000E+00
         0.30000E+00
         0.30000E+00
         0.30000E+00
         0.30000E+00
         0.30000E+00
         0.30000E+00
         0.30000E+00
         0.30000E+00
         0.30000E+00
         0.30000E+00
         0.30000E+00
         0.30000E+00
         0.30000E+00
         0.30000E+00
         0.30000E+00
         0.30000E+00
         0.30000E+00
         0.30000E+00
         0.30000E+00
         0.30000E+00
         0.30000E+00
         0.30000E+00
         0.30000E+00
         0.30000E+00
         0.30000E+00
         0.30000E+00
         0.30000E+00
         0.30000E+00
         0.30000E+00
         0.30000E+00
         0.30000E+00
         0.30000E+00
         0.30000E+00
         0.30000E+00
         0.30000E+00
         0.30000E+00
         0.30000E+00
         0.30000E+00
         0.30000E+00
         0.30000E+00
         0.30000E+00
         0.30000E+00
         0.30000E+00
         0.30000E+00
         0.30000E+00
         0.30000E+00
         0.30000E+00
         0.30000E+00
         0.30000E+00
         0.30000E+00
         0.30000E+00
         0.30000E+00
         0.30000E+00
         0.30000E+00
  
SCALARS                 Youngs_modulus  double 1
LOOKUP_TABLE default
         0.78200E+11
         0.78200E+11
         0.78200E+11
         0.78200E+11
         0.78200E+11
         0.78200E+11
         0.78200E+11
         0.78200E+11
         0.78200E+11
         0.78200E+11
         0.78200E+11
         0.78200E+11
         0.78200E+11
         0.78200E+11
         0.78200E+11
         0.78200E+11
         0.78200E+11
         0.78200E+11
         0.78200E+11
         0.78200E+11
         0.78200E+11
         0.78200E+11
         0.78200E+11
         0.78200E+11
         0.78200E+11
         0.78200E+11
         0.78200E+11
         0.78200E+11
         0.78200E+11
         0.78200E+11
         0.78200E+11
         0.78200E+11
         0.78200E+11
         0.78200E+11
         0.78200E+11
         0.78200E+11
         0.78200E+11
         0.78200E+11
         0.78200E+11
         0.78200E+11
         0.78200E+11
         0.78200E+11
         0.78200E+11
         0.78200E+11
         0.78200E+11
         0.78200E+11
         0.78200E+11
         0.78200E+11
         0.78200E+11
         0.78200E+11
         0.78200E+11
         0.78200E+11
         0.78200E+11
         0.78200E+11
         0.78200E+11
         0.78200E+11
         0.78200E+11
         0.78200E+11
         0.78200E+11
         0.78200E+11
         0.78200E+11
         0.78200E+11
         0.78200E+11
         0.78200E+11
         0.78200E+11
         0.78200E+11
         0.78200E+11
         0.78200E+11
         0.78200E+11
         0.78200E+11
         0.78200E+11
         0.78200E+11
         0.78200E+11
         0.78200E+11
         0.78200E+11
         0.78200E+11
         0.78200E+11
         0.78200E+11
         0.78200E+11
         0.78200E+11
         0.78200E+11
         0.78200E+11
         0.78200E+11
         0.78200E+11
         0.78200E+11
         0.78200E+11
         0.78200E+11
         0.78200E+11
         0.78200E+11
         0.78200E+11
         0.78200E+11
         0.78200E+11
         0.78200E+11
         0.78200E+11
         0.78200E+11
         0.78200E+11
         0.78200E+11
         0.78200E+11
         0.78200E+11
         0.78200E+11
         0.78200E+11
         0.78200E+11
         0.78200E+11
         0.78200E+11
         0.78200E+11
         0.78200E+11
         0.78200E+11
         0.78200E+11
         0.78200E+11
         0.78200E+11
         0.78200E+11
         0.78200E+11
         0.78200E+11
         0.78200E+11
         0.78200E+11
         0.78200E+11
         0.78200E+11
         0.78200E+11
         0.78200E+11
         0.78200E+11
         0.78200E+11
         0.78200E+11
         0.78200E+11
         0.78200E+11
         0.78200E+11
         0.78200E+11
         0.78200E+11
         0.78200E+11
         0.78200E+11
         0.78200E+11
         0.78200E+11
         0.78200E+11
         0.78200E+11
         0.78200E+11
         0.78200E+11
         0.78200E+11
         0.78200E+11
         0.78200E+11
         0.78200E+11
         0.78200E+11
         0.78200E+11
         0.78200E+11
         0.78200E+11
         0.78200E+11
         0.78200E+11
         0.78200E+11
         0.78200E+11
         0.78200E+11
         0.78200E+11
         0.78200E+11
         0.78200E+11
         0.78200E+11
         0.78200E+11
         0.78200E+11
         0.78200E+11
         0.78200E+11
         0.78200E+11
         0.78200E+11
         0.78200E+11
         0.78200E+11
         0.78200E+11
         0.78200E+11
         0.78200E+11
         0.78200E+11
         0.78200E+11
         0.78200E+11
         0.78200E+11
         0.78200E+11
         0.78200E+11
         0.78200E+11
         0.78200E+11
         0.78200E+11
         0.78200E+11
         0.78200E+11
         0.78200E+11
         0.78200E+11
         0.78200E+11
         0.78200E+11
         0.78200E+11
         0.78200E+11
         0.78200E+11
         0.78200E+11
         0.78200E+11
         0.78200E+11
         0.78200E+11
         0.78200E+11
         0.78200E+11
         0.78200E+11
         0.78200E+11
         0.78200E+11
         0.78200E+11
         0.78200E+11
         0.78200E+11
         0.78200E+11
         0.78200E+11
         0.78200E+11
         0.78200E+11
         0.78200E+11
         0.78200E+11
         0.78200E+11
         0.78200E+11
         0.78200E+11
         0.78200E+11
         0.78200E+11
         0.78200E+11
         0.78200E+11
         0.78200E+11
         0.78200E+11
         0.78200E+11
         0.78200E+11
         0.78200E+11
         0.78200E+11
         0.78200E+11
         0.78200E+11
         0.78200E+11
         0.78200E+11
         0.78200E+11
         0.78200E+11
         0.78200E+11
         0.78200E+11
         0.78200E+11
         0.78200E+11
         0.78200E+11
         0.78200E+11
         0.78200E+11
         0.78200E+11
         0.78200E+11
         0.78200E+11
         0.78200E+11
         0.78200E+11
         0.78200E+11
         0.78200E+11
         0.78200E+11
         0.78200E+11
         0.78200E+11
         0.78200E+11
         0.78200E+11
         0.78200E+11
         0.78200E+11
         0.78200E+11
         0.78200E+11
         0.78200E+11
         0.78200E+11
         0.78200E+11
         0.78200E+11
         0.78200E+11
         0.78200E+11
         0.78200E+11
         0.78200E+11
         0.78200E+11
         0.78200E+11
         0.78200E+11
         0.78200E+11
         0.78200E+11
         0.78200E+11
         0.78200E+11
         0.78200E+11
         0.78200E+11
         0.78200E+11
         0.78200E+11
         0.78200E+11
         0.78200E+11
         0.78200E+11
         0.78200E+11
         0.78200E+11
         0.78200E+11
         0.78200E+11
         0.78200E+11
         0.78200E+11
         0.78200E+11
         0.78200E+11
         0.78200E+11
         0.78200E+11
         0.78200E+11
         0.78200E+11
         0.78200E+11
         0.78200E+11
         0.78200E+11
         0.78200E+11
         0.78200E+11
         0.78200E+11
         0.78200E+11
         0.78200E+11
         0.78200E+11
         0.78200E+11
         0.78200E+11
         0.78200E+11
         0.78200E+11
         0.78200E+11
         0.78200E+11
         0.78200E+11
         0.78200E+11
         0.78200E+11
         0.78200E+11
         0.78200E+11
         0.78200E+11
         0.78200E+11
         0.78200E+11
         0.78200E+11
         0.78200E+11
         0.78200E+11
         0.78200E+11
         0.78200E+11
         0.78200E+11
         0.78200E+11
         0.78200E+11
         0.78200E+11
         0.78200E+11
         0.78200E+11
         0.78200E+11
         0.78200E+11
         0.78200E+11
         0.78200E+11
         0.78200E+11
         0.78200E+11
         0.78200E+11
         0.78200E+11
         0.78200E+11
         0.78200E+11
         0.78200E+11
         0.78200E+11
         0.78200E+11
         0.78200E+11
         0.78200E+11
         0.78200E+11
         0.78200E+11
         0.78200E+11
         0.78200E+11
         0.78200E+11
         0.78200E+11
         0.78200E+11
         0.78200E+11
         0.78200E+11
         0.78200E+11
         0.78200E+11
         0.78200E+11
         0.78200E+11
         0.78200E+11
         0.78200E+11
         0.78200E+11
         0.78200E+11
         0.78200E+11
         0.78200E+11
         0.78200E+11
         0.78200E+11
         0.78200E+11
         0.78200E+11
         0.78200E+11
         0.78200E+11
         0.78200E+11
         0.78200E+11
         0.78200E+11
         0.78200E+11
         0.78200E+11
         0.78200E+11
         0.78200E+11
         0.78200E+11
         0.78200E+11
         0.78200E+11
         0.78200E+11
         0.78200E+11
         0.78200E+11
         0.78200E+11
         0.78200E+11
         0.78200E+11
         0.78200E+11
         0.78200E+11
         0.78200E+11
         0.78200E+11
         0.78200E+11
         0.78200E+11
         0.78200E+11
         0.78200E+11
         0.78200E+11
         0.78200E+11
         0.78200E+11
         0.78200E+11
         0.78200E+11
         0.78200E+11
         0.78200E+11
         0.78200E+11
         0.78200E+11
         0.78200E+11
         0.78200E+11
         0.78200E+11
         0.78200E+11
         0.78200E+11
         0.78200E+11
         0.78200E+11
         0.78200E+11
         0.78200E+11
         0.78200E+11
         0.78200E+11
         0.78200E+11
         0.78200E+11
         0.78200E+11
         0.78200E+11
         0.78200E+11
         0.78200E+11
         0.78200E+11
         0.78200E+11
         0.78200E+11
         0.78200E+11
         0.78200E+11
         0.78200E+11
         0.78200E+11
         0.78200E+11
         0.78200E+11
         0.78200E+11
         0.78200E+11
         0.78200E+11
         0.78200E+11
         0.78200E+11
         0.78200E+11
         0.78200E+11
         0.78200E+11
         0.78200E+11
         0.78200E+11
         0.78200E+11
         0.78200E+11
         0.78200E+11
         0.78200E+11
         0.78200E+11
         0.78200E+11
         0.78200E+11
         0.78200E+11
         0.78200E+11
         0.78200E+11
         0.78200E+11
         0.78200E+11
         0.78200E+11
         0.78200E+11
         0.78200E+11
         0.78200E+11
         0.78200E+11
         0.78200E+11
         0.78200E+11
         0.78200E+11
         0.78200E+11
         0.78200E+11
         0.78200E+11
         0.78200E+11
         0.78200E+11
         0.78200E+11
         0.78200E+11
         0.78200E+11
         0.78200E+11
         0.78200E+11
         0.78200E+11
         0.78200E+11
         0.78200E+11
         0.78200E+11
         0.78200E+11
         0.78200E+11
         0.78200E+11
         0.78200E+11
         0.78200E+11
         0.78200E+11
         0.78200E+11
         0.78200E+11
         0.78200E+11
         0.78200E+11
         0.78200E+11
         0.78200E+11
         0.78200E+11
         0.78200E+11
         0.78200E+11
         0.78200E+11
         0.78200E+11
         0.78200E+11
         0.78200E+11
         0.78200E+11
         0.78200E+11
         0.78200E+11
         0.78200E+11
         0.78200E+11
         0.78200E+11
         0.78200E+11
         0.78200E+11
         0.78200E+11
         0.78200E+11
         0.78200E+11
         0.78200E+11
         0.78200E+11
         0.78200E+11
         0.78200E+11
         0.78200E+11
         0.78200E+11
         0.78200E+11
         0.78200E+11
         0.78200E+11
         0.78200E+11
         0.78200E+11
         0.78200E+11
         0.78200E+11
         0.78200E+11
         0.78200E+11
         0.78200E+11
         0.78200E+11
         0.78200E+11
         0.78200E+11
         0.78200E+11
         0.78200E+11
         0.78200E+11
         0.78200E+11
         0.78200E+11
         0.78200E+11
         0.78200E+11
         0.78200E+11
         0.78200E+11
         0.78200E+11
         0.78200E+11
         0.78200E+11
         0.78200E+11
         0.78200E+11
         0.78200E+11
         0.78200E+11
         0.78200E+11
         0.78200E+11
         0.78200E+11
         0.78200E+11
         0.78200E+11
         0.78200E+11
         0.78200E+11
         0.78200E+11
         0.78200E+11
         0.78200E+11
         0.78200E+11
         0.78200E+11
         0.78200E+11
         0.78200E+11
         0.78200E+11
         0.78200E+11
         0.78200E+11
         0.78200E+11
         0.78200E+11
         0.78200E+11
         0.78200E+11
         0.78200E+11
         0.78200E+11
         0.78200E+11
         0.78200E+11
         0.78200E+11
         0.78200E+11
         0.78200E+11
         0.78200E+11
         0.78200E+11
         0.78200E+11
         0.78200E+11
         0.78200E+11
         0.78200E+11
         0.78200E+11
         0.78200E+11
         0.78200E+11
         0.78200E+11
         0.78200E+11
         0.78200E+11
         0.78200E+11
         0.78200E+11
         0.78200E+11
         0.78200E+11
         0.78200E+11
         0.78200E+11
         0.78200E+11
         0.78200E+11
         0.78200E+11
         0.78200E+11
         0.78200E+11
         0.78200E+11
         0.78200E+11
         0.78200E+11
         0.78200E+11
         0.78200E+11
         0.78200E+11
         0.78200E+11
         0.78200E+11
         0.78200E+11
         0.78200E+11
         0.78200E+11
         0.78200E+11
         0.78200E+11
         0.78200E+11
         0.78200E+11
         0.78200E+11
         0.78200E+11
         0.78200E+11
         0.78200E+11
         0.78200E+11
         0.78200E+11
         0.78200E+11
         0.78200E+11
         0.78200E+11
         0.78200E+11
         0.78200E+11
         0.78200E+11
         0.78200E+11
         0.78200E+11
         0.78200E+11
         0.78200E+11
         0.78200E+11
         0.78200E+11
         0.78200E+11
         0.78200E+11
         0.78200E+11
         0.78200E+11
         0.78200E+11
         0.78200E+11
         0.78200E+11
         0.78200E+11
         0.78200E+11
         0.78200E+11
         0.78200E+11
         0.78200E+11
         0.78200E+11
         0.78200E+11
         0.78200E+11
         0.78200E+11
         0.78200E+11
         0.78200E+11
         0.78200E+11
         0.78200E+11
         0.78200E+11
         0.78200E+11
         0.78200E+11
         0.78200E+11
         0.78200E+11
         0.78200E+11
         0.78200E+11
         0.78200E+11
         0.78200E+11
         0.78200E+11
         0.78200E+11
         0.78200E+11
         0.78200E+11
         0.78200E+11
         0.78200E+11
         0.78200E+11
         0.78200E+11
         0.78200E+11
         0.78200E+11
         0.78200E+11
         0.78200E+11
         0.78200E+11
         0.78200E+11
         0.78200E+11
         0.78200E+11
         0.78200E+11
         0.78200E+11
         0.78200E+11
         0.78200E+11
         0.78200E+11
         0.78200E+11
         0.78200E+11
         0.78200E+11
         0.78200E+11
         0.78200E+11
         0.78200E+11
         0.78200E+11
         0.78200E+11
         0.78200E+11
         0.78200E+11
         0.78200E+11
         0.78200E+11
         0.78200E+11
         0.78200E+11
         0.78200E+11
         0.78200E+11
         0.78200E+11
         0.78200E+11
         0.78200E+11
         0.78200E+11
         0.78200E+11
         0.78200E+11
         0.78200E+11
         0.78200E+11
         0.78200E+11
         0.78200E+11
         0.78200E+11
         0.78200E+11
         0.78200E+11
         0.78200E+11
         0.78200E+11
         0.78200E+11
         0.78200E+11
         0.78200E+11
         0.78200E+11
         0.78200E+11
         0.78200E+11
         0.78200E+11
         0.78200E+11
         0.78200E+11
         0.78200E+11
         0.78200E+11
         0.78200E+11
         0.78200E+11
         0.78200E+11
         0.78200E+11
         0.78200E+11
         0.78200E+11
         0.78200E+11
         0.78200E+11
         0.78200E+11
         0.78200E+11
         0.78200E+11
         0.78200E+11
         0.78200E+11
         0.78200E+11
         0.78200E+11
         0.78200E+11
         0.78200E+11
         0.78200E+11
         0.78200E+11
         0.78200E+11
         0.78200E+11
         0.78200E+11
         0.78200E+11
         0.78200E+11
         0.78200E+11
         0.78200E+11
         0.78200E+11
         0.78200E+11
         0.78200E+11
         0.78200E+11
         0.78200E+11
         0.78200E+11
         0.78200E+11
         0.78200E+11
         0.78200E+11
         0.78200E+11
         0.78200E+11
         0.78200E+11
         0.78200E+11
         0.78200E+11
         0.78200E+11
         0.78200E+11
         0.78200E+11
         0.78200E+11
         0.78200E+11
         0.78200E+11
         0.78200E+11
         0.78200E+11
         0.78200E+11
         0.78200E+11
         0.78200E+11
         0.78200E+11
         0.78200E+11
         0.78200E+11
         0.78200E+11
         0.78200E+11
         0.78200E+11
         0.78200E+11
         0.78200E+11
         0.78200E+11
         0.78200E+11
         0.78200E+11
         0.78200E+11
         0.78200E+11
         0.78200E+11
         0.78200E+11
         0.78200E+11
         0.78200E+11
         0.78200E+11
         0.78200E+11
         0.78200E+11
         0.78200E+11
         0.78200E+11
         0.78200E+11
         0.78200E+11
         0.78200E+11
         0.78200E+11
         0.78200E+11
         0.78200E+11
         0.78200E+11
         0.78200E+11
         0.78200E+11
         0.78200E+11
         0.78200E+11
         0.78200E+11
         0.78200E+11
         0.78200E+11
         0.78200E+11
         0.78200E+11
         0.78200E+11
         0.78200E+11
         0.78200E+11
         0.78200E+11
         0.78200E+11
         0.78200E+11
         0.78200E+11
         0.78200E+11
         0.78200E+11
         0.78200E+11
         0.78200E+11
         0.78200E+11
         0.78200E+11
         0.78200E+11
         0.78200E+11
         0.78200E+11
         0.78200E+11
         0.78200E+11
         0.78200E+11
         0.78200E+11
         0.78200E+11
         0.78200E+11
         0.78200E+11
         0.78200E+11
         0.78200E+11
         0.78200E+11
         0.78200E+11
         0.78200E+11
         0.78200E+11
         0.78200E+11
         0.78200E+11
         0.78200E+11
         0.78200E+11
         0.78200E+11
         0.78200E+11
         0.78200E+11
         0.78200E+11
         0.78200E+11
         0.78200E+11
         0.78200E+11
         0.78200E+11
         0.78200E+11
         0.78200E+11
         0.78200E+11
         0.78200E+11
         0.78200E+11
         0.78200E+11
         0.78200E+11
         0.78200E+11
         0.78200E+11
         0.78200E+11
         0.78200E+11
         0.78200E+11
         0.78200E+11
         0.78200E+11
         0.78200E+11
         0.78200E+11
         0.78200E+11
         0.78200E+11
         0.78200E+11
         0.78200E+11
         0.78200E+11
         0.78200E+11
         0.78200E+11
         0.78200E+11
         0.78200E+11
         0.78200E+11
         0.78200E+11
         0.78200E+11
         0.78200E+11
         0.78200E+11
         0.78200E+11
         0.78200E+11
         0.78200E+11
         0.78200E+11
         0.78200E+11
         0.78200E+11
         0.78200E+11
         0.78200E+11
         0.78200E+11
         0.78200E+11
         0.78200E+11
         0.78200E+11
         0.78200E+11
         0.78200E+11
         0.78200E+11
         0.78200E+11
         0.78200E+11
         0.78200E+11
         0.78200E+11
         0.78200E+11
         0.78200E+11
         0.78200E+11
         0.78200E+11
         0.78200E+11
         0.78200E+11
         0.78200E+11
         0.78200E+11
         0.78200E+11
         0.78200E+11
         0.78200E+11
         0.78200E+11
         0.78200E+11
         0.78200E+11
         0.78200E+11
         0.78200E+11
         0.78200E+11
         0.78200E+11
         0.78200E+11
         0.78200E+11
         0.78200E+11
         0.78200E+11
         0.78200E+11
         0.78200E+11
         0.78200E+11
         0.78200E+11
         0.78200E+11
         0.78200E+11
         0.78200E+11
         0.78200E+11
         0.78200E+11
         0.78200E+11
         0.78200E+11
         0.78200E+11
         0.78200E+11
         0.78200E+11
         0.78200E+11
         0.78200E+11
         0.78200E+11
         0.78200E+11
         0.78200E+11
         0.78200E+11
         0.78200E+11
         0.78200E+11
         0.78200E+11
         0.78200E+11
         0.78200E+11
         0.78200E+11
         0.78200E+11
         0.78200E+11
         0.78200E+11
         0.78200E+11
         0.78200E+11
         0.78200E+11
         0.78200E+11
         0.78200E+11
         0.78200E+11
         0.78200E+11
         0.78200E+11
         0.78200E+11
         0.78200E+11
         0.78200E+11
         0.78200E+11
         0.78200E+11
         0.78200E+11
         0.78200E+11
         0.78200E+11
         0.78200E+11
         0.78200E+11
         0.78200E+11
         0.78200E+11
         0.78200E+11
         0.78200E+11
         0.78200E+11
         0.78200E+11
         0.78200E+11
         0.78200E+11
         0.78200E+11
         0.78200E+11
         0.78200E+11
         0.78200E+11
         0.78200E+11
         0.78200E+11
         0.78200E+11
         0.78200E+11
         0.78200E+11
         0.78200E+11
         0.78200E+11
         0.78200E+11
         0.78200E+11
         0.78200E+11
         0.78200E+11
         0.78200E+11
         0.78200E+11
         0.78200E+11
         0.78200E+11
         0.78200E+11
         0.78200E+11
         0.78200E+11
         0.78200E+11
         0.78200E+11
         0.78200E+11
         0.78200E+11
         0.78200E+11
         0.78200E+11
         0.78200E+11
         0.78200E+11
         0.78200E+11
         0.78200E+11
         0.78200E+11
         0.78200E+11
         0.78200E+11
         0.78200E+11
         0.78200E+11
         0.78200E+11
         0.78200E+11
         0.78200E+11
         0.78200E+11
         0.78200E+11
         0.78200E+11
         0.78200E+11
         0.78200E+11
         0.78200E+11
         0.78200E+11
         0.78200E+11
         0.78200E+11
         0.78200E+11
         0.78200E+11
         0.78200E+11
         0.78200E+11
         0.78200E+11
         0.78200E+11
         0.78200E+11
         0.78200E+11
         0.78200E+11
         0.78200E+11
         0.78200E+11
         0.78200E+11
         0.78200E+11
         0.78200E+11
         0.78200E+11
         0.78200E+11
         0.78200E+11
         0.78200E+11
         0.78200E+11
         0.78200E+11
         0.78200E+11
         0.78200E+11
         0.78200E+11
         0.78200E+11
         0.78200E+11
         0.78200E+11
         0.78200E+11
         0.78200E+11
         0.78200E+11
         0.78200E+11
         0.78200E+11
         0.78200E+11
         0.78200E+11
         0.78200E+11
         0.78200E+11
         0.78200E+11
         0.78200E+11
         0.78200E+11
         0.78200E+11
         0.78200E+11
         0.78200E+11
         0.78200E+11
         0.78200E+11
         0.78200E+11
         0.78200E+11
         0.78200E+11
         0.78200E+11
         0.78200E+11
         0.78200E+11
         0.78200E+11
         0.78200E+11
         0.78200E+11
         0.78200E+11
         0.78200E+11
         0.78200E+11
         0.78200E+11
         0.78200E+11
         0.78200E+11
         0.78200E+11
         0.78200E+11
         0.78200E+11
         0.78200E+11
         0.78200E+11
         0.78200E+11
         0.78200E+11
         0.78200E+11
         0.78200E+11
         0.78200E+11
         0.78200E+11
         0.78200E+11
         0.78200E+11
         0.78200E+11
         0.78200E+11
         0.78200E+11
         0.78200E+11
         0.78200E+11
         0.78200E+11
         0.78200E+11
         0.78200E+11
         0.78200E+11
         0.78200E+11
         0.78200E+11
         0.78200E+11
         0.78200E+11
         0.78200E+11
         0.78200E+11
         0.78200E+11
         0.78200E+11
         0.78200E+11
         0.78200E+11
         0.78200E+11
         0.78200E+11
         0.78200E+11
         0.78200E+11
         0.78200E+11
         0.78200E+11
         0.78200E+11
         0.78200E+11
         0.78200E+11
         0.78200E+11
         0.78200E+11
         0.78200E+11
         0.78200E+11
         0.78200E+11
         0.78200E+11
         0.78200E+11
         0.78200E+11
         0.78200E+11
         0.78200E+11
         0.78200E+11
         0.78200E+11
         0.78200E+11
         0.78200E+11
         0.78200E+11
         0.78200E+11
         0.78200E+11
         0.78200E+11
         0.78200E+11
         0.78200E+11
         0.78200E+11
         0.78200E+11
         0.78200E+11
         0.78200E+11
         0.78200E+11
         0.78200E+11
         0.78200E+11
         0.78200E+11
         0.78200E+11
         0.78200E+11
         0.78200E+11
         0.78200E+11
         0.78200E+11
         0.78200E+11
         0.78200E+11
         0.78200E+11
         0.78200E+11
         0.78200E+11
         0.78200E+11
         0.78200E+11
         0.78200E+11
         0.78200E+11
         0.78200E+11
         0.78200E+11
         0.78200E+11
         0.78200E+11
         0.78200E+11
         0.78200E+11
         0.78200E+11
         0.78200E+11
         0.78200E+11
         0.78200E+11
         0.78200E+11
         0.78200E+11
         0.78200E+11
         0.78200E+11
         0.78200E+11
         0.78200E+11
         0.78200E+11
         0.78200E+11
         0.78200E+11
         0.78200E+11
         0.78200E+11
         0.78200E+11
         0.78200E+11
         0.78200E+11
         0.78200E+11
         0.78200E+11
         0.78200E+11
         0.78200E+11
         0.78200E+11
         0.78200E+11
         0.78200E+11
         0.78200E+11
         0.78200E+11
         0.78200E+11
         0.78200E+11
         0.78200E+11
         0.78200E+11
         0.78200E+11
         0.78200E+11
         0.78200E+11
         0.78200E+11
         0.78200E+11
         0.78200E+11
         0.78200E+11
         0.78200E+11
         0.78200E+11
         0.78200E+11
         0.78200E+11
         0.78200E+11
         0.78200E+11
         0.78200E+11
         0.78200E+11
         0.78200E+11
         0.78200E+11
         0.78200E+11
         0.78200E+11
         0.78200E+11
         0.78200E+11
         0.78200E+11
         0.78200E+11
         0.78200E+11
         0.78200E+11
         0.78200E+11
         0.78200E+11
         0.78200E+11
         0.78200E+11
         0.78200E+11
         0.78200E+11
         0.78200E+11
         0.78200E+11
         0.78200E+11
         0.78200E+11
         0.78200E+11
         0.78200E+11
         0.78200E+11
         0.78200E+11
         0.78200E+11
         0.78200E+11
         0.78200E+11
         0.78200E+11
         0.78200E+11
         0.78200E+11
         0.78200E+11
         0.78200E+11
         0.78200E+11
         0.78200E+11
         0.78200E+11
         0.78200E+11
         0.78200E+11
         0.78200E+11
         0.78200E+11
         0.78200E+11
         0.78200E+11
         0.78200E+11
         0.78200E+11
         0.78200E+11
         0.78200E+11
         0.78200E+11
         0.78200E+11
         0.78200E+11
         0.78200E+11
         0.78200E+11
         0.78200E+11
         0.78200E+11
         0.78200E+11
         0.78200E+11
         0.78200E+11
         0.78200E+11
         0.78200E+11
         0.78200E+11
         0.78200E+11
         0.78200E+11
         0.78200E+11
         0.78200E+11
         0.78200E+11
         0.78200E+11
         0.78200E+11
         0.78200E+11
         0.78200E+11
         0.78200E+11
         0.78200E+11
         0.78200E+11
         0.78200E+11
         0.78200E+11
         0.78200E+11
         0.78200E+11
         0.78200E+11
         0.78200E+11
         0.78200E+11
         0.78200E+11
         0.78200E+11
         0.78200E+11
         0.78200E+11
         0.78200E+11
         0.78200E+11
         0.78200E+11
         0.78200E+11
         0.78200E+11
         0.78200E+11
         0.78200E+11
         0.78200E+11
         0.78200E+11
         0.78200E+11
         0.78200E+11
         0.78200E+11
         0.78200E+11
         0.78200E+11
         0.78200E+11
         0.78200E+11
         0.78200E+11
         0.78200E+11
         0.78200E+11
         0.78200E+11
         0.78200E+11
         0.78200E+11
         0.78200E+11
         0.78200E+11
         0.78200E+11
         0.78200E+11
         0.78200E+11
         0.78200E+11
         0.78200E+11
         0.78200E+11
         0.78200E+11
         0.78200E+11
         0.78200E+11
         0.78200E+11
         0.78200E+11
         0.78200E+11
         0.78200E+11
         0.78200E+11
         0.78200E+11
         0.78200E+11
         0.78200E+11
         0.78200E+11
         0.78200E+11
         0.78200E+11
         0.78200E+11
         0.78200E+11
         0.78200E+11
         0.78200E+11
         0.78200E+11
         0.78200E+11
         0.78200E+11
         0.78200E+11
         0.78200E+11
         0.78200E+11
         0.78200E+11
         0.78200E+11
         0.78200E+11
         0.78200E+11
         0.78200E+11
         0.78200E+11
         0.78200E+11
         0.78200E+11
         0.78200E+11
         0.78200E+11
         0.78200E+11
         0.78200E+11
         0.78200E+11
         0.78200E+11
         0.78200E+11
         0.78200E+11
         0.78200E+11
         0.78200E+11
         0.78200E+11
         0.78200E+11
         0.78200E+11
         0.78200E+11
         0.78200E+11
         0.78200E+11
         0.78200E+11
         0.78200E+11
         0.78200E+11
         0.78200E+11
         0.78200E+11
         0.78200E+11
         0.78200E+11
         0.78200E+11
         0.78200E+11
         0.78200E+11
         0.78200E+11
         0.78200E+11
         0.78200E+11
         0.78200E+11
         0.78200E+11
         0.78200E+11
         0.78200E+11
         0.78200E+11
         0.78200E+11
         0.78200E+11
         0.78200E+11
         0.78200E+11
         0.78200E+11
         0.78200E+11
         0.78200E+11
         0.78200E+11
         0.78200E+11
         0.78200E+11
         0.78200E+11
         0.78200E+11
         0.78200E+11
         0.78200E+11
         0.78200E+11
         0.78200E+11
         0.78200E+11
         0.78200E+11
         0.78200E+11
         0.78200E+11
         0.78200E+11
         0.78200E+11
         0.78200E+11
         0.78200E+11
         0.78200E+11
         0.78200E+11
         0.78200E+11
         0.78200E+11
         0.78200E+11
         0.78200E+11
         0.78200E+11
         0.78200E+11
         0.78200E+11
         0.78200E+11
         0.78200E+11
         0.78200E+11
         0.78200E+11
         0.78200E+11
         0.78200E+11
         0.78200E+11
         0.78200E+11
         0.78200E+11
         0.78200E+11
         0.78200E+11
         0.78200E+11
         0.78200E+11
         0.78200E+11
         0.78200E+11
         0.78200E+11
         0.78200E+11
         0.78200E+11
         0.78200E+11
         0.78200E+11
         0.78200E+11
         0.78200E+11
         0.78200E+11
         0.78200E+11
         0.78200E+11
         0.78200E+11
         0.78200E+11
         0.78200E+11
         0.78200E+11
         0.78200E+11
         0.78200E+11
         0.78200E+11
         0.78200E+11
         0.78200E+11
         0.78200E+11
         0.78200E+11
         0.78200E+11
         0.78200E+11
         0.78200E+11
         0.78200E+11
         0.78200E+11
         0.78200E+11
         0.78200E+11
         0.78200E+11
         0.78200E+11
         0.78200E+11
         0.78200E+11
         0.78200E+11
         0.78200E+11
         0.78200E+11
         0.78200E+11
         0.78200E+11
         0.78200E+11
         0.78200E+11
         0.78200E+11
         0.78200E+11
         0.78200E+11
         0.78200E+11
         0.78200E+11
         0.78200E+11
         0.78200E+11
         0.78200E+11
         0.78200E+11
         0.78200E+11
         0.78200E+11
         0.78200E+11
         0.78200E+11
         0.78200E+11
         0.78200E+11
         0.78200E+11
         0.78200E+11
         0.78200E+11
         0.78200E+11
         0.78200E+11
         0.78200E+11
         0.78200E+11
         0.78200E+11
         0.78200E+11
         0.78200E+11
         0.78200E+11
         0.78200E+11
         0.78200E+11
         0.78200E+11
         0.78200E+11
         0.78200E+11
         0.78200E+11
         0.78200E+11
         0.78200E+11
         0.78200E+11
         0.78200E+11
         0.78200E+11
         0.78200E+11
         0.78200E+11
         0.78200E+11
         0.78200E+11
         0.78200E+11
         0.78200E+11
         0.78200E+11
         0.78200E+11
         0.78200E+11
         0.78200E+11
         0.78200E+11
         0.78200E+11
         0.78200E+11
         0.78200E+11
         0.78200E+11
         0.78200E+11
         0.78200E+11
         0.78200E+11
         0.78200E+11
         0.78200E+11
         0.78200E+11
         0.78200E+11
         0.78200E+11
         0.78200E+11
         0.78200E+11
         0.78200E+11
         0.78200E+11
         0.78200E+11
         0.78200E+11
         0.78200E+11
         0.78200E+11
         0.78200E+11
         0.78200E+11
         0.78200E+11
         0.78200E+11
         0.78200E+11
         0.78200E+11
         0.78200E+11
         0.78200E+11
         0.78200E+11
         0.78200E+11
         0.78200E+11
         0.78200E+11
         0.78200E+11
         0.78200E+11
         0.78200E+11
         0.78200E+11
         0.78200E+11
         0.78200E+11
         0.78200E+11
         0.78200E+11
         0.78200E+11
         0.78200E+11
         0.78200E+11
         0.78200E+11
         0.78200E+11
         0.78200E+11
         0.78200E+11
         0.78200E+11
         0.78200E+11
         0.78200E+11
         0.78200E+11
         0.78200E+11
         0.78200E+11
         0.78200E+11
         0.78200E+11
         0.78200E+11
         0.78200E+11
         0.78200E+11
         0.78200E+11
         0.78200E+11
         0.78200E+11
         0.78200E+11
         0.78200E+11
         0.78200E+11
         0.78200E+11
         0.78200E+11
         0.78200E+11
         0.78200E+11
         0.78200E+11
         0.78200E+11
         0.78200E+11
         0.78200E+11
         0.78200E+11
         0.78200E+11
         0.78200E+11
         0.78200E+11
         0.78200E+11
         0.78200E+11
         0.78200E+11
         0.78200E+11
         0.78200E+11
         0.78200E+11
         0.78200E+11
         0.78200E+11
         0.78200E+11
         0.78200E+11
         0.78200E+11
         0.78200E+11
         0.78200E+11
         0.78200E+11
         0.78200E+11
         0.78200E+11
         0.78200E+11
         0.78200E+11
         0.78200E+11
         0.78200E+11
         0.78200E+11
         0.78200E+11
         0.78200E+11
         0.78200E+11
         0.78200E+11
         0.78200E+11
         0.78200E+11
         0.78200E+11
         0.78200E+11
         0.78200E+11
         0.78200E+11
         0.78200E+11
         0.78200E+11
         0.78200E+11
         0.78200E+11
         0.78200E+11
         0.78200E+11
         0.78200E+11
         0.78200E+11
         0.78200E+11
         0.78200E+11
         0.78200E+11
         0.78200E+11
         0.78200E+11
         0.78200E+11
         0.78200E+11
         0.78200E+11
         0.78200E+11
         0.78200E+11
         0.78200E+11
         0.78200E+11
         0.78200E+11
         0.78200E+11
         0.78200E+11
         0.78200E+11
         0.78200E+11
         0.78200E+11
         0.78200E+11
         0.78200E+11
         0.78200E+11
         0.78200E+11
         0.78200E+11
         0.78200E+11
         0.78200E+11
         0.78200E+11
         0.78200E+11
         0.78200E+11
         0.78200E+11
         0.78200E+11
         0.78200E+11
         0.78200E+11
         0.78200E+11
         0.78200E+11
         0.78200E+11
         0.78200E+11
         0.78200E+11
         0.78200E+11
         0.78200E+11
         0.78200E+11
         0.78200E+11
         0.78200E+11
         0.78200E+11
         0.78200E+11
         0.78200E+11
         0.78200E+11
         0.78200E+11
         0.78200E+11
         0.78200E+11
         0.78200E+11
         0.78200E+11
         0.78200E+11
         0.78200E+11
         0.78200E+11
         0.78200E+11
         0.78200E+11
         0.78200E+11
         0.78200E+11
         0.78200E+11
         0.78200E+11
         0.78200E+11
         0.78200E+11
         0.78200E+11
         0.78200E+11
         0.78200E+11
         0.78200E+11
         0.78200E+11
         0.78200E+11
         0.78200E+11
         0.78200E+11
         0.78200E+11
         0.78200E+11
         0.78200E+11
         0.78200E+11
         0.78200E+11
         0.78200E+11
         0.78200E+11
         0.78200E+11
         0.78200E+11
         0.78200E+11
         0.78200E+11
         0.78200E+11
         0.78200E+11
         0.78200E+11
         0.78200E+11
         0.78200E+11
         0.78200E+11
         0.78200E+11
         0.78200E+11
         0.78200E+11
         0.78200E+11
         0.78200E+11
         0.78200E+11
         0.78200E+11
         0.78200E+11
         0.78200E+11
         0.78200E+11
         0.78200E+11
         0.78200E+11
         0.78200E+11
         0.78200E+11
         0.78200E+11
         0.78200E+11
         0.78200E+11
         0.78200E+11
         0.78200E+11
         0.78200E+11
         0.78200E+11
         0.78200E+11
         0.78200E+11
         0.78200E+11
         0.78200E+11
         0.78200E+11
         0.78200E+11
         0.78200E+11
         0.78200E+11
         0.78200E+11
         0.78200E+11
         0.78200E+11
         0.78200E+11
         0.78200E+11
         0.78200E+11
         0.78200E+11
         0.78200E+11
         0.78200E+11
         0.78200E+11
         0.78200E+11
         0.78200E+11
         0.78200E+11
         0.78200E+11
         0.78200E+11
         0.78200E+11
         0.78200E+11
         0.78200E+11
         0.78200E+11
         0.78200E+11
         0.78200E+11
         0.78200E+11
         0.78200E+11
         0.78200E+11
         0.78200E+11
         0.78200E+11
         0.78200E+11
         0.78200E+11
         0.78200E+11
         0.78200E+11
         0.78200E+11
         0.78200E+11
         0.78200E+11
         0.78200E+11
         0.78200E+11
         0.78200E+11
         0.78200E+11
         0.78200E+11
         0.78200E+11
         0.78200E+11
         0.78200E+11
         0.78200E+11
         0.78200E+11
         0.78200E+11
         0.78200E+11
         0.78200E+11
         0.78200E+11
         0.78200E+11
         0.78200E+11
         0.78200E+11
         0.78200E+11
         0.78200E+11
         0.78200E+11
         0.78200E+11
         0.78200E+11
         0.78200E+11
         0.78200E+11
         0.78200E+11
         0.78200E+11
         0.78200E+11
         0.78200E+11
         0.78200E+11
         0.78200E+11
         0.78200E+11
         0.78200E+11
         0.78200E+11
         0.78200E+11
         0.78200E+11
         0.78200E+11
         0.78200E+11
         0.78200E+11
         0.78200E+11
         0.78200E+11
         0.78200E+11
         0.78200E+11
         0.78200E+11
         0.78200E+11
         0.78200E+11
         0.78200E+11
         0.78200E+11
         0.78200E+11
         0.78200E+11
         0.78200E+11
         0.78200E+11
         0.78200E+11
         0.78200E+11
         0.78200E+11
         0.78200E+11
         0.78200E+11
         0.78200E+11
         0.78200E+11
         0.78200E+11
         0.78200E+11
         0.78200E+11
         0.78200E+11
         0.78200E+11
         0.78200E+11
         0.78200E+11
         0.78200E+11
         0.78200E+11
         0.78200E+11
         0.78200E+11
         0.78200E+11
         0.78200E+11
         0.78200E+11
         0.78200E+11
         0.78200E+11
         0.78200E+11
         0.78200E+11
         0.78200E+11
         0.78200E+11
         0.78200E+11
         0.78200E+11
         0.78200E+11
         0.78200E+11
         0.78200E+11
         0.78200E+11
         0.78200E+11
         0.78200E+11
         0.78200E+11
         0.78200E+11
         0.78200E+11
         0.78200E+11
         0.78200E+11
         0.78200E+11
         0.78200E+11
         0.78200E+11
         0.78200E+11
         0.78200E+11
         0.78200E+11
         0.78200E+11
         0.78200E+11
         0.78200E+11
         0.78200E+11
         0.78200E+11
         0.78200E+11
         0.78200E+11
         0.78200E+11
         0.78200E+11
         0.78200E+11
         0.78200E+11
         0.78200E+11
         0.78200E+11
         0.78200E+11
         0.78200E+11
         0.78200E+11
         0.78200E+11
         0.78200E+11
         0.78200E+11
         0.78200E+11
         0.78200E+11
         0.78200E+11
         0.78200E+11
         0.78200E+11
         0.78200E+11
         0.78200E+11
         0.78200E+11
         0.78200E+11
         0.78200E+11
         0.78200E+11
         0.78200E+11
         0.78200E+11
         0.78200E+11
         0.78200E+11
         0.78200E+11
         0.78200E+11
         0.78200E+11
         0.78200E+11
         0.78200E+11
         0.78200E+11
         0.78200E+11
         0.78200E+11
         0.78200E+11
         0.78200E+11
         0.78200E+11
         0.78200E+11
         0.78200E+11
         0.78200E+11
         0.78200E+11
         0.78200E+11
         0.78200E+11
         0.78200E+11
         0.78200E+11
         0.78200E+11
         0.78200E+11
         0.78200E+11
         0.78200E+11
         0.78200E+11
         0.78200E+11
         0.78200E+11
         0.78200E+11
         0.78200E+11
         0.78200E+11
         0.78200E+11
         0.78200E+11
         0.78200E+11
         0.78200E+11
         0.78200E+11
         0.78200E+11
         0.78200E+11
         0.78200E+11
         0.78200E+11
         0.78200E+11
         0.78200E+11
         0.78200E+11
         0.78200E+11
         0.78200E+11
         0.78200E+11
         0.78200E+11
         0.78200E+11
         0.78200E+11
         0.78200E+11
         0.78200E+11
         0.78200E+11
         0.78200E+11
         0.78200E+11
  
SCALARS                        density  double 1
LOOKUP_TABLE default
         0.27000E+04
         0.27000E+04
         0.27000E+04
         0.27000E+04
         0.27000E+04
         0.27000E+04
         0.27000E+04
         0.27000E+04
         0.27000E+04
         0.27000E+04
         0.27000E+04
         0.27000E+04
         0.27000E+04
         0.27000E+04
         0.27000E+04
         0.27000E+04
         0.27000E+04
         0.27000E+04
         0.27000E+04
         0.27000E+04
         0.27000E+04
         0.27000E+04
         0.27000E+04
         0.27000E+04
         0.27000E+04
         0.27000E+04
         0.27000E+04
         0.27000E+04
         0.27000E+04
         0.27000E+04
         0.27000E+04
         0.27000E+04
         0.27000E+04
         0.27000E+04
         0.27000E+04
         0.27000E+04
         0.27000E+04
         0.27000E+04
         0.27000E+04
         0.27000E+04
         0.27000E+04
         0.27000E+04
         0.27000E+04
         0.27000E+04
         0.27000E+04
         0.27000E+04
         0.27000E+04
         0.27000E+04
         0.27000E+04
         0.27000E+04
         0.27000E+04
         0.27000E+04
         0.27000E+04
         0.27000E+04
         0.27000E+04
         0.27000E+04
         0.27000E+04
         0.27000E+04
         0.27000E+04
         0.27000E+04
         0.27000E+04
         0.27000E+04
         0.27000E+04
         0.27000E+04
         0.27000E+04
         0.27000E+04
         0.27000E+04
         0.27000E+04
         0.27000E+04
         0.27000E+04
         0.27000E+04
         0.27000E+04
         0.27000E+04
         0.27000E+04
         0.27000E+04
         0.27000E+04
         0.27000E+04
         0.27000E+04
         0.27000E+04
         0.27000E+04
         0.27000E+04
         0.27000E+04
         0.27000E+04
         0.27000E+04
         0.27000E+04
         0.27000E+04
         0.27000E+04
         0.27000E+04
         0.27000E+04
         0.27000E+04
         0.27000E+04
         0.27000E+04
         0.27000E+04
         0.27000E+04
         0.27000E+04
         0.27000E+04
         0.27000E+04
         0.27000E+04
         0.27000E+04
         0.27000E+04
         0.27000E+04
         0.27000E+04
         0.27000E+04
         0.27000E+04
         0.27000E+04
         0.27000E+04
         0.27000E+04
         0.27000E+04
         0.27000E+04
         0.27000E+04
         0.27000E+04
         0.27000E+04
         0.27000E+04
         0.27000E+04
         0.27000E+04
         0.27000E+04
         0.27000E+04
         0.27000E+04
         0.27000E+04
         0.27000E+04
         0.27000E+04
         0.27000E+04
         0.27000E+04
         0.27000E+04
         0.27000E+04
         0.27000E+04
         0.27000E+04
         0.27000E+04
         0.27000E+04
         0.27000E+04
         0.27000E+04
         0.27000E+04
         0.27000E+04
         0.27000E+04
         0.27000E+04
         0.27000E+04
         0.27000E+04
         0.27000E+04
         0.27000E+04
         0.27000E+04
         0.27000E+04
         0.27000E+04
         0.27000E+04
         0.27000E+04
         0.27000E+04
         0.27000E+04
         0.27000E+04
         0.27000E+04
         0.27000E+04
         0.27000E+04
         0.27000E+04
         0.27000E+04
         0.27000E+04
         0.27000E+04
         0.27000E+04
         0.27000E+04
         0.27000E+04
         0.27000E+04
         0.27000E+04
         0.27000E+04
         0.27000E+04
         0.27000E+04
         0.27000E+04
         0.27000E+04
         0.27000E+04
         0.27000E+04
         0.27000E+04
         0.27000E+04
         0.27000E+04
         0.27000E+04
         0.27000E+04
         0.27000E+04
         0.27000E+04
         0.27000E+04
         0.27000E+04
         0.27000E+04
         0.27000E+04
         0.27000E+04
         0.27000E+04
         0.27000E+04
         0.27000E+04
         0.27000E+04
         0.27000E+04
         0.27000E+04
         0.27000E+04
         0.27000E+04
         0.27000E+04
         0.27000E+04
         0.27000E+04
         0.27000E+04
         0.27000E+04
         0.27000E+04
         0.27000E+04
         0.27000E+04
         0.27000E+04
         0.27000E+04
         0.27000E+04
         0.27000E+04
         0.27000E+04
         0.27000E+04
         0.27000E+04
         0.27000E+04
         0.27000E+04
         0.27000E+04
         0.27000E+04
         0.27000E+04
         0.27000E+04
         0.27000E+04
         0.27000E+04
         0.27000E+04
         0.27000E+04
         0.27000E+04
         0.27000E+04
         0.27000E+04
         0.27000E+04
         0.27000E+04
         0.27000E+04
         0.27000E+04
         0.27000E+04
         0.27000E+04
         0.27000E+04
         0.27000E+04
         0.27000E+04
         0.27000E+04
         0.27000E+04
         0.27000E+04
         0.27000E+04
         0.27000E+04
         0.27000E+04
         0.27000E+04
         0.27000E+04
         0.27000E+04
         0.27000E+04
         0.27000E+04
         0.27000E+04
         0.27000E+04
         0.27000E+04
         0.27000E+04
         0.27000E+04
         0.27000E+04
         0.27000E+04
         0.27000E+04
         0.27000E+04
         0.27000E+04
         0.27000E+04
         0.27000E+04
         0.27000E+04
         0.27000E+04
         0.27000E+04
         0.27000E+04
         0.27000E+04
         0.27000E+04
         0.27000E+04
         0.27000E+04
         0.27000E+04
         0.27000E+04
         0.27000E+04
         0.27000E+04
         0.27000E+04
         0.27000E+04
         0.27000E+04
         0.27000E+04
         0.27000E+04
         0.27000E+04
         0.27000E+04
         0.27000E+04
         0.27000E+04
         0.27000E+04
         0.27000E+04
         0.27000E+04
         0.27000E+04
         0.27000E+04
         0.27000E+04
         0.27000E+04
         0.27000E+04
         0.27000E+04
         0.27000E+04
         0.27000E+04
         0.27000E+04
         0.27000E+04
         0.27000E+04
         0.27000E+04
         0.27000E+04
         0.27000E+04
         0.27000E+04
         0.27000E+04
         0.27000E+04
         0.27000E+04
         0.27000E+04
         0.27000E+04
         0.27000E+04
         0.27000E+04
         0.27000E+04
         0.27000E+04
         0.27000E+04
         0.27000E+04
         0.27000E+04
         0.27000E+04
         0.27000E+04
         0.27000E+04
         0.27000E+04
         0.27000E+04
         0.27000E+04
         0.27000E+04
         0.27000E+04
         0.27000E+04
         0.27000E+04
         0.27000E+04
         0.27000E+04
         0.27000E+04
         0.27000E+04
         0.27000E+04
         0.27000E+04
         0.27000E+04
         0.27000E+04
         0.27000E+04
         0.27000E+04
         0.27000E+04
         0.27000E+04
         0.27000E+04
         0.27000E+04
         0.27000E+04
         0.27000E+04
         0.27000E+04
         0.27000E+04
         0.27000E+04
         0.27000E+04
         0.27000E+04
         0.27000E+04
         0.27000E+04
         0.27000E+04
         0.27000E+04
         0.27000E+04
         0.27000E+04
         0.27000E+04
         0.27000E+04
         0.27000E+04
         0.27000E+04
         0.27000E+04
         0.27000E+04
         0.27000E+04
         0.27000E+04
         0.27000E+04
         0.27000E+04
         0.27000E+04
         0.27000E+04
         0.27000E+04
         0.27000E+04
         0.27000E+04
         0.27000E+04
         0.27000E+04
         0.27000E+04
         0.27000E+04
         0.27000E+04
         0.27000E+04
         0.27000E+04
         0.27000E+04
         0.27000E+04
         0.27000E+04
         0.27000E+04
         0.27000E+04
         0.27000E+04
         0.27000E+04
         0.27000E+04
         0.27000E+04
         0.27000E+04
         0.27000E+04
         0.27000E+04
         0.27000E+04
         0.27000E+04
         0.27000E+04
         0.27000E+04
         0.27000E+04
         0.27000E+04
         0.27000E+04
         0.27000E+04
         0.27000E+04
         0.27000E+04
         0.27000E+04
         0.27000E+04
         0.27000E+04
         0.27000E+04
         0.27000E+04
         0.27000E+04
         0.27000E+04
         0.27000E+04
         0.27000E+04
         0.27000E+04
         0.27000E+04
         0.27000E+04
         0.27000E+04
         0.27000E+04
         0.27000E+04
         0.27000E+04
         0.27000E+04
         0.27000E+04
         0.27000E+04
         0.27000E+04
         0.27000E+04
         0.27000E+04
         0.27000E+04
         0.27000E+04
         0.27000E+04
         0.27000E+04
         0.27000E+04
         0.27000E+04
         0.27000E+04
         0.27000E+04
         0.27000E+04
         0.27000E+04
         0.27000E+04
         0.27000E+04
         0.27000E+04
         0.27000E+04
         0.27000E+04
         0.27000E+04
         0.27000E+04
         0.27000E+04
         0.27000E+04
         0.27000E+04
         0.27000E+04
         0.27000E+04
         0.27000E+04
         0.27000E+04
         0.27000E+04
         0.27000E+04
         0.27000E+04
         0.27000E+04
         0.27000E+04
         0.27000E+04
         0.27000E+04
         0.27000E+04
         0.27000E+04
         0.27000E+04
         0.27000E+04
         0.27000E+04
         0.27000E+04
         0.27000E+04
         0.27000E+04
         0.27000E+04
         0.27000E+04
         0.27000E+04
         0.27000E+04
         0.27000E+04
         0.27000E+04
         0.27000E+04
         0.27000E+04
         0.27000E+04
         0.27000E+04
         0.27000E+04
         0.27000E+04
         0.27000E+04
         0.27000E+04
         0.27000E+04
         0.27000E+04
         0.27000E+04
         0.27000E+04
         0.27000E+04
         0.27000E+04
         0.27000E+04
         0.27000E+04
         0.27000E+04
         0.27000E+04
         0.27000E+04
         0.27000E+04
         0.27000E+04
         0.27000E+04
         0.27000E+04
         0.27000E+04
         0.27000E+04
         0.27000E+04
         0.27000E+04
         0.27000E+04
         0.27000E+04
         0.27000E+04
         0.27000E+04
         0.27000E+04
         0.27000E+04
         0.27000E+04
         0.27000E+04
         0.27000E+04
         0.27000E+04
         0.27000E+04
         0.27000E+04
         0.27000E+04
         0.27000E+04
         0.27000E+04
         0.27000E+04
         0.27000E+04
         0.27000E+04
         0.27000E+04
         0.27000E+04
         0.27000E+04
         0.27000E+04
         0.27000E+04
         0.27000E+04
         0.27000E+04
         0.27000E+04
         0.27000E+04
         0.27000E+04
         0.27000E+04
         0.27000E+04
         0.27000E+04
         0.27000E+04
         0.27000E+04
         0.27000E+04
         0.27000E+04
         0.27000E+04
         0.27000E+04
         0.27000E+04
         0.27000E+04
         0.27000E+04
         0.27000E+04
         0.27000E+04
         0.27000E+04
         0.27000E+04
         0.27000E+04
         0.27000E+04
         0.27000E+04
         0.27000E+04
         0.27000E+04
         0.27000E+04
         0.27000E+04
         0.27000E+04
         0.27000E+04
         0.27000E+04
         0.27000E+04
         0.27000E+04
         0.27000E+04
         0.27000E+04
         0.27000E+04
         0.27000E+04
         0.27000E+04
         0.27000E+04
         0.27000E+04
         0.27000E+04
         0.27000E+04
         0.27000E+04
         0.27000E+04
         0.27000E+04
         0.27000E+04
         0.27000E+04
         0.27000E+04
         0.27000E+04
         0.27000E+04
         0.27000E+04
         0.27000E+04
         0.27000E+04
         0.27000E+04
         0.27000E+04
         0.27000E+04
         0.27000E+04
         0.27000E+04
         0.27000E+04
         0.27000E+04
         0.27000E+04
         0.27000E+04
         0.27000E+04
         0.27000E+04
         0.27000E+04
         0.27000E+04
         0.27000E+04
         0.27000E+04
         0.27000E+04
         0.27000E+04
         0.27000E+04
         0.27000E+04
         0.27000E+04
         0.27000E+04
         0.27000E+04
         0.27000E+04
         0.27000E+04
         0.27000E+04
         0.27000E+04
         0.27000E+04
         0.27000E+04
         0.27000E+04
         0.27000E+04
         0.27000E+04
         0.27000E+04
         0.27000E+04
         0.27000E+04
         0.27000E+04
         0.27000E+04
         0.27000E+04
         0.27000E+04
         0.27000E+04
         0.27000E+04
         0.27000E+04
         0.27000E+04
         0.27000E+04
         0.27000E+04
         0.27000E+04
         0.27000E+04
         0.27000E+04
         0.27000E+04
         0.27000E+04
         0.27000E+04
         0.27000E+04
         0.27000E+04
         0.27000E+04
         0.27000E+04
         0.27000E+04
         0.27000E+04
         0.27000E+04
         0.27000E+04
         0.27000E+04
         0.27000E+04
         0.27000E+04
         0.27000E+04
         0.27000E+04
         0.27000E+04
         0.27000E+04
         0.27000E+04
         0.27000E+04
         0.27000E+04
         0.27000E+04
         0.27000E+04
         0.27000E+04
         0.27000E+04
         0.27000E+04
         0.27000E+04
         0.27000E+04
         0.27000E+04
         0.27000E+04
         0.27000E+04
         0.27000E+04
         0.27000E+04
         0.27000E+04
         0.27000E+04
         0.27000E+04
         0.27000E+04
         0.27000E+04
         0.27000E+04
         0.27000E+04
         0.27000E+04
         0.27000E+04
         0.27000E+04
         0.27000E+04
         0.27000E+04
         0.27000E+04
         0.27000E+04
         0.27000E+04
         0.27000E+04
         0.27000E+04
         0.27000E+04
         0.27000E+04
         0.27000E+04
         0.27000E+04
         0.27000E+04
         0.27000E+04
         0.27000E+04
         0.27000E+04
         0.27000E+04
         0.27000E+04
         0.27000E+04
         0.27000E+04
         0.27000E+04
         0.27000E+04
         0.27000E+04
         0.27000E+04
         0.27000E+04
         0.27000E+04
         0.27000E+04
         0.27000E+04
         0.27000E+04
         0.27000E+04
         0.27000E+04
         0.27000E+04
         0.27000E+04
         0.27000E+04
         0.27000E+04
         0.27000E+04
         0.27000E+04
         0.27000E+04
         0.27000E+04
         0.27000E+04
         0.27000E+04
         0.27000E+04
         0.27000E+04
         0.27000E+04
         0.27000E+04
         0.27000E+04
         0.27000E+04
         0.27000E+04
         0.27000E+04
         0.27000E+04
         0.27000E+04
         0.27000E+04
         0.27000E+04
         0.27000E+04
         0.27000E+04
         0.27000E+04
         0.27000E+04
         0.27000E+04
         0.27000E+04
         0.27000E+04
         0.27000E+04
         0.27000E+04
         0.27000E+04
         0.27000E+04
         0.27000E+04
         0.27000E+04
         0.27000E+04
         0.27000E+04
         0.27000E+04
         0.27000E+04
         0.27000E+04
         0.27000E+04
         0.27000E+04
         0.27000E+04
         0.27000E+04
         0.27000E+04
         0.27000E+04
         0.27000E+04
         0.27000E+04
         0.27000E+04
         0.27000E+04
         0.27000E+04
         0.27000E+04
         0.27000E+04
         0.27000E+04
         0.27000E+04
         0.27000E+04
         0.27000E+04
         0.27000E+04
         0.27000E+04
         0.27000E+04
         0.27000E+04
         0.27000E+04
         0.27000E+04
         0.27000E+04
         0.27000E+04
         0.27000E+04
         0.27000E+04
         0.27000E+04
         0.27000E+04
         0.27000E+04
         0.27000E+04
         0.27000E+04
         0.27000E+04
         0.27000E+04
         0.27000E+04
         0.27000E+04
         0.27000E+04
         0.27000E+04
         0.27000E+04
         0.27000E+04
         0.27000E+04
         0.27000E+04
         0.27000E+04
         0.27000E+04
         0.27000E+04
         0.27000E+04
         0.27000E+04
         0.27000E+04
         0.27000E+04
         0.27000E+04
         0.27000E+04
         0.27000E+04
         0.27000E+04
         0.27000E+04
         0.27000E+04
         0.27000E+04
         0.27000E+04
         0.27000E+04
         0.27000E+04
         0.27000E+04
         0.27000E+04
         0.27000E+04
         0.27000E+04
         0.27000E+04
         0.27000E+04
         0.27000E+04
         0.27000E+04
         0.27000E+04
         0.27000E+04
         0.27000E+04
         0.27000E+04
         0.27000E+04
         0.27000E+04
         0.27000E+04
         0.27000E+04
         0.27000E+04
         0.27000E+04
         0.27000E+04
         0.27000E+04
         0.27000E+04
         0.27000E+04
         0.27000E+04
         0.27000E+04
         0.27000E+04
         0.27000E+04
         0.27000E+04
         0.27000E+04
         0.27000E+04
         0.27000E+04
         0.27000E+04
         0.27000E+04
         0.27000E+04
         0.27000E+04
         0.27000E+04
         0.27000E+04
         0.27000E+04
         0.27000E+04
         0.27000E+04
         0.27000E+04
         0.27000E+04
         0.27000E+04
         0.27000E+04
         0.27000E+04
         0.27000E+04
         0.27000E+04
         0.27000E+04
         0.27000E+04
         0.27000E+04
         0.27000E+04
         0.27000E+04
         0.27000E+04
         0.27000E+04
         0.27000E+04
         0.27000E+04
         0.27000E+04
         0.27000E+04
         0.27000E+04
         0.27000E+04
         0.27000E+04
         0.27000E+04
         0.27000E+04
         0.27000E+04
         0.27000E+04
         0.27000E+04
         0.27000E+04
         0.27000E+04
         0.27000E+04
         0.27000E+04
         0.27000E+04
         0.27000E+04
         0.27000E+04
         0.27000E+04
         0.27000E+04
         0.27000E+04
         0.27000E+04
         0.27000E+04
         0.27000E+04
         0.27000E+04
         0.27000E+04
         0.27000E+04
         0.27000E+04
         0.27000E+04
         0.27000E+04
         0.27000E+04
         0.27000E+04
         0.27000E+04
         0.27000E+04
         0.27000E+04
         0.27000E+04
         0.27000E+04
         0.27000E+04
         0.27000E+04
         0.27000E+04
         0.27000E+04
         0.27000E+04
         0.27000E+04
         0.27000E+04
         0.27000E+04
         0.27000E+04
         0.27000E+04
         0.27000E+04
         0.27000E+04
         0.27000E+04
         0.27000E+04
         0.27000E+04
         0.27000E+04
         0.27000E+04
         0.27000E+04
         0.27000E+04
         0.27000E+04
         0.27000E+04
         0.27000E+04
         0.27000E+04
         0.27000E+04
         0.27000E+04
         0.27000E+04
         0.27000E+04
         0.27000E+04
         0.27000E+04
         0.27000E+04
         0.27000E+04
         0.27000E+04
         0.27000E+04
         0.27000E+04
         0.27000E+04
         0.27000E+04
         0.27000E+04
         0.27000E+04
         0.27000E+04
         0.27000E+04
         0.27000E+04
         0.27000E+04
         0.27000E+04
         0.27000E+04
         0.27000E+04
         0.27000E+04
         0.27000E+04
         0.27000E+04
         0.27000E+04
         0.27000E+04
         0.27000E+04
         0.27000E+04
         0.27000E+04
         0.27000E+04
         0.27000E+04
         0.27000E+04
         0.27000E+04
         0.27000E+04
         0.27000E+04
         0.27000E+04
         0.27000E+04
         0.27000E+04
         0.27000E+04
         0.27000E+04
         0.27000E+04
         0.27000E+04
         0.27000E+04
         0.27000E+04
         0.27000E+04
         0.27000E+04
         0.27000E+04
         0.27000E+04
         0.27000E+04
         0.27000E+04
         0.27000E+04
         0.27000E+04
         0.27000E+04
         0.27000E+04
         0.27000E+04
         0.27000E+04
         0.27000E+04
         0.27000E+04
         0.27000E+04
         0.27000E+04
         0.27000E+04
         0.27000E+04
         0.27000E+04
         0.27000E+04
         0.27000E+04
         0.27000E+04
         0.27000E+04
         0.27000E+04
         0.27000E+04
         0.27000E+04
         0.27000E+04
         0.27000E+04
         0.27000E+04
         0.27000E+04
         0.27000E+04
         0.27000E+04
         0.27000E+04
         0.27000E+04
         0.27000E+04
         0.27000E+04
         0.27000E+04
         0.27000E+04
         0.27000E+04
         0.27000E+04
         0.27000E+04
         0.27000E+04
         0.27000E+04
         0.27000E+04
         0.27000E+04
         0.27000E+04
         0.27000E+04
         0.27000E+04
         0.27000E+04
         0.27000E+04
         0.27000E+04
         0.27000E+04
         0.27000E+04
         0.27000E+04
         0.27000E+04
         0.27000E+04
         0.27000E+04
         0.27000E+04
         0.27000E+04
         0.27000E+04
         0.27000E+04
         0.27000E+04
         0.27000E+04
         0.27000E+04
         0.27000E+04
         0.27000E+04
         0.27000E+04
         0.27000E+04
         0.27000E+04
         0.27000E+04
         0.27000E+04
         0.27000E+04
         0.27000E+04
         0.27000E+04
         0.27000E+04
         0.27000E+04
         0.27000E+04
         0.27000E+04
         0.27000E+04
         0.27000E+04
         0.27000E+04
         0.27000E+04
         0.27000E+04
         0.27000E+04
         0.27000E+04
         0.27000E+04
         0.27000E+04
         0.27000E+04
         0.27000E+04
         0.27000E+04
         0.27000E+04
         0.27000E+04
         0.27000E+04
         0.27000E+04
         0.27000E+04
         0.27000E+04
         0.27000E+04
         0.27000E+04
         0.27000E+04
         0.27000E+04
         0.27000E+04
         0.27000E+04
         0.27000E+04
         0.27000E+04
         0.27000E+04
         0.27000E+04
         0.27000E+04
         0.27000E+04
         0.27000E+04
         0.27000E+04
         0.27000E+04
         0.27000E+04
         0.27000E+04
         0.27000E+04
         0.27000E+04
         0.27000E+04
         0.27000E+04
         0.27000E+04
         0.27000E+04
         0.27000E+04
         0.27000E+04
         0.27000E+04
         0.27000E+04
         0.27000E+04
         0.27000E+04
         0.27000E+04
         0.27000E+04
         0.27000E+04
         0.27000E+04
         0.27000E+04
         0.27000E+04
         0.27000E+04
         0.27000E+04
         0.27000E+04
         0.27000E+04
         0.27000E+04
         0.27000E+04
         0.27000E+04
         0.27000E+04
         0.27000E+04
         0.27000E+04
         0.27000E+04
         0.27000E+04
         0.27000E+04
         0.27000E+04
         0.27000E+04
         0.27000E+04
         0.27000E+04
         0.27000E+04
         0.27000E+04
         0.27000E+04
         0.27000E+04
         0.27000E+04
         0.27000E+04
         0.27000E+04
         0.27000E+04
         0.27000E+04
         0.27000E+04
         0.27000E+04
         0.27000E+04
         0.27000E+04
         0.27000E+04
         0.27000E+04
         0.27000E+04
         0.27000E+04
         0.27000E+04
         0.27000E+04
         0.27000E+04
         0.27000E+04
         0.27000E+04
         0.27000E+04
         0.27000E+04
         0.27000E+04
         0.27000E+04
         0.27000E+04
         0.27000E+04
         0.27000E+04
         0.27000E+04
         0.27000E+04
         0.27000E+04
         0.27000E+04
         0.27000E+04
         0.27000E+04
         0.27000E+04
         0.27000E+04
         0.27000E+04
         0.27000E+04
         0.27000E+04
         0.27000E+04
         0.27000E+04
         0.27000E+04
         0.27000E+04
         0.27000E+04
         0.27000E+04
         0.27000E+04
         0.27000E+04
         0.27000E+04
         0.27000E+04
         0.27000E+04
         0.27000E+04
         0.27000E+04
         0.27000E+04
         0.27000E+04
         0.27000E+04
         0.27000E+04
         0.27000E+04
         0.27000E+04
         0.27000E+04
         0.27000E+04
         0.27000E+04
         0.27000E+04
         0.27000E+04
         0.27000E+04
         0.27000E+04
         0.27000E+04
         0.27000E+04
         0.27000E+04
         0.27000E+04
         0.27000E+04
         0.27000E+04
         0.27000E+04
         0.27000E+04
         0.27000E+04
         0.27000E+04
         0.27000E+04
         0.27000E+04
         0.27000E+04
         0.27000E+04
         0.27000E+04
         0.27000E+04
         0.27000E+04
         0.27000E+04
         0.27000E+04
         0.27000E+04
         0.27000E+04
         0.27000E+04
         0.27000E+04
         0.27000E+04
         0.27000E+04
         0.27000E+04
         0.27000E+04
         0.27000E+04
         0.27000E+04
         0.27000E+04
         0.27000E+04
         0.27000E+04
         0.27000E+04
         0.27000E+04
         0.27000E+04
         0.27000E+04
         0.27000E+04
         0.27000E+04
         0.27000E+04
         0.27000E+04
         0.27000E+04
         0.27000E+04
         0.27000E+04
         0.27000E+04
         0.27000E+04
         0.27000E+04
         0.27000E+04
         0.27000E+04
         0.27000E+04
         0.27000E+04
         0.27000E+04
         0.27000E+04
         0.27000E+04
         0.27000E+04
         0.27000E+04
         0.27000E+04
         0.27000E+04
         0.27000E+04
         0.27000E+04
         0.27000E+04
         0.27000E+04
         0.27000E+04
         0.27000E+04
         0.27000E+04
         0.27000E+04
         0.27000E+04
         0.27000E+04
         0.27000E+04
         0.27000E+04
         0.27000E+04
         0.27000E+04
         0.27000E+04
         0.27000E+04
         0.27000E+04
         0.27000E+04
         0.27000E+04
         0.27000E+04
         0.27000E+04
         0.27000E+04
         0.27000E+04
         0.27000E+04
         0.27000E+04
         0.27000E+04
         0.27000E+04
         0.27000E+04
         0.27000E+04
         0.27000E+04
         0.27000E+04
         0.27000E+04
         0.27000E+04
         0.27000E+04
         0.27000E+04
         0.27000E+04
         0.27000E+04
         0.27000E+04
         0.27000E+04
         0.27000E+04
         0.27000E+04
         0.27000E+04
         0.27000E+04
         0.27000E+04
         0.27000E+04
         0.27000E+04
         0.27000E+04
         0.27000E+04
         0.27000E+04
         0.27000E+04
         0.27000E+04
         0.27000E+04
         0.27000E+04
         0.27000E+04
         0.27000E+04
         0.27000E+04
         0.27000E+04
         0.27000E+04
         0.27000E+04
         0.27000E+04
         0.27000E+04
         0.27000E+04
         0.27000E+04
         0.27000E+04
         0.27000E+04
         0.27000E+04
         0.27000E+04
         0.27000E+04
         0.27000E+04
         0.27000E+04
         0.27000E+04
         0.27000E+04
         0.27000E+04
         0.27000E+04
         0.27000E+04
         0.27000E+04
         0.27000E+04
         0.27000E+04
         0.27000E+04
         0.27000E+04
         0.27000E+04
         0.27000E+04
         0.27000E+04
         0.27000E+04
         0.27000E+04
         0.27000E+04
         0.27000E+04
         0.27000E+04
         0.27000E+04
         0.27000E+04
         0.27000E+04
         0.27000E+04
         0.27000E+04
         0.27000E+04
         0.27000E+04
         0.27000E+04
         0.27000E+04
         0.27000E+04
         0.27000E+04
         0.27000E+04
         0.27000E+04
         0.27000E+04
         0.27000E+04
         0.27000E+04
         0.27000E+04
         0.27000E+04
         0.27000E+04
         0.27000E+04
         0.27000E+04
         0.27000E+04
         0.27000E+04
         0.27000E+04
         0.27000E+04
         0.27000E+04
         0.27000E+04
         0.27000E+04
         0.27000E+04
         0.27000E+04
         0.27000E+04
         0.27000E+04
         0.27000E+04
         0.27000E+04
         0.27000E+04
         0.27000E+04
         0.27000E+04
         0.27000E+04
         0.27000E+04
         0.27000E+04
         0.27000E+04
         0.27000E+04
         0.27000E+04
         0.27000E+04
         0.27000E+04
         0.27000E+04
         0.27000E+04
         0.27000E+04
         0.27000E+04
         0.27000E+04
         0.27000E+04
         0.27000E+04
         0.27000E+04
         0.27000E+04
         0.27000E+04
         0.27000E+04
         0.27000E+04
         0.27000E+04
         0.27000E+04
         0.27000E+04
         0.27000E+04
         0.27000E+04
         0.27000E+04
         0.27000E+04
         0.27000E+04
         0.27000E+04
         0.27000E+04
         0.27000E+04
         0.27000E+04
         0.27000E+04
         0.27000E+04
         0.27000E+04
         0.27000E+04
         0.27000E+04
         0.27000E+04
         0.27000E+04
         0.27000E+04
         0.27000E+04
         0.27000E+04
         0.27000E+04
         0.27000E+04
         0.27000E+04
         0.27000E+04
         0.27000E+04
         0.27000E+04
         0.27000E+04
         0.27000E+04
         0.27000E+04
         0.27000E+04
         0.27000E+04
         0.27000E+04
         0.27000E+04
         0.27000E+04
         0.27000E+04
         0.27000E+04
         0.27000E+04
         0.27000E+04
         0.27000E+04
         0.27000E+04
         0.27000E+04
         0.27000E+04
         0.27000E+04
         0.27000E+04
         0.27000E+04
         0.27000E+04
         0.27000E+04
         0.27000E+04
         0.27000E+04
         0.27000E+04
         0.27000E+04
         0.27000E+04
         0.27000E+04
         0.27000E+04
         0.27000E+04
         0.27000E+04
         0.27000E+04
         0.27000E+04
         0.27000E+04
         0.27000E+04
         0.27000E+04
         0.27000E+04
         0.27000E+04
         0.27000E+04
         0.27000E+04
         0.27000E+04
         0.27000E+04
         0.27000E+04
         0.27000E+04
         0.27000E+04
         0.27000E+04
         0.27000E+04
         0.27000E+04
         0.27000E+04
         0.27000E+04
         0.27000E+04
         0.27000E+04
         0.27000E+04
         0.27000E+04
         0.27000E+04
         0.27000E+04
         0.27000E+04
         0.27000E+04
         0.27000E+04
         0.27000E+04
         0.27000E+04
         0.27000E+04
         0.27000E+04
         0.27000E+04
         0.27000E+04
         0.27000E+04
         0.27000E+04
         0.27000E+04
         0.27000E+04
         0.27000E+04
         0.27000E+04
         0.27000E+04
         0.27000E+04
         0.27000E+04
         0.27000E+04
         0.27000E+04
         0.27000E+04
         0.27000E+04
         0.27000E+04
         0.27000E+04
         0.27000E+04
         0.27000E+04
         0.27000E+04
         0.27000E+04
         0.27000E+04
         0.27000E+04
         0.27000E+04
         0.27000E+04
         0.27000E+04
         0.27000E+04
         0.27000E+04
         0.27000E+04
         0.27000E+04
         0.27000E+04
         0.27000E+04
         0.27000E+04
         0.27000E+04
         0.27000E+04
         0.27000E+04
         0.27000E+04
         0.27000E+04
         0.27000E+04
         0.27000E+04
         0.27000E+04
         0.27000E+04
         0.27000E+04
         0.27000E+04
         0.27000E+04
         0.27000E+04
         0.27000E+04
         0.27000E+04
         0.27000E+04
         0.27000E+04
         0.27000E+04
         0.27000E+04
         0.27000E+04
         0.27000E+04
         0.27000E+04
         0.27000E+04
         0.27000E+04
         0.27000E+04
         0.27000E+04
         0.27000E+04
         0.27000E+04
         0.27000E+04
         0.27000E+04
         0.27000E+04
         0.27000E+04
         0.27000E+04
         0.27000E+04
         0.27000E+04
         0.27000E+04
         0.27000E+04
         0.27000E+04
         0.27000E+04
         0.27000E+04
         0.27000E+04
         0.27000E+04
         0.27000E+04
         0.27000E+04
         0.27000E+04
         0.27000E+04
         0.27000E+04
         0.27000E+04
         0.27000E+04
         0.27000E+04
         0.27000E+04
         0.27000E+04
         0.27000E+04
         0.27000E+04
         0.27000E+04
         0.27000E+04
         0.27000E+04
         0.27000E+04
         0.27000E+04
         0.27000E+04
         0.27000E+04
         0.27000E+04
         0.27000E+04
         0.27000E+04
         0.27000E+04
         0.27000E+04
         0.27000E+04
         0.27000E+04
         0.27000E+04
         0.27000E+04
         0.27000E+04
         0.27000E+04
         0.27000E+04
         0.27000E+04
         0.27000E+04
         0.27000E+04
         0.27000E+04
         0.27000E+04
         0.27000E+04
         0.27000E+04
         0.27000E+04
         0.27000E+04
         0.27000E+04
         0.27000E+04
         0.27000E+04
         0.27000E+04
         0.27000E+04
         0.27000E+04
         0.27000E+04
         0.27000E+04
         0.27000E+04
         0.27000E+04
         0.27000E+04
         0.27000E+04
         0.27000E+04
         0.27000E+04
         0.27000E+04
         0.27000E+04
         0.27000E+04
         0.27000E+04
         0.27000E+04
         0.27000E+04
         0.27000E+04
         0.27000E+04
         0.27000E+04
         0.27000E+04
         0.27000E+04
         0.27000E+04
         0.27000E+04
         0.27000E+04
         0.27000E+04
         0.27000E+04
         0.27000E+04
         0.27000E+04
         0.27000E+04
         0.27000E+04
         0.27000E+04
         0.27000E+04
         0.27000E+04
         0.27000E+04
         0.27000E+04
         0.27000E+04
         0.27000E+04
         0.27000E+04
         0.27000E+04
         0.27000E+04
         0.27000E+04
         0.27000E+04
         0.27000E+04
         0.27000E+04
         0.27000E+04
         0.27000E+04
         0.27000E+04
         0.27000E+04
         0.27000E+04
         0.27000E+04
         0.27000E+04
         0.27000E+04
         0.27000E+04
         0.27000E+04
         0.27000E+04
         0.27000E+04
         0.27000E+04
         0.27000E+04
         0.27000E+04
         0.27000E+04
         0.27000E+04
         0.27000E+04
         0.27000E+04
         0.27000E+04
         0.27000E+04
         0.27000E+04
         0.27000E+04
         0.27000E+04
         0.27000E+04
         0.27000E+04
         0.27000E+04
         0.27000E+04
         0.27000E+04
         0.27000E+04
         0.27000E+04
         0.27000E+04
         0.27000E+04
         0.27000E+04
         0.27000E+04
         0.27000E+04
         0.27000E+04
         0.27000E+04
         0.27000E+04
         0.27000E+04
         0.27000E+04
         0.27000E+04
         0.27000E+04
         0.27000E+04
         0.27000E+04
         0.27000E+04
         0.27000E+04
         0.27000E+04
         0.27000E+04
         0.27000E+04
         0.27000E+04
         0.27000E+04
         0.27000E+04
         0.27000E+04
         0.27000E+04
         0.27000E+04
         0.27000E+04
         0.27000E+04
         0.27000E+04
         0.27000E+04
         0.27000E+04
         0.27000E+04
         0.27000E+04
         0.27000E+04
         0.27000E+04
         0.27000E+04
         0.27000E+04
         0.27000E+04
         0.27000E+04
         0.27000E+04
         0.27000E+04
         0.27000E+04
         0.27000E+04
         0.27000E+04
         0.27000E+04
         0.27000E+04
         0.27000E+04
         0.27000E+04
         0.27000E+04
         0.27000E+04
         0.27000E+04
         0.27000E+04
         0.27000E+04
         0.27000E+04
         0.27000E+04
         0.27000E+04
         0.27000E+04
         0.27000E+04
         0.27000E+04
         0.27000E+04
         0.27000E+04
         0.27000E+04
         0.27000E+04
         0.27000E+04
         0.27000E+04
         0.27000E+04
         0.27000E+04
         0.27000E+04
         0.27000E+04
         0.27000E+04
         0.27000E+04
         0.27000E+04
         0.27000E+04
         0.27000E+04
         0.27000E+04
         0.27000E+04
         0.27000E+04
         0.27000E+04
         0.27000E+04
         0.27000E+04
         0.27000E+04
         0.27000E+04
         0.27000E+04
         0.27000E+04
         0.27000E+04
         0.27000E+04
         0.27000E+04
         0.27000E+04
         0.27000E+04
         0.27000E+04
         0.27000E+04
         0.27000E+04
         0.27000E+04
         0.27000E+04
         0.27000E+04
         0.27000E+04
         0.27000E+04
         0.27000E+04
         0.27000E+04
         0.27000E+04
         0.27000E+04
         0.27000E+04
         0.27000E+04
         0.27000E+04
         0.27000E+04
         0.27000E+04
         0.27000E+04
         0.27000E+04
         0.27000E+04
         0.27000E+04
         0.27000E+04
         0.27000E+04
         0.27000E+04
         0.27000E+04
         0.27000E+04
         0.27000E+04
         0.27000E+04
         0.27000E+04
         0.27000E+04
         0.27000E+04
         0.27000E+04
         0.27000E+04
         0.27000E+04
         0.27000E+04
         0.27000E+04
         0.27000E+04
         0.27000E+04
         0.27000E+04
         0.27000E+04
         0.27000E+04
         0.27000E+04
         0.27000E+04
         0.27000E+04
         0.27000E+04
         0.27000E+04
         0.27000E+04
         0.27000E+04
         0.27000E+04
         0.27000E+04
         0.27000E+04
         0.27000E+04
         0.27000E+04
         0.27000E+04
         0.27000E+04
         0.27000E+04
         0.27000E+04
         0.27000E+04
         0.27000E+04
         0.27000E+04
         0.27000E+04
         0.27000E+04
         0.27000E+04
         0.27000E+04
         0.27000E+04
         0.27000E+04
         0.27000E+04
         0.27000E+04
         0.27000E+04
         0.27000E+04
         0.27000E+04
         0.27000E+04
         0.27000E+04
         0.27000E+04
         0.27000E+04
         0.27000E+04
         0.27000E+04
         0.27000E+04
         0.27000E+04
         0.27000E+04
         0.27000E+04
         0.27000E+04
         0.27000E+04
         0.27000E+04
         0.27000E+04
         0.27000E+04
         0.27000E+04
         0.27000E+04
         0.27000E+04
         0.27000E+04
         0.27000E+04
         0.27000E+04
         0.27000E+04
         0.27000E+04
         0.27000E+04
         0.27000E+04
         0.27000E+04
         0.27000E+04
         0.27000E+04
         0.27000E+04
         0.27000E+04
         0.27000E+04
         0.27000E+04
         0.27000E+04
         0.27000E+04
         0.27000E+04
         0.27000E+04
         0.27000E+04
         0.27000E+04
         0.27000E+04
         0.27000E+04
         0.27000E+04
         0.27000E+04
         0.27000E+04
         0.27000E+04
         0.27000E+04
         0.27000E+04
         0.27000E+04
         0.27000E+04
         0.27000E+04
         0.27000E+04
         0.27000E+04
         0.27000E+04
         0.27000E+04
         0.27000E+04
         0.27000E+04
         0.27000E+04
         0.27000E+04
         0.27000E+04
         0.27000E+04
         0.27000E+04
         0.27000E+04
         0.27000E+04
         0.27000E+04
         0.27000E+04
         0.27000E+04
         0.27000E+04
         0.27000E+04
         0.27000E+04
         0.27000E+04
         0.27000E+04
         0.27000E+04
         0.27000E+04
         0.27000E+04
         0.27000E+04
         0.27000E+04
         0.27000E+04
         0.27000E+04
         0.27000E+04
         0.27000E+04
         0.27000E+04
         0.27000E+04
         0.27000E+04
         0.27000E+04
         0.27000E+04
         0.27000E+04
         0.27000E+04
         0.27000E+04
         0.27000E+04
         0.27000E+04
         0.27000E+04
         0.27000E+04
         0.27000E+04
         0.27000E+04
         0.27000E+04
         0.27000E+04
         0.27000E+04
         0.27000E+04
         0.27000E+04
         0.27000E+04
         0.27000E+04
         0.27000E+04
         0.27000E+04
         0.27000E+04
         0.27000E+04
         0.27000E+04
         0.27000E+04
         0.27000E+04
         0.27000E+04
         0.27000E+04
         0.27000E+04
         0.27000E+04
         0.27000E+04
         0.27000E+04
         0.27000E+04
         0.27000E+04
         0.27000E+04
         0.27000E+04
         0.27000E+04
         0.27000E+04
         0.27000E+04
         0.27000E+04
         0.27000E+04
         0.27000E+04
         0.27000E+04
         0.27000E+04
         0.27000E+04
         0.27000E+04
         0.27000E+04
         0.27000E+04
         0.27000E+04
         0.27000E+04
         0.27000E+04
         0.27000E+04
         0.27000E+04
         0.27000E+04
         0.27000E+04
         0.27000E+04
         0.27000E+04
         0.27000E+04
         0.27000E+04
         0.27000E+04
         0.27000E+04
         0.27000E+04
         0.27000E+04
         0.27000E+04
         0.27000E+04
         0.27000E+04
         0.27000E+04
         0.27000E+04
         0.27000E+04
         0.27000E+04
         0.27000E+04
         0.27000E+04
         0.27000E+04
         0.27000E+04
         0.27000E+04
         0.27000E+04
         0.27000E+04
         0.27000E+04
         0.27000E+04
         0.27000E+04
         0.27000E+04
         0.27000E+04
         0.27000E+04
         0.27000E+04
