# vtk DataFile Version 2.0
               (MEGA VTK FILE)
ASCII
DATASET UNSTRUCTURED_GRID
POINTS       1950    double
  0.10378E-02  0.67292E-03 -0.13708E-01
  0.17452E-02  0.12308E-02 -0.13703E-01
  0.23177E-02  0.59151E-03 -0.13702E-01
  0.16698E-02 -0.33775E-03 -0.13711E-01
  0.10379E-02  0.67237E-03 -0.11750E-01
  0.17453E-02  0.12301E-02 -0.11750E-01
  0.23178E-02  0.59098E-03 -0.11750E-01
  0.16700E-02 -0.33851E-03 -0.11750E-01
  0.30377E-02  0.14882E-03 -0.13694E-01
  0.27791E-02 -0.67643E-03 -0.13704E-01
  0.30377E-02  0.14846E-03 -0.11750E-01
  0.27788E-02 -0.67692E-03 -0.11750E-01
  0.12850E-02  0.18412E-02 -0.13698E-01
  0.65139E-03  0.14576E-02 -0.13705E-01
  0.12851E-02  0.18410E-02 -0.11750E-01
  0.65164E-03  0.14566E-02 -0.11750E-01
  0.12757E-03  0.29933E-03 -0.13708E-01
 -0.12822E-03  0.11672E-02 -0.13710E-01
  0.12783E-03  0.29819E-03 -0.11750E-01
 -0.12804E-03  0.11655E-02 -0.11750E-01
  0.94500E-03  0.22748E-02 -0.13695E-01
  0.11327E-02  0.28286E-02 -0.13691E-01
  0.17490E-02  0.24238E-02 -0.13693E-01
  0.94533E-03  0.22746E-02 -0.11750E-01
  0.11330E-02  0.28291E-02 -0.11750E-01
  0.17494E-02  0.24236E-02 -0.11750E-01
  0.40588E-03  0.21685E-02 -0.13703E-01
  0.39779E-03  0.29366E-02 -0.13700E-01
  0.40594E-03  0.21684E-02 -0.11750E-01
  0.39781E-03  0.29369E-02 -0.11750E-01
 -0.76303E-03 -0.10033E-02 -0.13712E-01
 -0.86604E-03  0.78969E-04 -0.13714E-01
  0.46119E-03 -0.70318E-03 -0.13710E-01
 -0.76268E-03 -0.10032E-02 -0.11750E-01
 -0.86593E-03  0.78160E-04 -0.11750E-01
  0.46164E-03 -0.70391E-03 -0.11750E-01
 -0.18300E-02 -0.71196E-03 -0.13703E-01
 -0.18440E-02  0.82749E-04 -0.13712E-01
 -0.18297E-02 -0.71210E-03 -0.11750E-01
 -0.18441E-02  0.82626E-04 -0.11750E-01
 -0.27238E-02 -0.77865E-03 -0.13700E-01
 -0.28028E-02  0.40713E-04 -0.13708E-01
 -0.27238E-02 -0.77882E-03 -0.11750E-01
 -0.28031E-02  0.40439E-04 -0.11750E-01
 -0.25365E-02 -0.15195E-02 -0.13693E-01
 -0.19287E-02 -0.13230E-02 -0.13696E-01
 -0.25363E-02 -0.15195E-02 -0.11750E-01
 -0.19283E-02 -0.13231E-02 -0.11750E-01
 -0.99363E-03  0.98847E-03 -0.13715E-01
 -0.99377E-03  0.98712E-03 -0.11750E-01
 -0.14380E-02 -0.17325E-02 -0.13701E-01
 -0.14377E-02 -0.17325E-02 -0.11750E-01
 -0.31574E-03  0.20220E-02 -0.13711E-01
 -0.31594E-03  0.20217E-02 -0.11750E-01
 -0.11068E-02  0.18615E-02 -0.13714E-01
 -0.11071E-02  0.18616E-02 -0.11750E-01
 -0.18845E-02  0.17175E-02 -0.13706E-01
 -0.18713E-02  0.90940E-03 -0.13713E-01
 -0.18846E-02  0.17175E-02 -0.11750E-01
 -0.18714E-02  0.90916E-03 -0.11750E-01
 -0.15871E-03 -0.19800E-02 -0.13710E-01
 -0.94089E-03 -0.23489E-02 -0.13701E-01
 -0.15844E-03 -0.19800E-02 -0.11750E-01
 -0.94029E-03 -0.23489E-02 -0.11750E-01
  0.78856E-03 -0.17074E-02 -0.13709E-01
  0.78922E-03 -0.17074E-02 -0.11750E-01
  0.17211E-02 -0.14894E-02 -0.13706E-01
  0.17211E-02 -0.14892E-02 -0.11750E-01
  0.32050E-02  0.76036E-03 -0.13681E-01
  0.28046E-02  0.12477E-02 -0.13691E-01
  0.32047E-02  0.75936E-03 -0.11750E-01
  0.28047E-02  0.12473E-02 -0.11750E-01
  0.23059E-02  0.18665E-02 -0.13695E-01
  0.23060E-02  0.18664E-02 -0.11750E-01
 -0.40614E-03  0.29038E-02 -0.13706E-01
 -0.40627E-03  0.29049E-02 -0.11750E-01
 -0.12092E-02  0.27207E-02 -0.13705E-01
 -0.12092E-02  0.27212E-02 -0.11750E-01
 -0.19448E-02  0.24642E-02 -0.13695E-01
 -0.19448E-02  0.24645E-02 -0.11750E-01
 -0.25029E-02  0.22359E-02 -0.13684E-01
 -0.26371E-02  0.16503E-02 -0.13698E-01
 -0.25029E-02  0.22359E-02 -0.11750E-01
 -0.26372E-02  0.16503E-02 -0.11750E-01
 -0.27671E-02  0.87493E-03 -0.13709E-01
 -0.27674E-02  0.87466E-03 -0.11750E-01
 -0.21123E-02 -0.21373E-02 -0.13693E-01
 -0.21122E-02 -0.21373E-02 -0.11750E-01
 -0.16087E-02 -0.26931E-02 -0.13689E-01
 -0.16087E-02 -0.26931E-02 -0.11750E-01
 -0.11939E-02 -0.31291E-02 -0.13680E-01
 -0.58641E-03 -0.30382E-02 -0.13693E-01
 -0.11937E-02 -0.31291E-02 -0.11750E-01
 -0.58606E-03 -0.30382E-02 -0.11750E-01
  0.20912E-03 -0.28748E-02 -0.13702E-01
  0.20952E-03 -0.28748E-02 -0.11750E-01
  0.10586E-02 -0.26423E-02 -0.13701E-01
  0.10589E-02 -0.26420E-02 -0.11750E-01
  0.18413E-02 -0.23707E-02 -0.13694E-01
  0.18413E-02 -0.23705E-02 -0.11750E-01
  0.24544E-02 -0.21445E-02 -0.13683E-01
  0.26022E-02 -0.15105E-02 -0.13695E-01
  0.24543E-02 -0.21439E-02 -0.11750E-01
  0.26021E-02 -0.15106E-02 -0.11750E-01
  0.37964E-02  0.93572E-03 -0.13653E-01
  0.39100E-02  0.00000E+00 -0.13657E-01
  0.37964E-02  0.93572E-03 -0.11750E-01
  0.39100E-02  0.00000E+00 -0.11750E-01
  0.34621E-02  0.18171E-02 -0.13657E-01
  0.34621E-02  0.18171E-02 -0.11750E-01
  0.29267E-02  0.25928E-02 -0.13653E-01
  0.29267E-02  0.25928E-02 -0.11750E-01
  0.22211E-02  0.32179E-02 -0.13654E-01
  0.22211E-02  0.32179E-02 -0.11750E-01
  0.13865E-02  0.36559E-02 -0.13653E-01
  0.13865E-02  0.36559E-02 -0.11750E-01
  0.47130E-03  0.38815E-02 -0.13656E-01
  0.47130E-03  0.38815E-02 -0.11750E-01
 -0.47130E-03  0.38815E-02 -0.13657E-01
 -0.47130E-03  0.38815E-02 -0.11750E-01
 -0.13865E-02  0.36559E-02 -0.13657E-01
 -0.13865E-02  0.36559E-02 -0.11750E-01
 -0.22211E-02  0.32179E-02 -0.13656E-01
 -0.22211E-02  0.32179E-02 -0.11750E-01
 -0.29267E-02  0.25928E-02 -0.13652E-01
 -0.29267E-02  0.25928E-02 -0.11750E-01
 -0.34621E-02  0.18171E-02 -0.13657E-01
 -0.34621E-02  0.18171E-02 -0.11750E-01
 -0.37964E-02  0.93572E-03 -0.13659E-01
 -0.37964E-02  0.93572E-03 -0.11750E-01
 -0.39100E-02  0.22152E-17 -0.13659E-01
 -0.39100E-02 -0.47884E-18 -0.11750E-01
 -0.37964E-02 -0.93572E-03 -0.13656E-01
 -0.37964E-02 -0.93572E-03 -0.11750E-01
 -0.34621E-02 -0.18171E-02 -0.13654E-01
 -0.34621E-02 -0.18171E-02 -0.11750E-01
 -0.29267E-02 -0.25928E-02 -0.13653E-01
 -0.29267E-02 -0.25928E-02 -0.11750E-01
 -0.22211E-02 -0.32179E-02 -0.13657E-01
 -0.22211E-02 -0.32179E-02 -0.11750E-01
 -0.13865E-02 -0.36559E-02 -0.13653E-01
 -0.13865E-02 -0.36559E-02 -0.11750E-01
 -0.47130E-03 -0.38815E-02 -0.13658E-01
 -0.47130E-03 -0.38815E-02 -0.11750E-01
  0.47130E-03 -0.38815E-02 -0.13656E-01
  0.47130E-03 -0.38815E-02 -0.11750E-01
  0.13865E-02 -0.36559E-02 -0.13655E-01
  0.13865E-02 -0.36559E-02 -0.11750E-01
  0.22211E-02 -0.32179E-02 -0.13658E-01
  0.22211E-02 -0.32179E-02 -0.11750E-01
  0.29267E-02 -0.25928E-02 -0.13654E-01
  0.29267E-02 -0.25928E-02 -0.11750E-01
  0.34621E-02 -0.18171E-02 -0.13658E-01
  0.34621E-02 -0.18171E-02 -0.11750E-01
  0.37964E-02 -0.93572E-03 -0.13658E-01
  0.37964E-02 -0.93572E-03 -0.11750E-01
  0.10376E-02  0.67348E-03 -0.13931E-01
  0.17450E-02  0.12314E-02 -0.13931E-01
  0.23175E-02  0.59203E-03 -0.13930E-01
  0.16696E-02 -0.33700E-03 -0.13932E-01
  0.30377E-02  0.14918E-03 -0.13929E-01
  0.27795E-02 -0.67594E-03 -0.13931E-01
  0.12849E-02  0.18414E-02 -0.13930E-01
  0.65115E-03  0.14586E-02 -0.13931E-01
  0.12731E-03  0.30048E-03 -0.13932E-01
 -0.12841E-03  0.11690E-02 -0.13932E-01
  0.94467E-03  0.22749E-02 -0.13929E-01
  0.11323E-02  0.28282E-02 -0.13929E-01
  0.17487E-02  0.24239E-02 -0.13929E-01
  0.40583E-03  0.21685E-02 -0.13931E-01
  0.39777E-03  0.29364E-02 -0.13930E-01
 -0.76338E-03 -0.10035E-02 -0.13932E-01
 -0.86615E-03  0.79778E-04 -0.13932E-01
  0.46074E-03 -0.70245E-03 -0.13932E-01
 -0.18303E-02 -0.71182E-03 -0.13931E-01
 -0.18439E-02  0.82873E-04 -0.13932E-01
 -0.27238E-02 -0.77848E-03 -0.13930E-01
 -0.28025E-02  0.40986E-04 -0.13931E-01
 -0.25366E-02 -0.15194E-02 -0.13929E-01
 -0.19292E-02 -0.13228E-02 -0.13930E-01
 -0.99349E-03  0.98983E-03 -0.13932E-01
 -0.14384E-02 -0.17324E-02 -0.13930E-01
 -0.31554E-03  0.20223E-02 -0.13932E-01
 -0.11064E-02  0.18614E-02 -0.13932E-01
 -0.18845E-02  0.17175E-02 -0.13931E-01
 -0.18712E-02  0.90964E-03 -0.13932E-01
 -0.15899E-03 -0.19800E-02 -0.13932E-01
 -0.94149E-03 -0.23489E-02 -0.13930E-01
  0.78790E-03 -0.17074E-02 -0.13932E-01
  0.17210E-02 -0.14896E-02 -0.13931E-01
  0.32053E-02  0.76137E-03 -0.13927E-01
  0.28046E-02  0.12481E-02 -0.13929E-01
  0.23058E-02  0.18665E-02 -0.13929E-01
 -0.40600E-03  0.29027E-02 -0.13931E-01
 -0.12092E-02  0.27202E-02 -0.13931E-01
 -0.19447E-02  0.24640E-02 -0.13929E-01
 -0.25028E-02  0.22359E-02 -0.13928E-01
 -0.26370E-02  0.16503E-02 -0.13930E-01
 -0.27668E-02  0.87519E-03 -0.13932E-01
 -0.21125E-02 -0.21373E-02 -0.13929E-01
 -0.16088E-02 -0.26932E-02 -0.13928E-01
 -0.11940E-02 -0.31291E-02 -0.13927E-01
 -0.58676E-03 -0.30382E-02 -0.13929E-01
  0.20871E-03 -0.28748E-02 -0.13930E-01
  0.10583E-02 -0.26426E-02 -0.13930E-01
  0.18413E-02 -0.23709E-02 -0.13929E-01
  0.24545E-02 -0.21450E-02 -0.13928E-01
  0.26022E-02 -0.15104E-02 -0.13929E-01
  0.37964E-02  0.93572E-03 -0.13924E-01
  0.39100E-02  0.00000E+00 -0.13925E-01
  0.34621E-02  0.18171E-02 -0.13925E-01
  0.29267E-02  0.25928E-02 -0.13925E-01
  0.22211E-02  0.32179E-02 -0.13925E-01
  0.13865E-02  0.36559E-02 -0.13925E-01
  0.47130E-03  0.38815E-02 -0.13925E-01
 -0.47130E-03  0.38815E-02 -0.13925E-01
 -0.13865E-02  0.36559E-02 -0.13925E-01
 -0.22211E-02  0.32179E-02 -0.13925E-01
 -0.29267E-02  0.25928E-02 -0.13924E-01
 -0.34621E-02  0.18171E-02 -0.13925E-01
 -0.37964E-02  0.93572E-03 -0.13926E-01
 -0.39100E-02 -0.47884E-18 -0.13925E-01
 -0.37964E-02 -0.93572E-03 -0.13925E-01
 -0.34621E-02 -0.18171E-02 -0.13925E-01
 -0.29267E-02 -0.25928E-02 -0.13925E-01
 -0.22211E-02 -0.32179E-02 -0.13925E-01
 -0.13865E-02 -0.36559E-02 -0.13925E-01
 -0.47130E-03 -0.38815E-02 -0.13925E-01
  0.47130E-03 -0.38815E-02 -0.13925E-01
  0.13865E-02 -0.36559E-02 -0.13925E-01
  0.22211E-02 -0.32179E-02 -0.13925E-01
  0.29267E-02 -0.25928E-02 -0.13925E-01
  0.34621E-02 -0.18171E-02 -0.13925E-01
  0.37964E-02 -0.93572E-03 -0.13925E-01
  0.10375E-02  0.67403E-03 -0.13051E-01
  0.17448E-02  0.12321E-02 -0.13051E-01
  0.23174E-02  0.59255E-03 -0.13051E-01
  0.16694E-02 -0.33624E-03 -0.13051E-01
  0.30377E-02  0.14955E-03 -0.13051E-01
  0.27798E-02 -0.67544E-03 -0.13051E-01
  0.12848E-02  0.18415E-02 -0.13051E-01
  0.65090E-03  0.14596E-02 -0.13051E-01
  0.12705E-03  0.30163E-03 -0.13051E-01
 -0.12859E-03  0.11707E-02 -0.13051E-01
  0.94434E-03  0.22750E-02 -0.13051E-01
  0.11320E-02  0.28277E-02 -0.13051E-01
  0.17483E-02  0.24241E-02 -0.13051E-01
  0.40577E-03  0.21685E-02 -0.13051E-01
  0.39776E-03  0.29361E-02 -0.13051E-01
 -0.76374E-03 -0.10036E-02 -0.13051E-01
 -0.86626E-03  0.80588E-04 -0.13051E-01
  0.46029E-03 -0.70173E-03 -0.13051E-01
 -0.18306E-02 -0.71168E-03 -0.13051E-01
 -0.18438E-02  0.82996E-04 -0.13051E-01
 -0.27238E-02 -0.77831E-03 -0.13051E-01
 -0.28022E-02  0.41259E-04 -0.13051E-01
 -0.25368E-02 -0.15194E-02 -0.13051E-01
 -0.19296E-02 -0.13227E-02 -0.13051E-01
 -0.99334E-03  0.99119E-03 -0.13051E-01
 -0.14387E-02 -0.17324E-02 -0.13051E-01
 -0.31534E-03  0.20226E-02 -0.13051E-01
 -0.11061E-02  0.18613E-02 -0.13051E-01
 -0.18844E-02  0.17175E-02 -0.13051E-01
 -0.18710E-02  0.90988E-03 -0.13051E-01
 -0.15926E-03 -0.19801E-02 -0.13051E-01
 -0.94209E-03 -0.23490E-02 -0.13051E-01
  0.78724E-03 -0.17074E-02 -0.13051E-01
  0.17210E-02 -0.14899E-02 -0.13051E-01
  0.32056E-02  0.76237E-03 -0.13051E-01
  0.28046E-02  0.12485E-02 -0.13051E-01
  0.23057E-02  0.18666E-02 -0.13051E-01
 -0.40586E-03  0.29017E-02 -0.13051E-01
 -0.12092E-02  0.27198E-02 -0.13051E-01
 -0.19447E-02  0.24638E-02 -0.13051E-01
 -0.25028E-02  0.22359E-02 -0.13051E-01
 -0.26369E-02  0.16503E-02 -0.13051E-01
 -0.27665E-02  0.87545E-03 -0.13051E-01
 -0.21126E-02 -0.21374E-02 -0.13051E-01
 -0.16088E-02 -0.26932E-02 -0.13051E-01
 -0.11941E-02 -0.31291E-02 -0.13051E-01
 -0.58711E-03 -0.30382E-02 -0.13051E-01
  0.20830E-03 -0.28748E-02 -0.13051E-01
  0.10580E-02 -0.26428E-02 -0.13051E-01
  0.18414E-02 -0.23711E-02 -0.13051E-01
  0.24546E-02 -0.21456E-02 -0.13051E-01
  0.26023E-02 -0.15103E-02 -0.13051E-01
  0.37964E-02  0.93572E-03 -0.13051E-01
  0.39100E-02  0.00000E+00 -0.13051E-01
  0.34621E-02  0.18171E-02 -0.13051E-01
  0.29267E-02  0.25928E-02 -0.13051E-01
  0.22211E-02  0.32179E-02 -0.13051E-01
  0.13865E-02  0.36559E-02 -0.13051E-01
  0.47130E-03  0.38815E-02 -0.13051E-01
 -0.47130E-03  0.38815E-02 -0.13051E-01
 -0.13865E-02  0.36559E-02 -0.13051E-01
 -0.22211E-02  0.32179E-02 -0.13051E-01
 -0.29267E-02  0.25928E-02 -0.13051E-01
 -0.34621E-02  0.18171E-02 -0.13051E-01
 -0.37964E-02  0.93572E-03 -0.13051E-01
 -0.39100E-02  0.39516E-17 -0.13051E-01
 -0.37964E-02 -0.93572E-03 -0.13051E-01
 -0.34621E-02 -0.18171E-02 -0.13051E-01
 -0.29267E-02 -0.25928E-02 -0.13051E-01
 -0.22211E-02 -0.32179E-02 -0.13051E-01
 -0.13865E-02 -0.36559E-02 -0.13051E-01
 -0.47130E-03 -0.38815E-02 -0.13051E-01
  0.47130E-03 -0.38815E-02 -0.13051E-01
  0.13865E-02 -0.36559E-02 -0.13051E-01
  0.22211E-02 -0.32179E-02 -0.13051E-01
  0.29267E-02 -0.25928E-02 -0.13051E-01
  0.34621E-02 -0.18171E-02 -0.13051E-01
  0.37964E-02 -0.93572E-03 -0.13051E-01
  0.10374E-02  0.67459E-03 -0.12072E-01
  0.17446E-02  0.12328E-02 -0.12072E-01
  0.23173E-02  0.59308E-03 -0.12072E-01
  0.16692E-02 -0.33549E-03 -0.12072E-01
  0.30376E-02  0.14991E-03 -0.12072E-01
  0.27801E-02 -0.67495E-03 -0.12072E-01
  0.12847E-02  0.18417E-02 -0.12072E-01
  0.65065E-03  0.14606E-02 -0.12072E-01
  0.12678E-03  0.30278E-03 -0.12072E-01
 -0.12878E-03  0.11725E-02 -0.12072E-01
  0.94401E-03  0.22752E-02 -0.12072E-01
  0.11316E-02  0.28273E-02 -0.12072E-01
  0.17479E-02  0.24242E-02 -0.12072E-01
  0.40572E-03  0.21686E-02 -0.12072E-01
  0.39774E-03  0.29359E-02 -0.12072E-01
 -0.76409E-03 -0.10038E-02 -0.12072E-01
 -0.86637E-03  0.81397E-04 -0.12072E-01
  0.45985E-03 -0.70100E-03 -0.12072E-01
 -0.18309E-02 -0.71154E-03 -0.12072E-01
 -0.18437E-02  0.83120E-04 -0.12072E-01
 -0.27237E-02 -0.77814E-03 -0.12072E-01
 -0.28020E-02  0.41533E-04 -0.12072E-01
 -0.25369E-02 -0.15193E-02 -0.12072E-01
 -0.19300E-02 -0.13227E-02 -0.12072E-01
 -0.99320E-03  0.99254E-03 -0.12072E-01
 -0.14391E-02 -0.17324E-02 -0.12072E-01
 -0.31514E-03  0.20228E-02 -0.12072E-01
 -0.11057E-02  0.18611E-02 -0.12072E-01
 -0.18844E-02  0.17175E-02 -0.12072E-01
 -0.18709E-02  0.91012E-03 -0.12072E-01
 -0.15954E-03 -0.19801E-02 -0.12072E-01
 -0.94269E-03 -0.23490E-02 -0.12072E-01
  0.78658E-03 -0.17074E-02 -0.12072E-01
  0.17209E-02 -0.14901E-02 -0.12072E-01
  0.32060E-02  0.76338E-03 -0.12072E-01
  0.28046E-02  0.12490E-02 -0.12072E-01
  0.23056E-02  0.18666E-02 -0.12072E-01
 -0.40572E-03  0.29006E-02 -0.12072E-01
 -0.12092E-02  0.27193E-02 -0.12072E-01
 -0.19446E-02  0.24636E-02 -0.12072E-01
 -0.25028E-02  0.22359E-02 -0.12072E-01
 -0.26368E-02  0.16503E-02 -0.12072E-01
 -0.27662E-02  0.87571E-03 -0.12072E-01
 -0.21128E-02 -0.21374E-02 -0.12072E-01
 -0.16088E-02 -0.26932E-02 -0.12072E-01
 -0.11942E-02 -0.31291E-02 -0.12072E-01
 -0.58746E-03 -0.30382E-02 -0.12072E-01
  0.20790E-03 -0.28748E-02 -0.12072E-01
  0.10577E-02 -0.26431E-02 -0.12072E-01
  0.18414E-02 -0.23713E-02 -0.12072E-01
  0.24548E-02 -0.21461E-02 -0.12072E-01
  0.26024E-02 -0.15102E-02 -0.12072E-01
  0.37964E-02  0.93572E-03 -0.12072E-01
  0.39100E-02  0.00000E+00 -0.12072E-01
  0.34621E-02  0.18171E-02 -0.12072E-01
  0.29267E-02  0.25928E-02 -0.12072E-01
  0.22211E-02  0.32179E-02 -0.12072E-01
  0.13865E-02  0.36559E-02 -0.12072E-01
  0.47130E-03  0.38815E-02 -0.12072E-01
 -0.47130E-03  0.38815E-02 -0.12072E-01
 -0.13865E-02  0.36559E-02 -0.12072E-01
 -0.22211E-02  0.32179E-02 -0.12072E-01
 -0.29267E-02  0.25928E-02 -0.12072E-01
 -0.34621E-02  0.18171E-02 -0.12072E-01
 -0.37964E-02  0.93572E-03 -0.12072E-01
 -0.39100E-02 -0.47884E-18 -0.12072E-01
 -0.37964E-02 -0.93572E-03 -0.12072E-01
 -0.34621E-02 -0.18171E-02 -0.12072E-01
 -0.29267E-02 -0.25928E-02 -0.12072E-01
 -0.22211E-02 -0.32179E-02 -0.12072E-01
 -0.13865E-02 -0.36559E-02 -0.12072E-01
 -0.47130E-03 -0.38815E-02 -0.12072E-01
  0.47130E-03 -0.38815E-02 -0.12072E-01
  0.13865E-02 -0.36559E-02 -0.12072E-01
  0.22211E-02 -0.32179E-02 -0.12072E-01
  0.29267E-02 -0.25928E-02 -0.12072E-01
  0.34621E-02 -0.18171E-02 -0.12072E-01
  0.37964E-02 -0.93572E-03 -0.12072E-01
  0.10373E-02  0.67514E-03 -0.11092E-01
  0.17445E-02  0.12334E-02 -0.11092E-01
  0.23172E-02  0.59360E-03 -0.11092E-01
  0.16689E-02 -0.33474E-03 -0.11092E-01
  0.30376E-02  0.15027E-03 -0.11092E-01
  0.27805E-02 -0.67446E-03 -0.11092E-01
  0.12846E-02  0.18419E-02 -0.11092E-01
  0.65041E-03  0.14616E-02 -0.11092E-01
  0.12652E-03  0.30393E-03 -0.11092E-01
 -0.12896E-03  0.11742E-02 -0.11092E-01
  0.94367E-03  0.22753E-02 -0.11092E-01
  0.11313E-02  0.28269E-02 -0.11092E-01
  0.17475E-02  0.24244E-02 -0.11092E-01
  0.40566E-03  0.21686E-02 -0.11092E-01
  0.39772E-03  0.29356E-02 -0.11092E-01
 -0.76444E-03 -0.10039E-02 -0.11092E-01
 -0.86648E-03  0.82206E-04 -0.11092E-01
  0.45940E-03 -0.70028E-03 -0.11092E-01
 -0.18312E-02 -0.71140E-03 -0.11092E-01
 -0.18436E-02  0.83243E-04 -0.11092E-01
 -0.27237E-02 -0.77797E-03 -0.11092E-01
 -0.28017E-02  0.41806E-04 -0.11092E-01
 -0.25371E-02 -0.15193E-02 -0.11092E-01
 -0.19305E-02 -0.13226E-02 -0.11092E-01
 -0.99305E-03  0.99390E-03 -0.11092E-01
 -0.14394E-02 -0.17323E-02 -0.11092E-01
 -0.31494E-03  0.20231E-02 -0.11092E-01
 -0.11054E-02  0.18610E-02 -0.11092E-01
 -0.18843E-02  0.17175E-02 -0.11092E-01
 -0.18708E-02  0.91036E-03 -0.11092E-01
 -0.15981E-03 -0.19801E-02 -0.11092E-01
 -0.94328E-03 -0.23490E-02 -0.11092E-01
  0.78592E-03 -0.17074E-02 -0.11092E-01
  0.17209E-02 -0.14904E-02 -0.11092E-01
  0.32063E-02  0.76439E-03 -0.11092E-01
  0.28045E-02  0.12494E-02 -0.11092E-01
  0.23055E-02  0.18666E-02 -0.11092E-01
 -0.40558E-03  0.28995E-02 -0.11092E-01
 -0.12092E-02  0.27188E-02 -0.11092E-01
 -0.19446E-02  0.24633E-02 -0.11092E-01
 -0.25027E-02  0.22359E-02 -0.11092E-01
 -0.26367E-02  0.16503E-02 -0.11092E-01
 -0.27658E-02  0.87597E-03 -0.11092E-01
 -0.21129E-02 -0.21374E-02 -0.11092E-01
 -0.16089E-02 -0.26932E-02 -0.11092E-01
 -0.11943E-02 -0.31291E-02 -0.11092E-01
 -0.58781E-03 -0.30382E-02 -0.11092E-01
  0.20749E-03 -0.28748E-02 -0.11092E-01
  0.10574E-02 -0.26434E-02 -0.11092E-01
  0.18415E-02 -0.23715E-02 -0.11092E-01
  0.24549E-02 -0.21467E-02 -0.11092E-01
  0.26025E-02 -0.15101E-02 -0.11092E-01
  0.37964E-02  0.93572E-03 -0.11092E-01
  0.39100E-02  0.00000E+00 -0.11092E-01
  0.34621E-02  0.18171E-02 -0.11092E-01
  0.29267E-02  0.25928E-02 -0.11092E-01
  0.22211E-02  0.32179E-02 -0.11092E-01
  0.13865E-02  0.36559E-02 -0.11092E-01
  0.47130E-03  0.38815E-02 -0.11092E-01
 -0.47130E-03  0.38815E-02 -0.11092E-01
 -0.13865E-02  0.36559E-02 -0.11092E-01
 -0.22211E-02  0.32179E-02 -0.11092E-01
 -0.29267E-02  0.25928E-02 -0.11092E-01
 -0.34621E-02  0.18171E-02 -0.11092E-01
 -0.37964E-02  0.93572E-03 -0.11092E-01
 -0.39100E-02 -0.47884E-18 -0.11092E-01
 -0.37964E-02 -0.93572E-03 -0.11092E-01
 -0.34621E-02 -0.18171E-02 -0.11092E-01
 -0.29267E-02 -0.25928E-02 -0.11092E-01
 -0.22211E-02 -0.32179E-02 -0.11092E-01
 -0.13865E-02 -0.36559E-02 -0.11092E-01
 -0.47130E-03 -0.38815E-02 -0.11092E-01
  0.47130E-03 -0.38815E-02 -0.11092E-01
  0.13865E-02 -0.36559E-02 -0.11092E-01
  0.22211E-02 -0.32179E-02 -0.11092E-01
  0.29267E-02 -0.25928E-02 -0.11092E-01
  0.34621E-02 -0.18171E-02 -0.11092E-01
  0.37964E-02 -0.93572E-03 -0.11092E-01
  0.10372E-02  0.67570E-03 -0.10113E-01
  0.17443E-02  0.12341E-02 -0.10113E-01
  0.23171E-02  0.59412E-03 -0.10113E-01
  0.16687E-02 -0.33398E-03 -0.10113E-01
  0.30376E-02  0.15064E-03 -0.10113E-01
  0.27808E-02 -0.67396E-03 -0.10113E-01
  0.12845E-02  0.18421E-02 -0.10113E-01
  0.65016E-03  0.14626E-02 -0.10113E-01
  0.12626E-03  0.30507E-03 -0.10113E-01
 -0.12915E-03  0.11760E-02 -0.10113E-01
  0.94334E-03  0.22754E-02 -0.10113E-01
  0.11310E-02  0.28264E-02 -0.10113E-01
  0.17471E-02  0.24245E-02 -0.10113E-01
  0.40561E-03  0.21686E-02 -0.10113E-01
  0.39770E-03  0.29353E-02 -0.10113E-01
 -0.76480E-03 -0.10040E-02 -0.10113E-01
 -0.86659E-03  0.83015E-04 -0.10113E-01
  0.45895E-03 -0.69955E-03 -0.10113E-01
 -0.18315E-02 -0.71126E-03 -0.10113E-01
 -0.18435E-02  0.83367E-04 -0.10113E-01
 -0.27237E-02 -0.77780E-03 -0.10113E-01
 -0.28014E-02  0.42080E-04 -0.10113E-01
 -0.25372E-02 -0.15192E-02 -0.10113E-01
 -0.19309E-02 -0.13224E-02 -0.10113E-01
 -0.99291E-03  0.99526E-03 -0.10113E-01
 -0.14398E-02 -0.17323E-02 -0.10113E-01
 -0.31474E-03  0.20234E-02 -0.10113E-01
 -0.11051E-02  0.18609E-02 -0.10113E-01
 -0.18843E-02  0.17175E-02 -0.10113E-01
 -0.18706E-02  0.91060E-03 -0.10113E-01
 -0.16009E-03 -0.19801E-02 -0.10113E-01
 -0.94388E-03 -0.23490E-02 -0.10113E-01
  0.78526E-03 -0.17074E-02 -0.10113E-01
  0.17208E-02 -0.14906E-02 -0.10113E-01
  0.32066E-02  0.76539E-03 -0.10113E-01
  0.28045E-02  0.12498E-02 -0.10113E-01
  0.23053E-02  0.18667E-02 -0.10113E-01
 -0.40545E-03  0.28984E-02 -0.10113E-01
 -0.12092E-02  0.27184E-02 -0.10113E-01
 -0.19446E-02  0.24631E-02 -0.10113E-01
 -0.25027E-02  0.22359E-02 -0.10113E-01
 -0.26366E-02  0.16503E-02 -0.10113E-01
 -0.27655E-02  0.87623E-03 -0.10113E-01
 -0.21130E-02 -0.21374E-02 -0.10113E-01
 -0.16089E-02 -0.26932E-02 -0.10113E-01
 -0.11944E-02 -0.31291E-02 -0.10113E-01
 -0.58816E-03 -0.30382E-02 -0.10113E-01
  0.20709E-03 -0.28748E-02 -0.10113E-01
  0.10571E-02 -0.26436E-02 -0.10113E-01
  0.18415E-02 -0.23717E-02 -0.10113E-01
  0.24550E-02 -0.21472E-02 -0.10113E-01
  0.26025E-02 -0.15100E-02 -0.10113E-01
  0.37964E-02  0.93572E-03 -0.10113E-01
  0.39100E-02  0.00000E+00 -0.10113E-01
  0.34621E-02  0.18171E-02 -0.10113E-01
  0.29267E-02  0.25928E-02 -0.10113E-01
  0.22211E-02  0.32179E-02 -0.10113E-01
  0.13865E-02  0.36559E-02 -0.10113E-01
  0.47130E-03  0.38815E-02 -0.10113E-01
 -0.47130E-03  0.38815E-02 -0.10113E-01
 -0.13865E-02  0.36559E-02 -0.10113E-01
 -0.22211E-02  0.32179E-02 -0.10113E-01
 -0.29267E-02  0.25928E-02 -0.10113E-01
 -0.34621E-02  0.18171E-02 -0.10113E-01
 -0.37964E-02  0.93572E-03 -0.10113E-01
 -0.39100E-02 -0.47884E-18 -0.10113E-01
 -0.37964E-02 -0.93572E-03 -0.10113E-01
 -0.34621E-02 -0.18171E-02 -0.10113E-01
 -0.29267E-02 -0.25928E-02 -0.10113E-01
 -0.22211E-02 -0.32179E-02 -0.10113E-01
 -0.13865E-02 -0.36559E-02 -0.10113E-01
 -0.47130E-03 -0.38815E-02 -0.10113E-01
  0.47130E-03 -0.38815E-02 -0.10113E-01
  0.13865E-02 -0.36559E-02 -0.10113E-01
  0.22211E-02 -0.32179E-02 -0.10113E-01
  0.29267E-02 -0.25928E-02 -0.10113E-01
  0.34621E-02 -0.18171E-02 -0.10113E-01
  0.37964E-02 -0.93572E-03 -0.10113E-01
  0.10371E-02  0.67625E-03 -0.91341E-02
  0.17441E-02  0.12348E-02 -0.91341E-02
  0.23169E-02  0.59465E-03 -0.91341E-02
  0.16685E-02 -0.33323E-03 -0.91341E-02
  0.30376E-02  0.15100E-03 -0.91341E-02
  0.27812E-02 -0.67347E-03 -0.91341E-02
  0.12844E-02  0.18423E-02 -0.91341E-02
  0.64992E-03  0.14636E-02 -0.91341E-02
  0.12600E-03  0.30622E-03 -0.91341E-02
 -0.12933E-03  0.11777E-02 -0.91341E-02
  0.94301E-03  0.22755E-02 -0.91341E-02
  0.11306E-02  0.28260E-02 -0.91341E-02
  0.17467E-02  0.24247E-02 -0.91341E-02
  0.40556E-03  0.21687E-02 -0.91341E-02
  0.39769E-03  0.29351E-02 -0.91341E-02
 -0.76515E-03 -0.10042E-02 -0.91341E-02
 -0.86670E-03  0.83825E-04 -0.91341E-02
  0.45850E-03 -0.69882E-03 -0.91341E-02
 -0.18318E-02 -0.71112E-03 -0.91341E-02
 -0.18434E-02  0.83490E-04 -0.91341E-02
 -0.27236E-02 -0.77763E-03 -0.91341E-02
 -0.28011E-02  0.42353E-04 -0.91341E-02
 -0.25374E-02 -0.15192E-02 -0.91341E-02
 -0.19313E-02 -0.13223E-02 -0.91341E-02
 -0.99277E-03  0.99661E-03 -0.91341E-02
 -0.14401E-02 -0.17322E-02 -0.91341E-02
 -0.31454E-03  0.20237E-02 -0.91341E-02
 -0.11047E-02  0.18607E-02 -0.91341E-02
 -0.18842E-02  0.17175E-02 -0.91341E-02
 -0.18705E-02  0.91084E-03 -0.91341E-02
 -0.16036E-03 -0.19801E-02 -0.91341E-02
 -0.94448E-03 -0.23491E-02 -0.91341E-02
  0.78460E-03 -0.17074E-02 -0.91341E-02
  0.17208E-02 -0.14909E-02 -0.91341E-02
  0.32070E-02  0.76640E-03 -0.91341E-02
  0.28045E-02  0.12503E-02 -0.91341E-02
  0.23052E-02  0.18667E-02 -0.91341E-02
 -0.40531E-03  0.28974E-02 -0.91341E-02
 -0.12092E-02  0.27179E-02 -0.91341E-02
 -0.19445E-02  0.24629E-02 -0.91341E-02
 -0.25027E-02  0.22359E-02 -0.91341E-02
 -0.26366E-02  0.16503E-02 -0.91341E-02
 -0.27652E-02  0.87650E-03 -0.91341E-02
 -0.21132E-02 -0.21374E-02 -0.91341E-02
 -0.16090E-02 -0.26933E-02 -0.91341E-02
 -0.11946E-02 -0.31291E-02 -0.91341E-02
 -0.58851E-03 -0.30382E-02 -0.91341E-02
  0.20668E-03 -0.28749E-02 -0.91341E-02
  0.10567E-02 -0.26439E-02 -0.91341E-02
  0.18416E-02 -0.23719E-02 -0.91341E-02
  0.24551E-02 -0.21478E-02 -0.91341E-02
  0.26026E-02 -0.15099E-02 -0.91341E-02
  0.37964E-02  0.93572E-03 -0.91341E-02
  0.39100E-02  0.00000E+00 -0.91341E-02
  0.34621E-02  0.18171E-02 -0.91341E-02
  0.29267E-02  0.25928E-02 -0.91341E-02
  0.22211E-02  0.32179E-02 -0.91341E-02
  0.13865E-02  0.36559E-02 -0.91341E-02
  0.47130E-03  0.38815E-02 -0.91341E-02
 -0.47130E-03  0.38815E-02 -0.91341E-02
 -0.13865E-02  0.36559E-02 -0.91341E-02
 -0.22211E-02  0.32179E-02 -0.91341E-02
 -0.29267E-02  0.25928E-02 -0.91341E-02
 -0.34621E-02  0.18171E-02 -0.91341E-02
 -0.37964E-02  0.93572E-03 -0.91341E-02
 -0.39100E-02 -0.47884E-18 -0.91341E-02
 -0.37964E-02 -0.93572E-03 -0.91341E-02
 -0.34621E-02 -0.18171E-02 -0.91341E-02
 -0.29267E-02 -0.25928E-02 -0.91341E-02
 -0.22211E-02 -0.32179E-02 -0.91341E-02
 -0.13865E-02 -0.36559E-02 -0.91341E-02
 -0.47130E-03 -0.38815E-02 -0.91341E-02
  0.47130E-03 -0.38815E-02 -0.91341E-02
  0.13865E-02 -0.36559E-02 -0.91341E-02
  0.22211E-02 -0.32179E-02 -0.91341E-02
  0.29267E-02 -0.25928E-02 -0.91341E-02
  0.34621E-02 -0.18171E-02 -0.91341E-02
  0.37964E-02 -0.93572E-03 -0.91341E-02
  0.10370E-02  0.67680E-03 -0.81549E-02
  0.17439E-02  0.12354E-02 -0.81549E-02
  0.23168E-02  0.59517E-03 -0.81549E-02
  0.16683E-02 -0.33247E-03 -0.81549E-02
  0.30375E-02  0.15136E-03 -0.81549E-02
  0.27815E-02 -0.67298E-03 -0.81549E-02
  0.12843E-02  0.18425E-02 -0.81549E-02
  0.64967E-03  0.14646E-02 -0.81549E-02
  0.12573E-03  0.30737E-03 -0.81549E-02
 -0.12952E-03  0.11795E-02 -0.81549E-02
  0.94268E-03  0.22757E-02 -0.81549E-02
  0.11303E-02  0.28255E-02 -0.81549E-02
  0.17463E-02  0.24248E-02 -0.81549E-02
  0.40550E-03  0.21687E-02 -0.81549E-02
  0.39767E-03  0.29348E-02 -0.81549E-02
 -0.76551E-03 -0.10043E-02 -0.81549E-02
 -0.86680E-03  0.84634E-04 -0.81549E-02
  0.45806E-03 -0.69810E-03 -0.81549E-02
 -0.18321E-02 -0.71098E-03 -0.81549E-02
 -0.18433E-02  0.83614E-04 -0.81549E-02
 -0.27236E-02 -0.77746E-03 -0.81549E-02
 -0.28009E-02  0.42626E-04 -0.81549E-02
 -0.25375E-02 -0.15191E-02 -0.81549E-02
 -0.19317E-02 -0.13223E-02 -0.81549E-02
 -0.99262E-03  0.99797E-03 -0.81549E-02
 -0.14405E-02 -0.17322E-02 -0.81549E-02
 -0.31434E-03  0.20240E-02 -0.81549E-02
 -0.11044E-02  0.18606E-02 -0.81549E-02
 -0.18842E-02  0.17175E-02 -0.81549E-02
 -0.18704E-02  0.91108E-03 -0.81549E-02
 -0.16064E-03 -0.19802E-02 -0.81549E-02
 -0.94508E-03 -0.23491E-02 -0.81549E-02
  0.78394E-03 -0.17074E-02 -0.81549E-02
  0.17208E-02 -0.14911E-02 -0.81549E-02
  0.32073E-02  0.76740E-03 -0.81549E-02
  0.28045E-02  0.12507E-02 -0.81549E-02
  0.23051E-02  0.18668E-02 -0.81549E-02
 -0.40517E-03  0.28963E-02 -0.81549E-02
 -0.12092E-02  0.27174E-02 -0.81549E-02
 -0.19445E-02  0.24627E-02 -0.81549E-02
 -0.25026E-02  0.22358E-02 -0.81549E-02
 -0.26365E-02  0.16503E-02 -0.81549E-02
 -0.27649E-02  0.87676E-03 -0.81549E-02
 -0.21133E-02 -0.21374E-02 -0.81549E-02
 -0.16090E-02 -0.26933E-02 -0.81549E-02
 -0.11947E-02 -0.31291E-02 -0.81549E-02
 -0.58886E-03 -0.30382E-02 -0.81549E-02
  0.20627E-03 -0.28749E-02 -0.81549E-02
  0.10564E-02 -0.26442E-02 -0.81549E-02
  0.18416E-02 -0.23721E-02 -0.81549E-02
  0.24553E-02 -0.21483E-02 -0.81549E-02
  0.26027E-02 -0.15097E-02 -0.81549E-02
  0.37964E-02  0.93572E-03 -0.81549E-02
  0.39100E-02  0.00000E+00 -0.81549E-02
  0.34621E-02  0.18171E-02 -0.81549E-02
  0.29267E-02  0.25928E-02 -0.81549E-02
  0.22211E-02  0.32179E-02 -0.81549E-02
  0.13865E-02  0.36559E-02 -0.81549E-02
  0.47130E-03  0.38815E-02 -0.81549E-02
 -0.47130E-03  0.38815E-02 -0.81549E-02
 -0.13865E-02  0.36559E-02 -0.81549E-02
 -0.22211E-02  0.32179E-02 -0.81549E-02
 -0.29267E-02  0.25928E-02 -0.81549E-02
 -0.34621E-02  0.18171E-02 -0.81549E-02
 -0.37964E-02  0.93572E-03 -0.81549E-02
 -0.39100E-02 -0.47884E-18 -0.81549E-02
 -0.37964E-02 -0.93572E-03 -0.81549E-02
 -0.34621E-02 -0.18171E-02 -0.81549E-02
 -0.29267E-02 -0.25928E-02 -0.81549E-02
 -0.22211E-02 -0.32179E-02 -0.81549E-02
 -0.13865E-02 -0.36559E-02 -0.81549E-02
 -0.47130E-03 -0.38815E-02 -0.81549E-02
  0.47130E-03 -0.38815E-02 -0.81549E-02
  0.13865E-02 -0.36559E-02 -0.81549E-02
  0.22211E-02 -0.32179E-02 -0.81549E-02
  0.29267E-02 -0.25928E-02 -0.81549E-02
  0.34621E-02 -0.18171E-02 -0.81549E-02
  0.37964E-02 -0.93572E-03 -0.81549E-02
  0.10368E-02  0.67736E-03 -0.71758E-02
  0.17438E-02  0.12361E-02 -0.71758E-02
  0.23167E-02  0.59570E-03 -0.71758E-02
  0.16681E-02 -0.33172E-03 -0.71758E-02
  0.30375E-02  0.15173E-03 -0.71758E-02
  0.27819E-02 -0.67248E-03 -0.71758E-02
  0.12842E-02  0.18427E-02 -0.71758E-02
  0.64943E-03  0.14656E-02 -0.71758E-02
  0.12547E-03  0.30852E-03 -0.71758E-02
 -0.12970E-03  0.11812E-02 -0.71758E-02
  0.94235E-03  0.22758E-02 -0.71758E-02
  0.11300E-02  0.28251E-02 -0.71758E-02
  0.17459E-02  0.24249E-02 -0.71758E-02
  0.40545E-03  0.21688E-02 -0.71758E-02
  0.39766E-03  0.29345E-02 -0.71758E-02
 -0.76586E-03 -0.10044E-02 -0.71758E-02
 -0.86691E-03  0.85443E-04 -0.71758E-02
  0.45761E-03 -0.69737E-03 -0.71758E-02
 -0.18324E-02 -0.71084E-03 -0.71758E-02
 -0.18432E-02  0.83737E-04 -0.71758E-02
 -0.27236E-02 -0.77729E-03 -0.71758E-02
 -0.28006E-02  0.42899E-04 -0.71758E-02
 -0.25377E-02 -0.15191E-02 -0.71758E-02
 -0.19322E-02 -0.13222E-02 -0.71758E-02
 -0.99248E-03  0.99932E-03 -0.71758E-02
 -0.14408E-02 -0.17322E-02 -0.71758E-02
 -0.31414E-03  0.20243E-02 -0.71758E-02
 -0.11040E-02  0.18605E-02 -0.71758E-02
 -0.18841E-02  0.17175E-02 -0.71758E-02
 -0.18703E-02  0.91132E-03 -0.71758E-02
 -0.16091E-03 -0.19802E-02 -0.71758E-02
 -0.94568E-03 -0.23491E-02 -0.71758E-02
  0.78328E-03 -0.17074E-02 -0.71758E-02
  0.17207E-02 -0.14914E-02 -0.71758E-02
  0.32076E-02  0.76841E-03 -0.71758E-02
  0.28044E-02  0.12511E-02 -0.71758E-02
  0.23050E-02  0.18668E-02 -0.71758E-02
 -0.40503E-03  0.28952E-02 -0.71758E-02
 -0.12092E-02  0.27170E-02 -0.71758E-02
 -0.19445E-02  0.24624E-02 -0.71758E-02
 -0.25026E-02  0.22358E-02 -0.71758E-02
 -0.26364E-02  0.16503E-02 -0.71758E-02
 -0.27646E-02  0.87702E-03 -0.71758E-02
 -0.21134E-02 -0.21374E-02 -0.71758E-02
 -0.16091E-02 -0.26933E-02 -0.71758E-02
 -0.11948E-02 -0.31291E-02 -0.71758E-02
 -0.58921E-03 -0.30382E-02 -0.71758E-02
  0.20587E-03 -0.28749E-02 -0.71758E-02
  0.10561E-02 -0.26444E-02 -0.71758E-02
  0.18416E-02 -0.23723E-02 -0.71758E-02
  0.24554E-02 -0.21489E-02 -0.71758E-02
  0.26027E-02 -0.15096E-02 -0.71758E-02
  0.37964E-02  0.93572E-03 -0.71758E-02
  0.39100E-02  0.00000E+00 -0.71758E-02
  0.34621E-02  0.18171E-02 -0.71758E-02
  0.29267E-02  0.25928E-02 -0.71758E-02
  0.22211E-02  0.32179E-02 -0.71758E-02
  0.13865E-02  0.36559E-02 -0.71758E-02
  0.47130E-03  0.38815E-02 -0.71758E-02
 -0.47130E-03  0.38815E-02 -0.71758E-02
 -0.13865E-02  0.36559E-02 -0.71758E-02
 -0.22211E-02  0.32179E-02 -0.71758E-02
 -0.29267E-02  0.25928E-02 -0.71758E-02
 -0.34621E-02  0.18171E-02 -0.71758E-02
 -0.37964E-02  0.93572E-03 -0.71758E-02
 -0.39100E-02 -0.47884E-18 -0.71758E-02
 -0.37964E-02 -0.93572E-03 -0.71758E-02
 -0.34621E-02 -0.18171E-02 -0.71758E-02
 -0.29267E-02 -0.25928E-02 -0.71758E-02
 -0.22211E-02 -0.32179E-02 -0.71758E-02
 -0.13865E-02 -0.36559E-02 -0.71758E-02
 -0.47130E-03 -0.38815E-02 -0.71758E-02
  0.47130E-03 -0.38815E-02 -0.71758E-02
  0.13865E-02 -0.36559E-02 -0.71758E-02
  0.22211E-02 -0.32179E-02 -0.71758E-02
  0.29267E-02 -0.25928E-02 -0.71758E-02
  0.34621E-02 -0.18171E-02 -0.71758E-02
  0.37964E-02 -0.93572E-03 -0.71758E-02
  0.10367E-02  0.67791E-03 -0.61966E-02
  0.17436E-02  0.12368E-02 -0.61966E-02
  0.23166E-02  0.59622E-03 -0.61966E-02
  0.16679E-02 -0.33096E-03 -0.61966E-02
  0.30375E-02  0.15209E-03 -0.61966E-02
  0.27822E-02 -0.67199E-03 -0.61966E-02
  0.12841E-02  0.18429E-02 -0.61966E-02
  0.64918E-03  0.14666E-02 -0.61966E-02
  0.12521E-03  0.30967E-03 -0.61966E-02
 -0.12989E-03  0.11830E-02 -0.61966E-02
  0.94202E-03  0.22759E-02 -0.61966E-02
  0.11296E-02  0.28247E-02 -0.61966E-02
  0.17455E-02  0.24251E-02 -0.61966E-02
  0.40539E-03  0.21688E-02 -0.61966E-02
  0.39764E-03  0.29343E-02 -0.61966E-02
 -0.76621E-03 -0.10046E-02 -0.61966E-02
 -0.86702E-03  0.86253E-04 -0.61966E-02
  0.45716E-03 -0.69665E-03 -0.61966E-02
 -0.18326E-02 -0.71070E-03 -0.61966E-02
 -0.18431E-02  0.83861E-04 -0.61966E-02
 -0.27235E-02 -0.77712E-03 -0.61966E-02
 -0.28003E-02  0.43173E-04 -0.61966E-02
 -0.25379E-02 -0.15190E-02 -0.61966E-02
 -0.19326E-02 -0.13220E-02 -0.61966E-02
 -0.99233E-03  0.10007E-02 -0.61966E-02
 -0.14412E-02 -0.17321E-02 -0.61966E-02
 -0.31394E-03  0.20245E-02 -0.61966E-02
 -0.11037E-02  0.18603E-02 -0.61966E-02
 -0.18841E-02  0.17175E-02 -0.61966E-02
 -0.18701E-02  0.91156E-03 -0.61966E-02
 -0.16119E-03 -0.19802E-02 -0.61966E-02
 -0.94628E-03 -0.23491E-02 -0.61966E-02
  0.78262E-03 -0.17074E-02 -0.61966E-02
  0.17207E-02 -0.14916E-02 -0.61966E-02
  0.32079E-02  0.76941E-03 -0.61966E-02
  0.28044E-02  0.12515E-02 -0.61966E-02
  0.23049E-02  0.18668E-02 -0.61966E-02
 -0.40490E-03  0.28942E-02 -0.61966E-02
 -0.12093E-02  0.27165E-02 -0.61966E-02
 -0.19444E-02  0.24622E-02 -0.61966E-02
 -0.25026E-02  0.22358E-02 -0.61966E-02
 -0.26363E-02  0.16503E-02 -0.61966E-02
 -0.27643E-02  0.87728E-03 -0.61966E-02
 -0.21136E-02 -0.21374E-02 -0.61966E-02
 -0.16091E-02 -0.26933E-02 -0.61966E-02
 -0.11949E-02 -0.31291E-02 -0.61966E-02
 -0.58956E-03 -0.30382E-02 -0.61966E-02
  0.20546E-03 -0.28749E-02 -0.61966E-02
  0.10558E-02 -0.26447E-02 -0.61966E-02
  0.18417E-02 -0.23725E-02 -0.61966E-02
  0.24555E-02 -0.21494E-02 -0.61966E-02
  0.26028E-02 -0.15095E-02 -0.61966E-02
  0.37964E-02  0.93572E-03 -0.61966E-02
  0.39100E-02  0.00000E+00 -0.61966E-02
  0.34621E-02  0.18171E-02 -0.61966E-02
  0.29267E-02  0.25928E-02 -0.61966E-02
  0.22211E-02  0.32179E-02 -0.61966E-02
  0.13865E-02  0.36559E-02 -0.61966E-02
  0.47130E-03  0.38815E-02 -0.61966E-02
 -0.47130E-03  0.38815E-02 -0.61966E-02
 -0.13865E-02  0.36559E-02 -0.61966E-02
 -0.22211E-02  0.32179E-02 -0.61966E-02
 -0.29267E-02  0.25928E-02 -0.61966E-02
 -0.34621E-02  0.18171E-02 -0.61966E-02
 -0.37964E-02  0.93572E-03 -0.61966E-02
 -0.39100E-02 -0.47884E-18 -0.61966E-02
 -0.37964E-02 -0.93572E-03 -0.61966E-02
 -0.34621E-02 -0.18171E-02 -0.61966E-02
 -0.29267E-02 -0.25928E-02 -0.61966E-02
 -0.22211E-02 -0.32179E-02 -0.61966E-02
 -0.13865E-02 -0.36559E-02 -0.61966E-02
 -0.47130E-03 -0.38815E-02 -0.61966E-02
  0.47130E-03 -0.38815E-02 -0.61966E-02
  0.13865E-02 -0.36559E-02 -0.61966E-02
  0.22211E-02 -0.32179E-02 -0.61966E-02
  0.29267E-02 -0.25928E-02 -0.61966E-02
  0.34621E-02 -0.18171E-02 -0.61966E-02
  0.37964E-02 -0.93572E-03 -0.61966E-02
  0.10366E-02  0.67847E-03 -0.52174E-02
  0.17434E-02  0.12374E-02 -0.52174E-02
  0.23164E-02  0.59674E-03 -0.52174E-02
  0.16677E-02 -0.33021E-03 -0.52174E-02
  0.30375E-02  0.15245E-03 -0.52174E-02
  0.27825E-02 -0.67150E-03 -0.52174E-02
  0.12840E-02  0.18430E-02 -0.52174E-02
  0.64894E-03  0.14676E-02 -0.52174E-02
  0.12495E-03  0.31081E-03 -0.52174E-02
 -0.13007E-03  0.11847E-02 -0.52174E-02
  0.94169E-03  0.22761E-02 -0.52174E-02
  0.11293E-02  0.28242E-02 -0.52174E-02
  0.17451E-02  0.24252E-02 -0.52174E-02
  0.40534E-03  0.21688E-02 -0.52174E-02
  0.39762E-03  0.29340E-02 -0.52174E-02
 -0.76657E-03 -0.10047E-02 -0.52174E-02
 -0.86713E-03  0.87062E-04 -0.52174E-02
  0.45671E-03 -0.69592E-03 -0.52174E-02
 -0.18329E-02 -0.71056E-03 -0.52174E-02
 -0.18430E-02  0.83985E-04 -0.52174E-02
 -0.27235E-02 -0.77695E-03 -0.52174E-02
 -0.28001E-02  0.43446E-04 -0.52174E-02
 -0.25380E-02 -0.15190E-02 -0.52174E-02
 -0.19330E-02 -0.13219E-02 -0.52174E-02
 -0.99219E-03  0.10020E-02 -0.52174E-02
 -0.14415E-02 -0.17321E-02 -0.52174E-02
 -0.31374E-03  0.20248E-02 -0.52174E-02
 -0.11033E-02  0.18602E-02 -0.52174E-02
 -0.18840E-02  0.17175E-02 -0.52174E-02
 -0.18700E-02  0.91180E-03 -0.52174E-02
 -0.16146E-03 -0.19803E-02 -0.52174E-02
 -0.94687E-03 -0.23491E-02 -0.52174E-02
  0.78195E-03 -0.17073E-02 -0.52174E-02
  0.17207E-02 -0.14919E-02 -0.52174E-02
  0.32083E-02  0.77042E-03 -0.52174E-02
  0.28044E-02  0.12520E-02 -0.52174E-02
  0.23048E-02  0.18669E-02 -0.52174E-02
 -0.40476E-03  0.28931E-02 -0.52174E-02
 -0.12093E-02  0.27160E-02 -0.52174E-02
 -0.19444E-02  0.24620E-02 -0.52174E-02
 -0.25026E-02  0.22358E-02 -0.52174E-02
 -0.26362E-02  0.16503E-02 -0.52174E-02
 -0.27640E-02  0.87754E-03 -0.52174E-02
 -0.21137E-02 -0.21374E-02 -0.52174E-02
 -0.16091E-02 -0.26933E-02 -0.52174E-02
 -0.11950E-02 -0.31291E-02 -0.52174E-02
 -0.58991E-03 -0.30382E-02 -0.52174E-02
  0.20505E-03 -0.28749E-02 -0.52174E-02
  0.10555E-02 -0.26450E-02 -0.52174E-02
  0.18417E-02 -0.23727E-02 -0.52174E-02
  0.24556E-02 -0.21500E-02 -0.52174E-02
  0.26029E-02 -0.15094E-02 -0.52174E-02
  0.37964E-02  0.93572E-03 -0.52174E-02
  0.39100E-02  0.00000E+00 -0.52174E-02
  0.34621E-02  0.18171E-02 -0.52174E-02
  0.29267E-02  0.25928E-02 -0.52174E-02
  0.22211E-02  0.32179E-02 -0.52174E-02
  0.13865E-02  0.36559E-02 -0.52174E-02
  0.47130E-03  0.38815E-02 -0.52174E-02
 -0.47130E-03  0.38815E-02 -0.52174E-02
 -0.13865E-02  0.36559E-02 -0.52174E-02
 -0.22211E-02  0.32179E-02 -0.52174E-02
 -0.29267E-02  0.25928E-02 -0.52174E-02
 -0.34621E-02  0.18171E-02 -0.52174E-02
 -0.37964E-02  0.93572E-03 -0.52174E-02
 -0.39100E-02  0.39516E-17 -0.52174E-02
 -0.37964E-02 -0.93572E-03 -0.52174E-02
 -0.34621E-02 -0.18171E-02 -0.52174E-02
 -0.29267E-02 -0.25928E-02 -0.52174E-02
 -0.22211E-02 -0.32179E-02 -0.52174E-02
 -0.13865E-02 -0.36559E-02 -0.52174E-02
 -0.47130E-03 -0.38815E-02 -0.52174E-02
  0.47130E-03 -0.38815E-02 -0.52174E-02
  0.13865E-02 -0.36559E-02 -0.52174E-02
  0.22211E-02 -0.32179E-02 -0.52174E-02
  0.29267E-02 -0.25928E-02 -0.52174E-02
  0.34621E-02 -0.18171E-02 -0.52174E-02
  0.37964E-02 -0.93572E-03 -0.52174E-02
  0.10365E-02  0.67902E-03 -0.42383E-02
  0.17432E-02  0.12381E-02 -0.42383E-02
  0.23163E-02  0.59727E-03 -0.42383E-02
  0.16675E-02 -0.32945E-03 -0.42383E-02
  0.30374E-02  0.15282E-03 -0.42383E-02
  0.27829E-02 -0.67100E-03 -0.42383E-02
  0.12839E-02  0.18432E-02 -0.42383E-02
  0.64869E-03  0.14686E-02 -0.42383E-02
  0.12468E-03  0.31196E-03 -0.42383E-02
 -0.13026E-03  0.11865E-02 -0.42383E-02
  0.94135E-03  0.22762E-02 -0.42383E-02
  0.11289E-02  0.28238E-02 -0.42383E-02
  0.17447E-02  0.24254E-02 -0.42383E-02
  0.40528E-03  0.21688E-02 -0.42383E-02
  0.39760E-03  0.29337E-02 -0.42383E-02
 -0.76692E-03 -0.10049E-02 -0.42383E-02
 -0.86724E-03  0.87871E-04 -0.42383E-02
  0.45626E-03 -0.69519E-03 -0.42383E-02
 -0.18332E-02 -0.71042E-03 -0.42383E-02
 -0.18430E-02  0.84108E-04 -0.42383E-02
 -0.27235E-02 -0.77678E-03 -0.42383E-02
 -0.27998E-02  0.43720E-04 -0.42383E-02
 -0.25382E-02 -0.15189E-02 -0.42383E-02
 -0.19334E-02 -0.13219E-02 -0.42383E-02
 -0.99205E-03  0.10034E-02 -0.42383E-02
 -0.14419E-02 -0.17320E-02 -0.42383E-02
 -0.31354E-03  0.20251E-02 -0.42383E-02
 -0.11030E-02  0.18601E-02 -0.42383E-02
 -0.18840E-02  0.17175E-02 -0.42383E-02
 -0.18699E-02  0.91204E-03 -0.42383E-02
 -0.16174E-03 -0.19803E-02 -0.42383E-02
 -0.94747E-03 -0.23492E-02 -0.42383E-02
  0.78129E-03 -0.17073E-02 -0.42383E-02
  0.17206E-02 -0.14921E-02 -0.42383E-02
  0.32086E-02  0.77142E-03 -0.42383E-02
  0.28044E-02  0.12524E-02 -0.42383E-02
  0.23047E-02  0.18669E-02 -0.42383E-02
 -0.40462E-03  0.28920E-02 -0.42383E-02
 -0.12093E-02  0.27155E-02 -0.42383E-02
 -0.19444E-02  0.24618E-02 -0.42383E-02
 -0.25025E-02  0.22358E-02 -0.42383E-02
 -0.26361E-02  0.16503E-02 -0.42383E-02
 -0.27637E-02  0.87781E-03 -0.42383E-02
 -0.21139E-02 -0.21374E-02 -0.42383E-02
 -0.16092E-02 -0.26934E-02 -0.42383E-02
 -0.11951E-02 -0.31291E-02 -0.42383E-02
 -0.59025E-03 -0.30382E-02 -0.42383E-02
  0.20465E-03 -0.28749E-02 -0.42383E-02
  0.10552E-02 -0.26452E-02 -0.42383E-02
  0.18418E-02 -0.23729E-02 -0.42383E-02
  0.24558E-02 -0.21505E-02 -0.42383E-02
  0.26030E-02 -0.15093E-02 -0.42383E-02
  0.37964E-02  0.93572E-03 -0.42383E-02
  0.39100E-02  0.00000E+00 -0.42383E-02
  0.34621E-02  0.18171E-02 -0.42383E-02
  0.29267E-02  0.25928E-02 -0.42383E-02
  0.22211E-02  0.32179E-02 -0.42383E-02
  0.13865E-02  0.36559E-02 -0.42383E-02
  0.47130E-03  0.38815E-02 -0.42383E-02
 -0.47130E-03  0.38815E-02 -0.42383E-02
 -0.13865E-02  0.36559E-02 -0.42383E-02
 -0.22211E-02  0.32179E-02 -0.42383E-02
 -0.29267E-02  0.25928E-02 -0.42383E-02
 -0.34621E-02  0.18171E-02 -0.42383E-02
 -0.37964E-02  0.93572E-03 -0.42383E-02
 -0.39100E-02 -0.47884E-18 -0.42383E-02
 -0.37964E-02 -0.93572E-03 -0.42383E-02
 -0.34621E-02 -0.18171E-02 -0.42383E-02
 -0.29267E-02 -0.25928E-02 -0.42383E-02
 -0.22211E-02 -0.32179E-02 -0.42383E-02
 -0.13865E-02 -0.36559E-02 -0.42383E-02
 -0.47130E-03 -0.38815E-02 -0.42383E-02
  0.47130E-03 -0.38815E-02 -0.42383E-02
  0.13865E-02 -0.36559E-02 -0.42383E-02
  0.22211E-02 -0.32179E-02 -0.42383E-02
  0.29267E-02 -0.25928E-02 -0.42383E-02
  0.34621E-02 -0.18171E-02 -0.42383E-02
  0.37964E-02 -0.93572E-03 -0.42383E-02
  0.10364E-02  0.67958E-03 -0.32591E-02
  0.17430E-02  0.12387E-02 -0.32591E-02
  0.23162E-02  0.59779E-03 -0.32591E-02
  0.16672E-02 -0.32870E-03 -0.32591E-02
  0.30374E-02  0.15318E-03 -0.32591E-02
  0.27832E-02 -0.67051E-03 -0.32591E-02
  0.12838E-02  0.18434E-02 -0.32591E-02
  0.64845E-03  0.14696E-02 -0.32591E-02
  0.12442E-03  0.31311E-03 -0.32591E-02
 -0.13044E-03  0.11882E-02 -0.32591E-02
  0.94102E-03  0.22763E-02 -0.32591E-02
  0.11286E-02  0.28233E-02 -0.32591E-02
  0.17443E-02  0.24255E-02 -0.32591E-02
  0.40523E-03  0.21689E-02 -0.32591E-02
  0.39759E-03  0.29335E-02 -0.32591E-02
 -0.76727E-03 -0.10050E-02 -0.32591E-02
 -0.86735E-03  0.88681E-04 -0.32591E-02
  0.45582E-03 -0.69447E-03 -0.32591E-02
 -0.18335E-02 -0.71028E-03 -0.32591E-02
 -0.18429E-02  0.84232E-04 -0.32591E-02
 -0.27235E-02 -0.77661E-03 -0.32591E-02
 -0.27995E-02  0.43993E-04 -0.32591E-02
 -0.25383E-02 -0.15189E-02 -0.32591E-02
 -0.19339E-02 -0.13218E-02 -0.32591E-02
 -0.99190E-03  0.10048E-02 -0.32591E-02
 -0.14422E-02 -0.17320E-02 -0.32591E-02
 -0.31334E-03  0.20254E-02 -0.32591E-02
 -0.11026E-02  0.18599E-02 -0.32591E-02
 -0.18839E-02  0.17175E-02 -0.32591E-02
 -0.18697E-02  0.91228E-03 -0.32591E-02
 -0.16201E-03 -0.19803E-02 -0.32591E-02
 -0.94807E-03 -0.23492E-02 -0.32591E-02
  0.78063E-03 -0.17073E-02 -0.32591E-02
  0.17206E-02 -0.14923E-02 -0.32591E-02
  0.32089E-02  0.77243E-03 -0.32591E-02
  0.28043E-02  0.12528E-02 -0.32591E-02
  0.23046E-02  0.18670E-02 -0.32591E-02
 -0.40448E-03  0.28910E-02 -0.32591E-02
 -0.12093E-02  0.27151E-02 -0.32591E-02
 -0.19443E-02  0.24615E-02 -0.32591E-02
 -0.25025E-02  0.22358E-02 -0.32591E-02
 -0.26360E-02  0.16503E-02 -0.32591E-02
 -0.27633E-02  0.87807E-03 -0.32591E-02
 -0.21140E-02 -0.21374E-02 -0.32591E-02
 -0.16092E-02 -0.26934E-02 -0.32591E-02
 -0.11953E-02 -0.31291E-02 -0.32591E-02
 -0.59060E-03 -0.30382E-02 -0.32591E-02
  0.20424E-03 -0.28749E-02 -0.32591E-02
  0.10549E-02 -0.26455E-02 -0.32591E-02
  0.18418E-02 -0.23732E-02 -0.32591E-02
  0.24559E-02 -0.21511E-02 -0.32591E-02
  0.26030E-02 -0.15092E-02 -0.32591E-02
  0.37964E-02  0.93572E-03 -0.32591E-02
  0.39100E-02  0.00000E+00 -0.32591E-02
  0.34621E-02  0.18171E-02 -0.32591E-02
  0.29267E-02  0.25928E-02 -0.32591E-02
  0.22211E-02  0.32179E-02 -0.32591E-02
  0.13865E-02  0.36559E-02 -0.32591E-02
  0.47130E-03  0.38815E-02 -0.32591E-02
 -0.47130E-03  0.38815E-02 -0.32591E-02
 -0.13865E-02  0.36559E-02 -0.32591E-02
 -0.22211E-02  0.32179E-02 -0.32591E-02
 -0.29267E-02  0.25928E-02 -0.32591E-02
 -0.34621E-02  0.18171E-02 -0.32591E-02
 -0.37964E-02  0.93572E-03 -0.32591E-02
 -0.39100E-02  0.22152E-17 -0.32591E-02
 -0.37964E-02 -0.93572E-03 -0.32591E-02
 -0.34621E-02 -0.18171E-02 -0.32591E-02
 -0.29267E-02 -0.25928E-02 -0.32591E-02
 -0.22211E-02 -0.32179E-02 -0.32591E-02
 -0.13865E-02 -0.36559E-02 -0.32591E-02
 -0.47130E-03 -0.38815E-02 -0.32591E-02
  0.47130E-03 -0.38815E-02 -0.32591E-02
  0.13865E-02 -0.36559E-02 -0.32591E-02
  0.22211E-02 -0.32179E-02 -0.32591E-02
  0.29267E-02 -0.25928E-02 -0.32591E-02
  0.34621E-02 -0.18171E-02 -0.32591E-02
  0.37964E-02 -0.93572E-03 -0.32591E-02
  0.10363E-02  0.68013E-03 -0.22799E-02
  0.17429E-02  0.12394E-02 -0.22799E-02
  0.23161E-02  0.59831E-03 -0.22799E-02
  0.16670E-02 -0.32794E-03 -0.22799E-02
  0.30374E-02  0.15354E-03 -0.22799E-02
  0.27836E-02 -0.67002E-03 -0.22799E-02
  0.12837E-02  0.18436E-02 -0.22799E-02
  0.64820E-03  0.14706E-02 -0.22799E-02
  0.12416E-03  0.31426E-03 -0.22799E-02
 -0.13063E-03  0.11900E-02 -0.22799E-02
  0.94069E-03  0.22765E-02 -0.22799E-02
  0.11282E-02  0.28229E-02 -0.22799E-02
  0.17439E-02  0.24257E-02 -0.22799E-02
  0.40518E-03  0.21689E-02 -0.22799E-02
  0.39757E-03  0.29332E-02 -0.22799E-02
 -0.76763E-03 -0.10051E-02 -0.22799E-02
 -0.86746E-03  0.89490E-04 -0.22799E-02
  0.45537E-03 -0.69374E-03 -0.22799E-02
 -0.18338E-02 -0.71013E-03 -0.22799E-02
 -0.18428E-02  0.84355E-04 -0.22799E-02
 -0.27234E-02 -0.77644E-03 -0.22799E-02
 -0.27992E-02  0.44266E-04 -0.22799E-02
 -0.25385E-02 -0.15188E-02 -0.22799E-02
 -0.19343E-02 -0.13216E-02 -0.22799E-02
 -0.99176E-03  0.10061E-02 -0.22799E-02
 -0.14425E-02 -0.17320E-02 -0.22799E-02
 -0.31314E-03  0.20257E-02 -0.22799E-02
 -0.11023E-02  0.18598E-02 -0.22799E-02
 -0.18839E-02  0.17175E-02 -0.22799E-02
 -0.18696E-02  0.91252E-03 -0.22799E-02
 -0.16229E-03 -0.19803E-02 -0.22799E-02
 -0.94867E-03 -0.23492E-02 -0.22799E-02
  0.77997E-03 -0.17073E-02 -0.22799E-02
  0.17205E-02 -0.14926E-02 -0.22799E-02
  0.32092E-02  0.77343E-03 -0.22799E-02
  0.28043E-02  0.12533E-02 -0.22799E-02
  0.23044E-02  0.18670E-02 -0.22799E-02
 -0.40434E-03  0.28899E-02 -0.22799E-02
 -0.12093E-02  0.27146E-02 -0.22799E-02
 -0.19443E-02  0.24613E-02 -0.22799E-02
 -0.25025E-02  0.22358E-02 -0.22799E-02
 -0.26359E-02  0.16503E-02 -0.22799E-02
 -0.27630E-02  0.87833E-03 -0.22799E-02
 -0.21141E-02 -0.21374E-02 -0.22799E-02
 -0.16093E-02 -0.26934E-02 -0.22799E-02
 -0.11954E-02 -0.31291E-02 -0.22799E-02
 -0.59095E-03 -0.30382E-02 -0.22799E-02
  0.20384E-03 -0.28750E-02 -0.22799E-02
  0.10546E-02 -0.26458E-02 -0.22799E-02
  0.18419E-02 -0.23734E-02 -0.22799E-02
  0.24560E-02 -0.21516E-02 -0.22799E-02
  0.26031E-02 -0.15091E-02 -0.22799E-02
  0.37964E-02  0.93572E-03 -0.22799E-02
  0.39100E-02  0.00000E+00 -0.22799E-02
  0.34621E-02  0.18171E-02 -0.22799E-02
  0.29267E-02  0.25928E-02 -0.22799E-02
  0.22211E-02  0.32179E-02 -0.22799E-02
  0.13865E-02  0.36559E-02 -0.22799E-02
  0.47130E-03  0.38815E-02 -0.22799E-02
 -0.47130E-03  0.38815E-02 -0.22799E-02
 -0.13865E-02  0.36559E-02 -0.22799E-02
 -0.22211E-02  0.32179E-02 -0.22799E-02
 -0.29267E-02  0.25928E-02 -0.22799E-02
 -0.34621E-02  0.18171E-02 -0.22799E-02
 -0.37964E-02  0.93572E-03 -0.22799E-02
 -0.39100E-02 -0.47884E-18 -0.22799E-02
 -0.37964E-02 -0.93572E-03 -0.22799E-02
 -0.34621E-02 -0.18171E-02 -0.22799E-02
 -0.29267E-02 -0.25928E-02 -0.22799E-02
 -0.22211E-02 -0.32179E-02 -0.22799E-02
 -0.13865E-02 -0.36559E-02 -0.22799E-02
 -0.47130E-03 -0.38815E-02 -0.22799E-02
  0.47130E-03 -0.38815E-02 -0.22799E-02
  0.13865E-02 -0.36559E-02 -0.22799E-02
  0.22211E-02 -0.32179E-02 -0.22799E-02
  0.29267E-02 -0.25928E-02 -0.22799E-02
  0.34621E-02 -0.18171E-02 -0.22799E-02
  0.37964E-02 -0.93572E-03 -0.22799E-02
  0.10362E-02  0.68068E-03 -0.13008E-02
  0.17427E-02  0.12401E-02 -0.13008E-02
  0.23160E-02  0.59884E-03 -0.13008E-02
  0.16668E-02 -0.32719E-03 -0.13008E-02
  0.30373E-02  0.15391E-03 -0.13008E-02
  0.27839E-02 -0.66953E-03 -0.13008E-02
  0.12836E-02  0.18438E-02 -0.13008E-02
  0.64796E-03  0.14716E-02 -0.13008E-02
  0.12390E-03  0.31541E-03 -0.13008E-02
 -0.13082E-03  0.11917E-02 -0.13008E-02
  0.94036E-03  0.22766E-02 -0.13008E-02
  0.11279E-02  0.28225E-02 -0.13008E-02
  0.17435E-02  0.24258E-02 -0.13008E-02
  0.40512E-03  0.21690E-02 -0.13008E-02
  0.39755E-03  0.29330E-02 -0.13008E-02
 -0.76798E-03 -0.10053E-02 -0.13008E-02
 -0.86756E-03  0.90299E-04 -0.13008E-02
  0.45492E-03 -0.69302E-03 -0.13008E-02
 -0.18341E-02 -0.70999E-03 -0.13008E-02
 -0.18427E-02  0.84479E-04 -0.13008E-02
 -0.27234E-02 -0.77627E-03 -0.13008E-02
 -0.27990E-02  0.44540E-04 -0.13008E-02
 -0.25386E-02 -0.15188E-02 -0.13008E-02
 -0.19347E-02 -0.13215E-02 -0.13008E-02
 -0.99161E-03  0.10075E-02 -0.13008E-02
 -0.14429E-02 -0.17319E-02 -0.13008E-02
 -0.31294E-03  0.20260E-02 -0.13008E-02
 -0.11019E-02  0.18597E-02 -0.13008E-02
 -0.18838E-02  0.17175E-02 -0.13008E-02
 -0.18695E-02  0.91276E-03 -0.13008E-02
 -0.16256E-03 -0.19804E-02 -0.13008E-02
 -0.94927E-03 -0.23493E-02 -0.13008E-02
  0.77931E-03 -0.17073E-02 -0.13008E-02
  0.17205E-02 -0.14928E-02 -0.13008E-02
  0.32096E-02  0.77444E-03 -0.13008E-02
  0.28043E-02  0.12537E-02 -0.13008E-02
  0.23043E-02  0.18670E-02 -0.13008E-02
 -0.40420E-03  0.28888E-02 -0.13008E-02
 -0.12093E-02  0.27141E-02 -0.13008E-02
 -0.19443E-02  0.24611E-02 -0.13008E-02
 -0.25024E-02  0.22358E-02 -0.13008E-02
 -0.26358E-02  0.16503E-02 -0.13008E-02
 -0.27627E-02  0.87859E-03 -0.13008E-02
 -0.21143E-02 -0.21374E-02 -0.13008E-02
 -0.16093E-02 -0.26934E-02 -0.13008E-02
 -0.11955E-02 -0.31291E-02 -0.13008E-02
 -0.59130E-03 -0.30382E-02 -0.13008E-02
  0.20343E-03 -0.28750E-02 -0.13008E-02
  0.10543E-02 -0.26460E-02 -0.13008E-02
  0.18419E-02 -0.23736E-02 -0.13008E-02
  0.24561E-02 -0.21521E-02 -0.13008E-02
  0.26032E-02 -0.15090E-02 -0.13008E-02
  0.37964E-02  0.93572E-03 -0.13008E-02
  0.39100E-02  0.00000E+00 -0.13008E-02
  0.34621E-02  0.18171E-02 -0.13008E-02
  0.29267E-02  0.25928E-02 -0.13008E-02
  0.22211E-02  0.32179E-02 -0.13008E-02
  0.13865E-02  0.36559E-02 -0.13008E-02
  0.47130E-03  0.38815E-02 -0.13008E-02
 -0.47130E-03  0.38815E-02 -0.13008E-02
 -0.13865E-02  0.36559E-02 -0.13008E-02
 -0.22211E-02  0.32179E-02 -0.13008E-02
 -0.29267E-02  0.25928E-02 -0.13008E-02
 -0.34621E-02  0.18171E-02 -0.13008E-02
 -0.37964E-02  0.93572E-03 -0.13008E-02
 -0.39100E-02  0.22152E-17 -0.13008E-02
 -0.37964E-02 -0.93572E-03 -0.13008E-02
 -0.34621E-02 -0.18171E-02 -0.13008E-02
 -0.29267E-02 -0.25928E-02 -0.13008E-02
 -0.22211E-02 -0.32179E-02 -0.13008E-02
 -0.13865E-02 -0.36559E-02 -0.13008E-02
 -0.47130E-03 -0.38815E-02 -0.13008E-02
  0.47130E-03 -0.38815E-02 -0.13008E-02
  0.13865E-02 -0.36559E-02 -0.13008E-02
  0.22211E-02 -0.32179E-02 -0.13008E-02
  0.29267E-02 -0.25928E-02 -0.13008E-02
  0.34621E-02 -0.18171E-02 -0.13008E-02
  0.37964E-02 -0.93572E-03 -0.13008E-02
  0.10360E-02  0.68124E-03 -0.32159E-03
  0.17425E-02  0.12407E-02 -0.32159E-03
  0.23158E-02  0.59936E-03 -0.32159E-03
  0.16666E-02 -0.32643E-03 -0.32159E-03
  0.30373E-02  0.15427E-03 -0.32159E-03
  0.27842E-02 -0.66903E-03 -0.32159E-03
  0.12835E-02  0.18440E-02 -0.32159E-03
  0.64771E-03  0.14727E-02 -0.32159E-03
  0.12363E-03  0.31656E-03 -0.32159E-03
 -0.13100E-03  0.11935E-02 -0.32159E-03
  0.94003E-03  0.22767E-02 -0.32159E-03
  0.11276E-02  0.28220E-02 -0.32159E-03
  0.17432E-02  0.24260E-02 -0.32159E-03
  0.40507E-03  0.21690E-02 -0.32159E-03
  0.39754E-03  0.29327E-02 -0.32159E-03
 -0.76834E-03 -0.10054E-02 -0.32159E-03
 -0.86767E-03  0.91108E-04 -0.32159E-03
  0.45447E-03 -0.69229E-03 -0.32159E-03
 -0.18344E-02 -0.70985E-03 -0.32159E-03
 -0.18426E-02  0.84602E-04 -0.32159E-03
 -0.27234E-02 -0.77610E-03 -0.32159E-03
 -0.27987E-02  0.44813E-04 -0.32159E-03
 -0.25388E-02 -0.15187E-02 -0.32159E-03
 -0.19352E-02 -0.13215E-02 -0.32159E-03
 -0.99147E-03  0.10088E-02 -0.32159E-03
 -0.14433E-02 -0.17319E-02 -0.32159E-03
 -0.31274E-03  0.20262E-02 -0.32159E-03
 -0.11016E-02  0.18595E-02 -0.32159E-03
 -0.18838E-02  0.17175E-02 -0.32159E-03
 -0.18694E-02  0.91300E-03 -0.32159E-03
 -0.16284E-03 -0.19804E-02 -0.32159E-03
 -0.94986E-03 -0.23493E-02 -0.32159E-03
  0.77865E-03 -0.17073E-02 -0.32159E-03
  0.17205E-02 -0.14931E-02 -0.32159E-03
  0.32099E-02  0.77544E-03 -0.32159E-03
  0.28042E-02  0.12541E-02 -0.32159E-03
  0.23042E-02  0.18671E-02 -0.32159E-03
 -0.40407E-03  0.28877E-02 -0.32159E-03
 -0.12093E-02  0.27137E-02 -0.32159E-03
 -0.19442E-02  0.24609E-02 -0.32159E-03
 -0.25024E-02  0.22358E-02 -0.32159E-03
 -0.26358E-02  0.16503E-02 -0.32159E-03
 -0.27624E-02  0.87885E-03 -0.32159E-03
 -0.21144E-02 -0.21374E-02 -0.32159E-03
 -0.16094E-02 -0.26934E-02 -0.32159E-03
 -0.11956E-02 -0.31291E-02 -0.32159E-03
 -0.59165E-03 -0.30382E-02 -0.32159E-03
  0.20302E-03 -0.28750E-02 -0.32159E-03
  0.10540E-02 -0.26463E-02 -0.32159E-03
  0.18419E-02 -0.23738E-02 -0.32159E-03
  0.24563E-02 -0.21527E-02 -0.32159E-03
  0.26033E-02 -0.15088E-02 -0.32159E-03
  0.37964E-02  0.93572E-03 -0.32159E-03
  0.39100E-02  0.00000E+00 -0.32159E-03
  0.34621E-02  0.18171E-02 -0.32159E-03
  0.29267E-02  0.25928E-02 -0.32159E-03
  0.22211E-02  0.32179E-02 -0.32159E-03
  0.13865E-02  0.36559E-02 -0.32159E-03
  0.47130E-03  0.38815E-02 -0.32159E-03
 -0.47130E-03  0.38815E-02 -0.32159E-03
 -0.13865E-02  0.36559E-02 -0.32159E-03
 -0.22211E-02  0.32179E-02 -0.32159E-03
 -0.29267E-02  0.25928E-02 -0.32159E-03
 -0.34621E-02  0.18171E-02 -0.32159E-03
 -0.37964E-02  0.93572E-03 -0.32159E-03
 -0.39100E-02 -0.47884E-18 -0.32159E-03
 -0.37964E-02 -0.93572E-03 -0.32159E-03
 -0.34621E-02 -0.18171E-02 -0.32159E-03
 -0.29267E-02 -0.25928E-02 -0.32159E-03
 -0.22211E-02 -0.32179E-02 -0.32159E-03
 -0.13865E-02 -0.36559E-02 -0.32159E-03
 -0.47130E-03 -0.38815E-02 -0.32159E-03
  0.47130E-03 -0.38815E-02 -0.32159E-03
  0.13865E-02 -0.36559E-02 -0.32159E-03
  0.22211E-02 -0.32179E-02 -0.32159E-03
  0.29267E-02 -0.25928E-02 -0.32159E-03
  0.34621E-02 -0.18171E-02 -0.32159E-03
  0.37964E-02 -0.93572E-03 -0.32159E-03
  0.10359E-02  0.68179E-03  0.65757E-03
  0.17423E-02  0.12414E-02  0.65757E-03
  0.23157E-02  0.59988E-03  0.65757E-03
  0.16664E-02 -0.32568E-03  0.65757E-03
  0.30373E-02  0.15463E-03  0.65757E-03
  0.27846E-02 -0.66854E-03  0.65757E-03
  0.12834E-02  0.18442E-02  0.65757E-03
  0.64747E-03  0.14736E-02  0.65757E-03
  0.12337E-03  0.31770E-03  0.65757E-03
 -0.13118E-03  0.11952E-02  0.65757E-03
  0.93970E-03  0.22768E-02  0.65757E-03
  0.11272E-02  0.28216E-02  0.65757E-03
  0.17428E-02  0.24261E-02  0.65757E-03
  0.40501E-03  0.21690E-02  0.65757E-03
  0.39752E-03  0.29324E-02  0.65757E-03
 -0.76869E-03 -0.10056E-02  0.65757E-03
 -0.86778E-03  0.91918E-04  0.65757E-03
  0.45402E-03 -0.69156E-03  0.65757E-03
 -0.18347E-02 -0.70971E-03  0.65757E-03
 -0.18425E-02  0.84726E-04  0.65757E-03
 -0.27234E-02 -0.77593E-03  0.65757E-03
 -0.27984E-02  0.45086E-04  0.65757E-03
 -0.25389E-02 -0.15187E-02  0.65757E-03
 -0.19356E-02 -0.13213E-02  0.65757E-03
 -0.99133E-03  0.10102E-02  0.65757E-03
 -0.14436E-02 -0.17318E-02  0.65757E-03
 -0.31254E-03  0.20265E-02  0.65757E-03
 -0.11013E-02  0.18594E-02  0.65757E-03
 -0.18837E-02  0.17175E-02  0.65757E-03
 -0.18692E-02  0.91324E-03  0.65757E-03
 -0.16311E-03 -0.19804E-02  0.65757E-03
 -0.95046E-03 -0.23493E-02  0.65757E-03
  0.77799E-03 -0.17073E-02  0.65757E-03
  0.17204E-02 -0.14933E-02  0.65757E-03
  0.32102E-02  0.77645E-03  0.65757E-03
  0.28042E-02  0.12545E-02  0.65757E-03
  0.23041E-02  0.18671E-02  0.65757E-03
 -0.40393E-03  0.28867E-02  0.65757E-03
 -0.12093E-02  0.27132E-02  0.65757E-03
 -0.19442E-02  0.24606E-02  0.65757E-03
 -0.25024E-02  0.22358E-02  0.65757E-03
 -0.26357E-02  0.16503E-02  0.65757E-03
 -0.27621E-02  0.87912E-03  0.65757E-03
 -0.21146E-02 -0.21374E-02  0.65757E-03
 -0.16094E-02 -0.26935E-02  0.65757E-03
 -0.11957E-02 -0.31291E-02  0.65757E-03
 -0.59200E-03 -0.30381E-02  0.65757E-03
  0.20262E-03 -0.28750E-02  0.65757E-03
  0.10536E-02 -0.26466E-02  0.65757E-03
  0.18420E-02 -0.23740E-02  0.65757E-03
  0.24564E-02 -0.21533E-02  0.65757E-03
  0.26033E-02 -0.15087E-02  0.65757E-03
  0.37964E-02  0.93572E-03  0.65757E-03
  0.39100E-02  0.00000E+00  0.65757E-03
  0.34621E-02  0.18171E-02  0.65757E-03
  0.29267E-02  0.25928E-02  0.65757E-03
  0.22211E-02  0.32179E-02  0.65757E-03
  0.13865E-02  0.36559E-02  0.65757E-03
  0.47130E-03  0.38815E-02  0.65757E-03
 -0.47130E-03  0.38815E-02  0.65757E-03
 -0.13865E-02  0.36559E-02  0.65757E-03
 -0.22211E-02  0.32179E-02  0.65757E-03
 -0.29267E-02  0.25928E-02  0.65757E-03
 -0.34621E-02  0.18171E-02  0.65757E-03
 -0.37964E-02  0.93572E-03  0.65757E-03
 -0.39100E-02 -0.47884E-18  0.65757E-03
 -0.37964E-02 -0.93572E-03  0.65757E-03
 -0.34621E-02 -0.18171E-02  0.65757E-03
 -0.29267E-02 -0.25928E-02  0.65757E-03
 -0.22211E-02 -0.32179E-02  0.65757E-03
 -0.13865E-02 -0.36559E-02  0.65757E-03
 -0.47130E-03 -0.38815E-02  0.65757E-03
  0.47130E-03 -0.38815E-02  0.65757E-03
  0.13865E-02 -0.36559E-02  0.65757E-03
  0.22211E-02 -0.32179E-02  0.65757E-03
  0.29267E-02 -0.25928E-02  0.65757E-03
  0.34621E-02 -0.18171E-02  0.65757E-03
  0.37964E-02 -0.93572E-03  0.65757E-03
  0.10358E-02  0.68235E-03  0.16367E-02
  0.17422E-02  0.12421E-02  0.16367E-02
  0.23156E-02  0.60041E-03  0.16367E-02
  0.16662E-02 -0.32493E-03  0.16367E-02
  0.30373E-02  0.15500E-03  0.16367E-02
  0.27849E-02 -0.66805E-03  0.16367E-02
  0.12833E-02  0.18444E-02  0.16367E-02
  0.64722E-03  0.14747E-02  0.16367E-02
  0.12311E-03  0.31885E-03  0.16367E-02
 -0.13137E-03  0.11970E-02  0.16367E-02
  0.93937E-03  0.22770E-02  0.16367E-02
  0.11269E-02  0.28211E-02  0.16367E-02
  0.17424E-02  0.24262E-02  0.16367E-02
  0.40496E-03  0.21691E-02  0.16367E-02
  0.39750E-03  0.29322E-02  0.16367E-02
 -0.76904E-03 -0.10057E-02  0.16367E-02
 -0.86789E-03  0.92727E-04  0.16367E-02
  0.45358E-03 -0.69084E-03  0.16367E-02
 -0.18350E-02 -0.70957E-03  0.16367E-02
 -0.18424E-02  0.84849E-04  0.16367E-02
 -0.27233E-02 -0.77576E-03  0.16367E-02
 -0.27981E-02  0.45359E-04  0.16367E-02
 -0.25391E-02 -0.15186E-02  0.16367E-02
 -0.19360E-02 -0.13212E-02  0.16367E-02
 -0.99118E-03  0.10115E-02  0.16367E-02
 -0.14440E-02 -0.17318E-02  0.16367E-02
 -0.31234E-03  0.20268E-02  0.16367E-02
 -0.11009E-02  0.18593E-02  0.16367E-02
 -0.18836E-02  0.17175E-02  0.16367E-02
 -0.18691E-02  0.91347E-03  0.16367E-02
 -0.16339E-03 -0.19804E-02  0.16367E-02
 -0.95106E-03 -0.23493E-02  0.16367E-02
  0.77733E-03 -0.17073E-02  0.16367E-02
  0.17204E-02 -0.14936E-02  0.16367E-02
  0.32105E-02  0.77745E-03  0.16367E-02
  0.28042E-02  0.12550E-02  0.16367E-02
  0.23040E-02  0.18671E-02  0.16367E-02
 -0.40379E-03  0.28856E-02  0.16367E-02
 -0.12093E-02  0.27127E-02  0.16367E-02
 -0.19441E-02  0.24604E-02  0.16367E-02
 -0.25023E-02  0.22358E-02  0.16367E-02
 -0.26356E-02  0.16503E-02  0.16367E-02
 -0.27618E-02  0.87938E-03  0.16367E-02
 -0.21147E-02 -0.21374E-02  0.16367E-02
 -0.16094E-02 -0.26935E-02  0.16367E-02
 -0.11958E-02 -0.31291E-02  0.16367E-02
 -0.59235E-03 -0.30381E-02  0.16367E-02
  0.20221E-03 -0.28750E-02  0.16367E-02
  0.10533E-02 -0.26468E-02  0.16367E-02
  0.18420E-02 -0.23742E-02  0.16367E-02
  0.24565E-02 -0.21538E-02  0.16367E-02
  0.26034E-02 -0.15086E-02  0.16367E-02
  0.37964E-02  0.93572E-03  0.16367E-02
  0.39100E-02  0.00000E+00  0.16367E-02
  0.34621E-02  0.18171E-02  0.16367E-02
  0.29267E-02  0.25928E-02  0.16367E-02
  0.22211E-02  0.32179E-02  0.16367E-02
  0.13865E-02  0.36559E-02  0.16367E-02
  0.47130E-03  0.38815E-02  0.16367E-02
 -0.47130E-03  0.38815E-02  0.16367E-02
 -0.13865E-02  0.36559E-02  0.16367E-02
 -0.22211E-02  0.32179E-02  0.16367E-02
 -0.29267E-02  0.25928E-02  0.16367E-02
 -0.34621E-02  0.18171E-02  0.16367E-02
 -0.37964E-02  0.93572E-03  0.16367E-02
 -0.39100E-02 -0.47884E-18  0.16367E-02
 -0.37964E-02 -0.93572E-03  0.16367E-02
 -0.34621E-02 -0.18171E-02  0.16367E-02
 -0.29267E-02 -0.25928E-02  0.16367E-02
 -0.22211E-02 -0.32179E-02  0.16367E-02
 -0.13865E-02 -0.36559E-02  0.16367E-02
 -0.47130E-03 -0.38815E-02  0.16367E-02
  0.47130E-03 -0.38815E-02  0.16367E-02
  0.13865E-02 -0.36559E-02  0.16367E-02
  0.22211E-02 -0.32179E-02  0.16367E-02
  0.29267E-02 -0.25928E-02  0.16367E-02
  0.34621E-02 -0.18171E-02  0.16367E-02
  0.37964E-02 -0.93572E-03  0.16367E-02
  0.10357E-02  0.68290E-03  0.26159E-02
  0.17420E-02  0.12427E-02  0.26159E-02
  0.23155E-02  0.60093E-03  0.26159E-02
  0.16660E-02 -0.32417E-03  0.26159E-02
  0.30372E-02  0.15536E-03  0.26159E-02
  0.27853E-02 -0.66755E-03  0.26159E-02
  0.12832E-02  0.18445E-02  0.26159E-02
  0.64698E-03  0.14757E-02  0.26159E-02
  0.12285E-03  0.32000E-03  0.26159E-02
 -0.13155E-03  0.11987E-02  0.26159E-02
  0.93903E-03  0.22771E-02  0.26159E-02
  0.11266E-02  0.28207E-02  0.26159E-02
  0.17420E-02  0.24264E-02  0.26159E-02
  0.40490E-03  0.21691E-02  0.26159E-02
  0.39749E-03  0.29319E-02  0.26159E-02
 -0.76940E-03 -0.10058E-02  0.26159E-02
 -0.86800E-03  0.93536E-04  0.26159E-02
  0.45313E-03 -0.69011E-03  0.26159E-02
 -0.18353E-02 -0.70943E-03  0.26159E-02
 -0.18423E-02  0.84973E-04  0.26159E-02
 -0.27233E-02 -0.77559E-03  0.26159E-02
 -0.27979E-02  0.45633E-04  0.26159E-02
 -0.25393E-02 -0.15186E-02  0.26159E-02
 -0.19365E-02 -0.13212E-02  0.26159E-02
 -0.99104E-03  0.10129E-02  0.26159E-02
 -0.14443E-02 -0.17318E-02  0.26159E-02
 -0.31214E-03  0.20271E-02  0.26159E-02
 -0.11006E-02  0.18592E-02  0.26159E-02
 -0.18836E-02  0.17175E-02  0.26159E-02
 -0.18690E-02  0.91371E-03  0.26159E-02
 -0.16366E-03 -0.19805E-02  0.26159E-02
 -0.95166E-03 -0.23493E-02  0.26159E-02
  0.77667E-03 -0.17073E-02  0.26159E-02
  0.17203E-02 -0.14938E-02  0.26159E-02
  0.32109E-02  0.77846E-03  0.26159E-02
  0.28042E-02  0.12554E-02  0.26159E-02
  0.23039E-02  0.18672E-02  0.26159E-02
 -0.40365E-03  0.28845E-02  0.26159E-02
 -0.12093E-02  0.27122E-02  0.26159E-02
 -0.19441E-02  0.24602E-02  0.26159E-02
 -0.25023E-02  0.22358E-02  0.26159E-02
 -0.26355E-02  0.16502E-02  0.26159E-02
 -0.27615E-02  0.87964E-03  0.26159E-02
 -0.21148E-02 -0.21374E-02  0.26159E-02
 -0.16095E-02 -0.26935E-02  0.26159E-02
 -0.11960E-02 -0.31291E-02  0.26159E-02
 -0.59270E-03 -0.30381E-02  0.26159E-02
  0.20180E-03 -0.28750E-02  0.26159E-02
  0.10530E-02 -0.26471E-02  0.26159E-02
  0.18421E-02 -0.23744E-02  0.26159E-02
  0.24566E-02 -0.21543E-02  0.26159E-02
  0.26035E-02 -0.15085E-02  0.26159E-02
  0.37964E-02  0.93572E-03  0.26159E-02
  0.39100E-02  0.00000E+00  0.26159E-02
  0.34621E-02  0.18171E-02  0.26159E-02
  0.29267E-02  0.25928E-02  0.26159E-02
  0.22211E-02  0.32179E-02  0.26159E-02
  0.13865E-02  0.36559E-02  0.26159E-02
  0.47130E-03  0.38815E-02  0.26159E-02
 -0.47130E-03  0.38815E-02  0.26159E-02
 -0.13865E-02  0.36559E-02  0.26159E-02
 -0.22211E-02  0.32179E-02  0.26159E-02
 -0.29267E-02  0.25928E-02  0.26159E-02
 -0.34621E-02  0.18171E-02  0.26159E-02
 -0.37964E-02  0.93572E-03  0.26159E-02
 -0.39100E-02 -0.47884E-18  0.26159E-02
 -0.37964E-02 -0.93572E-03  0.26159E-02
 -0.34621E-02 -0.18171E-02  0.26159E-02
 -0.29267E-02 -0.25928E-02  0.26159E-02
 -0.22211E-02 -0.32179E-02  0.26159E-02
 -0.13865E-02 -0.36559E-02  0.26159E-02
 -0.47130E-03 -0.38815E-02  0.26159E-02
  0.47130E-03 -0.38815E-02  0.26159E-02
  0.13865E-02 -0.36559E-02  0.26159E-02
  0.22211E-02 -0.32179E-02  0.26159E-02
  0.29267E-02 -0.25928E-02  0.26159E-02
  0.34621E-02 -0.18171E-02  0.26159E-02
  0.37964E-02 -0.93572E-03  0.26159E-02
  0.10356E-02  0.68346E-03  0.35951E-02
  0.17418E-02  0.12434E-02  0.35951E-02
  0.23153E-02  0.60145E-03  0.35951E-02
  0.16657E-02 -0.32342E-03  0.35951E-02
  0.30372E-02  0.15572E-03  0.35951E-02
  0.27856E-02 -0.66706E-03  0.35951E-02
  0.12830E-02  0.18447E-02  0.35951E-02
  0.64673E-03  0.14767E-02  0.35951E-02
  0.12259E-03  0.32115E-03  0.35951E-02
 -0.13174E-03  0.12005E-02  0.35951E-02
  0.93870E-03  0.22772E-02  0.35951E-02
  0.11262E-02  0.28203E-02  0.35951E-02
  0.17416E-02  0.24265E-02  0.35951E-02
  0.40485E-03  0.21691E-02  0.35951E-02
  0.39747E-03  0.29316E-02  0.35951E-02
 -0.76975E-03 -0.10060E-02  0.35951E-02
 -0.86811E-03  0.94345E-04  0.35951E-02
  0.45268E-03 -0.68939E-03  0.35951E-02
 -0.18356E-02 -0.70929E-03  0.35951E-02
 -0.18422E-02  0.85096E-04  0.35951E-02
 -0.27233E-02 -0.77542E-03  0.35951E-02
 -0.27976E-02  0.45906E-04  0.35951E-02
 -0.25394E-02 -0.15185E-02  0.35951E-02
 -0.19369E-02 -0.13211E-02  0.35951E-02
 -0.99090E-03  0.10142E-02  0.35951E-02
 -0.14446E-02 -0.17317E-02  0.35951E-02
 -0.31194E-03  0.20274E-02  0.35951E-02
 -0.11002E-02  0.18590E-02  0.35951E-02
 -0.18835E-02  0.17175E-02  0.35951E-02
 -0.18689E-02  0.91395E-03  0.35951E-02
 -0.16394E-03 -0.19805E-02  0.35951E-02
 -0.95226E-03 -0.23494E-02  0.35951E-02
  0.77601E-03 -0.17073E-02  0.35951E-02
  0.17203E-02 -0.14941E-02  0.35951E-02
  0.32112E-02  0.77946E-03  0.35951E-02
  0.28042E-02  0.12558E-02  0.35951E-02
  0.23038E-02  0.18672E-02  0.35951E-02
 -0.40352E-03  0.28835E-02  0.35951E-02
 -0.12093E-02  0.27118E-02  0.35951E-02
 -0.19441E-02  0.24600E-02  0.35951E-02
 -0.25023E-02  0.22358E-02  0.35951E-02
 -0.26354E-02  0.16502E-02  0.35951E-02
 -0.27612E-02  0.87990E-03  0.35951E-02
 -0.21150E-02 -0.21374E-02  0.35951E-02
 -0.16095E-02 -0.26935E-02  0.35951E-02
 -0.11961E-02 -0.31291E-02  0.35951E-02
 -0.59305E-03 -0.30381E-02  0.35951E-02
  0.20140E-03 -0.28750E-02  0.35951E-02
  0.10527E-02 -0.26474E-02  0.35951E-02
  0.18421E-02 -0.23746E-02  0.35951E-02
  0.24568E-02 -0.21549E-02  0.35951E-02
  0.26036E-02 -0.15084E-02  0.35951E-02
  0.37964E-02  0.93572E-03  0.35951E-02
  0.39100E-02  0.00000E+00  0.35951E-02
  0.34621E-02  0.18171E-02  0.35951E-02
  0.29267E-02  0.25928E-02  0.35951E-02
  0.22211E-02  0.32179E-02  0.35951E-02
  0.13865E-02  0.36559E-02  0.35951E-02
  0.47130E-03  0.38815E-02  0.35951E-02
 -0.47130E-03  0.38815E-02  0.35951E-02
 -0.13865E-02  0.36559E-02  0.35951E-02
 -0.22211E-02  0.32179E-02  0.35951E-02
 -0.29267E-02  0.25928E-02  0.35951E-02
 -0.34621E-02  0.18171E-02  0.35951E-02
 -0.37964E-02  0.93572E-03  0.35951E-02
 -0.39100E-02  0.22152E-17  0.35951E-02
 -0.37964E-02 -0.93572E-03  0.35951E-02
 -0.34621E-02 -0.18171E-02  0.35951E-02
 -0.29267E-02 -0.25928E-02  0.35951E-02
 -0.22211E-02 -0.32179E-02  0.35951E-02
 -0.13865E-02 -0.36559E-02  0.35951E-02
 -0.47130E-03 -0.38815E-02  0.35951E-02
  0.47130E-03 -0.38815E-02  0.35951E-02
  0.13865E-02 -0.36559E-02  0.35951E-02
  0.22211E-02 -0.32179E-02  0.35951E-02
  0.29267E-02 -0.25928E-02  0.35951E-02
  0.34621E-02 -0.18171E-02  0.35951E-02
  0.37964E-02 -0.93572E-03  0.35951E-02
  0.10355E-02  0.68401E-03  0.45742E-02
  0.17416E-02  0.12440E-02  0.45742E-02
  0.23152E-02  0.60198E-03  0.45742E-02
  0.16655E-02 -0.32266E-03  0.45742E-02
  0.30372E-02  0.15609E-03  0.45742E-02
  0.27860E-02 -0.66657E-03  0.45742E-02
  0.12829E-02  0.18449E-02  0.45742E-02
  0.64649E-03  0.14777E-02  0.45742E-02
  0.12232E-03  0.32230E-03  0.45742E-02
 -0.13193E-03  0.12022E-02  0.45742E-02
  0.93837E-03  0.22774E-02  0.45742E-02
  0.11259E-02  0.28198E-02  0.45742E-02
  0.17412E-02  0.24267E-02  0.45742E-02
  0.40480E-03  0.21692E-02  0.45742E-02
  0.39745E-03  0.29314E-02  0.45742E-02
 -0.77011E-03 -0.10061E-02  0.45742E-02
 -0.86822E-03  0.95155E-04  0.45742E-02
  0.45223E-03 -0.68866E-03  0.45742E-02
 -0.18359E-02 -0.70915E-03  0.45742E-02
 -0.18421E-02  0.85220E-04  0.45742E-02
 -0.27232E-02 -0.77525E-03  0.45742E-02
 -0.27973E-02  0.46180E-04  0.45742E-02
 -0.25396E-02 -0.15185E-02  0.45742E-02
 -0.19373E-02 -0.13210E-02  0.45742E-02
 -0.99075E-03  0.10156E-02  0.45742E-02
 -0.14450E-02 -0.17317E-02  0.45742E-02
 -0.31173E-03  0.20277E-02  0.45742E-02
 -0.10999E-02  0.18589E-02  0.45742E-02
 -0.18835E-02  0.17175E-02  0.45742E-02
 -0.18687E-02  0.91419E-03  0.45742E-02
 -0.16421E-03 -0.19805E-02  0.45742E-02
 -0.95285E-03 -0.23494E-02  0.45742E-02
  0.77535E-03 -0.17073E-02  0.45742E-02
  0.17202E-02 -0.14943E-02  0.45742E-02
  0.32115E-02  0.78047E-03  0.45742E-02
  0.28041E-02  0.12563E-02  0.45742E-02
  0.23037E-02  0.18672E-02  0.45742E-02
 -0.40338E-03  0.28824E-02  0.45742E-02
 -0.12093E-02  0.27113E-02  0.45742E-02
 -0.19440E-02  0.24597E-02  0.45742E-02
 -0.25023E-02  0.22358E-02  0.45742E-02
 -0.26353E-02  0.16502E-02  0.45742E-02
 -0.27609E-02  0.88016E-03  0.45742E-02
 -0.21151E-02 -0.21374E-02  0.45742E-02
 -0.16096E-02 -0.26935E-02  0.45742E-02
 -0.11962E-02 -0.31291E-02  0.45742E-02
 -0.59340E-03 -0.30381E-02  0.45742E-02
  0.20099E-03 -0.28751E-02  0.45742E-02
  0.10524E-02 -0.26476E-02  0.45742E-02
  0.18422E-02 -0.23748E-02  0.45742E-02
  0.24569E-02 -0.21554E-02  0.45742E-02
  0.26036E-02 -0.15083E-02  0.45742E-02
  0.37964E-02  0.93572E-03  0.45742E-02
  0.39100E-02  0.00000E+00  0.45742E-02
  0.34621E-02  0.18171E-02  0.45742E-02
  0.29267E-02  0.25928E-02  0.45742E-02
  0.22211E-02  0.32179E-02  0.45742E-02
  0.13865E-02  0.36559E-02  0.45742E-02
  0.47130E-03  0.38815E-02  0.45742E-02
 -0.47130E-03  0.38815E-02  0.45742E-02
 -0.13865E-02  0.36559E-02  0.45742E-02
 -0.22211E-02  0.32179E-02  0.45742E-02
 -0.29267E-02  0.25928E-02  0.45742E-02
 -0.34621E-02  0.18171E-02  0.45742E-02
 -0.37964E-02  0.93572E-03  0.45742E-02
 -0.39100E-02 -0.47884E-18  0.45742E-02
 -0.37964E-02 -0.93572E-03  0.45742E-02
 -0.34621E-02 -0.18171E-02  0.45742E-02
 -0.29267E-02 -0.25928E-02  0.45742E-02
 -0.22211E-02 -0.32179E-02  0.45742E-02
 -0.13865E-02 -0.36559E-02  0.45742E-02
 -0.47130E-03 -0.38815E-02  0.45742E-02
  0.47130E-03 -0.38815E-02  0.45742E-02
  0.13865E-02 -0.36559E-02  0.45742E-02
  0.22211E-02 -0.32179E-02  0.45742E-02
  0.29267E-02 -0.25928E-02  0.45742E-02
  0.34621E-02 -0.18171E-02  0.45742E-02
  0.37964E-02 -0.93572E-03  0.45742E-02
  0.10354E-02  0.68457E-03  0.55534E-02
  0.17414E-02  0.12447E-02  0.55534E-02
  0.23151E-02  0.60250E-03  0.55534E-02
  0.16653E-02 -0.32191E-03  0.55534E-02
  0.30372E-02  0.15645E-03  0.55534E-02
  0.27863E-02 -0.66607E-03  0.55534E-02
  0.12829E-02  0.18451E-02  0.55534E-02
  0.64624E-03  0.14787E-02  0.55534E-02
  0.12206E-03  0.32345E-03  0.55534E-02
 -0.13211E-03  0.12040E-02  0.55534E-02
  0.93804E-03  0.22775E-02  0.55534E-02
  0.11255E-02  0.28194E-02  0.55534E-02
  0.17408E-02  0.24268E-02  0.55534E-02
  0.40474E-03  0.21692E-02  0.55534E-02
  0.39744E-03  0.29311E-02  0.55534E-02
 -0.77046E-03 -0.10062E-02  0.55534E-02
 -0.86832E-03  0.95964E-04  0.55534E-02
  0.45179E-03 -0.68793E-03  0.55534E-02
 -0.18362E-02 -0.70901E-03  0.55534E-02
 -0.18420E-02  0.85343E-04  0.55534E-02
 -0.27232E-02 -0.77507E-03  0.55534E-02
 -0.27970E-02  0.46453E-04  0.55534E-02
 -0.25397E-02 -0.15184E-02  0.55534E-02
 -0.19377E-02 -0.13209E-02  0.55534E-02
 -0.99061E-03  0.10169E-02  0.55534E-02
 -0.14453E-02 -0.17316E-02  0.55534E-02
 -0.31153E-03  0.20280E-02  0.55534E-02
 -0.10995E-02  0.18588E-02  0.55534E-02
 -0.18834E-02  0.17175E-02  0.55534E-02
 -0.18686E-02  0.91443E-03  0.55534E-02
 -0.16449E-03 -0.19806E-02  0.55534E-02
 -0.95345E-03 -0.23494E-02  0.55534E-02
  0.77469E-03 -0.17073E-02  0.55534E-02
  0.17202E-02 -0.14945E-02  0.55534E-02
  0.32119E-02  0.78148E-03  0.55534E-02
  0.28041E-02  0.12567E-02  0.55534E-02
  0.23036E-02  0.18673E-02  0.55534E-02
 -0.40324E-03  0.28813E-02  0.55534E-02
 -0.12093E-02  0.27108E-02  0.55534E-02
 -0.19440E-02  0.24595E-02  0.55534E-02
 -0.25022E-02  0.22358E-02  0.55534E-02
 -0.26352E-02  0.16502E-02  0.55534E-02
 -0.27606E-02  0.88043E-03  0.55534E-02
 -0.21152E-02 -0.21374E-02  0.55534E-02
 -0.16096E-02 -0.26936E-02  0.55534E-02
 -0.11963E-02 -0.31291E-02  0.55534E-02
 -0.59375E-03 -0.30381E-02  0.55534E-02
  0.20059E-03 -0.28751E-02  0.55534E-02
  0.10521E-02 -0.26479E-02  0.55534E-02
  0.18422E-02 -0.23750E-02  0.55534E-02
  0.24570E-02 -0.21560E-02  0.55534E-02
  0.26037E-02 -0.15082E-02  0.55534E-02
  0.37964E-02  0.93572E-03  0.55534E-02
  0.39100E-02  0.00000E+00  0.55534E-02
  0.34621E-02  0.18171E-02  0.55534E-02
  0.29267E-02  0.25928E-02  0.55534E-02
  0.22211E-02  0.32179E-02  0.55534E-02
  0.13865E-02  0.36559E-02  0.55534E-02
  0.47130E-03  0.38815E-02  0.55534E-02
 -0.47130E-03  0.38815E-02  0.55534E-02
 -0.13865E-02  0.36559E-02  0.55534E-02
 -0.22211E-02  0.32179E-02  0.55534E-02
 -0.29267E-02  0.25928E-02  0.55534E-02
 -0.34621E-02  0.18171E-02  0.55534E-02
 -0.37964E-02  0.93572E-03  0.55534E-02
 -0.39100E-02 -0.47884E-18  0.55534E-02
 -0.37964E-02 -0.93572E-03  0.55534E-02
 -0.34621E-02 -0.18171E-02  0.55534E-02
 -0.29267E-02 -0.25928E-02  0.55534E-02
 -0.22211E-02 -0.32179E-02  0.55534E-02
 -0.13865E-02 -0.36559E-02  0.55534E-02
 -0.47130E-03 -0.38815E-02  0.55534E-02
  0.47130E-03 -0.38815E-02  0.55534E-02
  0.13865E-02 -0.36559E-02  0.55534E-02
  0.22211E-02 -0.32179E-02  0.55534E-02
  0.29267E-02 -0.25928E-02  0.55534E-02
  0.34621E-02 -0.18171E-02  0.55534E-02
  0.37964E-02 -0.93572E-03  0.55534E-02
  0.10352E-02  0.68512E-03  0.65325E-02
  0.17413E-02  0.12454E-02  0.65325E-02
  0.23150E-02  0.60302E-03  0.65325E-02
  0.16651E-02 -0.32115E-03  0.65325E-02
  0.30371E-02  0.15681E-03  0.65325E-02
  0.27866E-02 -0.66558E-03  0.65325E-02
  0.12827E-02  0.18453E-02  0.65325E-02
  0.64600E-03  0.14797E-02  0.65325E-02
  0.12180E-03  0.32459E-03  0.65325E-02
 -0.13230E-03  0.12058E-02  0.65325E-02
  0.93771E-03  0.22776E-02  0.65325E-02
  0.11252E-02  0.28189E-02  0.65325E-02
  0.17404E-02  0.24270E-02  0.65325E-02
  0.40469E-03  0.21693E-02  0.65325E-02
  0.39742E-03  0.29308E-02  0.65325E-02
 -0.77081E-03 -0.10064E-02  0.65325E-02
 -0.86843E-03  0.96773E-04  0.65325E-02
  0.45134E-03 -0.68721E-03  0.65325E-02
 -0.18365E-02 -0.70887E-03  0.65325E-02
 -0.18419E-02  0.85467E-04  0.65325E-02
 -0.27232E-02 -0.77490E-03  0.65325E-02
 -0.27968E-02  0.46726E-04  0.65325E-02
 -0.25399E-02 -0.15184E-02  0.65325E-02
 -0.19382E-02 -0.13208E-02  0.65325E-02
 -0.99046E-03  0.10183E-02  0.65325E-02
 -0.14457E-02 -0.17316E-02  0.65325E-02
 -0.31133E-03  0.20283E-02  0.65325E-02
 -0.10992E-02  0.18586E-02  0.65325E-02
 -0.18834E-02  0.17175E-02  0.65325E-02
 -0.18685E-02  0.91467E-03  0.65325E-02
 -0.16476E-03 -0.19806E-02  0.65325E-02
 -0.95405E-03 -0.23494E-02  0.65325E-02
  0.77402E-03 -0.17073E-02  0.65325E-02
  0.17202E-02 -0.14948E-02  0.65325E-02
  0.32122E-02  0.78248E-03  0.65325E-02
  0.28041E-02  0.12571E-02  0.65325E-02
  0.23034E-02  0.18673E-02  0.65325E-02
 -0.40310E-03  0.28802E-02  0.65325E-02
 -0.12093E-02  0.27103E-02  0.65325E-02
 -0.19440E-02  0.24593E-02  0.65325E-02
 -0.25022E-02  0.22358E-02  0.65325E-02
 -0.26351E-02  0.16502E-02  0.65325E-02
 -0.27602E-02  0.88069E-03  0.65325E-02
 -0.21154E-02 -0.21374E-02  0.65325E-02
 -0.16097E-02 -0.26936E-02  0.65325E-02
 -0.11964E-02 -0.31291E-02  0.65325E-02
 -0.59409E-03 -0.30381E-02  0.65325E-02
  0.20018E-03 -0.28751E-02  0.65325E-02
  0.10518E-02 -0.26482E-02  0.65325E-02
  0.18422E-02 -0.23752E-02  0.65325E-02
  0.24571E-02 -0.21565E-02  0.65325E-02
  0.26038E-02 -0.15081E-02  0.65325E-02
  0.37964E-02  0.93572E-03  0.65325E-02
  0.39100E-02  0.00000E+00  0.65325E-02
  0.34621E-02  0.18171E-02  0.65325E-02
  0.29267E-02  0.25928E-02  0.65325E-02
  0.22211E-02  0.32179E-02  0.65325E-02
  0.13865E-02  0.36559E-02  0.65325E-02
  0.47130E-03  0.38815E-02  0.65325E-02
 -0.47130E-03  0.38815E-02  0.65325E-02
 -0.13865E-02  0.36559E-02  0.65325E-02
 -0.22211E-02  0.32179E-02  0.65325E-02
 -0.29267E-02  0.25928E-02  0.65325E-02
 -0.34621E-02  0.18171E-02  0.65325E-02
 -0.37964E-02  0.93572E-03  0.65325E-02
 -0.39100E-02 -0.47884E-18  0.65325E-02
 -0.37964E-02 -0.93572E-03  0.65325E-02
 -0.34621E-02 -0.18171E-02  0.65325E-02
 -0.29267E-02 -0.25928E-02  0.65325E-02
 -0.22211E-02 -0.32179E-02  0.65325E-02
 -0.13865E-02 -0.36559E-02  0.65325E-02
 -0.47130E-03 -0.38815E-02  0.65325E-02
  0.47130E-03 -0.38815E-02  0.65325E-02
  0.13865E-02 -0.36559E-02  0.65325E-02
  0.22211E-02 -0.32179E-02  0.65325E-02
  0.29267E-02 -0.25928E-02  0.65325E-02
  0.34621E-02 -0.18171E-02  0.65325E-02
  0.37964E-02 -0.93572E-03  0.65325E-02
  0.10351E-02  0.68567E-03  0.75117E-02
  0.17411E-02  0.12460E-02  0.75117E-02
  0.23149E-02  0.60355E-03  0.75117E-02
  0.16649E-02 -0.32040E-03  0.75117E-02
  0.30371E-02  0.15718E-03  0.75117E-02
  0.27870E-02 -0.66509E-03  0.75117E-02
  0.12826E-02  0.18455E-02  0.75117E-02
  0.64575E-03  0.14807E-02  0.75117E-02
  0.12154E-03  0.32574E-03  0.75117E-02
 -0.13248E-03  0.12075E-02  0.75117E-02
  0.93738E-03  0.22777E-02  0.75117E-02
  0.11249E-02  0.28185E-02  0.75117E-02
  0.17400E-02  0.24271E-02  0.75117E-02
  0.40463E-03  0.21693E-02  0.75117E-02
  0.39740E-03  0.29306E-02  0.75117E-02
 -0.77117E-03 -0.10065E-02  0.75117E-02
 -0.86854E-03  0.97583E-04  0.75117E-02
  0.45089E-03 -0.68648E-03  0.75117E-02
 -0.18368E-02 -0.70873E-03  0.75117E-02
 -0.18418E-02  0.85591E-04  0.75117E-02
 -0.27232E-02 -0.77474E-03  0.75117E-02
 -0.27965E-02  0.47000E-04  0.75117E-02
 -0.25400E-02 -0.15183E-02  0.75117E-02
 -0.19386E-02 -0.13207E-02  0.75117E-02
 -0.99032E-03  0.10197E-02  0.75117E-02
 -0.14460E-02 -0.17316E-02  0.75117E-02
 -0.31113E-03  0.20285E-02  0.75117E-02
 -0.10988E-02  0.18585E-02  0.75117E-02
 -0.18833E-02  0.17175E-02  0.75117E-02
 -0.18683E-02  0.91491E-03  0.75117E-02
 -0.16504E-03 -0.19806E-02  0.75117E-02
 -0.95465E-03 -0.23495E-02  0.75117E-02
  0.77336E-03 -0.17073E-02  0.75117E-02
  0.17201E-02 -0.14950E-02  0.75117E-02
  0.32125E-02  0.78348E-03  0.75117E-02
  0.28041E-02  0.12576E-02  0.75117E-02
  0.23033E-02  0.18674E-02  0.75117E-02
 -0.40296E-03  0.28792E-02  0.75117E-02
 -0.12093E-02  0.27099E-02  0.75117E-02
 -0.19439E-02  0.24591E-02  0.75117E-02
 -0.25022E-02  0.22358E-02  0.75117E-02
 -0.26350E-02  0.16502E-02  0.75117E-02
 -0.27599E-02  0.88095E-03  0.75117E-02
 -0.21155E-02 -0.21374E-02  0.75117E-02
 -0.16097E-02 -0.26936E-02  0.75117E-02
 -0.11965E-02 -0.31290E-02  0.75117E-02
 -0.59444E-03 -0.30381E-02  0.75117E-02
  0.19977E-03 -0.28751E-02  0.75117E-02
  0.10515E-02 -0.26484E-02  0.75117E-02
  0.18423E-02 -0.23754E-02  0.75117E-02
  0.24573E-02 -0.21571E-02  0.75117E-02
  0.26039E-02 -0.15080E-02  0.75117E-02
  0.37964E-02  0.93572E-03  0.75117E-02
  0.39100E-02  0.00000E+00  0.75117E-02
  0.34621E-02  0.18171E-02  0.75117E-02
  0.29267E-02  0.25928E-02  0.75117E-02
  0.22211E-02  0.32179E-02  0.75117E-02
  0.13865E-02  0.36559E-02  0.75117E-02
  0.47130E-03  0.38815E-02  0.75117E-02
 -0.47130E-03  0.38815E-02  0.75117E-02
 -0.13865E-02  0.36559E-02  0.75117E-02
 -0.22211E-02  0.32179E-02  0.75117E-02
 -0.29267E-02  0.25928E-02  0.75117E-02
 -0.34621E-02  0.18171E-02  0.75117E-02
 -0.37964E-02  0.93572E-03  0.75117E-02
 -0.39100E-02  0.47884E-18  0.75117E-02
 -0.37964E-02 -0.93572E-03  0.75117E-02
 -0.34621E-02 -0.18171E-02  0.75117E-02
 -0.29267E-02 -0.25928E-02  0.75117E-02
 -0.22211E-02 -0.32179E-02  0.75117E-02
 -0.13865E-02 -0.36559E-02  0.75117E-02
 -0.47130E-03 -0.38815E-02  0.75117E-02
  0.47130E-03 -0.38815E-02  0.75117E-02
  0.13865E-02 -0.36559E-02  0.75117E-02
  0.22211E-02 -0.32179E-02  0.75117E-02
  0.29267E-02 -0.25928E-02  0.75117E-02
  0.34621E-02 -0.18171E-02  0.75117E-02
  0.37964E-02 -0.93572E-03  0.75117E-02
  
CELLS       3486               17724
       1       0
       1       1
       1       2
       1       3
       1       4
       1       5
       1       6
       1       7
       1       8
       1       9
       1      10
       1      11
       1      12
       1      13
       1      14
       1      15
       1      16
       1      17
       1      18
       1      19
       1      20
       1      21
       1      22
       1      23
       1      24
       1      25
       1      26
       1      27
       1      28
       1      29
       1      30
       1      31
       1      32
       1      33
       1      34
       1      35
       1      36
       1      37
       1      38
       1      39
       1      40
       1      41
       1      42
       1      43
       1      44
       1      45
       1      46
       1      47
       1      48
       1      49
       1      50
       1      51
       1      52
       1      53
       1      54
       1      55
       1      56
       1      57
       1      58
       1      59
       1      60
       1      61
       1      62
       1      63
       1      64
       1      65
       1      66
       1      67
       1      68
       1      69
       1      70
       1      71
       1      72
       1      73
       1      74
       1      75
       1      76
       1      77
       1      78
       1      79
       1      80
       1      81
       1      82
       1      83
       1      84
       1      85
       1      86
       1      87
       1      88
       1      89
       1      90
       1      91
       1      92
       1      93
       1      94
       1      95
       1      96
       1      97
       1      98
       1      99
       1     100
       1     101
       1     102
       1     103
       1     104
       1     105
       1     106
       1     107
       1     108
       1     109
       1     110
       1     111
       1     112
       1     113
       1     114
       1     115
       1     116
       1     117
       1     118
       1     119
       1     120
       1     121
       1     122
       1     123
       1     124
       1     125
       1     126
       1     127
       1     128
       1     129
       1     130
       1     131
       1     132
       1     133
       1     134
       1     135
       1     136
       1     137
       1     138
       1     139
       1     140
       1     141
       1     142
       1     143
       1     144
       1     145
       1     146
       1     147
       1     148
       1     149
       1     150
       1     151
       1     152
       1     153
       1     154
       1     155
       1     156
       1     157
       1     158
       1     159
       1     160
       1     161
       1     162
       1     163
       1     164
       1     165
       1     166
       1     167
       1     168
       1     169
       1     170
       1     171
       1     172
       1     173
       1     174
       1     175
       1     176
       1     177
       1     178
       1     179
       1     180
       1     181
       1     182
       1     183
       1     184
       1     185
       1     186
       1     187
       1     188
       1     189
       1     190
       1     191
       1     192
       1     193
       1     194
       1     195
       1     196
       1     197
       1     198
       1     199
       1     200
       1     201
       1     202
       1     203
       1     204
       1     205
       1     206
       1     207
       1     208
       1     209
       1     210
       1     211
       1     212
       1     213
       1     214
       1     215
       1     216
       1     217
       1     218
       1     219
       1     220
       1     221
       1     222
       1     223
       1     224
       1     225
       1     226
       1     227
       1     228
       1     229
       1     230
       1     231
       1     232
       1     233
       1     234
       1     235
       1     236
       1     237
       1     238
       1     239
       1     240
       1     241
       1     242
       1     243
       1     244
       1     245
       1     246
       1     247
       1     248
       1     249
       1     250
       1     251
       1     252
       1     253
       1     254
       1     255
       1     256
       1     257
       1     258
       1     259
       1     260
       1     261
       1     262
       1     263
       1     264
       1     265
       1     266
       1     267
       1     268
       1     269
       1     270
       1     271
       1     272
       1     273
       1     274
       1     275
       1     276
       1     277
       1     278
       1     279
       1     280
       1     281
       1     282
       1     283
       1     284
       1     285
       1     286
       1     287
       1     288
       1     289
       1     290
       1     291
       1     292
       1     293
       1     294
       1     295
       1     296
       1     297
       1     298
       1     299
       1     300
       1     301
       1     302
       1     303
       1     304
       1     305
       1     306
       1     307
       1     308
       1     309
       1     310
       1     311
       1     312
       1     313
       1     314
       1     315
       1     316
       1     317
       1     318
       1     319
       1     320
       1     321
       1     322
       1     323
       1     324
       1     325
       1     326
       1     327
       1     328
       1     329
       1     330
       1     331
       1     332
       1     333
       1     334
       1     335
       1     336
       1     337
       1     338
       1     339
       1     340
       1     341
       1     342
       1     343
       1     344
       1     345
       1     346
       1     347
       1     348
       1     349
       1     350
       1     351
       1     352
       1     353
       1     354
       1     355
       1     356
       1     357
       1     358
       1     359
       1     360
       1     361
       1     362
       1     363
       1     364
       1     365
       1     366
       1     367
       1     368
       1     369
       1     370
       1     371
       1     372
       1     373
       1     374
       1     375
       1     376
       1     377
       1     378
       1     379
       1     380
       1     381
       1     382
       1     383
       1     384
       1     385
       1     386
       1     387
       1     388
       1     389
       1     390
       1     391
       1     392
       1     393
       1     394
       1     395
       1     396
       1     397
       1     398
       1     399
       1     400
       1     401
       1     402
       1     403
       1     404
       1     405
       1     406
       1     407
       1     408
       1     409
       1     410
       1     411
       1     412
       1     413
       1     414
       1     415
       1     416
       1     417
       1     418
       1     419
       1     420
       1     421
       1     422
       1     423
       1     424
       1     425
       1     426
       1     427
       1     428
       1     429
       1     430
       1     431
       1     432
       1     433
       1     434
       1     435
       1     436
       1     437
       1     438
       1     439
       1     440
       1     441
       1     442
       1     443
       1     444
       1     445
       1     446
       1     447
       1     448
       1     449
       1     450
       1     451
       1     452
       1     453
       1     454
       1     455
       1     456
       1     457
       1     458
       1     459
       1     460
       1     461
       1     462
       1     463
       1     464
       1     465
       1     466
       1     467
       1     468
       1     469
       1     470
       1     471
       1     472
       1     473
       1     474
       1     475
       1     476
       1     477
       1     478
       1     479
       1     480
       1     481
       1     482
       1     483
       1     484
       1     485
       1     486
       1     487
       1     488
       1     489
       1     490
       1     491
       1     492
       1     493
       1     494
       1     495
       1     496
       1     497
       1     498
       1     499
       1     500
       1     501
       1     502
       1     503
       1     504
       1     505
       1     506
       1     507
       1     508
       1     509
       1     510
       1     511
       1     512
       1     513
       1     514
       1     515
       1     516
       1     517
       1     518
       1     519
       1     520
       1     521
       1     522
       1     523
       1     524
       1     525
       1     526
       1     527
       1     528
       1     529
       1     530
       1     531
       1     532
       1     533
       1     534
       1     535
       1     536
       1     537
       1     538
       1     539
       1     540
       1     541
       1     542
       1     543
       1     544
       1     545
       1     546
       1     547
       1     548
       1     549
       1     550
       1     551
       1     552
       1     553
       1     554
       1     555
       1     556
       1     557
       1     558
       1     559
       1     560
       1     561
       1     562
       1     563
       1     564
       1     565
       1     566
       1     567
       1     568
       1     569
       1     570
       1     571
       1     572
       1     573
       1     574
       1     575
       1     576
       1     577
       1     578
       1     579
       1     580
       1     581
       1     582
       1     583
       1     584
       1     585
       1     586
       1     587
       1     588
       1     589
       1     590
       1     591
       1     592
       1     593
       1     594
       1     595
       1     596
       1     597
       1     598
       1     599
       1     600
       1     601
       1     602
       1     603
       1     604
       1     605
       1     606
       1     607
       1     608
       1     609
       1     610
       1     611
       1     612
       1     613
       1     614
       1     615
       1     616
       1     617
       1     618
       1     619
       1     620
       1     621
       1     622
       1     623
       1     624
       1     625
       1     626
       1     627
       1     628
       1     629
       1     630
       1     631
       1     632
       1     633
       1     634
       1     635
       1     636
       1     637
       1     638
       1     639
       1     640
       1     641
       1     642
       1     643
       1     644
       1     645
       1     646
       1     647
       1     648
       1     649
       1     650
       1     651
       1     652
       1     653
       1     654
       1     655
       1     656
       1     657
       1     658
       1     659
       1     660
       1     661
       1     662
       1     663
       1     664
       1     665
       1     666
       1     667
       1     668
       1     669
       1     670
       1     671
       1     672
       1     673
       1     674
       1     675
       1     676
       1     677
       1     678
       1     679
       1     680
       1     681
       1     682
       1     683
       1     684
       1     685
       1     686
       1     687
       1     688
       1     689
       1     690
       1     691
       1     692
       1     693
       1     694
       1     695
       1     696
       1     697
       1     698
       1     699
       1     700
       1     701
       1     702
       1     703
       1     704
       1     705
       1     706
       1     707
       1     708
       1     709
       1     710
       1     711
       1     712
       1     713
       1     714
       1     715
       1     716
       1     717
       1     718
       1     719
       1     720
       1     721
       1     722
       1     723
       1     724
       1     725
       1     726
       1     727
       1     728
       1     729
       1     730
       1     731
       1     732
       1     733
       1     734
       1     735
       1     736
       1     737
       1     738
       1     739
       1     740
       1     741
       1     742
       1     743
       1     744
       1     745
       1     746
       1     747
       1     748
       1     749
       1     750
       1     751
       1     752
       1     753
       1     754
       1     755
       1     756
       1     757
       1     758
       1     759
       1     760
       1     761
       1     762
       1     763
       1     764
       1     765
       1     766
       1     767
       1     768
       1     769
       1     770
       1     771
       1     772
       1     773
       1     774
       1     775
       1     776
       1     777
       1     778
       1     779
       1     780
       1     781
       1     782
       1     783
       1     784
       1     785
       1     786
       1     787
       1     788
       1     789
       1     790
       1     791
       1     792
       1     793
       1     794
       1     795
       1     796
       1     797
       1     798
       1     799
       1     800
       1     801
       1     802
       1     803
       1     804
       1     805
       1     806
       1     807
       1     808
       1     809
       1     810
       1     811
       1     812
       1     813
       1     814
       1     815
       1     816
       1     817
       1     818
       1     819
       1     820
       1     821
       1     822
       1     823
       1     824
       1     825
       1     826
       1     827
       1     828
       1     829
       1     830
       1     831
       1     832
       1     833
       1     834
       1     835
       1     836
       1     837
       1     838
       1     839
       1     840
       1     841
       1     842
       1     843
       1     844
       1     845
       1     846
       1     847
       1     848
       1     849
       1     850
       1     851
       1     852
       1     853
       1     854
       1     855
       1     856
       1     857
       1     858
       1     859
       1     860
       1     861
       1     862
       1     863
       1     864
       1     865
       1     866
       1     867
       1     868
       1     869
       1     870
       1     871
       1     872
       1     873
       1     874
       1     875
       1     876
       1     877
       1     878
       1     879
       1     880
       1     881
       1     882
       1     883
       1     884
       1     885
       1     886
       1     887
       1     888
       1     889
       1     890
       1     891
       1     892
       1     893
       1     894
       1     895
       1     896
       1     897
       1     898
       1     899
       1     900
       1     901
       1     902
       1     903
       1     904
       1     905
       1     906
       1     907
       1     908
       1     909
       1     910
       1     911
       1     912
       1     913
       1     914
       1     915
       1     916
       1     917
       1     918
       1     919
       1     920
       1     921
       1     922
       1     923
       1     924
       1     925
       1     926
       1     927
       1     928
       1     929
       1     930
       1     931
       1     932
       1     933
       1     934
       1     935
       1     936
       1     937
       1     938
       1     939
       1     940
       1     941
       1     942
       1     943
       1     944
       1     945
       1     946
       1     947
       1     948
       1     949
       1     950
       1     951
       1     952
       1     953
       1     954
       1     955
       1     956
       1     957
       1     958
       1     959
       1     960
       1     961
       1     962
       1     963
       1     964
       1     965
       1     966
       1     967
       1     968
       1     969
       1     970
       1     971
       1     972
       1     973
       1     974
       1     975
       1     976
       1     977
       1     978
       1     979
       1     980
       1     981
       1     982
       1     983
       1     984
       1     985
       1     986
       1     987
       1     988
       1     989
       1     990
       1     991
       1     992
       1     993
       1     994
       1     995
       1     996
       1     997
       1     998
       1     999
       1    1000
       1    1001
       1    1002
       1    1003
       1    1004
       1    1005
       1    1006
       1    1007
       1    1008
       1    1009
       1    1010
       1    1011
       1    1012
       1    1013
       1    1014
       1    1015
       1    1016
       1    1017
       1    1018
       1    1019
       1    1020
       1    1021
       1    1022
       1    1023
       1    1024
       1    1025
       1    1026
       1    1027
       1    1028
       1    1029
       1    1030
       1    1031
       1    1032
       1    1033
       1    1034
       1    1035
       1    1036
       1    1037
       1    1038
       1    1039
       1    1040
       1    1041
       1    1042
       1    1043
       1    1044
       1    1045
       1    1046
       1    1047
       1    1048
       1    1049
       1    1050
       1    1051
       1    1052
       1    1053
       1    1054
       1    1055
       1    1056
       1    1057
       1    1058
       1    1059
       1    1060
       1    1061
       1    1062
       1    1063
       1    1064
       1    1065
       1    1066
       1    1067
       1    1068
       1    1069
       1    1070
       1    1071
       1    1072
       1    1073
       1    1074
       1    1075
       1    1076
       1    1077
       1    1078
       1    1079
       1    1080
       1    1081
       1    1082
       1    1083
       1    1084
       1    1085
       1    1086
       1    1087
       1    1088
       1    1089
       1    1090
       1    1091
       1    1092
       1    1093
       1    1094
       1    1095
       1    1096
       1    1097
       1    1098
       1    1099
       1    1100
       1    1101
       1    1102
       1    1103
       1    1104
       1    1105
       1    1106
       1    1107
       1    1108
       1    1109
       1    1110
       1    1111
       1    1112
       1    1113
       1    1114
       1    1115
       1    1116
       1    1117
       1    1118
       1    1119
       1    1120
       1    1121
       1    1122
       1    1123
       1    1124
       1    1125
       1    1126
       1    1127
       1    1128
       1    1129
       1    1130
       1    1131
       1    1132
       1    1133
       1    1134
       1    1135
       1    1136
       1    1137
       1    1138
       1    1139
       1    1140
       1    1141
       1    1142
       1    1143
       1    1144
       1    1145
       1    1146
       1    1147
       1    1148
       1    1149
       1    1150
       1    1151
       1    1152
       1    1153
       1    1154
       1    1155
       1    1156
       1    1157
       1    1158
       1    1159
       1    1160
       1    1161
       1    1162
       1    1163
       1    1164
       1    1165
       1    1166
       1    1167
       1    1168
       1    1169
       1    1170
       1    1171
       1    1172
       1    1173
       1    1174
       1    1175
       1    1176
       1    1177
       1    1178
       1    1179
       1    1180
       1    1181
       1    1182
       1    1183
       1    1184
       1    1185
       1    1186
       1    1187
       1    1188
       1    1189
       1    1190
       1    1191
       1    1192
       1    1193
       1    1194
       1    1195
       1    1196
       1    1197
       1    1198
       1    1199
       1    1200
       1    1201
       1    1202
       1    1203
       1    1204
       1    1205
       1    1206
       1    1207
       1    1208
       1    1209
       1    1210
       1    1211
       1    1212
       1    1213
       1    1214
       1    1215
       1    1216
       1    1217
       1    1218
       1    1219
       1    1220
       1    1221
       1    1222
       1    1223
       1    1224
       1    1225
       1    1226
       1    1227
       1    1228
       1    1229
       1    1230
       1    1231
       1    1232
       1    1233
       1    1234
       1    1235
       1    1236
       1    1237
       1    1238
       1    1239
       1    1240
       1    1241
       1    1242
       1    1243
       1    1244
       1    1245
       1    1246
       1    1247
       1    1248
       1    1249
       1    1250
       1    1251
       1    1252
       1    1253
       1    1254
       1    1255
       1    1256
       1    1257
       1    1258
       1    1259
       1    1260
       1    1261
       1    1262
       1    1263
       1    1264
       1    1265
       1    1266
       1    1267
       1    1268
       1    1269
       1    1270
       1    1271
       1    1272
       1    1273
       1    1274
       1    1275
       1    1276
       1    1277
       1    1278
       1    1279
       1    1280
       1    1281
       1    1282
       1    1283
       1    1284
       1    1285
       1    1286
       1    1287
       1    1288
       1    1289
       1    1290
       1    1291
       1    1292
       1    1293
       1    1294
       1    1295
       1    1296
       1    1297
       1    1298
       1    1299
       1    1300
       1    1301
       1    1302
       1    1303
       1    1304
       1    1305
       1    1306
       1    1307
       1    1308
       1    1309
       1    1310
       1    1311
       1    1312
       1    1313
       1    1314
       1    1315
       1    1316
       1    1317
       1    1318
       1    1319
       1    1320
       1    1321
       1    1322
       1    1323
       1    1324
       1    1325
       1    1326
       1    1327
       1    1328
       1    1329
       1    1330
       1    1331
       1    1332
       1    1333
       1    1334
       1    1335
       1    1336
       1    1337
       1    1338
       1    1339
       1    1340
       1    1341
       1    1342
       1    1343
       1    1344
       1    1345
       1    1346
       1    1347
       1    1348
       1    1349
       1    1350
       1    1351
       1    1352
       1    1353
       1    1354
       1    1355
       1    1356
       1    1357
       1    1358
       1    1359
       1    1360
       1    1361
       1    1362
       1    1363
       1    1364
       1    1365
       1    1366
       1    1367
       1    1368
       1    1369
       1    1370
       1    1371
       1    1372
       1    1373
       1    1374
       1    1375
       1    1376
       1    1377
       1    1378
       1    1379
       1    1380
       1    1381
       1    1382
       1    1383
       1    1384
       1    1385
       1    1386
       1    1387
       1    1388
       1    1389
       1    1390
       1    1391
       1    1392
       1    1393
       1    1394
       1    1395
       1    1396
       1    1397
       1    1398
       1    1399
       1    1400
       1    1401
       1    1402
       1    1403
       1    1404
       1    1405
       1    1406
       1    1407
       1    1408
       1    1409
       1    1410
       1    1411
       1    1412
       1    1413
       1    1414
       1    1415
       1    1416
       1    1417
       1    1418
       1    1419
       1    1420
       1    1421
       1    1422
       1    1423
       1    1424
       1    1425
       1    1426
       1    1427
       1    1428
       1    1429
       1    1430
       1    1431
       1    1432
       1    1433
       1    1434
       1    1435
       1    1436
       1    1437
       1    1438
       1    1439
       1    1440
       1    1441
       1    1442
       1    1443
       1    1444
       1    1445
       1    1446
       1    1447
       1    1448
       1    1449
       1    1450
       1    1451
       1    1452
       1    1453
       1    1454
       1    1455
       1    1456
       1    1457
       1    1458
       1    1459
       1    1460
       1    1461
       1    1462
       1    1463
       1    1464
       1    1465
       1    1466
       1    1467
       1    1468
       1    1469
       1    1470
       1    1471
       1    1472
       1    1473
       1    1474
       1    1475
       1    1476
       1    1477
       1    1478
       1    1479
       1    1480
       1    1481
       1    1482
       1    1483
       1    1484
       1    1485
       1    1486
       1    1487
       1    1488
       1    1489
       1    1490
       1    1491
       1    1492
       1    1493
       1    1494
       1    1495
       1    1496
       1    1497
       1    1498
       1    1499
       1    1500
       1    1501
       1    1502
       1    1503
       1    1504
       1    1505
       1    1506
       1    1507
       1    1508
       1    1509
       1    1510
       1    1511
       1    1512
       1    1513
       1    1514
       1    1515
       1    1516
       1    1517
       1    1518
       1    1519
       1    1520
       1    1521
       1    1522
       1    1523
       1    1524
       1    1525
       1    1526
       1    1527
       1    1528
       1    1529
       1    1530
       1    1531
       1    1532
       1    1533
       1    1534
       1    1535
       1    1536
       1    1537
       1    1538
       1    1539
       1    1540
       1    1541
       1    1542
       1    1543
       1    1544
       1    1545
       1    1546
       1    1547
       1    1548
       1    1549
       1    1550
       1    1551
       1    1552
       1    1553
       1    1554
       1    1555
       1    1556
       1    1557
       1    1558
       1    1559
       1    1560
       1    1561
       1    1562
       1    1563
       1    1564
       1    1565
       1    1566
       1    1567
       1    1568
       1    1569
       1    1570
       1    1571
       1    1572
       1    1573
       1    1574
       1    1575
       1    1576
       1    1577
       1    1578
       1    1579
       1    1580
       1    1581
       1    1582
       1    1583
       1    1584
       1    1585
       1    1586
       1    1587
       1    1588
       1    1589
       1    1590
       1    1591
       1    1592
       1    1593
       1    1594
       1    1595
       1    1596
       1    1597
       1    1598
       1    1599
       1    1600
       1    1601
       1    1602
       1    1603
       1    1604
       1    1605
       1    1606
       1    1607
       1    1608
       1    1609
       1    1610
       1    1611
       1    1612
       1    1613
       1    1614
       1    1615
       1    1616
       1    1617
       1    1618
       1    1619
       1    1620
       1    1621
       1    1622
       1    1623
       1    1624
       1    1625
       1    1626
       1    1627
       1    1628
       1    1629
       1    1630
       1    1631
       1    1632
       1    1633
       1    1634
       1    1635
       1    1636
       1    1637
       1    1638
       1    1639
       1    1640
       1    1641
       1    1642
       1    1643
       1    1644
       1    1645
       1    1646
       1    1647
       1    1648
       1    1649
       1    1650
       1    1651
       1    1652
       1    1653
       1    1654
       1    1655
       1    1656
       1    1657
       1    1658
       1    1659
       1    1660
       1    1661
       1    1662
       1    1663
       1    1664
       1    1665
       1    1666
       1    1667
       1    1668
       1    1669
       1    1670
       1    1671
       1    1672
       1    1673
       1    1674
       1    1675
       1    1676
       1    1677
       1    1678
       1    1679
       1    1680
       1    1681
       1    1682
       1    1683
       1    1684
       1    1685
       1    1686
       1    1687
       1    1688
       1    1689
       1    1690
       1    1691
       1    1692
       1    1693
       1    1694
       1    1695
       1    1696
       1    1697
       1    1698
       1    1699
       1    1700
       1    1701
       1    1702
       1    1703
       1    1704
       1    1705
       1    1706
       1    1707
       1    1708
       1    1709
       1    1710
       1    1711
       1    1712
       1    1713
       1    1714
       1    1715
       1    1716
       1    1717
       1    1718
       1    1719
       1    1720
       1    1721
       1    1722
       1    1723
       1    1724
       1    1725
       1    1726
       1    1727
       1    1728
       1    1729
       1    1730
       1    1731
       1    1732
       1    1733
       1    1734
       1    1735
       1    1736
       1    1737
       1    1738
       1    1739
       1    1740
       1    1741
       1    1742
       1    1743
       1    1744
       1    1745
       1    1746
       1    1747
       1    1748
       1    1749
       1    1750
       1    1751
       1    1752
       1    1753
       1    1754
       1    1755
       1    1756
       1    1757
       1    1758
       1    1759
       1    1760
       1    1761
       1    1762
       1    1763
       1    1764
       1    1765
       1    1766
       1    1767
       1    1768
       1    1769
       1    1770
       1    1771
       1    1772
       1    1773
       1    1774
       1    1775
       1    1776
       1    1777
       1    1778
       1    1779
       1    1780
       1    1781
       1    1782
       1    1783
       1    1784
       1    1785
       1    1786
       1    1787
       1    1788
       1    1789
       1    1790
       1    1791
       1    1792
       1    1793
       1    1794
       1    1795
       1    1796
       1    1797
       1    1798
       1    1799
       1    1800
       1    1801
       1    1802
       1    1803
       1    1804
       1    1805
       1    1806
       1    1807
       1    1808
       1    1809
       1    1810
       1    1811
       1    1812
       1    1813
       1    1814
       1    1815
       1    1816
       1    1817
       1    1818
       1    1819
       1    1820
       1    1821
       1    1822
       1    1823
       1    1824
       1    1825
       1    1826
       1    1827
       1    1828
       1    1829
       1    1830
       1    1831
       1    1832
       1    1833
       1    1834
       1    1835
       1    1836
       1    1837
       1    1838
       1    1839
       1    1840
       1    1841
       1    1842
       1    1843
       1    1844
       1    1845
       1    1846
       1    1847
       1    1848
       1    1849
       1    1850
       1    1851
       1    1852
       1    1853
       1    1854
       1    1855
       1    1856
       1    1857
       1    1858
       1    1859
       1    1860
       1    1861
       1    1862
       1    1863
       1    1864
       1    1865
       1    1866
       1    1867
       1    1868
       1    1869
       1    1870
       1    1871
       1    1872
       1    1873
       1    1874
       1    1875
       1    1876
       1    1877
       1    1878
       1    1879
       1    1880
       1    1881
       1    1882
       1    1883
       1    1884
       1    1885
       1    1886
       1    1887
       1    1888
       1    1889
       1    1890
       1    1891
       1    1892
       1    1893
       1    1894
       1    1895
       1    1896
       1    1897
       1    1898
       1    1899
       1    1900
       1    1901
       1    1902
       1    1903
       1    1904
       1    1905
       1    1906
       1    1907
       1    1908
       1    1909
       1    1910
       1    1911
       1    1912
       1    1913
       1    1914
       1    1915
       1    1916
       1    1917
       1    1918
       1    1919
       1    1920
       1    1921
       1    1922
       1    1923
       1    1924
       1    1925
       1    1926
       1    1927
       1    1928
       1    1929
       1    1930
       1    1931
       1    1932
       1    1933
       1    1934
       1    1935
       1    1936
       1    1937
       1    1938
       1    1939
       1    1940
       1    1941
       1    1942
       1    1943
       1    1944
       1    1945
       1    1946
       1    1947
       1    1948
       1    1949
       8       0       1       2       3       4       5       6       7
       8       2       8       9       3       6      10      11       7
       8      12       1       0      13      14       5       4      15
       8       0      16      17      13       4      18      19      15
       8      20      21      22      12      23      24      25      14
       8      26      27      21      20      28      29      24      23
       8      13      26      20      12      15      28      23      14
       8      30      31      16      32      33      34      18      35
       8      36      37      31      30      38      39      34      33
       8      40      41      37      36      42      43      39      38
       8      44      40      36      45      46      42      38      47
       8      48      17      16      31      49      19      18      34
       8      30      50      45      36      33      51      47      38
       8       0       3      32      16       4       7      35      18
       8      52      26      13      17      53      28      15      19
       8      54      52      17      48      55      53      19      49
       8      56      54      48      57      58      55      49      59
       8      37      57      48      31      39      59      49      34
       8      60      61      50      30      62      63      51      33
       8      64      60      30      32      65      62      33      35
       8      66      64      32       3      67      65      35       7
       8      68       8       2      69      70      10       6      71
       8      72      69       2       1      73      71       6       5
       8      22      72       1      12      25      73       5      14
       8      74      27      26      52      75      29      28      53
       8      76      74      52      54      77      75      53      55
       8      78      76      54      56      79      77      55      58
       8      80      78      56      81      82      79      58      83
       8      84      81      56      57      85      83      58      59
       8      41      84      57      37      43      85      59      39
       8      86      44      45      50      87      46      47      51
       8      88      86      50      61      89      87      51      63
       8      90      88      61      91      92      89      63      93
       8      94      91      61      60      95      93      63      62
       8      96      94      60      64      97      95      62      65
       8      98      96      64      66      99      97      65      67
       8     100      98      66     101     102      99      67     103
       8       9     101      66       3      11     103      67       7
       8     104     105       8      68     106     107      10      70
       8     108     104      68      69     109     106      70      71
       8     110     108      69      72     111     109      71      73
       8     112     110      72      22     113     111      73      25
       8     114     112      22      21     115     113      25      24
       8     116     114      21      27     117     115      24      29
       8     118     116      27      74     119     117      29      75
       8     120     118      74      76     121     119      75      77
       8     122     120      76      78     123     121      77      79
       8     124     122      78      80     125     123      79      82
       8     126     124      80      81     127     125      82      83
       8     128     126      81      84     129     127      83      85
       8     130     128      84      41     131     129      85      43
       8     132     130      41      40     133     131      43      42
       8     134     132      40      44     135     133      42      46
       8     136     134      44      86     137     135      46      87
       8     138     136      86      88     139     137      87      89
       8     140     138      88      90     141     139      89      92
       8     142     140      90      91     143     141      92      93
       8     144     142      91      94     145     143      93      95
       8     146     144      94      96     147     145      95      97
       8     148     146      96      98     149     147      97      99
       8     150     148      98     100     151     149      99     102
       8     152     150     100     101     153     151     102     103
       8     154     152     101       9     155     153     103      11
       8     105     154       9       8     107     155      11      10
       8     156     157     158     159       0       1       2       3
       8     158     160     161     159       2       8       9       3
       8     162     157     156     163      12       1       0      13
       8     156     164     165     163       0      16      17      13
       8     166     167     168     162      20      21      22      12
       8     169     170     167     166      26      27      21      20
       8     163     169     166     162      13      26      20      12
       8     171     172     164     173      30      31      16      32
       8     174     175     172     171      36      37      31      30
       8     176     177     175     174      40      41      37      36
       8     178     176     174     179      44      40      36      45
       8     180     165     164     172      48      17      16      31
       8     171     181     179     174      30      50      45      36
       8     156     159     173     164       0       3      32      16
       8     182     169     163     165      52      26      13      17
       8     183     182     165     180      54      52      17      48
       8     184     183     180     185      56      54      48      57
       8     175     185     180     172      37      57      48      31
       8     186     187     181     171      60      61      50      30
       8     188     186     171     173      64      60      30      32
       8     189     188     173     159      66      64      32       3
       8     190     160     158     191      68       8       2      69
       8     192     191     158     157      72      69       2       1
       8     168     192     157     162      22      72       1      12
       8     193     170     169     182      74      27      26      52
       8     194     193     182     183      76      74      52      54
       8     195     194     183     184      78      76      54      56
       8     196     195     184     197      80      78      56      81
       8     198     197     184     185      84      81      56      57
       8     177     198     185     175      41      84      57      37
       8     199     178     179     181      86      44      45      50
       8     200     199     181     187      88      86      50      61
       8     201     200     187     202      90      88      61      91
       8     203     202     187     186      94      91      61      60
       8     204     203     186     188      96      94      60      64
       8     205     204     188     189      98      96      64      66
       8     206     205     189     207     100      98      66     101
       8     161     207     189     159       9     101      66       3
       8     208     209     160     190     104     105       8      68
       8     210     208     190     191     108     104      68      69
       8     211     210     191     192     110     108      69      72
       8     212     211     192     168     112     110      72      22
       8     213     212     168     167     114     112      22      21
       8     214     213     167     170     116     114      21      27
       8     215     214     170     193     118     116      27      74
       8     216     215     193     194     120     118      74      76
       8     217     216     194     195     122     120      76      78
       8     218     217     195     196     124     122      78      80
       8     219     218     196     197     126     124      80      81
       8     220     219     197     198     128     126      81      84
       8     221     220     198     177     130     128      84      41
       8     222     221     177     176     132     130      41      40
       8     223     222     176     178     134     132      40      44
       8     224     223     178     199     136     134      44      86
       8     225     224     199     200     138     136      86      88
       8     226     225     200     201     140     138      88      90
       8     227     226     201     202     142     140      90      91
       8     228     227     202     203     144     142      91      94
       8     229     228     203     204     146     144      94      96
       8     230     229     204     205     148     146      96      98
       8     231     230     205     206     150     148      98     100
       8     232     231     206     207     152     150     100     101
       8     233     232     207     161     154     152     101       9
       8     209     233     161     160     105     154       9       8
       8     234     235     236     237     156     157     158     159
       8     236     238     239     237     158     160     161     159
       8     240     235     234     241     162     157     156     163
       8     234     242     243     241     156     164     165     163
       8     244     245     246     240     166     167     168     162
       8     247     248     245     244     169     170     167     166
       8     241     247     244     240     163     169     166     162
       8     249     250     242     251     171     172     164     173
       8     252     253     250     249     174     175     172     171
       8     254     255     253     252     176     177     175     174
       8     256     254     252     257     178     176     174     179
       8     258     243     242     250     180     165     164     172
       8     249     259     257     252     171     181     179     174
       8     234     237     251     242     156     159     173     164
       8     260     247     241     243     182     169     163     165
       8     261     260     243     258     183     182     165     180
       8     262     261     258     263     184     183     180     185
       8     253     263     258     250     175     185     180     172
       8     264     265     259     249     186     187     181     171
       8     266     264     249     251     188     186     171     173
       8     267     266     251     237     189     188     173     159
       8     268     238     236     269     190     160     158     191
       8     270     269     236     235     192     191     158     157
       8     246     270     235     240     168     192     157     162
       8     271     248     247     260     193     170     169     182
       8     272     271     260     261     194     193     182     183
       8     273     272     261     262     195     194     183     184
       8     274     273     262     275     196     195     184     197
       8     276     275     262     263     198     197     184     185
       8     255     276     263     253     177     198     185     175
       8     277     256     257     259     199     178     179     181
       8     278     277     259     265     200     199     181     187
       8     279     278     265     280     201     200     187     202
       8     281     280     265     264     203     202     187     186
       8     282     281     264     266     204     203     186     188
       8     283     282     266     267     205     204     188     189
       8     284     283     267     285     206     205     189     207
       8     239     285     267     237     161     207     189     159
       8     286     287     238     268     208     209     160     190
       8     288     286     268     269     210     208     190     191
       8     289     288     269     270     211     210     191     192
       8     290     289     270     246     212     211     192     168
       8     291     290     246     245     213     212     168     167
       8     292     291     245     248     214     213     167     170
       8     293     292     248     271     215     214     170     193
       8     294     293     271     272     216     215     193     194
       8     295     294     272     273     217     216     194     195
       8     296     295     273     274     218     217     195     196
       8     297     296     274     275     219     218     196     197
       8     298     297     275     276     220     219     197     198
       8     299     298     276     255     221     220     198     177
       8     300     299     255     254     222     221     177     176
       8     301     300     254     256     223     222     176     178
       8     302     301     256     277     224     223     178     199
       8     303     302     277     278     225     224     199     200
       8     304     303     278     279     226     225     200     201
       8     305     304     279     280     227     226     201     202
       8     306     305     280     281     228     227     202     203
       8     307     306     281     282     229     228     203     204
       8     308     307     282     283     230     229     204     205
       8     309     308     283     284     231     230     205     206
       8     310     309     284     285     232     231     206     207
       8     311     310     285     239     233     232     207     161
       8     287     311     239     238     209     233     161     160
       8     312     313     314     315     234     235     236     237
       8     314     316     317     315     236     238     239     237
       8     318     313     312     319     240     235     234     241
       8     312     320     321     319     234     242     243     241
       8     322     323     324     318     244     245     246     240
       8     325     326     323     322     247     248     245     244
       8     319     325     322     318     241     247     244     240
       8     327     328     320     329     249     250     242     251
       8     330     331     328     327     252     253     250     249
       8     332     333     331     330     254     255     253     252
       8     334     332     330     335     256     254     252     257
       8     336     321     320     328     258     243     242     250
       8     327     337     335     330     249     259     257     252
       8     312     315     329     320     234     237     251     242
       8     338     325     319     321     260     247     241     243
       8     339     338     321     336     261     260     243     258
       8     340     339     336     341     262     261     258     263
       8     331     341     336     328     253     263     258     250
       8     342     343     337     327     264     265     259     249
       8     344     342     327     329     266     264     249     251
       8     345     344     329     315     267     266     251     237
       8     346     316     314     347     268     238     236     269
       8     348     347     314     313     270     269     236     235
       8     324     348     313     318     246     270     235     240
       8     349     326     325     338     271     248     247     260
       8     350     349     338     339     272     271     260     261
       8     351     350     339     340     273     272     261     262
       8     352     351     340     353     274     273     262     275
       8     354     353     340     341     276     275     262     263
       8     333     354     341     331     255     276     263     253
       8     355     334     335     337     277     256     257     259
       8     356     355     337     343     278     277     259     265
       8     357     356     343     358     279     278     265     280
       8     359     358     343     342     281     280     265     264
       8     360     359     342     344     282     281     264     266
       8     361     360     344     345     283     282     266     267
       8     362     361     345     363     284     283     267     285
       8     317     363     345     315     239     285     267     237
       8     364     365     316     346     286     287     238     268
       8     366     364     346     347     288     286     268     269
       8     367     366     347     348     289     288     269     270
       8     368     367     348     324     290     289     270     246
       8     369     368     324     323     291     290     246     245
       8     370     369     323     326     292     291     245     248
       8     371     370     326     349     293     292     248     271
       8     372     371     349     350     294     293     271     272
       8     373     372     350     351     295     294     272     273
       8     374     373     351     352     296     295     273     274
       8     375     374     352     353     297     296     274     275
       8     376     375     353     354     298     297     275     276
       8     377     376     354     333     299     298     276     255
       8     378     377     333     332     300     299     255     254
       8     379     378     332     334     301     300     254     256
       8     380     379     334     355     302     301     256     277
       8     381     380     355     356     303     302     277     278
       8     382     381     356     357     304     303     278     279
       8     383     382     357     358     305     304     279     280
       8     384     383     358     359     306     305     280     281
       8     385     384     359     360     307     306     281     282
       8     386     385     360     361     308     307     282     283
       8     387     386     361     362     309     308     283     284
       8     388     387     362     363     310     309     284     285
       8     389     388     363     317     311     310     285     239
       8     365     389     317     316     287     311     239     238
       8     390     391     392     393     312     313     314     315
       8     392     394     395     393     314     316     317     315
       8     396     391     390     397     318     313     312     319
       8     390     398     399     397     312     320     321     319
       8     400     401     402     396     322     323     324     318
       8     403     404     401     400     325     326     323     322
       8     397     403     400     396     319     325     322     318
       8     405     406     398     407     327     328     320     329
       8     408     409     406     405     330     331     328     327
       8     410     411     409     408     332     333     331     330
       8     412     410     408     413     334     332     330     335
       8     414     399     398     406     336     321     320     328
       8     405     415     413     408     327     337     335     330
       8     390     393     407     398     312     315     329     320
       8     416     403     397     399     338     325     319     321
       8     417     416     399     414     339     338     321     336
       8     418     417     414     419     340     339     336     341
       8     409     419     414     406     331     341     336     328
       8     420     421     415     405     342     343     337     327
       8     422     420     405     407     344     342     327     329
       8     423     422     407     393     345     344     329     315
       8     424     394     392     425     346     316     314     347
       8     426     425     392     391     348     347     314     313
       8     402     426     391     396     324     348     313     318
       8     427     404     403     416     349     326     325     338
       8     428     427     416     417     350     349     338     339
       8     429     428     417     418     351     350     339     340
       8     430     429     418     431     352     351     340     353
       8     432     431     418     419     354     353     340     341
       8     411     432     419     409     333     354     341     331
       8     433     412     413     415     355     334     335     337
       8     434     433     415     421     356     355     337     343
       8     435     434     421     436     357     356     343     358
       8     437     436     421     420     359     358     343     342
       8     438     437     420     422     360     359     342     344
       8     439     438     422     423     361     360     344     345
       8     440     439     423     441     362     361     345     363
       8     395     441     423     393     317     363     345     315
       8     442     443     394     424     364     365     316     346
       8     444     442     424     425     366     364     346     347
       8     445     444     425     426     367     366     347     348
       8     446     445     426     402     368     367     348     324
       8     447     446     402     401     369     368     324     323
       8     448     447     401     404     370     369     323     326
       8     449     448     404     427     371     370     326     349
       8     450     449     427     428     372     371     349     350
       8     451     450     428     429     373     372     350     351
       8     452     451     429     430     374     373     351     352
       8     453     452     430     431     375     374     352     353
       8     454     453     431     432     376     375     353     354
       8     455     454     432     411     377     376     354     333
       8     456     455     411     410     378     377     333     332
       8     457     456     410     412     379     378     332     334
       8     458     457     412     433     380     379     334     355
       8     459     458     433     434     381     380     355     356
       8     460     459     434     435     382     381     356     357
       8     461     460     435     436     383     382     357     358
       8     462     461     436     437     384     383     358     359
       8     463     462     437     438     385     384     359     360
       8     464     463     438     439     386     385     360     361
       8     465     464     439     440     387     386     361     362
       8     466     465     440     441     388     387     362     363
       8     467     466     441     395     389     388     363     317
       8     443     467     395     394     365     389     317     316
       8     468     469     470     471     390     391     392     393
       8     470     472     473     471     392     394     395     393
       8     474     469     468     475     396     391     390     397
       8     468     476     477     475     390     398     399     397
       8     478     479     480     474     400     401     402     396
       8     481     482     479     478     403     404     401     400
       8     475     481     478     474     397     403     400     396
       8     483     484     476     485     405     406     398     407
       8     486     487     484     483     408     409     406     405
       8     488     489     487     486     410     411     409     408
       8     490     488     486     491     412     410     408     413
       8     492     477     476     484     414     399     398     406
       8     483     493     491     486     405     415     413     408
       8     468     471     485     476     390     393     407     398
       8     494     481     475     477     416     403     397     399
       8     495     494     477     492     417     416     399     414
       8     496     495     492     497     418     417     414     419
       8     487     497     492     484     409     419     414     406
       8     498     499     493     483     420     421     415     405
       8     500     498     483     485     422     420     405     407
       8     501     500     485     471     423     422     407     393
       8     502     472     470     503     424     394     392     425
       8     504     503     470     469     426     425     392     391
       8     480     504     469     474     402     426     391     396
       8     505     482     481     494     427     404     403     416
       8     506     505     494     495     428     427     416     417
       8     507     506     495     496     429     428     417     418
       8     508     507     496     509     430     429     418     431
       8     510     509     496     497     432     431     418     419
       8     489     510     497     487     411     432     419     409
       8     511     490     491     493     433     412     413     415
       8     512     511     493     499     434     433     415     421
       8     513     512     499     514     435     434     421     436
       8     515     514     499     498     437     436     421     420
       8     516     515     498     500     438     437     420     422
       8     517     516     500     501     439     438     422     423
       8     518     517     501     519     440     439     423     441
       8     473     519     501     471     395     441     423     393
       8     520     521     472     502     442     443     394     424
       8     522     520     502     503     444     442     424     425
       8     523     522     503     504     445     444     425     426
       8     524     523     504     480     446     445     426     402
       8     525     524     480     479     447     446     402     401
       8     526     525     479     482     448     447     401     404
       8     527     526     482     505     449     448     404     427
       8     528     527     505     506     450     449     427     428
       8     529     528     506     507     451     450     428     429
       8     530     529     507     508     452     451     429     430
       8     531     530     508     509     453     452     430     431
       8     532     531     509     510     454     453     431     432
       8     533     532     510     489     455     454     432     411
       8     534     533     489     488     456     455     411     410
       8     535     534     488     490     457     456     410     412
       8     536     535     490     511     458     457     412     433
       8     537     536     511     512     459     458     433     434
       8     538     537     512     513     460     459     434     435
       8     539     538     513     514     461     460     435     436
       8     540     539     514     515     462     461     436     437
       8     541     540     515     516     463     462     437     438
       8     542     541     516     517     464     463     438     439
       8     543     542     517     518     465     464     439     440
       8     544     543     518     519     466     465     440     441
       8     545     544     519     473     467     466     441     395
       8     521     545     473     472     443     467     395     394
       8     546     547     548     549     468     469     470     471
       8     548     550     551     549     470     472     473     471
       8     552     547     546     553     474     469     468     475
       8     546     554     555     553     468     476     477     475
       8     556     557     558     552     478     479     480     474
       8     559     560     557     556     481     482     479     478
       8     553     559     556     552     475     481     478     474
       8     561     562     554     563     483     484     476     485
       8     564     565     562     561     486     487     484     483
       8     566     567     565     564     488     489     487     486
       8     568     566     564     569     490     488     486     491
       8     570     555     554     562     492     477     476     484
       8     561     571     569     564     483     493     491     486
       8     546     549     563     554     468     471     485     476
       8     572     559     553     555     494     481     475     477
       8     573     572     555     570     495     494     477     492
       8     574     573     570     575     496     495     492     497
       8     565     575     570     562     487     497     492     484
       8     576     577     571     561     498     499     493     483
       8     578     576     561     563     500     498     483     485
       8     579     578     563     549     501     500     485     471
       8     580     550     548     581     502     472     470     503
       8     582     581     548     547     504     503     470     469
       8     558     582     547     552     480     504     469     474
       8     583     560     559     572     505     482     481     494
       8     584     583     572     573     506     505     494     495
       8     585     584     573     574     507     506     495     496
       8     586     585     574     587     508     507     496     509
       8     588     587     574     575     510     509     496     497
       8     567     588     575     565     489     510     497     487
       8     589     568     569     571     511     490     491     493
       8     590     589     571     577     512     511     493     499
       8     591     590     577     592     513     512     499     514
       8     593     592     577     576     515     514     499     498
       8     594     593     576     578     516     515     498     500
       8     595     594     578     579     517     516     500     501
       8     596     595     579     597     518     517     501     519
       8     551     597     579     549     473     519     501     471
       8     598     599     550     580     520     521     472     502
       8     600     598     580     581     522     520     502     503
       8     601     600     581     582     523     522     503     504
       8     602     601     582     558     524     523     504     480
       8     603     602     558     557     525     524     480     479
       8     604     603     557     560     526     525     479     482
       8     605     604     560     583     527     526     482     505
       8     606     605     583     584     528     527     505     506
       8     607     606     584     585     529     528     506     507
       8     608     607     585     586     530     529     507     508
       8     609     608     586     587     531     530     508     509
       8     610     609     587     588     532     531     509     510
       8     611     610     588     567     533     532     510     489
       8     612     611     567     566     534     533     489     488
       8     613     612     566     568     535     534     488     490
       8     614     613     568     589     536     535     490     511
       8     615     614     589     590     537     536     511     512
       8     616     615     590     591     538     537     512     513
       8     617     616     591     592     539     538     513     514
       8     618     617     592     593     540     539     514     515
       8     619     618     593     594     541     540     515     516
       8     620     619     594     595     542     541     516     517
       8     621     620     595     596     543     542     517     518
       8     622     621     596     597     544     543     518     519
       8     623     622     597     551     545     544     519     473
       8     599     623     551     550     521     545     473     472
       8     624     625     626     627     546     547     548     549
       8     626     628     629     627     548     550     551     549
       8     630     625     624     631     552     547     546     553
       8     624     632     633     631     546     554     555     553
       8     634     635     636     630     556     557     558     552
       8     637     638     635     634     559     560     557     556
       8     631     637     634     630     553     559     556     552
       8     639     640     632     641     561     562     554     563
       8     642     643     640     639     564     565     562     561
       8     644     645     643     642     566     567     565     564
       8     646     644     642     647     568     566     564     569
       8     648     633     632     640     570     555     554     562
       8     639     649     647     642     561     571     569     564
       8     624     627     641     632     546     549     563     554
       8     650     637     631     633     572     559     553     555
       8     651     650     633     648     573     572     555     570
       8     652     651     648     653     574     573     570     575
       8     643     653     648     640     565     575     570     562
       8     654     655     649     639     576     577     571     561
       8     656     654     639     641     578     576     561     563
       8     657     656     641     627     579     578     563     549
       8     658     628     626     659     580     550     548     581
       8     660     659     626     625     582     581     548     547
       8     636     660     625     630     558     582     547     552
       8     661     638     637     650     583     560     559     572
       8     662     661     650     651     584     583     572     573
       8     663     662     651     652     585     584     573     574
       8     664     663     652     665     586     585     574     587
       8     666     665     652     653     588     587     574     575
       8     645     666     653     643     567     588     575     565
       8     667     646     647     649     589     568     569     571
       8     668     667     649     655     590     589     571     577
       8     669     668     655     670     591     590     577     592
       8     671     670     655     654     593     592     577     576
       8     672     671     654     656     594     593     576     578
       8     673     672     656     657     595     594     578     579
       8     674     673     657     675     596     595     579     597
       8     629     675     657     627     551     597     579     549
       8     676     677     628     658     598     599     550     580
       8     678     676     658     659     600     598     580     581
       8     679     678     659     660     601     600     581     582
       8     680     679     660     636     602     601     582     558
       8     681     680     636     635     603     602     558     557
       8     682     681     635     638     604     603     557     560
       8     683     682     638     661     605     604     560     583
       8     684     683     661     662     606     605     583     584
       8     685     684     662     663     607     606     584     585
       8     686     685     663     664     608     607     585     586
       8     687     686     664     665     609     608     586     587
       8     688     687     665     666     610     609     587     588
       8     689     688     666     645     611     610     588     567
       8     690     689     645     644     612     611     567     566
       8     691     690     644     646     613     612     566     568
       8     692     691     646     667     614     613     568     589
       8     693     692     667     668     615     614     589     590
       8     694     693     668     669     616     615     590     591
       8     695     694     669     670     617     616     591     592
       8     696     695     670     671     618     617     592     593
       8     697     696     671     672     619     618     593     594
       8     698     697     672     673     620     619     594     595
       8     699     698     673     674     621     620     595     596
       8     700     699     674     675     622     621     596     597
       8     701     700     675     629     623     622     597     551
       8     677     701     629     628     599     623     551     550
       8     702     703     704     705     624     625     626     627
       8     704     706     707     705     626     628     629     627
       8     708     703     702     709     630     625     624     631
       8     702     710     711     709     624     632     633     631
       8     712     713     714     708     634     635     636     630
       8     715     716     713     712     637     638     635     634
       8     709     715     712     708     631     637     634     630
       8     717     718     710     719     639     640     632     641
       8     720     721     718     717     642     643     640     639
       8     722     723     721     720     644     645     643     642
       8     724     722     720     725     646     644     642     647
       8     726     711     710     718     648     633     632     640
       8     717     727     725     720     639     649     647     642
       8     702     705     719     710     624     627     641     632
       8     728     715     709     711     650     637     631     633
       8     729     728     711     726     651     650     633     648
       8     730     729     726     731     652     651     648     653
       8     721     731     726     718     643     653     648     640
       8     732     733     727     717     654     655     649     639
       8     734     732     717     719     656     654     639     641
       8     735     734     719     705     657     656     641     627
       8     736     706     704     737     658     628     626     659
       8     738     737     704     703     660     659     626     625
       8     714     738     703     708     636     660     625     630
       8     739     716     715     728     661     638     637     650
       8     740     739     728     729     662     661     650     651
       8     741     740     729     730     663     662     651     652
       8     742     741     730     743     664     663     652     665
       8     744     743     730     731     666     665     652     653
       8     723     744     731     721     645     666     653     643
       8     745     724     725     727     667     646     647     649
       8     746     745     727     733     668     667     649     655
       8     747     746     733     748     669     668     655     670
       8     749     748     733     732     671     670     655     654
       8     750     749     732     734     672     671     654     656
       8     751     750     734     735     673     672     656     657
       8     752     751     735     753     674     673     657     675
       8     707     753     735     705     629     675     657     627
       8     754     755     706     736     676     677     628     658
       8     756     754     736     737     678     676     658     659
       8     757     756     737     738     679     678     659     660
       8     758     757     738     714     680     679     660     636
       8     759     758     714     713     681     680     636     635
       8     760     759     713     716     682     681     635     638
       8     761     760     716     739     683     682     638     661
       8     762     761     739     740     684     683     661     662
       8     763     762     740     741     685     684     662     663
       8     764     763     741     742     686     685     663     664
       8     765     764     742     743     687     686     664     665
       8     766     765     743     744     688     687     665     666
       8     767     766     744     723     689     688     666     645
       8     768     767     723     722     690     689     645     644
       8     769     768     722     724     691     690     644     646
       8     770     769     724     745     692     691     646     667
       8     771     770     745     746     693     692     667     668
       8     772     771     746     747     694     693     668     669
       8     773     772     747     748     695     694     669     670
       8     774     773     748     749     696     695     670     671
       8     775     774     749     750     697     696     671     672
       8     776     775     750     751     698     697     672     673
       8     777     776     751     752     699     698     673     674
       8     778     777     752     753     700     699     674     675
       8     779     778     753     707     701     700     675     629
       8     755     779     707     706     677     701     629     628
       8     780     781     782     783     702     703     704     705
       8     782     784     785     783     704     706     707     705
       8     786     781     780     787     708     703     702     709
       8     780     788     789     787     702     710     711     709
       8     790     791     792     786     712     713     714     708
       8     793     794     791     790     715     716     713     712
       8     787     793     790     786     709     715     712     708
       8     795     796     788     797     717     718     710     719
       8     798     799     796     795     720     721     718     717
       8     800     801     799     798     722     723     721     720
       8     802     800     798     803     724     722     720     725
       8     804     789     788     796     726     711     710     718
       8     795     805     803     798     717     727     725     720
       8     780     783     797     788     702     705     719     710
       8     806     793     787     789     728     715     709     711
       8     807     806     789     804     729     728     711     726
       8     808     807     804     809     730     729     726     731
       8     799     809     804     796     721     731     726     718
       8     810     811     805     795     732     733     727     717
       8     812     810     795     797     734     732     717     719
       8     813     812     797     783     735     734     719     705
       8     814     784     782     815     736     706     704     737
       8     816     815     782     781     738     737     704     703
       8     792     816     781     786     714     738     703     708
       8     817     794     793     806     739     716     715     728
       8     818     817     806     807     740     739     728     729
       8     819     818     807     808     741     740     729     730
       8     820     819     808     821     742     741     730     743
       8     822     821     808     809     744     743     730     731
       8     801     822     809     799     723     744     731     721
       8     823     802     803     805     745     724     725     727
       8     824     823     805     811     746     745     727     733
       8     825     824     811     826     747     746     733     748
       8     827     826     811     810     749     748     733     732
       8     828     827     810     812     750     749     732     734
       8     829     828     812     813     751     750     734     735
       8     830     829     813     831     752     751     735     753
       8     785     831     813     783     707     753     735     705
       8     832     833     784     814     754     755     706     736
       8     834     832     814     815     756     754     736     737
       8     835     834     815     816     757     756     737     738
       8     836     835     816     792     758     757     738     714
       8     837     836     792     791     759     758     714     713
       8     838     837     791     794     760     759     713     716
       8     839     838     794     817     761     760     716     739
       8     840     839     817     818     762     761     739     740
       8     841     840     818     819     763     762     740     741
       8     842     841     819     820     764     763     741     742
       8     843     842     820     821     765     764     742     743
       8     844     843     821     822     766     765     743     744
       8     845     844     822     801     767     766     744     723
       8     846     845     801     800     768     767     723     722
       8     847     846     800     802     769     768     722     724
       8     848     847     802     823     770     769     724     745
       8     849     848     823     824     771     770     745     746
       8     850     849     824     825     772     771     746     747
       8     851     850     825     826     773     772     747     748
       8     852     851     826     827     774     773     748     749
       8     853     852     827     828     775     774     749     750
       8     854     853     828     829     776     775     750     751
       8     855     854     829     830     777     776     751     752
       8     856     855     830     831     778     777     752     753
       8     857     856     831     785     779     778     753     707
       8     833     857     785     784     755     779     707     706
       8     858     859     860     861     780     781     782     783
       8     860     862     863     861     782     784     785     783
       8     864     859     858     865     786     781     780     787
       8     858     866     867     865     780     788     789     787
       8     868     869     870     864     790     791     792     786
       8     871     872     869     868     793     794     791     790
       8     865     871     868     864     787     793     790     786
       8     873     874     866     875     795     796     788     797
       8     876     877     874     873     798     799     796     795
       8     878     879     877     876     800     801     799     798
       8     880     878     876     881     802     800     798     803
       8     882     867     866     874     804     789     788     796
       8     873     883     881     876     795     805     803     798
       8     858     861     875     866     780     783     797     788
       8     884     871     865     867     806     793     787     789
       8     885     884     867     882     807     806     789     804
       8     886     885     882     887     808     807     804     809
       8     877     887     882     874     799     809     804     796
       8     888     889     883     873     810     811     805     795
       8     890     888     873     875     812     810     795     797
       8     891     890     875     861     813     812     797     783
       8     892     862     860     893     814     784     782     815
       8     894     893     860     859     816     815     782     781
       8     870     894     859     864     792     816     781     786
       8     895     872     871     884     817     794     793     806
       8     896     895     884     885     818     817     806     807
       8     897     896     885     886     819     818     807     808
       8     898     897     886     899     820     819     808     821
       8     900     899     886     887     822     821     808     809
       8     879     900     887     877     801     822     809     799
       8     901     880     881     883     823     802     803     805
       8     902     901     883     889     824     823     805     811
       8     903     902     889     904     825     824     811     826
       8     905     904     889     888     827     826     811     810
       8     906     905     888     890     828     827     810     812
       8     907     906     890     891     829     828     812     813
       8     908     907     891     909     830     829     813     831
       8     863     909     891     861     785     831     813     783
       8     910     911     862     892     832     833     784     814
       8     912     910     892     893     834     832     814     815
       8     913     912     893     894     835     834     815     816
       8     914     913     894     870     836     835     816     792
       8     915     914     870     869     837     836     792     791
       8     916     915     869     872     838     837     791     794
       8     917     916     872     895     839     838     794     817
       8     918     917     895     896     840     839     817     818
       8     919     918     896     897     841     840     818     819
       8     920     919     897     898     842     841     819     820
       8     921     920     898     899     843     842     820     821
       8     922     921     899     900     844     843     821     822
       8     923     922     900     879     845     844     822     801
       8     924     923     879     878     846     845     801     800
       8     925     924     878     880     847     846     800     802
       8     926     925     880     901     848     847     802     823
       8     927     926     901     902     849     848     823     824
       8     928     927     902     903     850     849     824     825
       8     929     928     903     904     851     850     825     826
       8     930     929     904     905     852     851     826     827
       8     931     930     905     906     853     852     827     828
       8     932     931     906     907     854     853     828     829
       8     933     932     907     908     855     854     829     830
       8     934     933     908     909     856     855     830     831
       8     935     934     909     863     857     856     831     785
       8     911     935     863     862     833     857     785     784
       8     936     937     938     939     858     859     860     861
       8     938     940     941     939     860     862     863     861
       8     942     937     936     943     864     859     858     865
       8     936     944     945     943     858     866     867     865
       8     946     947     948     942     868     869     870     864
       8     949     950     947     946     871     872     869     868
       8     943     949     946     942     865     871     868     864
       8     951     952     944     953     873     874     866     875
       8     954     955     952     951     876     877     874     873
       8     956     957     955     954     878     879     877     876
       8     958     956     954     959     880     878     876     881
       8     960     945     944     952     882     867     866     874
       8     951     961     959     954     873     883     881     876
       8     936     939     953     944     858     861     875     866
       8     962     949     943     945     884     871     865     867
       8     963     962     945     960     885     884     867     882
       8     964     963     960     965     886     885     882     887
       8     955     965     960     952     877     887     882     874
       8     966     967     961     951     888     889     883     873
       8     968     966     951     953     890     888     873     875
       8     969     968     953     939     891     890     875     861
       8     970     940     938     971     892     862     860     893
       8     972     971     938     937     894     893     860     859
       8     948     972     937     942     870     894     859     864
       8     973     950     949     962     895     872     871     884
       8     974     973     962     963     896     895     884     885
       8     975     974     963     964     897     896     885     886
       8     976     975     964     977     898     897     886     899
       8     978     977     964     965     900     899     886     887
       8     957     978     965     955     879     900     887     877
       8     979     958     959     961     901     880     881     883
       8     980     979     961     967     902     901     883     889
       8     981     980     967     982     903     902     889     904
       8     983     982     967     966     905     904     889     888
       8     984     983     966     968     906     905     888     890
       8     985     984     968     969     907     906     890     891
       8     986     985     969     987     908     907     891     909
       8     941     987     969     939     863     909     891     861
       8     988     989     940     970     910     911     862     892
       8     990     988     970     971     912     910     892     893
       8     991     990     971     972     913     912     893     894
       8     992     991     972     948     914     913     894     870
       8     993     992     948     947     915     914     870     869
       8     994     993     947     950     916     915     869     872
       8     995     994     950     973     917     916     872     895
       8     996     995     973     974     918     917     895     896
       8     997     996     974     975     919     918     896     897
       8     998     997     975     976     920     919     897     898
       8     999     998     976     977     921     920     898     899
       8    1000     999     977     978     922     921     899     900
       8    1001    1000     978     957     923     922     900     879
       8    1002    1001     957     956     924     923     879     878
       8    1003    1002     956     958     925     924     878     880
       8    1004    1003     958     979     926     925     880     901
       8    1005    1004     979     980     927     926     901     902
       8    1006    1005     980     981     928     927     902     903
       8    1007    1006     981     982     929     928     903     904
       8    1008    1007     982     983     930     929     904     905
       8    1009    1008     983     984     931     930     905     906
       8    1010    1009     984     985     932     931     906     907
       8    1011    1010     985     986     933     932     907     908
       8    1012    1011     986     987     934     933     908     909
       8    1013    1012     987     941     935     934     909     863
       8     989    1013     941     940     911     935     863     862
       8    1014    1015    1016    1017     936     937     938     939
       8    1016    1018    1019    1017     938     940     941     939
       8    1020    1015    1014    1021     942     937     936     943
       8    1014    1022    1023    1021     936     944     945     943
       8    1024    1025    1026    1020     946     947     948     942
       8    1027    1028    1025    1024     949     950     947     946
       8    1021    1027    1024    1020     943     949     946     942
       8    1029    1030    1022    1031     951     952     944     953
       8    1032    1033    1030    1029     954     955     952     951
       8    1034    1035    1033    1032     956     957     955     954
       8    1036    1034    1032    1037     958     956     954     959
       8    1038    1023    1022    1030     960     945     944     952
       8    1029    1039    1037    1032     951     961     959     954
       8    1014    1017    1031    1022     936     939     953     944
       8    1040    1027    1021    1023     962     949     943     945
       8    1041    1040    1023    1038     963     962     945     960
       8    1042    1041    1038    1043     964     963     960     965
       8    1033    1043    1038    1030     955     965     960     952
       8    1044    1045    1039    1029     966     967     961     951
       8    1046    1044    1029    1031     968     966     951     953
       8    1047    1046    1031    1017     969     968     953     939
       8    1048    1018    1016    1049     970     940     938     971
       8    1050    1049    1016    1015     972     971     938     937
       8    1026    1050    1015    1020     948     972     937     942
       8    1051    1028    1027    1040     973     950     949     962
       8    1052    1051    1040    1041     974     973     962     963
       8    1053    1052    1041    1042     975     974     963     964
       8    1054    1053    1042    1055     976     975     964     977
       8    1056    1055    1042    1043     978     977     964     965
       8    1035    1056    1043    1033     957     978     965     955
       8    1057    1036    1037    1039     979     958     959     961
       8    1058    1057    1039    1045     980     979     961     967
       8    1059    1058    1045    1060     981     980     967     982
       8    1061    1060    1045    1044     983     982     967     966
       8    1062    1061    1044    1046     984     983     966     968
       8    1063    1062    1046    1047     985     984     968     969
       8    1064    1063    1047    1065     986     985     969     987
       8    1019    1065    1047    1017     941     987     969     939
       8    1066    1067    1018    1048     988     989     940     970
       8    1068    1066    1048    1049     990     988     970     971
       8    1069    1068    1049    1050     991     990     971     972
       8    1070    1069    1050    1026     992     991     972     948
       8    1071    1070    1026    1025     993     992     948     947
       8    1072    1071    1025    1028     994     993     947     950
       8    1073    1072    1028    1051     995     994     950     973
       8    1074    1073    1051    1052     996     995     973     974
       8    1075    1074    1052    1053     997     996     974     975
       8    1076    1075    1053    1054     998     997     975     976
       8    1077    1076    1054    1055     999     998     976     977
       8    1078    1077    1055    1056    1000     999     977     978
       8    1079    1078    1056    1035    1001    1000     978     957
       8    1080    1079    1035    1034    1002    1001     957     956
       8    1081    1080    1034    1036    1003    1002     956     958
       8    1082    1081    1036    1057    1004    1003     958     979
       8    1083    1082    1057    1058    1005    1004     979     980
       8    1084    1083    1058    1059    1006    1005     980     981
       8    1085    1084    1059    1060    1007    1006     981     982
       8    1086    1085    1060    1061    1008    1007     982     983
       8    1087    1086    1061    1062    1009    1008     983     984
       8    1088    1087    1062    1063    1010    1009     984     985
       8    1089    1088    1063    1064    1011    1010     985     986
       8    1090    1089    1064    1065    1012    1011     986     987
       8    1091    1090    1065    1019    1013    1012     987     941
       8    1067    1091    1019    1018     989    1013     941     940
       8    1092    1093    1094    1095    1014    1015    1016    1017
       8    1094    1096    1097    1095    1016    1018    1019    1017
       8    1098    1093    1092    1099    1020    1015    1014    1021
       8    1092    1100    1101    1099    1014    1022    1023    1021
       8    1102    1103    1104    1098    1024    1025    1026    1020
       8    1105    1106    1103    1102    1027    1028    1025    1024
       8    1099    1105    1102    1098    1021    1027    1024    1020
       8    1107    1108    1100    1109    1029    1030    1022    1031
       8    1110    1111    1108    1107    1032    1033    1030    1029
       8    1112    1113    1111    1110    1034    1035    1033    1032
       8    1114    1112    1110    1115    1036    1034    1032    1037
       8    1116    1101    1100    1108    1038    1023    1022    1030
       8    1107    1117    1115    1110    1029    1039    1037    1032
       8    1092    1095    1109    1100    1014    1017    1031    1022
       8    1118    1105    1099    1101    1040    1027    1021    1023
       8    1119    1118    1101    1116    1041    1040    1023    1038
       8    1120    1119    1116    1121    1042    1041    1038    1043
       8    1111    1121    1116    1108    1033    1043    1038    1030
       8    1122    1123    1117    1107    1044    1045    1039    1029
       8    1124    1122    1107    1109    1046    1044    1029    1031
       8    1125    1124    1109    1095    1047    1046    1031    1017
       8    1126    1096    1094    1127    1048    1018    1016    1049
       8    1128    1127    1094    1093    1050    1049    1016    1015
       8    1104    1128    1093    1098    1026    1050    1015    1020
       8    1129    1106    1105    1118    1051    1028    1027    1040
       8    1130    1129    1118    1119    1052    1051    1040    1041
       8    1131    1130    1119    1120    1053    1052    1041    1042
       8    1132    1131    1120    1133    1054    1053    1042    1055
       8    1134    1133    1120    1121    1056    1055    1042    1043
       8    1113    1134    1121    1111    1035    1056    1043    1033
       8    1135    1114    1115    1117    1057    1036    1037    1039
       8    1136    1135    1117    1123    1058    1057    1039    1045
       8    1137    1136    1123    1138    1059    1058    1045    1060
       8    1139    1138    1123    1122    1061    1060    1045    1044
       8    1140    1139    1122    1124    1062    1061    1044    1046
       8    1141    1140    1124    1125    1063    1062    1046    1047
       8    1142    1141    1125    1143    1064    1063    1047    1065
       8    1097    1143    1125    1095    1019    1065    1047    1017
       8    1144    1145    1096    1126    1066    1067    1018    1048
       8    1146    1144    1126    1127    1068    1066    1048    1049
       8    1147    1146    1127    1128    1069    1068    1049    1050
       8    1148    1147    1128    1104    1070    1069    1050    1026
       8    1149    1148    1104    1103    1071    1070    1026    1025
       8    1150    1149    1103    1106    1072    1071    1025    1028
       8    1151    1150    1106    1129    1073    1072    1028    1051
       8    1152    1151    1129    1130    1074    1073    1051    1052
       8    1153    1152    1130    1131    1075    1074    1052    1053
       8    1154    1153    1131    1132    1076    1075    1053    1054
       8    1155    1154    1132    1133    1077    1076    1054    1055
       8    1156    1155    1133    1134    1078    1077    1055    1056
       8    1157    1156    1134    1113    1079    1078    1056    1035
       8    1158    1157    1113    1112    1080    1079    1035    1034
       8    1159    1158    1112    1114    1081    1080    1034    1036
       8    1160    1159    1114    1135    1082    1081    1036    1057
       8    1161    1160    1135    1136    1083    1082    1057    1058
       8    1162    1161    1136    1137    1084    1083    1058    1059
       8    1163    1162    1137    1138    1085    1084    1059    1060
       8    1164    1163    1138    1139    1086    1085    1060    1061
       8    1165    1164    1139    1140    1087    1086    1061    1062
       8    1166    1165    1140    1141    1088    1087    1062    1063
       8    1167    1166    1141    1142    1089    1088    1063    1064
       8    1168    1167    1142    1143    1090    1089    1064    1065
       8    1169    1168    1143    1097    1091    1090    1065    1019
       8    1145    1169    1097    1096    1067    1091    1019    1018
       8    1170    1171    1172    1173    1092    1093    1094    1095
       8    1172    1174    1175    1173    1094    1096    1097    1095
       8    1176    1171    1170    1177    1098    1093    1092    1099
       8    1170    1178    1179    1177    1092    1100    1101    1099
       8    1180    1181    1182    1176    1102    1103    1104    1098
       8    1183    1184    1181    1180    1105    1106    1103    1102
       8    1177    1183    1180    1176    1099    1105    1102    1098
       8    1185    1186    1178    1187    1107    1108    1100    1109
       8    1188    1189    1186    1185    1110    1111    1108    1107
       8    1190    1191    1189    1188    1112    1113    1111    1110
       8    1192    1190    1188    1193    1114    1112    1110    1115
       8    1194    1179    1178    1186    1116    1101    1100    1108
       8    1185    1195    1193    1188    1107    1117    1115    1110
       8    1170    1173    1187    1178    1092    1095    1109    1100
       8    1196    1183    1177    1179    1118    1105    1099    1101
       8    1197    1196    1179    1194    1119    1118    1101    1116
       8    1198    1197    1194    1199    1120    1119    1116    1121
       8    1189    1199    1194    1186    1111    1121    1116    1108
       8    1200    1201    1195    1185    1122    1123    1117    1107
       8    1202    1200    1185    1187    1124    1122    1107    1109
       8    1203    1202    1187    1173    1125    1124    1109    1095
       8    1204    1174    1172    1205    1126    1096    1094    1127
       8    1206    1205    1172    1171    1128    1127    1094    1093
       8    1182    1206    1171    1176    1104    1128    1093    1098
       8    1207    1184    1183    1196    1129    1106    1105    1118
       8    1208    1207    1196    1197    1130    1129    1118    1119
       8    1209    1208    1197    1198    1131    1130    1119    1120
       8    1210    1209    1198    1211    1132    1131    1120    1133
       8    1212    1211    1198    1199    1134    1133    1120    1121
       8    1191    1212    1199    1189    1113    1134    1121    1111
       8    1213    1192    1193    1195    1135    1114    1115    1117
       8    1214    1213    1195    1201    1136    1135    1117    1123
       8    1215    1214    1201    1216    1137    1136    1123    1138
       8    1217    1216    1201    1200    1139    1138    1123    1122
       8    1218    1217    1200    1202    1140    1139    1122    1124
       8    1219    1218    1202    1203    1141    1140    1124    1125
       8    1220    1219    1203    1221    1142    1141    1125    1143
       8    1175    1221    1203    1173    1097    1143    1125    1095
       8    1222    1223    1174    1204    1144    1145    1096    1126
       8    1224    1222    1204    1205    1146    1144    1126    1127
       8    1225    1224    1205    1206    1147    1146    1127    1128
       8    1226    1225    1206    1182    1148    1147    1128    1104
       8    1227    1226    1182    1181    1149    1148    1104    1103
       8    1228    1227    1181    1184    1150    1149    1103    1106
       8    1229    1228    1184    1207    1151    1150    1106    1129
       8    1230    1229    1207    1208    1152    1151    1129    1130
       8    1231    1230    1208    1209    1153    1152    1130    1131
       8    1232    1231    1209    1210    1154    1153    1131    1132
       8    1233    1232    1210    1211    1155    1154    1132    1133
       8    1234    1233    1211    1212    1156    1155    1133    1134
       8    1235    1234    1212    1191    1157    1156    1134    1113
       8    1236    1235    1191    1190    1158    1157    1113    1112
       8    1237    1236    1190    1192    1159    1158    1112    1114
       8    1238    1237    1192    1213    1160    1159    1114    1135
       8    1239    1238    1213    1214    1161    1160    1135    1136
       8    1240    1239    1214    1215    1162    1161    1136    1137
       8    1241    1240    1215    1216    1163    1162    1137    1138
       8    1242    1241    1216    1217    1164    1163    1138    1139
       8    1243    1242    1217    1218    1165    1164    1139    1140
       8    1244    1243    1218    1219    1166    1165    1140    1141
       8    1245    1244    1219    1220    1167    1166    1141    1142
       8    1246    1245    1220    1221    1168    1167    1142    1143
       8    1247    1246    1221    1175    1169    1168    1143    1097
       8    1223    1247    1175    1174    1145    1169    1097    1096
       8    1248    1249    1250    1251    1170    1171    1172    1173
       8    1250    1252    1253    1251    1172    1174    1175    1173
       8    1254    1249    1248    1255    1176    1171    1170    1177
       8    1248    1256    1257    1255    1170    1178    1179    1177
       8    1258    1259    1260    1254    1180    1181    1182    1176
       8    1261    1262    1259    1258    1183    1184    1181    1180
       8    1255    1261    1258    1254    1177    1183    1180    1176
       8    1263    1264    1256    1265    1185    1186    1178    1187
       8    1266    1267    1264    1263    1188    1189    1186    1185
       8    1268    1269    1267    1266    1190    1191    1189    1188
       8    1270    1268    1266    1271    1192    1190    1188    1193
       8    1272    1257    1256    1264    1194    1179    1178    1186
       8    1263    1273    1271    1266    1185    1195    1193    1188
       8    1248    1251    1265    1256    1170    1173    1187    1178
       8    1274    1261    1255    1257    1196    1183    1177    1179
       8    1275    1274    1257    1272    1197    1196    1179    1194
       8    1276    1275    1272    1277    1198    1197    1194    1199
       8    1267    1277    1272    1264    1189    1199    1194    1186
       8    1278    1279    1273    1263    1200    1201    1195    1185
       8    1280    1278    1263    1265    1202    1200    1185    1187
       8    1281    1280    1265    1251    1203    1202    1187    1173
       8    1282    1252    1250    1283    1204    1174    1172    1205
       8    1284    1283    1250    1249    1206    1205    1172    1171
       8    1260    1284    1249    1254    1182    1206    1171    1176
       8    1285    1262    1261    1274    1207    1184    1183    1196
       8    1286    1285    1274    1275    1208    1207    1196    1197
       8    1287    1286    1275    1276    1209    1208    1197    1198
       8    1288    1287    1276    1289    1210    1209    1198    1211
       8    1290    1289    1276    1277    1212    1211    1198    1199
       8    1269    1290    1277    1267    1191    1212    1199    1189
       8    1291    1270    1271    1273    1213    1192    1193    1195
       8    1292    1291    1273    1279    1214    1213    1195    1201
       8    1293    1292    1279    1294    1215    1214    1201    1216
       8    1295    1294    1279    1278    1217    1216    1201    1200
       8    1296    1295    1278    1280    1218    1217    1200    1202
       8    1297    1296    1280    1281    1219    1218    1202    1203
       8    1298    1297    1281    1299    1220    1219    1203    1221
       8    1253    1299    1281    1251    1175    1221    1203    1173
       8    1300    1301    1252    1282    1222    1223    1174    1204
       8    1302    1300    1282    1283    1224    1222    1204    1205
       8    1303    1302    1283    1284    1225    1224    1205    1206
       8    1304    1303    1284    1260    1226    1225    1206    1182
       8    1305    1304    1260    1259    1227    1226    1182    1181
       8    1306    1305    1259    1262    1228    1227    1181    1184
       8    1307    1306    1262    1285    1229    1228    1184    1207
       8    1308    1307    1285    1286    1230    1229    1207    1208
       8    1309    1308    1286    1287    1231    1230    1208    1209
       8    1310    1309    1287    1288    1232    1231    1209    1210
       8    1311    1310    1288    1289    1233    1232    1210    1211
       8    1312    1311    1289    1290    1234    1233    1211    1212
       8    1313    1312    1290    1269    1235    1234    1212    1191
       8    1314    1313    1269    1268    1236    1235    1191    1190
       8    1315    1314    1268    1270    1237    1236    1190    1192
       8    1316    1315    1270    1291    1238    1237    1192    1213
       8    1317    1316    1291    1292    1239    1238    1213    1214
       8    1318    1317    1292    1293    1240    1239    1214    1215
       8    1319    1318    1293    1294    1241    1240    1215    1216
       8    1320    1319    1294    1295    1242    1241    1216    1217
       8    1321    1320    1295    1296    1243    1242    1217    1218
       8    1322    1321    1296    1297    1244    1243    1218    1219
       8    1323    1322    1297    1298    1245    1244    1219    1220
       8    1324    1323    1298    1299    1246    1245    1220    1221
       8    1325    1324    1299    1253    1247    1246    1221    1175
       8    1301    1325    1253    1252    1223    1247    1175    1174
       8    1326    1327    1328    1329    1248    1249    1250    1251
       8    1328    1330    1331    1329    1250    1252    1253    1251
       8    1332    1327    1326    1333    1254    1249    1248    1255
       8    1326    1334    1335    1333    1248    1256    1257    1255
       8    1336    1337    1338    1332    1258    1259    1260    1254
       8    1339    1340    1337    1336    1261    1262    1259    1258
       8    1333    1339    1336    1332    1255    1261    1258    1254
       8    1341    1342    1334    1343    1263    1264    1256    1265
       8    1344    1345    1342    1341    1266    1267    1264    1263
       8    1346    1347    1345    1344    1268    1269    1267    1266
       8    1348    1346    1344    1349    1270    1268    1266    1271
       8    1350    1335    1334    1342    1272    1257    1256    1264
       8    1341    1351    1349    1344    1263    1273    1271    1266
       8    1326    1329    1343    1334    1248    1251    1265    1256
       8    1352    1339    1333    1335    1274    1261    1255    1257
       8    1353    1352    1335    1350    1275    1274    1257    1272
       8    1354    1353    1350    1355    1276    1275    1272    1277
       8    1345    1355    1350    1342    1267    1277    1272    1264
       8    1356    1357    1351    1341    1278    1279    1273    1263
       8    1358    1356    1341    1343    1280    1278    1263    1265
       8    1359    1358    1343    1329    1281    1280    1265    1251
       8    1360    1330    1328    1361    1282    1252    1250    1283
       8    1362    1361    1328    1327    1284    1283    1250    1249
       8    1338    1362    1327    1332    1260    1284    1249    1254
       8    1363    1340    1339    1352    1285    1262    1261    1274
       8    1364    1363    1352    1353    1286    1285    1274    1275
       8    1365    1364    1353    1354    1287    1286    1275    1276
       8    1366    1365    1354    1367    1288    1287    1276    1289
       8    1368    1367    1354    1355    1290    1289    1276    1277
       8    1347    1368    1355    1345    1269    1290    1277    1267
       8    1369    1348    1349    1351    1291    1270    1271    1273
       8    1370    1369    1351    1357    1292    1291    1273    1279
       8    1371    1370    1357    1372    1293    1292    1279    1294
       8    1373    1372    1357    1356    1295    1294    1279    1278
       8    1374    1373    1356    1358    1296    1295    1278    1280
       8    1375    1374    1358    1359    1297    1296    1280    1281
       8    1376    1375    1359    1377    1298    1297    1281    1299
       8    1331    1377    1359    1329    1253    1299    1281    1251
       8    1378    1379    1330    1360    1300    1301    1252    1282
       8    1380    1378    1360    1361    1302    1300    1282    1283
       8    1381    1380    1361    1362    1303    1302    1283    1284
       8    1382    1381    1362    1338    1304    1303    1284    1260
       8    1383    1382    1338    1337    1305    1304    1260    1259
       8    1384    1383    1337    1340    1306    1305    1259    1262
       8    1385    1384    1340    1363    1307    1306    1262    1285
       8    1386    1385    1363    1364    1308    1307    1285    1286
       8    1387    1386    1364    1365    1309    1308    1286    1287
       8    1388    1387    1365    1366    1310    1309    1287    1288
       8    1389    1388    1366    1367    1311    1310    1288    1289
       8    1390    1389    1367    1368    1312    1311    1289    1290
       8    1391    1390    1368    1347    1313    1312    1290    1269
       8    1392    1391    1347    1346    1314    1313    1269    1268
       8    1393    1392    1346    1348    1315    1314    1268    1270
       8    1394    1393    1348    1369    1316    1315    1270    1291
       8    1395    1394    1369    1370    1317    1316    1291    1292
       8    1396    1395    1370    1371    1318    1317    1292    1293
       8    1397    1396    1371    1372    1319    1318    1293    1294
       8    1398    1397    1372    1373    1320    1319    1294    1295
       8    1399    1398    1373    1374    1321    1320    1295    1296
       8    1400    1399    1374    1375    1322    1321    1296    1297
       8    1401    1400    1375    1376    1323    1322    1297    1298
       8    1402    1401    1376    1377    1324    1323    1298    1299
       8    1403    1402    1377    1331    1325    1324    1299    1253
       8    1379    1403    1331    1330    1301    1325    1253    1252
       8    1404    1405    1406    1407    1326    1327    1328    1329
       8    1406    1408    1409    1407    1328    1330    1331    1329
       8    1410    1405    1404    1411    1332    1327    1326    1333
       8    1404    1412    1413    1411    1326    1334    1335    1333
       8    1414    1415    1416    1410    1336    1337    1338    1332
       8    1417    1418    1415    1414    1339    1340    1337    1336
       8    1411    1417    1414    1410    1333    1339    1336    1332
       8    1419    1420    1412    1421    1341    1342    1334    1343
       8    1422    1423    1420    1419    1344    1345    1342    1341
       8    1424    1425    1423    1422    1346    1347    1345    1344
       8    1426    1424    1422    1427    1348    1346    1344    1349
       8    1428    1413    1412    1420    1350    1335    1334    1342
       8    1419    1429    1427    1422    1341    1351    1349    1344
       8    1404    1407    1421    1412    1326    1329    1343    1334
       8    1430    1417    1411    1413    1352    1339    1333    1335
       8    1431    1430    1413    1428    1353    1352    1335    1350
       8    1432    1431    1428    1433    1354    1353    1350    1355
       8    1423    1433    1428    1420    1345    1355    1350    1342
       8    1434    1435    1429    1419    1356    1357    1351    1341
       8    1436    1434    1419    1421    1358    1356    1341    1343
       8    1437    1436    1421    1407    1359    1358    1343    1329
       8    1438    1408    1406    1439    1360    1330    1328    1361
       8    1440    1439    1406    1405    1362    1361    1328    1327
       8    1416    1440    1405    1410    1338    1362    1327    1332
       8    1441    1418    1417    1430    1363    1340    1339    1352
       8    1442    1441    1430    1431    1364    1363    1352    1353
       8    1443    1442    1431    1432    1365    1364    1353    1354
       8    1444    1443    1432    1445    1366    1365    1354    1367
       8    1446    1445    1432    1433    1368    1367    1354    1355
       8    1425    1446    1433    1423    1347    1368    1355    1345
       8    1447    1426    1427    1429    1369    1348    1349    1351
       8    1448    1447    1429    1435    1370    1369    1351    1357
       8    1449    1448    1435    1450    1371    1370    1357    1372
       8    1451    1450    1435    1434    1373    1372    1357    1356
       8    1452    1451    1434    1436    1374    1373    1356    1358
       8    1453    1452    1436    1437    1375    1374    1358    1359
       8    1454    1453    1437    1455    1376    1375    1359    1377
       8    1409    1455    1437    1407    1331    1377    1359    1329
       8    1456    1457    1408    1438    1378    1379    1330    1360
       8    1458    1456    1438    1439    1380    1378    1360    1361
       8    1459    1458    1439    1440    1381    1380    1361    1362
       8    1460    1459    1440    1416    1382    1381    1362    1338
       8    1461    1460    1416    1415    1383    1382    1338    1337
       8    1462    1461    1415    1418    1384    1383    1337    1340
       8    1463    1462    1418    1441    1385    1384    1340    1363
       8    1464    1463    1441    1442    1386    1385    1363    1364
       8    1465    1464    1442    1443    1387    1386    1364    1365
       8    1466    1465    1443    1444    1388    1387    1365    1366
       8    1467    1466    1444    1445    1389    1388    1366    1367
       8    1468    1467    1445    1446    1390    1389    1367    1368
       8    1469    1468    1446    1425    1391    1390    1368    1347
       8    1470    1469    1425    1424    1392    1391    1347    1346
       8    1471    1470    1424    1426    1393    1392    1346    1348
       8    1472    1471    1426    1447    1394    1393    1348    1369
       8    1473    1472    1447    1448    1395    1394    1369    1370
       8    1474    1473    1448    1449    1396    1395    1370    1371
       8    1475    1474    1449    1450    1397    1396    1371    1372
       8    1476    1475    1450    1451    1398    1397    1372    1373
       8    1477    1476    1451    1452    1399    1398    1373    1374
       8    1478    1477    1452    1453    1400    1399    1374    1375
       8    1479    1478    1453    1454    1401    1400    1375    1376
       8    1480    1479    1454    1455    1402    1401    1376    1377
       8    1481    1480    1455    1409    1403    1402    1377    1331
       8    1457    1481    1409    1408    1379    1403    1331    1330
       8    1482    1483    1484    1485    1404    1405    1406    1407
       8    1484    1486    1487    1485    1406    1408    1409    1407
       8    1488    1483    1482    1489    1410    1405    1404    1411
       8    1482    1490    1491    1489    1404    1412    1413    1411
       8    1492    1493    1494    1488    1414    1415    1416    1410
       8    1495    1496    1493    1492    1417    1418    1415    1414
       8    1489    1495    1492    1488    1411    1417    1414    1410
       8    1497    1498    1490    1499    1419    1420    1412    1421
       8    1500    1501    1498    1497    1422    1423    1420    1419
       8    1502    1503    1501    1500    1424    1425    1423    1422
       8    1504    1502    1500    1505    1426    1424    1422    1427
       8    1506    1491    1490    1498    1428    1413    1412    1420
       8    1497    1507    1505    1500    1419    1429    1427    1422
       8    1482    1485    1499    1490    1404    1407    1421    1412
       8    1508    1495    1489    1491    1430    1417    1411    1413
       8    1509    1508    1491    1506    1431    1430    1413    1428
       8    1510    1509    1506    1511    1432    1431    1428    1433
       8    1501    1511    1506    1498    1423    1433    1428    1420
       8    1512    1513    1507    1497    1434    1435    1429    1419
       8    1514    1512    1497    1499    1436    1434    1419    1421
       8    1515    1514    1499    1485    1437    1436    1421    1407
       8    1516    1486    1484    1517    1438    1408    1406    1439
       8    1518    1517    1484    1483    1440    1439    1406    1405
       8    1494    1518    1483    1488    1416    1440    1405    1410
       8    1519    1496    1495    1508    1441    1418    1417    1430
       8    1520    1519    1508    1509    1442    1441    1430    1431
       8    1521    1520    1509    1510    1443    1442    1431    1432
       8    1522    1521    1510    1523    1444    1443    1432    1445
       8    1524    1523    1510    1511    1446    1445    1432    1433
       8    1503    1524    1511    1501    1425    1446    1433    1423
       8    1525    1504    1505    1507    1447    1426    1427    1429
       8    1526    1525    1507    1513    1448    1447    1429    1435
       8    1527    1526    1513    1528    1449    1448    1435    1450
       8    1529    1528    1513    1512    1451    1450    1435    1434
       8    1530    1529    1512    1514    1452    1451    1434    1436
       8    1531    1530    1514    1515    1453    1452    1436    1437
       8    1532    1531    1515    1533    1454    1453    1437    1455
       8    1487    1533    1515    1485    1409    1455    1437    1407
       8    1534    1535    1486    1516    1456    1457    1408    1438
       8    1536    1534    1516    1517    1458    1456    1438    1439
       8    1537    1536    1517    1518    1459    1458    1439    1440
       8    1538    1537    1518    1494    1460    1459    1440    1416
       8    1539    1538    1494    1493    1461    1460    1416    1415
       8    1540    1539    1493    1496    1462    1461    1415    1418
       8    1541    1540    1496    1519    1463    1462    1418    1441
       8    1542    1541    1519    1520    1464    1463    1441    1442
       8    1543    1542    1520    1521    1465    1464    1442    1443
       8    1544    1543    1521    1522    1466    1465    1443    1444
       8    1545    1544    1522    1523    1467    1466    1444    1445
       8    1546    1545    1523    1524    1468    1467    1445    1446
       8    1547    1546    1524    1503    1469    1468    1446    1425
       8    1548    1547    1503    1502    1470    1469    1425    1424
       8    1549    1548    1502    1504    1471    1470    1424    1426
       8    1550    1549    1504    1525    1472    1471    1426    1447
       8    1551    1550    1525    1526    1473    1472    1447    1448
       8    1552    1551    1526    1527    1474    1473    1448    1449
       8    1553    1552    1527    1528    1475    1474    1449    1450
       8    1554    1553    1528    1529    1476    1475    1450    1451
       8    1555    1554    1529    1530    1477    1476    1451    1452
       8    1556    1555    1530    1531    1478    1477    1452    1453
       8    1557    1556    1531    1532    1479    1478    1453    1454
       8    1558    1557    1532    1533    1480    1479    1454    1455
       8    1559    1558    1533    1487    1481    1480    1455    1409
       8    1535    1559    1487    1486    1457    1481    1409    1408
       8    1560    1561    1562    1563    1482    1483    1484    1485
       8    1562    1564    1565    1563    1484    1486    1487    1485
       8    1566    1561    1560    1567    1488    1483    1482    1489
       8    1560    1568    1569    1567    1482    1490    1491    1489
       8    1570    1571    1572    1566    1492    1493    1494    1488
       8    1573    1574    1571    1570    1495    1496    1493    1492
       8    1567    1573    1570    1566    1489    1495    1492    1488
       8    1575    1576    1568    1577    1497    1498    1490    1499
       8    1578    1579    1576    1575    1500    1501    1498    1497
       8    1580    1581    1579    1578    1502    1503    1501    1500
       8    1582    1580    1578    1583    1504    1502    1500    1505
       8    1584    1569    1568    1576    1506    1491    1490    1498
       8    1575    1585    1583    1578    1497    1507    1505    1500
       8    1560    1563    1577    1568    1482    1485    1499    1490
       8    1586    1573    1567    1569    1508    1495    1489    1491
       8    1587    1586    1569    1584    1509    1508    1491    1506
       8    1588    1587    1584    1589    1510    1509    1506    1511
       8    1579    1589    1584    1576    1501    1511    1506    1498
       8    1590    1591    1585    1575    1512    1513    1507    1497
       8    1592    1590    1575    1577    1514    1512    1497    1499
       8    1593    1592    1577    1563    1515    1514    1499    1485
       8    1594    1564    1562    1595    1516    1486    1484    1517
       8    1596    1595    1562    1561    1518    1517    1484    1483
       8    1572    1596    1561    1566    1494    1518    1483    1488
       8    1597    1574    1573    1586    1519    1496    1495    1508
       8    1598    1597    1586    1587    1520    1519    1508    1509
       8    1599    1598    1587    1588    1521    1520    1509    1510
       8    1600    1599    1588    1601    1522    1521    1510    1523
       8    1602    1601    1588    1589    1524    1523    1510    1511
       8    1581    1602    1589    1579    1503    1524    1511    1501
       8    1603    1582    1583    1585    1525    1504    1505    1507
       8    1604    1603    1585    1591    1526    1525    1507    1513
       8    1605    1604    1591    1606    1527    1526    1513    1528
       8    1607    1606    1591    1590    1529    1528    1513    1512
       8    1608    1607    1590    1592    1530    1529    1512    1514
       8    1609    1608    1592    1593    1531    1530    1514    1515
       8    1610    1609    1593    1611    1532    1531    1515    1533
       8    1565    1611    1593    1563    1487    1533    1515    1485
       8    1612    1613    1564    1594    1534    1535    1486    1516
       8    1614    1612    1594    1595    1536    1534    1516    1517
       8    1615    1614    1595    1596    1537    1536    1517    1518
       8    1616    1615    1596    1572    1538    1537    1518    1494
       8    1617    1616    1572    1571    1539    1538    1494    1493
       8    1618    1617    1571    1574    1540    1539    1493    1496
       8    1619    1618    1574    1597    1541    1540    1496    1519
       8    1620    1619    1597    1598    1542    1541    1519    1520
       8    1621    1620    1598    1599    1543    1542    1520    1521
       8    1622    1621    1599    1600    1544    1543    1521    1522
       8    1623    1622    1600    1601    1545    1544    1522    1523
       8    1624    1623    1601    1602    1546    1545    1523    1524
       8    1625    1624    1602    1581    1547    1546    1524    1503
       8    1626    1625    1581    1580    1548    1547    1503    1502
       8    1627    1626    1580    1582    1549    1548    1502    1504
       8    1628    1627    1582    1603    1550    1549    1504    1525
       8    1629    1628    1603    1604    1551    1550    1525    1526
       8    1630    1629    1604    1605    1552    1551    1526    1527
       8    1631    1630    1605    1606    1553    1552    1527    1528
       8    1632    1631    1606    1607    1554    1553    1528    1529
       8    1633    1632    1607    1608    1555    1554    1529    1530
       8    1634    1633    1608    1609    1556    1555    1530    1531
       8    1635    1634    1609    1610    1557    1556    1531    1532
       8    1636    1635    1610    1611    1558    1557    1532    1533
       8    1637    1636    1611    1565    1559    1558    1533    1487
       8    1613    1637    1565    1564    1535    1559    1487    1486
       8    1638    1639    1640    1641    1560    1561    1562    1563
       8    1640    1642    1643    1641    1562    1564    1565    1563
       8    1644    1639    1638    1645    1566    1561    1560    1567
       8    1638    1646    1647    1645    1560    1568    1569    1567
       8    1648    1649    1650    1644    1570    1571    1572    1566
       8    1651    1652    1649    1648    1573    1574    1571    1570
       8    1645    1651    1648    1644    1567    1573    1570    1566
       8    1653    1654    1646    1655    1575    1576    1568    1577
       8    1656    1657    1654    1653    1578    1579    1576    1575
       8    1658    1659    1657    1656    1580    1581    1579    1578
       8    1660    1658    1656    1661    1582    1580    1578    1583
       8    1662    1647    1646    1654    1584    1569    1568    1576
       8    1653    1663    1661    1656    1575    1585    1583    1578
       8    1638    1641    1655    1646    1560    1563    1577    1568
       8    1664    1651    1645    1647    1586    1573    1567    1569
       8    1665    1664    1647    1662    1587    1586    1569    1584
       8    1666    1665    1662    1667    1588    1587    1584    1589
       8    1657    1667    1662    1654    1579    1589    1584    1576
       8    1668    1669    1663    1653    1590    1591    1585    1575
       8    1670    1668    1653    1655    1592    1590    1575    1577
       8    1671    1670    1655    1641    1593    1592    1577    1563
       8    1672    1642    1640    1673    1594    1564    1562    1595
       8    1674    1673    1640    1639    1596    1595    1562    1561
       8    1650    1674    1639    1644    1572    1596    1561    1566
       8    1675    1652    1651    1664    1597    1574    1573    1586
       8    1676    1675    1664    1665    1598    1597    1586    1587
       8    1677    1676    1665    1666    1599    1598    1587    1588
       8    1678    1677    1666    1679    1600    1599    1588    1601
       8    1680    1679    1666    1667    1602    1601    1588    1589
       8    1659    1680    1667    1657    1581    1602    1589    1579
       8    1681    1660    1661    1663    1603    1582    1583    1585
       8    1682    1681    1663    1669    1604    1603    1585    1591
       8    1683    1682    1669    1684    1605    1604    1591    1606
       8    1685    1684    1669    1668    1607    1606    1591    1590
       8    1686    1685    1668    1670    1608    1607    1590    1592
       8    1687    1686    1670    1671    1609    1608    1592    1593
       8    1688    1687    1671    1689    1610    1609    1593    1611
       8    1643    1689    1671    1641    1565    1611    1593    1563
       8    1690    1691    1642    1672    1612    1613    1564    1594
       8    1692    1690    1672    1673    1614    1612    1594    1595
       8    1693    1692    1673    1674    1615    1614    1595    1596
       8    1694    1693    1674    1650    1616    1615    1596    1572
       8    1695    1694    1650    1649    1617    1616    1572    1571
       8    1696    1695    1649    1652    1618    1617    1571    1574
       8    1697    1696    1652    1675    1619    1618    1574    1597
       8    1698    1697    1675    1676    1620    1619    1597    1598
       8    1699    1698    1676    1677    1621    1620    1598    1599
       8    1700    1699    1677    1678    1622    1621    1599    1600
       8    1701    1700    1678    1679    1623    1622    1600    1601
       8    1702    1701    1679    1680    1624    1623    1601    1602
       8    1703    1702    1680    1659    1625    1624    1602    1581
       8    1704    1703    1659    1658    1626    1625    1581    1580
       8    1705    1704    1658    1660    1627    1626    1580    1582
       8    1706    1705    1660    1681    1628    1627    1582    1603
       8    1707    1706    1681    1682    1629    1628    1603    1604
       8    1708    1707    1682    1683    1630    1629    1604    1605
       8    1709    1708    1683    1684    1631    1630    1605    1606
       8    1710    1709    1684    1685    1632    1631    1606    1607
       8    1711    1710    1685    1686    1633    1632    1607    1608
       8    1712    1711    1686    1687    1634    1633    1608    1609
       8    1713    1712    1687    1688    1635    1634    1609    1610
       8    1714    1713    1688    1689    1636    1635    1610    1611
       8    1715    1714    1689    1643    1637    1636    1611    1565
       8    1691    1715    1643    1642    1613    1637    1565    1564
       8    1716    1717    1718    1719    1638    1639    1640    1641
       8    1718    1720    1721    1719    1640    1642    1643    1641
       8    1722    1717    1716    1723    1644    1639    1638    1645
       8    1716    1724    1725    1723    1638    1646    1647    1645
       8    1726    1727    1728    1722    1648    1649    1650    1644
       8    1729    1730    1727    1726    1651    1652    1649    1648
       8    1723    1729    1726    1722    1645    1651    1648    1644
       8    1731    1732    1724    1733    1653    1654    1646    1655
       8    1734    1735    1732    1731    1656    1657    1654    1653
       8    1736    1737    1735    1734    1658    1659    1657    1656
       8    1738    1736    1734    1739    1660    1658    1656    1661
       8    1740    1725    1724    1732    1662    1647    1646    1654
       8    1731    1741    1739    1734    1653    1663    1661    1656
       8    1716    1719    1733    1724    1638    1641    1655    1646
       8    1742    1729    1723    1725    1664    1651    1645    1647
       8    1743    1742    1725    1740    1665    1664    1647    1662
       8    1744    1743    1740    1745    1666    1665    1662    1667
       8    1735    1745    1740    1732    1657    1667    1662    1654
       8    1746    1747    1741    1731    1668    1669    1663    1653
       8    1748    1746    1731    1733    1670    1668    1653    1655
       8    1749    1748    1733    1719    1671    1670    1655    1641
       8    1750    1720    1718    1751    1672    1642    1640    1673
       8    1752    1751    1718    1717    1674    1673    1640    1639
       8    1728    1752    1717    1722    1650    1674    1639    1644
       8    1753    1730    1729    1742    1675    1652    1651    1664
       8    1754    1753    1742    1743    1676    1675    1664    1665
       8    1755    1754    1743    1744    1677    1676    1665    1666
       8    1756    1755    1744    1757    1678    1677    1666    1679
       8    1758    1757    1744    1745    1680    1679    1666    1667
       8    1737    1758    1745    1735    1659    1680    1667    1657
       8    1759    1738    1739    1741    1681    1660    1661    1663
       8    1760    1759    1741    1747    1682    1681    1663    1669
       8    1761    1760    1747    1762    1683    1682    1669    1684
       8    1763    1762    1747    1746    1685    1684    1669    1668
       8    1764    1763    1746    1748    1686    1685    1668    1670
       8    1765    1764    1748    1749    1687    1686    1670    1671
       8    1766    1765    1749    1767    1688    1687    1671    1689
       8    1721    1767    1749    1719    1643    1689    1671    1641
       8    1768    1769    1720    1750    1690    1691    1642    1672
       8    1770    1768    1750    1751    1692    1690    1672    1673
       8    1771    1770    1751    1752    1693    1692    1673    1674
       8    1772    1771    1752    1728    1694    1693    1674    1650
       8    1773    1772    1728    1727    1695    1694    1650    1649
       8    1774    1773    1727    1730    1696    1695    1649    1652
       8    1775    1774    1730    1753    1697    1696    1652    1675
       8    1776    1775    1753    1754    1698    1697    1675    1676
       8    1777    1776    1754    1755    1699    1698    1676    1677
       8    1778    1777    1755    1756    1700    1699    1677    1678
       8    1779    1778    1756    1757    1701    1700    1678    1679
       8    1780    1779    1757    1758    1702    1701    1679    1680
       8    1781    1780    1758    1737    1703    1702    1680    1659
       8    1782    1781    1737    1736    1704    1703    1659    1658
       8    1783    1782    1736    1738    1705    1704    1658    1660
       8    1784    1783    1738    1759    1706    1705    1660    1681
       8    1785    1784    1759    1760    1707    1706    1681    1682
       8    1786    1785    1760    1761    1708    1707    1682    1683
       8    1787    1786    1761    1762    1709    1708    1683    1684
       8    1788    1787    1762    1763    1710    1709    1684    1685
       8    1789    1788    1763    1764    1711    1710    1685    1686
       8    1790    1789    1764    1765    1712    1711    1686    1687
       8    1791    1790    1765    1766    1713    1712    1687    1688
       8    1792    1791    1766    1767    1714    1713    1688    1689
       8    1793    1792    1767    1721    1715    1714    1689    1643
       8    1769    1793    1721    1720    1691    1715    1643    1642
       8    1794    1795    1796    1797    1716    1717    1718    1719
       8    1796    1798    1799    1797    1718    1720    1721    1719
       8    1800    1795    1794    1801    1722    1717    1716    1723
       8    1794    1802    1803    1801    1716    1724    1725    1723
       8    1804    1805    1806    1800    1726    1727    1728    1722
       8    1807    1808    1805    1804    1729    1730    1727    1726
       8    1801    1807    1804    1800    1723    1729    1726    1722
       8    1809    1810    1802    1811    1731    1732    1724    1733
       8    1812    1813    1810    1809    1734    1735    1732    1731
       8    1814    1815    1813    1812    1736    1737    1735    1734
       8    1816    1814    1812    1817    1738    1736    1734    1739
       8    1818    1803    1802    1810    1740    1725    1724    1732
       8    1809    1819    1817    1812    1731    1741    1739    1734
       8    1794    1797    1811    1802    1716    1719    1733    1724
       8    1820    1807    1801    1803    1742    1729    1723    1725
       8    1821    1820    1803    1818    1743    1742    1725    1740
       8    1822    1821    1818    1823    1744    1743    1740    1745
       8    1813    1823    1818    1810    1735    1745    1740    1732
       8    1824    1825    1819    1809    1746    1747    1741    1731
       8    1826    1824    1809    1811    1748    1746    1731    1733
       8    1827    1826    1811    1797    1749    1748    1733    1719
       8    1828    1798    1796    1829    1750    1720    1718    1751
       8    1830    1829    1796    1795    1752    1751    1718    1717
       8    1806    1830    1795    1800    1728    1752    1717    1722
       8    1831    1808    1807    1820    1753    1730    1729    1742
       8    1832    1831    1820    1821    1754    1753    1742    1743
       8    1833    1832    1821    1822    1755    1754    1743    1744
       8    1834    1833    1822    1835    1756    1755    1744    1757
       8    1836    1835    1822    1823    1758    1757    1744    1745
       8    1815    1836    1823    1813    1737    1758    1745    1735
       8    1837    1816    1817    1819    1759    1738    1739    1741
       8    1838    1837    1819    1825    1760    1759    1741    1747
       8    1839    1838    1825    1840    1761    1760    1747    1762
       8    1841    1840    1825    1824    1763    1762    1747    1746
       8    1842    1841    1824    1826    1764    1763    1746    1748
       8    1843    1842    1826    1827    1765    1764    1748    1749
       8    1844    1843    1827    1845    1766    1765    1749    1767
       8    1799    1845    1827    1797    1721    1767    1749    1719
       8    1846    1847    1798    1828    1768    1769    1720    1750
       8    1848    1846    1828    1829    1770    1768    1750    1751
       8    1849    1848    1829    1830    1771    1770    1751    1752
       8    1850    1849    1830    1806    1772    1771    1752    1728
       8    1851    1850    1806    1805    1773    1772    1728    1727
       8    1852    1851    1805    1808    1774    1773    1727    1730
       8    1853    1852    1808    1831    1775    1774    1730    1753
       8    1854    1853    1831    1832    1776    1775    1753    1754
       8    1855    1854    1832    1833    1777    1776    1754    1755
       8    1856    1855    1833    1834    1778    1777    1755    1756
       8    1857    1856    1834    1835    1779    1778    1756    1757
       8    1858    1857    1835    1836    1780    1779    1757    1758
       8    1859    1858    1836    1815    1781    1780    1758    1737
       8    1860    1859    1815    1814    1782    1781    1737    1736
       8    1861    1860    1814    1816    1783    1782    1736    1738
       8    1862    1861    1816    1837    1784    1783    1738    1759
       8    1863    1862    1837    1838    1785    1784    1759    1760
       8    1864    1863    1838    1839    1786    1785    1760    1761
       8    1865    1864    1839    1840    1787    1786    1761    1762
       8    1866    1865    1840    1841    1788    1787    1762    1763
       8    1867    1866    1841    1842    1789    1788    1763    1764
       8    1868    1867    1842    1843    1790    1789    1764    1765
       8    1869    1868    1843    1844    1791    1790    1765    1766
       8    1870    1869    1844    1845    1792    1791    1766    1767
       8    1871    1870    1845    1799    1793    1792    1767    1721
       8    1847    1871    1799    1798    1769    1793    1721    1720
       8    1872    1873    1874    1875    1794    1795    1796    1797
       8    1874    1876    1877    1875    1796    1798    1799    1797
       8    1878    1873    1872    1879    1800    1795    1794    1801
       8    1872    1880    1881    1879    1794    1802    1803    1801
       8    1882    1883    1884    1878    1804    1805    1806    1800
       8    1885    1886    1883    1882    1807    1808    1805    1804
       8    1879    1885    1882    1878    1801    1807    1804    1800
       8    1887    1888    1880    1889    1809    1810    1802    1811
       8    1890    1891    1888    1887    1812    1813    1810    1809
       8    1892    1893    1891    1890    1814    1815    1813    1812
       8    1894    1892    1890    1895    1816    1814    1812    1817
       8    1896    1881    1880    1888    1818    1803    1802    1810
       8    1887    1897    1895    1890    1809    1819    1817    1812
       8    1872    1875    1889    1880    1794    1797    1811    1802
       8    1898    1885    1879    1881    1820    1807    1801    1803
       8    1899    1898    1881    1896    1821    1820    1803    1818
       8    1900    1899    1896    1901    1822    1821    1818    1823
       8    1891    1901    1896    1888    1813    1823    1818    1810
       8    1902    1903    1897    1887    1824    1825    1819    1809
       8    1904    1902    1887    1889    1826    1824    1809    1811
       8    1905    1904    1889    1875    1827    1826    1811    1797
       8    1906    1876    1874    1907    1828    1798    1796    1829
       8    1908    1907    1874    1873    1830    1829    1796    1795
       8    1884    1908    1873    1878    1806    1830    1795    1800
       8    1909    1886    1885    1898    1831    1808    1807    1820
       8    1910    1909    1898    1899    1832    1831    1820    1821
       8    1911    1910    1899    1900    1833    1832    1821    1822
       8    1912    1911    1900    1913    1834    1833    1822    1835
       8    1914    1913    1900    1901    1836    1835    1822    1823
       8    1893    1914    1901    1891    1815    1836    1823    1813
       8    1915    1894    1895    1897    1837    1816    1817    1819
       8    1916    1915    1897    1903    1838    1837    1819    1825
       8    1917    1916    1903    1918    1839    1838    1825    1840
       8    1919    1918    1903    1902    1841    1840    1825    1824
       8    1920    1919    1902    1904    1842    1841    1824    1826
       8    1921    1920    1904    1905    1843    1842    1826    1827
       8    1922    1921    1905    1923    1844    1843    1827    1845
       8    1877    1923    1905    1875    1799    1845    1827    1797
       8    1924    1925    1876    1906    1846    1847    1798    1828
       8    1926    1924    1906    1907    1848    1846    1828    1829
       8    1927    1926    1907    1908    1849    1848    1829    1830
       8    1928    1927    1908    1884    1850    1849    1830    1806
       8    1929    1928    1884    1883    1851    1850    1806    1805
       8    1930    1929    1883    1886    1852    1851    1805    1808
       8    1931    1930    1886    1909    1853    1852    1808    1831
       8    1932    1931    1909    1910    1854    1853    1831    1832
       8    1933    1932    1910    1911    1855    1854    1832    1833
       8    1934    1933    1911    1912    1856    1855    1833    1834
       8    1935    1934    1912    1913    1857    1856    1834    1835
       8    1936    1935    1913    1914    1858    1857    1835    1836
       8    1937    1936    1914    1893    1859    1858    1836    1815
       8    1938    1937    1893    1892    1860    1859    1815    1814
       8    1939    1938    1892    1894    1861    1860    1814    1816
       8    1940    1939    1894    1915    1862    1861    1816    1837
       8    1941    1940    1915    1916    1863    1862    1837    1838
       8    1942    1941    1916    1917    1864    1863    1838    1839
       8    1943    1942    1917    1918    1865    1864    1839    1840
       8    1944    1943    1918    1919    1866    1865    1840    1841
       8    1945    1944    1919    1920    1867    1866    1841    1842
       8    1946    1945    1920    1921    1868    1867    1842    1843
       8    1947    1946    1921    1922    1869    1868    1843    1844
       8    1948    1947    1922    1923    1870    1869    1844    1845
       8    1949    1948    1923    1877    1871    1870    1845    1799
       8    1925    1949    1877    1876    1847    1871    1799    1798
  
CELL_TYPES    3486
       1
       1
       1
       1
       1
       1
       1
       1
       1
       1
       1
       1
       1
       1
       1
       1
       1
       1
       1
       1
       1
       1
       1
       1
       1
       1
       1
       1
       1
       1
       1
       1
       1
       1
       1
       1
       1
       1
       1
       1
       1
       1
       1
       1
       1
       1
       1
       1
       1
       1
       1
       1
       1
       1
       1
       1
       1
       1
       1
       1
       1
       1
       1
       1
       1
       1
       1
       1
       1
       1
       1
       1
       1
       1
       1
       1
       1
       1
       1
       1
       1
       1
       1
       1
       1
       1
       1
       1
       1
       1
       1
       1
       1
       1
       1
       1
       1
       1
       1
       1
       1
       1
       1
       1
       1
       1
       1
       1
       1
       1
       1
       1
       1
       1
       1
       1
       1
       1
       1
       1
       1
       1
       1
       1
       1
       1
       1
       1
       1
       1
       1
       1
       1
       1
       1
       1
       1
       1
       1
       1
       1
       1
       1
       1
       1
       1
       1
       1
       1
       1
       1
       1
       1
       1
       1
       1
       1
       1
       1
       1
       1
       1
       1
       1
       1
       1
       1
       1
       1
       1
       1
       1
       1
       1
       1
       1
       1
       1
       1
       1
       1
       1
       1
       1
       1
       1
       1
       1
       1
       1
       1
       1
       1
       1
       1
       1
       1
       1
       1
       1
       1
       1
       1
       1
       1
       1
       1
       1
       1
       1
       1
       1
       1
       1
       1
       1
       1
       1
       1
       1
       1
       1
       1
       1
       1
       1
       1
       1
       1
       1
       1
       1
       1
       1
       1
       1
       1
       1
       1
       1
       1
       1
       1
       1
       1
       1
       1
       1
       1
       1
       1
       1
       1
       1
       1
       1
       1
       1
       1
       1
       1
       1
       1
       1
       1
       1
       1
       1
       1
       1
       1
       1
       1
       1
       1
       1
       1
       1
       1
       1
       1
       1
       1
       1
       1
       1
       1
       1
       1
       1
       1
       1
       1
       1
       1
       1
       1
       1
       1
       1
       1
       1
       1
       1
       1
       1
       1
       1
       1
       1
       1
       1
       1
       1
       1
       1
       1
       1
       1
       1
       1
       1
       1
       1
       1
       1
       1
       1
       1
       1
       1
       1
       1
       1
       1
       1
       1
       1
       1
       1
       1
       1
       1
       1
       1
       1
       1
       1
       1
       1
       1
       1
       1
       1
       1
       1
       1
       1
       1
       1
       1
       1
       1
       1
       1
       1
       1
       1
       1
       1
       1
       1
       1
       1
       1
       1
       1
       1
       1
       1
       1
       1
       1
       1
       1
       1
       1
       1
       1
       1
       1
       1
       1
       1
       1
       1
       1
       1
       1
       1
       1
       1
       1
       1
       1
       1
       1
       1
       1
       1
       1
       1
       1
       1
       1
       1
       1
       1
       1
       1
       1
       1
       1
       1
       1
       1
       1
       1
       1
       1
       1
       1
       1
       1
       1
       1
       1
       1
       1
       1
       1
       1
       1
       1
       1
       1
       1
       1
       1
       1
       1
       1
       1
       1
       1
       1
       1
       1
       1
       1
       1
       1
       1
       1
       1
       1
       1
       1
       1
       1
       1
       1
       1
       1
       1
       1
       1
       1
       1
       1
       1
       1
       1
       1
       1
       1
       1
       1
       1
       1
       1
       1
       1
       1
       1
       1
       1
       1
       1
       1
       1
       1
       1
       1
       1
       1
       1
       1
       1
       1
       1
       1
       1
       1
       1
       1
       1
       1
       1
       1
       1
       1
       1
       1
       1
       1
       1
       1
       1
       1
       1
       1
       1
       1
       1
       1
       1
       1
       1
       1
       1
       1
       1
       1
       1
       1
       1
       1
       1
       1
       1
       1
       1
       1
       1
       1
       1
       1
       1
       1
       1
       1
       1
       1
       1
       1
       1
       1
       1
       1
       1
       1
       1
       1
       1
       1
       1
       1
       1
       1
       1
       1
       1
       1
       1
       1
       1
       1
       1
       1
       1
       1
       1
       1
       1
       1
       1
       1
       1
       1
       1
       1
       1
       1
       1
       1
       1
       1
       1
       1
       1
       1
       1
       1
       1
       1
       1
       1
       1
       1
       1
       1
       1
       1
       1
       1
       1
       1
       1
       1
       1
       1
       1
       1
       1
       1
       1
       1
       1
       1
       1
       1
       1
       1
       1
       1
       1
       1
       1
       1
       1
       1
       1
       1
       1
       1
       1
       1
       1
       1
       1
       1
       1
       1
       1
       1
       1
       1
       1
       1
       1
       1
       1
       1
       1
       1
       1
       1
       1
       1
       1
       1
       1
       1
       1
       1
       1
       1
       1
       1
       1
       1
       1
       1
       1
       1
       1
       1
       1
       1
       1
       1
       1
       1
       1
       1
       1
       1
       1
       1
       1
       1
       1
       1
       1
       1
       1
       1
       1
       1
       1
       1
       1
       1
       1
       1
       1
       1
       1
       1
       1
       1
       1
       1
       1
       1
       1
       1
       1
       1
       1
       1
       1
       1
       1
       1
       1
       1
       1
       1
       1
       1
       1
       1
       1
       1
       1
       1
       1
       1
       1
       1
       1
       1
       1
       1
       1
       1
       1
       1
       1
       1
       1
       1
       1
       1
       1
       1
       1
       1
       1
       1
       1
       1
       1
       1
       1
       1
       1
       1
       1
       1
       1
       1
       1
       1
       1
       1
       1
       1
       1
       1
       1
       1
       1
       1
       1
       1
       1
       1
       1
       1
       1
       1
       1
       1
       1
       1
       1
       1
       1
       1
       1
       1
       1
       1
       1
       1
       1
       1
       1
       1
       1
       1
       1
       1
       1
       1
       1
       1
       1
       1
       1
       1
       1
       1
       1
       1
       1
       1
       1
       1
       1
       1
       1
       1
       1
       1
       1
       1
       1
       1
       1
       1
       1
       1
       1
       1
       1
       1
       1
       1
       1
       1
       1
       1
       1
       1
       1
       1
       1
       1
       1
       1
       1
       1
       1
       1
       1
       1
       1
       1
       1
       1
       1
       1
       1
       1
       1
       1
       1
       1
       1
       1
       1
       1
       1
       1
       1
       1
       1
       1
       1
       1
       1
       1
       1
       1
       1
       1
       1
       1
       1
       1
       1
       1
       1
       1
       1
       1
       1
       1
       1
       1
       1
       1
       1
       1
       1
       1
       1
       1
       1
       1
       1
       1
       1
       1
       1
       1
       1
       1
       1
       1
       1
       1
       1
       1
       1
       1
       1
       1
       1
       1
       1
       1
       1
       1
       1
       1
       1
       1
       1
       1
       1
       1
       1
       1
       1
       1
       1
       1
       1
       1
       1
       1
       1
       1
       1
       1
       1
       1
       1
       1
       1
       1
       1
       1
       1
       1
       1
       1
       1
       1
       1
       1
       1
       1
       1
       1
       1
       1
       1
       1
       1
       1
       1
       1
       1
       1
       1
       1
       1
       1
       1
       1
       1
       1
       1
       1
       1
       1
       1
       1
       1
       1
       1
       1
       1
       1
       1
       1
       1
       1
       1
       1
       1
       1
       1
       1
       1
       1
       1
       1
       1
       1
       1
       1
       1
       1
       1
       1
       1
       1
       1
       1
       1
       1
       1
       1
       1
       1
       1
       1
       1
       1
       1
       1
       1
       1
       1
       1
       1
       1
       1
       1
       1
       1
       1
       1
       1
       1
       1
       1
       1
       1
       1
       1
       1
       1
       1
       1
       1
       1
       1
       1
       1
       1
       1
       1
       1
       1
       1
       1
       1
       1
       1
       1
       1
       1
       1
       1
       1
       1
       1
       1
       1
       1
       1
       1
       1
       1
       1
       1
       1
       1
       1
       1
       1
       1
       1
       1
       1
       1
       1
       1
       1
       1
       1
       1
       1
       1
       1
       1
       1
       1
       1
       1
       1
       1
       1
       1
       1
       1
       1
       1
       1
       1
       1
       1
       1
       1
       1
       1
       1
       1
       1
       1
       1
       1
       1
       1
       1
       1
       1
       1
       1
       1
       1
       1
       1
       1
       1
       1
       1
       1
       1
       1
       1
       1
       1
       1
       1
       1
       1
       1
       1
       1
       1
       1
       1
       1
       1
       1
       1
       1
       1
       1
       1
       1
       1
       1
       1
       1
       1
       1
       1
       1
       1
       1
       1
       1
       1
       1
       1
       1
       1
       1
       1
       1
       1
       1
       1
       1
       1
       1
       1
       1
       1
       1
       1
       1
       1
       1
       1
       1
       1
       1
       1
       1
       1
       1
       1
       1
       1
       1
       1
       1
       1
       1
       1
       1
       1
       1
       1
       1
       1
       1
       1
       1
       1
       1
       1
       1
       1
       1
       1
       1
       1
       1
       1
       1
       1
       1
       1
       1
       1
       1
       1
       1
       1
       1
       1
       1
       1
       1
       1
       1
       1
       1
       1
       1
       1
       1
       1
       1
       1
       1
       1
       1
       1
       1
       1
       1
       1
       1
       1
       1
       1
       1
       1
       1
       1
       1
       1
       1
       1
       1
       1
       1
       1
       1
       1
       1
       1
       1
       1
       1
       1
       1
       1
       1
       1
       1
       1
       1
       1
       1
       1
       1
       1
       1
       1
       1
       1
       1
       1
       1
       1
       1
       1
       1
       1
       1
       1
       1
       1
       1
       1
       1
       1
       1
       1
       1
       1
       1
       1
       1
       1
       1
       1
       1
       1
       1
       1
       1
       1
       1
       1
       1
       1
       1
       1
       1
       1
       1
       1
       1
       1
       1
       1
       1
       1
       1
       1
       1
       1
       1
       1
       1
       1
       1
       1
       1
       1
       1
       1
       1
       1
       1
       1
       1
       1
       1
       1
       1
       1
       1
       1
       1
       1
       1
       1
       1
       1
       1
       1
       1
       1
       1
       1
       1
       1
       1
       1
       1
       1
       1
       1
       1
       1
       1
       1
       1
       1
       1
       1
       1
       1
       1
       1
       1
       1
       1
       1
       1
       1
       1
       1
       1
       1
       1
       1
       1
       1
       1
       1
       1
       1
       1
       1
       1
       1
       1
       1
       1
       1
       1
       1
       1
       1
       1
       1
       1
       1
       1
       1
       1
       1
       1
       1
       1
       1
       1
       1
       1
       1
       1
       1
       1
       1
       1
       1
       1
       1
       1
       1
       1
       1
       1
       1
       1
       1
       1
       1
       1
       1
       1
       1
       1
       1
       1
       1
       1
       1
       1
       1
       1
       1
       1
       1
       1
       1
       1
       1
       1
       1
       1
       1
       1
       1
       1
       1
       1
       1
       1
       1
       1
       1
       1
       1
       1
       1
       1
       1
       1
       1
       1
       1
       1
       1
       1
       1
       1
       1
       1
       1
       1
       1
       1
       1
       1
       1
       1
       1
       1
       1
       1
       1
       1
       1
       1
       1
       1
       1
       1
       1
       1
       1
       1
       1
       1
       1
       1
       1
       1
       1
       1
       1
       1
       1
       1
       1
       1
       1
       1
       1
       1
       1
       1
       1
       1
       1
       1
       1
       1
       1
       1
       1
       1
       1
       1
       1
       1
       1
       1
       1
       1
       1
       1
       1
       1
       1
       1
       1
       1
       1
       1
       1
       1
       1
       1
       1
       1
       1
       1
       1
       1
       1
       1
       1
       1
       1
       1
       1
       1
       1
       1
       1
       1
       1
       1
       1
       1
       1
       1
       1
       1
       1
       1
       1
       1
       1
       1
       1
       1
       1
       1
       1
       1
       1
       1
       1
       1
       1
       1
       1
       1
       1
       1
       1
       1
       1
       1
       1
       1
       1
       1
       1
       1
       1
       1
       1
       1
       1
       1
       1
       1
       1
       1
       1
       1
       1
       1
       1
       1
       1
       1
       1
       1
       1
       1
       1
       1
       1
       1
       1
       1
       1
       1
       1
       1
       1
       1
       1
       1
       1
       1
       1
       1
       1
       1
       1
       1
       1
       1
       1
       1
       1
       1
       1
       1
       1
       1
       1
       1
       1
       1
       1
       1
       1
       1
       1
       1
       1
       1
       1
       1
       1
       1
       1
       1
       1
       1
       1
       1
       1
       1
       1
       1
       1
       1
       1
       1
       1
       1
       1
       1
       1
       1
       1
       1
       1
       1
       1
       1
       1
       1
       1
       1
       1
       1
       1
       1
       1
       1
       1
       1
       1
       1
       1
       1
       1
       1
       1
       1
       1
       1
       1
       1
       1
       1
       1
       1
       1
       1
       1
       1
       1
       1
       1
       1
       1
       1
       1
       1
       1
       1
       1
       1
       1
       1
       1
       1
       1
       1
       1
       1
       1
       1
       1
       1
       1
       1
       1
       1
       1
       1
       1
       1
       1
       1
       1
       1
       1
       1
       1
       1
       1
       1
       1
       1
       1
       1
       1
       1
       1
       1
       1
       1
       1
       1
       1
       1
       1
       1
       1
       1
       1
       1
       1
       1
       1
       1
       1
       1
       1
       1
       1
       1
       1
       1
       1
       1
       1
       1
       1
       1
       1
       1
       1
       1
       1
       1
       1
       1
       1
       1
       1
       1
       1
       1
       1
       1
       1
       1
       1
       1
       1
       1
      12
      12
      12
      12
      12
      12
      12
      12
      12
      12
      12
      12
      12
      12
      12
      12
      12
      12
      12
      12
      12
      12
      12
      12
      12
      12
      12
      12
      12
      12
      12
      12
      12
      12
      12
      12
      12
      12
      12
      12
      12
      12
      12
      12
      12
      12
      12
      12
      12
      12
      12
      12
      12
      12
      12
      12
      12
      12
      12
      12
      12
      12
      12
      12
      12
      12
      12
      12
      12
      12
      12
      12
      12
      12
      12
      12
      12
      12
      12
      12
      12
      12
      12
      12
      12
      12
      12
      12
      12
      12
      12
      12
      12
      12
      12
      12
      12
      12
      12
      12
      12
      12
      12
      12
      12
      12
      12
      12
      12
      12
      12
      12
      12
      12
      12
      12
      12
      12
      12
      12
      12
      12
      12
      12
      12
      12
      12
      12
      12
      12
      12
      12
      12
      12
      12
      12
      12
      12
      12
      12
      12
      12
      12
      12
      12
      12
      12
      12
      12
      12
      12
      12
      12
      12
      12
      12
      12
      12
      12
      12
      12
      12
      12
      12
      12
      12
      12
      12
      12
      12
      12
      12
      12
      12
      12
      12
      12
      12
      12
      12
      12
      12
      12
      12
      12
      12
      12
      12
      12
      12
      12
      12
      12
      12
      12
      12
      12
      12
      12
      12
      12
      12
      12
      12
      12
      12
      12
      12
      12
      12
      12
      12
      12
      12
      12
      12
      12
      12
      12
      12
      12
      12
      12
      12
      12
      12
      12
      12
      12
      12
      12
      12
      12
      12
      12
      12
      12
      12
      12
      12
      12
      12
      12
      12
      12
      12
      12
      12
      12
      12
      12
      12
      12
      12
      12
      12
      12
      12
      12
      12
      12
      12
      12
      12
      12
      12
      12
      12
      12
      12
      12
      12
      12
      12
      12
      12
      12
      12
      12
      12
      12
      12
      12
      12
      12
      12
      12
      12
      12
      12
      12
      12
      12
      12
      12
      12
      12
      12
      12
      12
      12
      12
      12
      12
      12
      12
      12
      12
      12
      12
      12
      12
      12
      12
      12
      12
      12
      12
      12
      12
      12
      12
      12
      12
      12
      12
      12
      12
      12
      12
      12
      12
      12
      12
      12
      12
      12
      12
      12
      12
      12
      12
      12
      12
      12
      12
      12
      12
      12
      12
      12
      12
      12
      12
      12
      12
      12
      12
      12
      12
      12
      12
      12
      12
      12
      12
      12
      12
      12
      12
      12
      12
      12
      12
      12
      12
      12
      12
      12
      12
      12
      12
      12
      12
      12
      12
      12
      12
      12
      12
      12
      12
      12
      12
      12
      12
      12
      12
      12
      12
      12
      12
      12
      12
      12
      12
      12
      12
      12
      12
      12
      12
      12
      12
      12
      12
      12
      12
      12
      12
      12
      12
      12
      12
      12
      12
      12
      12
      12
      12
      12
      12
      12
      12
      12
      12
      12
      12
      12
      12
      12
      12
      12
      12
      12
      12
      12
      12
      12
      12
      12
      12
      12
      12
      12
      12
      12
      12
      12
      12
      12
      12
      12
      12
      12
      12
      12
      12
      12
      12
      12
      12
      12
      12
      12
      12
      12
      12
      12
      12
      12
      12
      12
      12
      12
      12
      12
      12
      12
      12
      12
      12
      12
      12
      12
      12
      12
      12
      12
      12
      12
      12
      12
      12
      12
      12
      12
      12
      12
      12
      12
      12
      12
      12
      12
      12
      12
      12
      12
      12
      12
      12
      12
      12
      12
      12
      12
      12
      12
      12
      12
      12
      12
      12
      12
      12
      12
      12
      12
      12
      12
      12
      12
      12
      12
      12
      12
      12
      12
      12
      12
      12
      12
      12
      12
      12
      12
      12
      12
      12
      12
      12
      12
      12
      12
      12
      12
      12
      12
      12
      12
      12
      12
      12
      12
      12
      12
      12
      12
      12
      12
      12
      12
      12
      12
      12
      12
      12
      12
      12
      12
      12
      12
      12
      12
      12
      12
      12
      12
      12
      12
      12
      12
      12
      12
      12
      12
      12
      12
      12
      12
      12
      12
      12
      12
      12
      12
      12
      12
      12
      12
      12
      12
      12
      12
      12
      12
      12
      12
      12
      12
      12
      12
      12
      12
      12
      12
      12
      12
      12
      12
      12
      12
      12
      12
      12
      12
      12
      12
      12
      12
      12
      12
      12
      12
      12
      12
      12
      12
      12
      12
      12
      12
      12
      12
      12
      12
      12
      12
      12
      12
      12
      12
      12
      12
      12
      12
      12
      12
      12
      12
      12
      12
      12
      12
      12
      12
      12
      12
      12
      12
      12
      12
      12
      12
      12
      12
      12
      12
      12
      12
      12
      12
      12
      12
      12
      12
      12
      12
      12
      12
      12
      12
      12
      12
      12
      12
      12
      12
      12
      12
      12
      12
      12
      12
      12
      12
      12
      12
      12
      12
      12
      12
      12
      12
      12
      12
      12
      12
      12
      12
      12
      12
      12
      12
      12
      12
      12
      12
      12
      12
      12
      12
      12
      12
      12
      12
      12
      12
      12
      12
      12
      12
      12
      12
      12
      12
      12
      12
      12
      12
      12
      12
      12
      12
      12
      12
      12
      12
      12
      12
      12
      12
      12
      12
      12
      12
      12
      12
      12
      12
      12
      12
      12
      12
      12
      12
      12
      12
      12
      12
      12
      12
      12
      12
      12
      12
      12
      12
      12
      12
      12
      12
      12
      12
      12
      12
      12
      12
      12
      12
      12
      12
      12
      12
      12
      12
      12
      12
      12
      12
      12
      12
      12
      12
      12
      12
      12
      12
      12
      12
      12
      12
      12
      12
      12
      12
      12
      12
      12
      12
      12
      12
      12
      12
      12
      12
      12
      12
      12
      12
      12
      12
      12
      12
      12
      12
      12
      12
      12
      12
      12
      12
      12
      12
      12
      12
      12
      12
      12
      12
      12
      12
      12
      12
      12
      12
      12
      12
      12
      12
      12
      12
      12
      12
      12
      12
      12
      12
      12
      12
      12
      12
      12
      12
      12
      12
      12
      12
      12
      12
      12
      12
      12
      12
      12
      12
      12
      12
      12
      12
      12
      12
      12
      12
      12
      12
      12
      12
      12
      12
      12
      12
      12
      12
      12
      12
      12
      12
      12
      12
      12
      12
      12
      12
      12
      12
      12
      12
      12
      12
      12
      12
      12
      12
      12
      12
      12
      12
      12
      12
      12
      12
      12
      12
      12
      12
      12
      12
      12
      12
      12
      12
      12
      12
      12
      12
      12
      12
      12
      12
      12
      12
      12
      12
      12
      12
      12
      12
      12
      12
      12
      12
      12
      12
      12
      12
      12
      12
      12
      12
      12
      12
      12
      12
      12
      12
      12
      12
      12
      12
      12
      12
      12
      12
      12
      12
      12
      12
      12
      12
      12
      12
      12
      12
      12
      12
      12
      12
      12
      12
      12
      12
      12
      12
      12
      12
      12
      12
      12
      12
      12
      12
      12
      12
      12
      12
      12
      12
      12
      12
      12
      12
      12
      12
      12
      12
      12
      12
      12
      12
      12
      12
      12
      12
      12
      12
      12
      12
      12
      12
      12
      12
      12
      12
      12
      12
      12
      12
      12
      12
      12
      12
      12
      12
      12
      12
      12
      12
      12
      12
      12
      12
      12
      12
      12
      12
      12
      12
      12
      12
      12
      12
      12
      12
      12
      12
      12
      12
      12
      12
      12
      12
      12
      12
      12
      12
      12
      12
      12
      12
      12
      12
      12
      12
      12
      12
      12
      12
      12
      12
      12
      12
      12
      12
      12
      12
      12
      12
      12
      12
      12
      12
      12
      12
      12
      12
      12
      12
      12
      12
      12
      12
      12
      12
      12
      12
      12
      12
      12
      12
      12
      12
      12
      12
      12
      12
      12
      12
      12
      12
      12
      12
      12
      12
      12
      12
      12
      12
      12
      12
      12
      12
      12
      12
      12
      12
      12
      12
      12
      12
      12
      12
      12
      12
      12
      12
      12
      12
      12
      12
      12
      12
      12
      12
      12
      12
      12
      12
      12
      12
      12
      12
      12
      12
      12
      12
      12
      12
      12
      12
      12
      12
      12
      12
      12
      12
      12
      12
      12
      12
      12
      12
      12
      12
      12
      12
      12
      12
      12
      12
      12
      12
      12
      12
      12
      12
      12
      12
      12
      12
      12
      12
      12
      12
      12
      12
      12
      12
      12
      12
      12
      12
      12
      12
      12
      12
      12
      12
      12
      12
      12
      12
      12
      12
      12
      12
      12
      12
      12
      12
      12
      12
      12
      12
      12
      12
      12
      12
      12
      12
      12
      12
      12
      12
      12
      12
      12
      12
      12
      12
      12
      12
      12
      12
      12
      12
      12
      12
      12
      12
      12
      12
      12
      12
      12
      12
      12
      12
      12
      12
      12
      12
      12
      12
      12
      12
      12
      12
      12
      12
      12
      12
      12
      12
      12
      12
      12
      12
      12
      12
      12
      12
      12
      12
      12
      12
      12
      12
      12
      12
      12
      12
      12
      12
      12
      12
      12
      12
      12
      12
      12
      12
      12
      12
      12
      12
      12
      12
      12
      12
      12
      12
      12
      12
      12
      12
      12
      12
      12
      12
      12
      12
      12
      12
      12
      12
      12
      12
      12
      12
      12
      12
      12
      12
      12
      12
      12
      12
      12
      12
      12
      12
      12
      12
      12
      12
      12
      12
      12
      12
      12
      12
      12
      12
      12
      12
      12
      12
      12
      12
      12
      12
      12
      12
      12
      12
      12
      12
      12
      12
      12
      12
      12
      12
      12
      12
      12
      12
      12
      12
      12
      12
      12
      12
      12
      12
      12
      12
      12
      12
      12
      12
      12
      12
      12
      12
      12
      12
      12
      12
      12
      12
      12
      12
      12
      12
      12
      12
      12
      12
      12
      12
      12
      12
      12
      12
      12
      12
      12
      12
      12
      12
      12
      12
      12
      12
      12
      12
      12
      12
      12
      12
      12
      12
      12
      12
      12
      12
      12
      12
      12
      12
      12
      12
      12
      12
      12
      12
      12
      12
      12
      12
      12
      12
      12
      12
      12
      12
      12
      12
      12
      12
      12
      12
      12
      12
      12
      12
      12
      12
      12
      12
      12
      12
      12
  
  
POINT_DATA       1950
  
SCALARS                  material_type  double 1
LOOKUP_TABLE default
                   2
                   2
                   2
                   2
                   2
                   2
                   2
                   2
                   2
                   2
                   2
                   2
                   2
                   2
                   2
                   2
                   2
                   2
                   2
                   2
                   2
                   2
                   2
                   2
                   2
                   2
                   2
                   2
                   2
                   2
                   2
                   2
                   2
                   2
                   2
                   2
                   2
                   2
                   2
                   2
                   2
                   2
                   2
                   2
                   2
                   2
                   2
                   2
                   2
                   2
                   2
                   2
                   2
                   2
                   2
                   2
                   2
                   2
                   2
                   2
                   2
                   2
                   2
                   2
                   2
                   2
                   2
                   2
                   2
                   2
                   2
                   2
                   2
                   2
                   2
                   2
                   2
                   2
                   2
                   2
                   2
                   2
                   2
                   2
                   2
                   2
                   2
                   2
                   2
                   2
                   2
                   2
                   2
                   2
                   2
                   2
                   2
                   2
                   2
                   2
                   2
                   2
                   2
                   2
                   2
                   2
                   2
                   2
                   2
                   2
                   2
                   2
                   2
                   2
                   2
                   2
                   2
                   2
                   2
                   2
                   2
                   2
                   2
                   2
                   2
                   2
                   2
                   2
                   2
                   2
                   2
                   2
                   2
                   2
                   2
                   2
                   2
                   2
                   2
                   2
                   2
                   2
                   2
                   2
                   2
                   2
                   2
                   2
                   2
                   2
                   2
                   2
                   2
                   2
                   2
                   2
                   2
                   2
                   2
                   2
                   2
                   2
                   2
                   2
                   2
                   2
                   2
                   2
                   2
                   2
                   2
                   2
                   2
                   2
                   2
                   2
                   2
                   2
                   2
                   2
                   2
                   2
                   2
                   2
                   2
                   2
                   2
                   2
                   2
                   2
                   2
                   2
                   2
                   2
                   2
                   2
                   2
                   2
                   2
                   2
                   2
                   2
                   2
                   2
                   2
                   2
                   2
                   2
                   2
                   2
                   2
                   2
                   2
                   2
                   2
                   2
                   2
                   2
                   2
                   2
                   2
                   2
                   2
                   2
                   2
                   2
                   2
                   2
                   2
                   2
                   2
                   2
                   2
                   2
                   2
                   2
                   2
                   2
                   2
                   2
                   2
                   2
                   2
                   2
                   2
                   2
                   2
                   2
                   2
                   2
                   2
                   2
                   2
                   2
                   2
                   2
                   2
                   2
                   2
                   2
                   2
                   2
                   2
                   2
                   2
                   2
                   2
                   2
                   2
                   2
                   2
                   2
                   2
                   2
                   2
                   2
                   2
                   2
                   2
                   2
                   2
                   2
                   2
                   2
                   2
                   2
                   2
                   2
                   2
                   2
                   2
                   2
                   2
                   2
                   2
                   2
                   2
                   2
                   2
                   2
                   2
                   2
                   2
                   2
                   2
                   2
                   2
                   2
                   2
                   2
                   2
                   2
                   2
                   2
                   2
                   2
                   2
                   2
                   2
                   2
                   2
                   2
                   2
                   2
                   2
                   2
                   2
                   2
                   2
                   2
                   2
                   2
                   2
                   2
                   2
                   2
                   2
                   2
                   2
                   2
                   2
                   2
                   2
                   2
                   2
                   2
                   2
                   2
                   2
                   2
                   2
                   2
                   2
                   2
                   2
                   2
                   2
                   2
                   2
                   2
                   2
                   2
                   2
                   2
                   2
                   2
                   2
                   2
                   2
                   2
                   2
                   2
                   2
                   2
                   2
                   2
                   2
                   2
                   2
                   2
                   2
                   2
                   2
                   2
                   2
                   2
                   2
                   2
                   2
                   2
                   2
                   2
                   2
                   2
                   2
                   2
                   2
                   2
                   2
                   2
                   2
                   2
                   2
                   2
                   2
                   2
                   2
                   2
                   2
                   2
                   2
                   2
                   2
                   2
                   2
                   2
                   2
                   2
                   2
                   2
                   2
                   2
                   2
                   2
                   2
                   2
                   2
                   2
                   2
                   2
                   2
                   2
                   2
                   2
                   2
                   2
                   2
                   2
                   2
                   2
                   2
                   2
                   2
                   2
                   2
                   2
                   2
                   2
                   2
                   2
                   2
                   2
                   2
                   2
                   2
                   2
                   2
                   2
                   2
                   2
                   2
                   2
                   2
                   2
                   2
                   2
                   2
                   2
                   2
                   2
                   2
                   2
                   2
                   2
                   2
                   2
                   2
                   2
                   2
                   2
                   2
                   2
                   2
                   2
                   2
                   2
                   2
                   2
                   2
                   2
                   2
                   2
                   2
                   2
                   2
                   2
                   2
                   2
                   2
                   2
                   2
                   2
                   2
                   2
                   2
                   2
                   2
                   2
                   2
                   2
                   2
                   2
                   2
                   2
                   2
                   2
                   2
                   2
                   2
                   2
                   2
                   2
                   2
                   2
                   2
                   2
                   2
                   2
                   2
                   2
                   2
                   2
                   2
                   2
                   2
                   2
                   2
                   2
                   2
                   2
                   2
                   2
                   2
                   2
                   2
                   2
                   2
                   2
                   2
                   2
                   2
                   2
                   2
                   2
                   2
                   2
                   2
                   2
                   2
                   2
                   2
                   2
                   2
                   2
                   2
                   2
                   2
                   2
                   2
                   2
                   2
                   2
                   2
                   2
                   2
                   2
                   2
                   2
                   2
                   2
                   2
                   2
                   2
                   2
                   2
                   2
                   2
                   2
                   2
                   2
                   2
                   2
                   2
                   2
                   2
                   2
                   2
                   2
                   2
                   2
                   2
                   2
                   2
                   2
                   2
                   2
                   2
                   2
                   2
                   2
                   2
                   2
                   2
                   2
                   2
                   2
                   2
                   2
                   2
                   2
                   2
                   2
                   2
                   2
                   2
                   2
                   2
                   2
                   2
                   2
                   2
                   2
                   2
                   2
                   2
                   2
                   2
                   2
                   2
                   2
                   2
                   2
                   2
                   2
                   2
                   2
                   2
                   2
                   2
                   2
                   2
                   2
                   2
                   2
                   2
                   2
                   2
                   2
                   2
                   2
                   2
                   2
                   2
                   2
                   2
                   2
                   2
                   2
                   2
                   2
                   2
                   2
                   2
                   2
                   2
                   2
                   2
                   2
                   2
                   2
                   2
                   2
                   2
                   2
                   2
                   2
                   2
                   2
                   2
                   2
                   2
                   2
                   2
                   2
                   2
                   2
                   2
                   2
                   2
                   2
                   2
                   2
                   2
                   2
                   2
                   2
                   2
                   2
                   2
                   2
                   2
                   2
                   2
                   2
                   2
                   2
                   2
                   2
                   2
                   2
                   2
                   2
                   2
                   2
                   2
                   2
                   2
                   2
                   2
                   2
                   2
                   2
                   2
                   2
                   2
                   2
                   2
                   2
                   2
                   2
                   2
                   2
                   2
                   2
                   2
                   2
                   2
                   2
                   2
                   2
                   2
                   2
                   2
                   2
                   2
                   2
                   2
                   2
                   2
                   2
                   2
                   2
                   2
                   2
                   2
                   2
                   2
                   2
                   2
                   2
                   2
                   2
                   2
                   2
                   2
                   2
                   2
                   2
                   2
                   2
                   2
                   2
                   2
                   2
                   2
                   2
                   2
                   2
                   2
                   2
                   2
                   2
                   2
                   2
                   2
                   2
                   2
                   2
                   2
                   2
                   2
                   2
                   2
                   2
                   2
                   2
                   2
                   2
                   2
                   2
                   2
                   2
                   2
                   2
                   2
                   2
                   2
                   2
                   2
                   2
                   2
                   2
                   2
                   2
                   2
                   2
                   2
                   2
                   2
                   2
                   2
                   2
                   2
                   2
                   2
                   2
                   2
                   2
                   2
                   2
                   2
                   2
                   2
                   2
                   2
                   2
                   2
                   2
                   2
                   2
                   2
                   2
                   2
                   2
                   2
                   2
                   2
                   2
                   2
                   2
                   2
                   2
                   2
                   2
                   2
                   2
                   2
                   2
                   2
                   2
                   2
                   2
                   2
                   2
                   2
                   2
                   2
                   2
                   2
                   2
                   2
                   2
                   2
                   2
                   2
                   2
                   2
                   2
                   2
                   2
                   2
                   2
                   2
                   2
                   2
                   2
                   2
                   2
                   2
                   2
                   2
                   2
                   2
                   2
                   2
                   2
                   2
                   2
                   2
                   2
                   2
                   2
                   2
                   2
                   2
                   2
                   2
                   2
                   2
                   2
                   2
                   2
                   2
                   2
                   2
                   2
                   2
                   2
                   2
                   2
                   2
                   2
                   2
                   2
                   2
                   2
                   2
                   2
                   2
                   2
                   2
                   2
                   2
                   2
                   2
                   2
                   2
                   2
                   2
                   2
                   2
                   2
                   2
                   2
                   2
                   2
                   2
                   2
                   2
                   2
                   2
                   2
                   2
                   2
                   2
                   2
                   2
                   2
                   2
                   2
                   2
                   2
                   2
                   2
                   2
                   2
                   2
                   2
                   2
                   2
                   2
                   2
                   2
                   2
                   2
                   2
                   2
                   2
                   2
                   2
                   2
                   2
                   2
                   2
                   2
                   2
                   2
                   2
                   2
                   2
                   2
                   2
                   2
                   2
                   2
                   2
                   2
                   2
                   2
                   2
                   2
                   2
                   2
                   2
                   2
                   2
                   2
                   2
                   2
                   2
                   2
                   2
                   2
                   2
                   2
                   2
                   2
                   2
                   2
                   2
                   2
                   2
                   2
                   2
                   2
                   2
                   2
                   2
                   2
                   2
                   2
                   2
                   2
                   2
                   2
                   2
                   2
                   2
                   2
                   2
                   2
                   2
                   2
                   2
                   2
                   2
                   2
                   2
                   2
                   2
                   2
                   2
                   2
                   2
                   2
                   2
                   2
                   2
                   2
                   2
                   2
                   2
                   2
                   2
                   2
                   2
                   2
                   2
                   2
                   2
                   2
                   2
                   2
                   2
                   2
                   2
                   2
                   2
                   2
                   2
                   2
                   2
                   2
                   2
                   2
                   2
                   2
                   2
                   2
                   2
                   2
                   2
                   2
                   2
                   2
                   2
                   2
                   2
                   2
                   2
                   2
                   2
                   2
                   2
                   2
                   2
                   2
                   2
                   2
                   2
                   2
                   2
                   2
                   2
                   2
                   2
                   2
                   2
                   2
                   2
                   2
                   2
                   2
                   2
                   2
                   2
                   2
                   2
                   2
                   2
                   2
                   2
                   2
                   2
                   2
                   2
                   2
                   2
                   2
                   2
                   2
                   2
                   2
                   2
                   2
                   2
                   2
                   2
                   2
                   2
                   2
                   2
                   2
                   2
                   2
                   2
                   2
                   2
                   2
                   2
                   2
                   2
                   2
                   2
                   2
                   2
                   2
                   2
                   2
                   2
                   2
                   2
                   2
                   2
                   2
                   2
                   2
                   2
                   2
                   2
                   2
                   2
                   2
                   2
                   2
                   2
                   2
                   2
                   2
                   2
                   2
                   2
                   2
                   2
                   2
                   2
                   2
                   2
                   2
                   2
                   2
                   2
                   2
                   2
                   2
                   2
                   2
                   2
                   2
                   2
                   2
                   2
                   2
                   2
                   2
                   2
                   2
                   2
                   2
                   2
                   2
                   2
                   2
                   2
                   2
                   2
                   2
                   2
                   2
                   2
                   2
                   2
                   2
                   2
                   2
                   2
                   2
                   2
                   2
                   2
                   2
                   2
                   2
                   2
                   2
                   2
                   2
                   2
                   2
                   2
                   2
                   2
                   2
                   2
                   2
                   2
                   2
                   2
                   2
                   2
                   2
                   2
                   2
                   2
                   2
                   2
                   2
                   2
                   2
                   2
                   2
                   2
                   2
                   2
                   2
                   2
                   2
                   2
                   2
                   2
                   2
                   2
                   2
                   2
                   2
                   2
                   2
                   2
                   2
                   2
                   2
                   2
                   2
                   2
                   2
                   2
                   2
                   2
                   2
                   2
                   2
                   2
                   2
                   2
                   2
                   2
                   2
                   2
                   2
                   2
                   2
                   2
                   2
                   2
                   2
                   2
                   2
                   2
                   2
                   2
                   2
                   2
                   2
                   2
                   2
                   2
                   2
                   2
                   2
                   2
                   2
                   2
                   2
                   2
                   2
                   2
                   2
                   2
                   2
                   2
                   2
                   2
                   2
                   2
                   2
                   2
                   2
                   2
                   2
                   2
                   2
                   2
                   2
                   2
                   2
                   2
                   2
                   2
                   2
                   2
                   2
                   2
                   2
                   2
                   2
                   2
                   2
                   2
                   2
                   2
                   2
                   2
                   2
                   2
                   2
                   2
                   2
                   2
                   2
                   2
                   2
                   2
                   2
                   2
                   2
                   2
                   2
                   2
                   2
                   2
                   2
                   2
                   2
                   2
                   2
                   2
                   2
                   2
                   2
                   2
                   2
                   2
                   2
                   2
                   2
                   2
                   2
                   2
                   2
                   2
                   2
                   2
                   2
                   2
                   2
                   2
                   2
                   2
                   2
                   2
                   2
                   2
                   2
                   2
                   2
                   2
                   2
                   2
                   2
                   2
                   2
                   2
                   2
                   2
                   2
                   2
                   2
                   2
                   2
                   2
                   2
                   2
                   2
                   2
                   2
                   2
                   2
                   2
                   2
                   2
                   2
                   2
                   2
                   2
                   2
                   2
                   2
                   2
                   2
                   2
                   2
                   2
                   2
                   2
                   2
                   2
                   2
                   2
                   2
                   2
                   2
                   2
                   2
                   2
                   2
                   2
                   2
                   2
                   2
                   2
                   2
                   2
                   2
                   2
                   2
                   2
                   2
                   2
                   2
                   2
                   2
                   2
                   2
                   2
                   2
                   2
                   2
                   2
                   2
                   2
                   2
                   2
                   2
                   2
                   2
                   2
                   2
                   2
                   2
                   2
                   2
                   2
                   2
                   2
                   2
                   2
                   2
                   2
                   2
                   2
                   2
                   2
                   2
                   2
                   2
                   2
                   2
                   2
                   2
                   2
                   2
                   2
                   2
                   2
                   2
                   2
                   2
                   2
                   2
                   2
                   2
                   2
                   2
                   2
                   2
                   2
                   2
                   2
                   2
                   2
                   2
                   2
                   2
                   2
                   2
                   2
                   2
                   2
                   2
                   2
                   2
                   2
                   2
                   2
                   2
                   2
                   2
                   2
                   2
                   2
                   2
                   2
                   2
                   2
                   2
                   2
                   2
                   2
                   2
                   2
                   2
                   2
                   2
                   2
                   2
                   2
                   2
                   2
                   2
                   2
                   2
                   2
                   2
                   2
                   2
                   2
                   2
                   2
                   2
                   2
                   2
                   2
                   2
                   2
                   2
                   2
                   2
                   2
                   2
                   2
                   2
                   2
                   2
                   2
                   2
                   2
                   2
                   2
                   2
                   2
                   2
                   2
                   2
                   2
                   2
                   2
                   2
                   2
                   2
                   2
                   2
                   2
                   2
                   2
                   2
                   2
                   2
                   2
                   2
                   2
                   2
                   2
                   2
                   2
                   2
                   2
                   2
                   2
                   2
                   2
                   2
                   2
                   2
                   2
                   2
                   2
                   2
                   2
                   2
                   2
                   2
                   2
                   2
                   2
                   2
                   2
                   2
                   2
                   2
                   2
                   2
                   2
                   2
                   2
                   2
                   2
                   2
                   2
                   2
                   2
                   2
                   2
                   2
                   2
                   2
                   2
                   2
                   2
                   2
                   2
                   2
                   2
                   2
                   2
                   2
                   2
                   2
                   2
                   2
                   2
                   2
                   2
                   2
                   2
                   2
                   2
                   2
                   2
                   2
                   2
                   2
                   2
                   2
                   2
                   2
                   2
                   2
                   2
                   2
                   2
                   2
                   2
                   2
                   2
                   2
                   2
                   2
                   2
                   2
                   2
                   2
                   2
                   2
                   2
                   2
                   2
                   2
                   2
                   2
                   2
                   2
                   2
                   2
                   2
                   2
                   2
                   2
                   2
                   2
                   2
                   2
                   2
                   2
                   2
                   2
                   2
                   2
                   2
                   2
                   2
                   2
                   2
                   2
                   2
                   2
                   2
                   2
                   2
                   2
                   2
                   2
                   2
                   2
                   2
                   2
                   2
                   2
                   2
                   2
                   2
                   2
                   2
                   2
                   2
                   2
                   2
                   2
                   2
                   2
                   2
                   2
                   2
                   2
                   2
                   2
                   2
                   2
                   2
                   2
                   2
                   2
                   2
                   2
                   2
                   2
                   2
                   2
                   2
                   2
                   2
                   2
                   2
                   2
                   2
                   2
                   2
                   2
                   2
                   2
                   2
                   2
                   2
                   2
                   2
                   2
                   2
                   2
                   2
                   2
                   2
                   2
                   2
                   2
                   2
                   2
                   2
                   2
                   2
                   2
                   2
                   2
                   2
                   2
                   2
                   2
                   2
                   2
                   2
                   2
                   2
                   2
                   2
                   2
                   2
                   2
                   2
                   2
                   2
                   2
                   2
                   2
                   2
                   2
                   2
                   2
                   2
                   2
                   2
                   2
                   2
                   2
                   2
                   2
                   2
                   2
                   2
                   2
                   2
                   2
                   2
                   2
                   2
                   2
                   2
                   2
                   2
                   2
                   2
                   2
                   2
                   2
                   2
                   2
                   2
                   2
                   2
                   2
                   2
                   2
                   2
                   2
                   2
                   2
                   2
                   2
                   2
                   2
                   2
                   2
                   2
                   2
                   2
                   2
                   2
                   2
                   2
                   2
                   2
                   2
                   2
                   2
                   2
                   2
                   2
                   2
                   2
                   2
                   2
                   2
                   2
                   2
                   2
                   2
                   2
                   2
                   2
                   2
                   2
                   2
                   2
  
SCALARS                        node_id  double 1
LOOKUP_TABLE default
                   1
                   2
                   3
                   4
                   5
                   6
                   7
                   8
                   9
                  10
                  11
                  12
                  13
                  14
                  15
                  16
                  17
                  18
                  19
                  20
                  21
                  22
                  23
                  24
                  25
                  26
                  27
                  28
                  29
                  30
                  31
                  32
                  33
                  34
                  35
                  36
                  37
                  38
                  39
                  40
                  41
                  42
                  43
                  44
                  45
                  46
                  47
                  48
                  49
                  50
                  51
                  52
                  53
                  54
                  55
                  56
                  57
                  58
                  59
                  60
                  61
                  62
                  63
                  64
                  65
                  66
                  67
                  68
                  69
                  70
                  71
                  72
                  73
                  74
                  75
                  76
                  77
                  78
                  79
                  80
                  81
                  82
                  83
                  84
                  85
                  86
                  87
                  88
                  89
                  90
                  91
                  92
                  93
                  94
                  95
                  96
                  97
                  98
                  99
                 100
                 101
                 102
                 103
                 104
                 105
                 106
                 107
                 108
                 109
                 110
                 111
                 112
                 113
                 114
                 115
                 116
                 117
                 118
                 119
                 120
                 121
                 122
                 123
                 124
                 125
                 126
                 127
                 128
                 129
                 130
                 131
                 132
                 133
                 134
                 135
                 136
                 137
                 138
                 139
                 140
                 141
                 142
                 143
                 144
                 145
                 146
                 147
                 148
                 149
                 150
                 151
                 152
                 153
                 154
                 155
                 156
                 157
                 158
                 159
                 160
                 161
                 162
                 163
                 164
                 165
                 166
                 167
                 168
                 169
                 170
                 171
                 172
                 173
                 174
                 175
                 176
                 177
                 178
                 179
                 180
                 181
                 182
                 183
                 184
                 185
                 186
                 187
                 188
                 189
                 190
                 191
                 192
                 193
                 194
                 195
                 196
                 197
                 198
                 199
                 200
                 201
                 202
                 203
                 204
                 205
                 206
                 207
                 208
                 209
                 210
                 211
                 212
                 213
                 214
                 215
                 216
                 217
                 218
                 219
                 220
                 221
                 222
                 223
                 224
                 225
                 226
                 227
                 228
                 229
                 230
                 231
                 232
                 233
                 234
                 235
                 236
                 237
                 238
                 239
                 240
                 241
                 242
                 243
                 244
                 245
                 246
                 247
                 248
                 249
                 250
                 251
                 252
                 253
                 254
                 255
                 256
                 257
                 258
                 259
                 260
                 261
                 262
                 263
                 264
                 265
                 266
                 267
                 268
                 269
                 270
                 271
                 272
                 273
                 274
                 275
                 276
                 277
                 278
                 279
                 280
                 281
                 282
                 283
                 284
                 285
                 286
                 287
                 288
                 289
                 290
                 291
                 292
                 293
                 294
                 295
                 296
                 297
                 298
                 299
                 300
                 301
                 302
                 303
                 304
                 305
                 306
                 307
                 308
                 309
                 310
                 311
                 312
                 313
                 314
                 315
                 316
                 317
                 318
                 319
                 320
                 321
                 322
                 323
                 324
                 325
                 326
                 327
                 328
                 329
                 330
                 331
                 332
                 333
                 334
                 335
                 336
                 337
                 338
                 339
                 340
                 341
                 342
                 343
                 344
                 345
                 346
                 347
                 348
                 349
                 350
                 351
                 352
                 353
                 354
                 355
                 356
                 357
                 358
                 359
                 360
                 361
                 362
                 363
                 364
                 365
                 366
                 367
                 368
                 369
                 370
                 371
                 372
                 373
                 374
                 375
                 376
                 377
                 378
                 379
                 380
                 381
                 382
                 383
                 384
                 385
                 386
                 387
                 388
                 389
                 390
                 391
                 392
                 393
                 394
                 395
                 396
                 397
                 398
                 399
                 400
                 401
                 402
                 403
                 404
                 405
                 406
                 407
                 408
                 409
                 410
                 411
                 412
                 413
                 414
                 415
                 416
                 417
                 418
                 419
                 420
                 421
                 422
                 423
                 424
                 425
                 426
                 427
                 428
                 429
                 430
                 431
                 432
                 433
                 434
                 435
                 436
                 437
                 438
                 439
                 440
                 441
                 442
                 443
                 444
                 445
                 446
                 447
                 448
                 449
                 450
                 451
                 452
                 453
                 454
                 455
                 456
                 457
                 458
                 459
                 460
                 461
                 462
                 463
                 464
                 465
                 466
                 467
                 468
                 469
                 470
                 471
                 472
                 473
                 474
                 475
                 476
                 477
                 478
                 479
                 480
                 481
                 482
                 483
                 484
                 485
                 486
                 487
                 488
                 489
                 490
                 491
                 492
                 493
                 494
                 495
                 496
                 497
                 498
                 499
                 500
                 501
                 502
                 503
                 504
                 505
                 506
                 507
                 508
                 509
                 510
                 511
                 512
                 513
                 514
                 515
                 516
                 517
                 518
                 519
                 520
                 521
                 522
                 523
                 524
                 525
                 526
                 527
                 528
                 529
                 530
                 531
                 532
                 533
                 534
                 535
                 536
                 537
                 538
                 539
                 540
                 541
                 542
                 543
                 544
                 545
                 546
                 547
                 548
                 549
                 550
                 551
                 552
                 553
                 554
                 555
                 556
                 557
                 558
                 559
                 560
                 561
                 562
                 563
                 564
                 565
                 566
                 567
                 568
                 569
                 570
                 571
                 572
                 573
                 574
                 575
                 576
                 577
                 578
                 579
                 580
                 581
                 582
                 583
                 584
                 585
                 586
                 587
                 588
                 589
                 590
                 591
                 592
                 593
                 594
                 595
                 596
                 597
                 598
                 599
                 600
                 601
                 602
                 603
                 604
                 605
                 606
                 607
                 608
                 609
                 610
                 611
                 612
                 613
                 614
                 615
                 616
                 617
                 618
                 619
                 620
                 621
                 622
                 623
                 624
                 625
                 626
                 627
                 628
                 629
                 630
                 631
                 632
                 633
                 634
                 635
                 636
                 637
                 638
                 639
                 640
                 641
                 642
                 643
                 644
                 645
                 646
                 647
                 648
                 649
                 650
                 651
                 652
                 653
                 654
                 655
                 656
                 657
                 658
                 659
                 660
                 661
                 662
                 663
                 664
                 665
                 666
                 667
                 668
                 669
                 670
                 671
                 672
                 673
                 674
                 675
                 676
                 677
                 678
                 679
                 680
                 681
                 682
                 683
                 684
                 685
                 686
                 687
                 688
                 689
                 690
                 691
                 692
                 693
                 694
                 695
                 696
                 697
                 698
                 699
                 700
                 701
                 702
                 703
                 704
                 705
                 706
                 707
                 708
                 709
                 710
                 711
                 712
                 713
                 714
                 715
                 716
                 717
                 718
                 719
                 720
                 721
                 722
                 723
                 724
                 725
                 726
                 727
                 728
                 729
                 730
                 731
                 732
                 733
                 734
                 735
                 736
                 737
                 738
                 739
                 740
                 741
                 742
                 743
                 744
                 745
                 746
                 747
                 748
                 749
                 750
                 751
                 752
                 753
                 754
                 755
                 756
                 757
                 758
                 759
                 760
                 761
                 762
                 763
                 764
                 765
                 766
                 767
                 768
                 769
                 770
                 771
                 772
                 773
                 774
                 775
                 776
                 777
                 778
                 779
                 780
                 781
                 782
                 783
                 784
                 785
                 786
                 787
                 788
                 789
                 790
                 791
                 792
                 793
                 794
                 795
                 796
                 797
                 798
                 799
                 800
                 801
                 802
                 803
                 804
                 805
                 806
                 807
                 808
                 809
                 810
                 811
                 812
                 813
                 814
                 815
                 816
                 817
                 818
                 819
                 820
                 821
                 822
                 823
                 824
                 825
                 826
                 827
                 828
                 829
                 830
                 831
                 832
                 833
                 834
                 835
                 836
                 837
                 838
                 839
                 840
                 841
                 842
                 843
                 844
                 845
                 846
                 847
                 848
                 849
                 850
                 851
                 852
                 853
                 854
                 855
                 856
                 857
                 858
                 859
                 860
                 861
                 862
                 863
                 864
                 865
                 866
                 867
                 868
                 869
                 870
                 871
                 872
                 873
                 874
                 875
                 876
                 877
                 878
                 879
                 880
                 881
                 882
                 883
                 884
                 885
                 886
                 887
                 888
                 889
                 890
                 891
                 892
                 893
                 894
                 895
                 896
                 897
                 898
                 899
                 900
                 901
                 902
                 903
                 904
                 905
                 906
                 907
                 908
                 909
                 910
                 911
                 912
                 913
                 914
                 915
                 916
                 917
                 918
                 919
                 920
                 921
                 922
                 923
                 924
                 925
                 926
                 927
                 928
                 929
                 930
                 931
                 932
                 933
                 934
                 935
                 936
                 937
                 938
                 939
                 940
                 941
                 942
                 943
                 944
                 945
                 946
                 947
                 948
                 949
                 950
                 951
                 952
                 953
                 954
                 955
                 956
                 957
                 958
                 959
                 960
                 961
                 962
                 963
                 964
                 965
                 966
                 967
                 968
                 969
                 970
                 971
                 972
                 973
                 974
                 975
                 976
                 977
                 978
                 979
                 980
                 981
                 982
                 983
                 984
                 985
                 986
                 987
                 988
                 989
                 990
                 991
                 992
                 993
                 994
                 995
                 996
                 997
                 998
                 999
                1000
                1001
                1002
                1003
                1004
                1005
                1006
                1007
                1008
                1009
                1010
                1011
                1012
                1013
                1014
                1015
                1016
                1017
                1018
                1019
                1020
                1021
                1022
                1023
                1024
                1025
                1026
                1027
                1028
                1029
                1030
                1031
                1032
                1033
                1034
                1035
                1036
                1037
                1038
                1039
                1040
                1041
                1042
                1043
                1044
                1045
                1046
                1047
                1048
                1049
                1050
                1051
                1052
                1053
                1054
                1055
                1056
                1057
                1058
                1059
                1060
                1061
                1062
                1063
                1064
                1065
                1066
                1067
                1068
                1069
                1070
                1071
                1072
                1073
                1074
                1075
                1076
                1077
                1078
                1079
                1080
                1081
                1082
                1083
                1084
                1085
                1086
                1087
                1088
                1089
                1090
                1091
                1092
                1093
                1094
                1095
                1096
                1097
                1098
                1099
                1100
                1101
                1102
                1103
                1104
                1105
                1106
                1107
                1108
                1109
                1110
                1111
                1112
                1113
                1114
                1115
                1116
                1117
                1118
                1119
                1120
                1121
                1122
                1123
                1124
                1125
                1126
                1127
                1128
                1129
                1130
                1131
                1132
                1133
                1134
                1135
                1136
                1137
                1138
                1139
                1140
                1141
                1142
                1143
                1144
                1145
                1146
                1147
                1148
                1149
                1150
                1151
                1152
                1153
                1154
                1155
                1156
                1157
                1158
                1159
                1160
                1161
                1162
                1163
                1164
                1165
                1166
                1167
                1168
                1169
                1170
                1171
                1172
                1173
                1174
                1175
                1176
                1177
                1178
                1179
                1180
                1181
                1182
                1183
                1184
                1185
                1186
                1187
                1188
                1189
                1190
                1191
                1192
                1193
                1194
                1195
                1196
                1197
                1198
                1199
                1200
                1201
                1202
                1203
                1204
                1205
                1206
                1207
                1208
                1209
                1210
                1211
                1212
                1213
                1214
                1215
                1216
                1217
                1218
                1219
                1220
                1221
                1222
                1223
                1224
                1225
                1226
                1227
                1228
                1229
                1230
                1231
                1232
                1233
                1234
                1235
                1236
                1237
                1238
                1239
                1240
                1241
                1242
                1243
                1244
                1245
                1246
                1247
                1248
                1249
                1250
                1251
                1252
                1253
                1254
                1255
                1256
                1257
                1258
                1259
                1260
                1261
                1262
                1263
                1264
                1265
                1266
                1267
                1268
                1269
                1270
                1271
                1272
                1273
                1274
                1275
                1276
                1277
                1278
                1279
                1280
                1281
                1282
                1283
                1284
                1285
                1286
                1287
                1288
                1289
                1290
                1291
                1292
                1293
                1294
                1295
                1296
                1297
                1298
                1299
                1300
                1301
                1302
                1303
                1304
                1305
                1306
                1307
                1308
                1309
                1310
                1311
                1312
                1313
                1314
                1315
                1316
                1317
                1318
                1319
                1320
                1321
                1322
                1323
                1324
                1325
                1326
                1327
                1328
                1329
                1330
                1331
                1332
                1333
                1334
                1335
                1336
                1337
                1338
                1339
                1340
                1341
                1342
                1343
                1344
                1345
                1346
                1347
                1348
                1349
                1350
                1351
                1352
                1353
                1354
                1355
                1356
                1357
                1358
                1359
                1360
                1361
                1362
                1363
                1364
                1365
                1366
                1367
                1368
                1369
                1370
                1371
                1372
                1373
                1374
                1375
                1376
                1377
                1378
                1379
                1380
                1381
                1382
                1383
                1384
                1385
                1386
                1387
                1388
                1389
                1390
                1391
                1392
                1393
                1394
                1395
                1396
                1397
                1398
                1399
                1400
                1401
                1402
                1403
                1404
                1405
                1406
                1407
                1408
                1409
                1410
                1411
                1412
                1413
                1414
                1415
                1416
                1417
                1418
                1419
                1420
                1421
                1422
                1423
                1424
                1425
                1426
                1427
                1428
                1429
                1430
                1431
                1432
                1433
                1434
                1435
                1436
                1437
                1438
                1439
                1440
                1441
                1442
                1443
                1444
                1445
                1446
                1447
                1448
                1449
                1450
                1451
                1452
                1453
                1454
                1455
                1456
                1457
                1458
                1459
                1460
                1461
                1462
                1463
                1464
                1465
                1466
                1467
                1468
                1469
                1470
                1471
                1472
                1473
                1474
                1475
                1476
                1477
                1478
                1479
                1480
                1481
                1482
                1483
                1484
                1485
                1486
                1487
                1488
                1489
                1490
                1491
                1492
                1493
                1494
                1495
                1496
                1497
                1498
                1499
                1500
                1501
                1502
                1503
                1504
                1505
                1506
                1507
                1508
                1509
                1510
                1511
                1512
                1513
                1514
                1515
                1516
                1517
                1518
                1519
                1520
                1521
                1522
                1523
                1524
                1525
                1526
                1527
                1528
                1529
                1530
                1531
                1532
                1533
                1534
                1535
                1536
                1537
                1538
                1539
                1540
                1541
                1542
                1543
                1544
                1545
                1546
                1547
                1548
                1549
                1550
                1551
                1552
                1553
                1554
                1555
                1556
                1557
                1558
                1559
                1560
                1561
                1562
                1563
                1564
                1565
                1566
                1567
                1568
                1569
                1570
                1571
                1572
                1573
                1574
                1575
                1576
                1577
                1578
                1579
                1580
                1581
                1582
                1583
                1584
                1585
                1586
                1587
                1588
                1589
                1590
                1591
                1592
                1593
                1594
                1595
                1596
                1597
                1598
                1599
                1600
                1601
                1602
                1603
                1604
                1605
                1606
                1607
                1608
                1609
                1610
                1611
                1612
                1613
                1614
                1615
                1616
                1617
                1618
                1619
                1620
                1621
                1622
                1623
                1624
                1625
                1626
                1627
                1628
                1629
                1630
                1631
                1632
                1633
                1634
                1635
                1636
                1637
                1638
                1639
                1640
                1641
                1642
                1643
                1644
                1645
                1646
                1647
                1648
                1649
                1650
                1651
                1652
                1653
                1654
                1655
                1656
                1657
                1658
                1659
                1660
                1661
                1662
                1663
                1664
                1665
                1666
                1667
                1668
                1669
                1670
                1671
                1672
                1673
                1674
                1675
                1676
                1677
                1678
                1679
                1680
                1681
                1682
                1683
                1684
                1685
                1686
                1687
                1688
                1689
                1690
                1691
                1692
                1693
                1694
                1695
                1696
                1697
                1698
                1699
                1700
                1701
                1702
                1703
                1704
                1705
                1706
                1707
                1708
                1709
                1710
                1711
                1712
                1713
                1714
                1715
                1716
                1717
                1718
                1719
                1720
                1721
                1722
                1723
                1724
                1725
                1726
                1727
                1728
                1729
                1730
                1731
                1732
                1733
                1734
                1735
                1736
                1737
                1738
                1739
                1740
                1741
                1742
                1743
                1744
                1745
                1746
                1747
                1748
                1749
                1750
                1751
                1752
                1753
                1754
                1755
                1756
                1757
                1758
                1759
                1760
                1761
                1762
                1763
                1764
                1765
                1766
                1767
                1768
                1769
                1770
                1771
                1772
                1773
                1774
                1775
                1776
                1777
                1778
                1779
                1780
                1781
                1782
                1783
                1784
                1785
                1786
                1787
                1788
                1789
                1790
                1791
                1792
                1793
                1794
                1795
                1796
                1797
                1798
                1799
                1800
                1801
                1802
                1803
                1804
                1805
                1806
                1807
                1808
                1809
                1810
                1811
                1812
                1813
                1814
                1815
                1816
                1817
                1818
                1819
                1820
                1821
                1822
                1823
                1824
                1825
                1826
                1827
                1828
                1829
                1830
                1831
                1832
                1833
                1834
                1835
                1836
                1837
                1838
                1839
                1840
                1841
                1842
                1843
                1844
                1845
                1846
                1847
                1848
                1849
                1850
                1851
                1852
                1853
                1854
                1855
                1856
                1857
                1858
                1859
                1860
                1861
                1862
                1863
                1864
                1865
                1866
                1867
                1868
                1869
                1870
                1871
                1872
                1873
                1874
                1875
                1876
                1877
                1878
                1879
                1880
                1881
                1882
                1883
                1884
                1885
                1886
                1887
                1888
                1889
                1890
                1891
                1892
                1893
                1894
                1895
                1896
                1897
                1898
                1899
                1900
                1901
                1902
                1903
                1904
                1905
                1906
                1907
                1908
                1909
                1910
                1911
                1912
                1913
                1914
                1915
                1916
                1917
                1918
                1919
                1920
                1921
                1922
                1923
                1924
                1925
                1926
                1927
                1928
                1929
                1930
                1931
                1932
                1933
                1934
                1935
                1936
                1937
                1938
                1939
                1940
                1941
                1942
                1943
                1944
                1945
                1946
                1947
                1948
                1949
                1950
  
SCALARS                         bodyid  double 1
LOOKUP_TABLE default
                   1
                   1
                   1
                   1
                   1
                   1
                   1
                   1
                   1
                   1
                   1
                   1
                   1
                   1
                   1
                   1
                   1
                   1
                   1
                   1
                   1
                   1
                   1
                   1
                   1
                   1
                   1
                   1
                   1
                   1
                   1
                   1
                   1
                   1
                   1
                   1
                   1
                   1
                   1
                   1
                   1
                   1
                   1
                   1
                   1
                   1
                   1
                   1
                   1
                   1
                   1
                   1
                   1
                   1
                   1
                   1
                   1
                   1
                   1
                   1
                   1
                   1
                   1
                   1
                   1
                   1
                   1
                   1
                   1
                   1
                   1
                   1
                   1
                   1
                   1
                   1
                   1
                   1
                   1
                   1
                   1
                   1
                   1
                   1
                   1
                   1
                   1
                   1
                   1
                   1
                   1
                   1
                   1
                   1
                   1
                   1
                   1
                   1
                   1
                   1
                   1
                   1
                   1
                   1
                   1
                   1
                   1
                   1
                   1
                   1
                   1
                   1
                   1
                   1
                   1
                   1
                   1
                   1
                   1
                   1
                   1
                   1
                   1
                   1
                   1
                   1
                   1
                   1
                   1
                   1
                   1
                   1
                   1
                   1
                   1
                   1
                   1
                   1
                   1
                   1
                   1
                   1
                   1
                   1
                   1
                   1
                   1
                   1
                   1
                   1
                   1
                   1
                   1
                   1
                   1
                   1
                   1
                   1
                   1
                   1
                   1
                   1
                   1
                   1
                   1
                   1
                   1
                   1
                   1
                   1
                   1
                   1
                   1
                   1
                   1
                   1
                   1
                   1
                   1
                   1
                   1
                   1
                   1
                   1
                   1
                   1
                   1
                   1
                   1
                   1
                   1
                   1
                   1
                   1
                   1
                   1
                   1
                   1
                   1
                   1
                   1
                   1
                   1
                   1
                   1
                   1
                   1
                   1
                   1
                   1
                   1
                   1
                   1
                   1
                   1
                   1
                   1
                   1
                   1
                   1
                   1
                   1
                   1
                   1
                   1
                   1
                   1
                   1
                   1
                   1
                   1
                   1
                   1
                   1
                   1
                   1
                   1
                   1
                   1
                   1
                   1
                   1
                   1
                   1
                   1
                   1
                   1
                   1
                   1
                   1
                   1
                   1
                   1
                   1
                   1
                   1
                   1
                   1
                   1
                   1
                   1
                   1
                   1
                   1
                   1
                   1
                   1
                   1
                   1
                   1
                   1
                   1
                   1
                   1
                   1
                   1
                   1
                   1
                   1
                   1
                   1
                   1
                   1
                   1
                   1
                   1
                   1
                   1
                   1
                   1
                   1
                   1
                   1
                   1
                   1
                   1
                   1
                   1
                   1
                   1
                   1
                   1
                   1
                   1
                   1
                   1
                   1
                   1
                   1
                   1
                   1
                   1
                   1
                   1
                   1
                   1
                   1
                   1
                   1
                   1
                   1
                   1
                   1
                   1
                   1
                   1
                   1
                   1
                   1
                   1
                   1
                   1
                   1
                   1
                   1
                   1
                   1
                   1
                   1
                   1
                   1
                   1
                   1
                   1
                   1
                   1
                   1
                   1
                   1
                   1
                   1
                   1
                   1
                   1
                   1
                   1
                   1
                   1
                   1
                   1
                   1
                   1
                   1
                   1
                   1
                   1
                   1
                   1
                   1
                   1
                   1
                   1
                   1
                   1
                   1
                   1
                   1
                   1
                   1
                   1
                   1
                   1
                   1
                   1
                   1
                   1
                   1
                   1
                   1
                   1
                   1
                   1
                   1
                   1
                   1
                   1
                   1
                   1
                   1
                   1
                   1
                   1
                   1
                   1
                   1
                   1
                   1
                   1
                   1
                   1
                   1
                   1
                   1
                   1
                   1
                   1
                   1
                   1
                   1
                   1
                   1
                   1
                   1
                   1
                   1
                   1
                   1
                   1
                   1
                   1
                   1
                   1
                   1
                   1
                   1
                   1
                   1
                   1
                   1
                   1
                   1
                   1
                   1
                   1
                   1
                   1
                   1
                   1
                   1
                   1
                   1
                   1
                   1
                   1
                   1
                   1
                   1
                   1
                   1
                   1
                   1
                   1
                   1
                   1
                   1
                   1
                   1
                   1
                   1
                   1
                   1
                   1
                   1
                   1
                   1
                   1
                   1
                   1
                   1
                   1
                   1
                   1
                   1
                   1
                   1
                   1
                   1
                   1
                   1
                   1
                   1
                   1
                   1
                   1
                   1
                   1
                   1
                   1
                   1
                   1
                   1
                   1
                   1
                   1
                   1
                   1
                   1
                   1
                   1
                   1
                   1
                   1
                   1
                   1
                   1
                   1
                   1
                   1
                   1
                   1
                   1
                   1
                   1
                   1
                   1
                   1
                   1
                   1
                   1
                   1
                   1
                   1
                   1
                   1
                   1
                   1
                   1
                   1
                   1
                   1
                   1
                   1
                   1
                   1
                   1
                   1
                   1
                   1
                   1
                   1
                   1
                   1
                   1
                   1
                   1
                   1
                   1
                   1
                   1
                   1
                   1
                   1
                   1
                   1
                   1
                   1
                   1
                   1
                   1
                   1
                   1
                   1
                   1
                   1
                   1
                   1
                   1
                   1
                   1
                   1
                   1
                   1
                   1
                   1
                   1
                   1
                   1
                   1
                   1
                   1
                   1
                   1
                   1
                   1
                   1
                   1
                   1
                   1
                   1
                   1
                   1
                   1
                   1
                   1
                   1
                   1
                   1
                   1
                   1
                   1
                   1
                   1
                   1
                   1
                   1
                   1
                   1
                   1
                   1
                   1
                   1
                   1
                   1
                   1
                   1
                   1
                   1
                   1
                   1
                   1
                   1
                   1
                   1
                   1
                   1
                   1
                   1
                   1
                   1
                   1
                   1
                   1
                   1
                   1
                   1
                   1
                   1
                   1
                   1
                   1
                   1
                   1
                   1
                   1
                   1
                   1
                   1
                   1
                   1
                   1
                   1
                   1
                   1
                   1
                   1
                   1
                   1
                   1
                   1
                   1
                   1
                   1
                   1
                   1
                   1
                   1
                   1
                   1
                   1
                   1
                   1
                   1
                   1
                   1
                   1
                   1
                   1
                   1
                   1
                   1
                   1
                   1
                   1
                   1
                   1
                   1
                   1
                   1
                   1
                   1
                   1
                   1
                   1
                   1
                   1
                   1
                   1
                   1
                   1
                   1
                   1
                   1
                   1
                   1
                   1
                   1
                   1
                   1
                   1
                   1
                   1
                   1
                   1
                   1
                   1
                   1
                   1
                   1
                   1
                   1
                   1
                   1
                   1
                   1
                   1
                   1
                   1
                   1
                   1
                   1
                   1
                   1
                   1
                   1
                   1
                   1
                   1
                   1
                   1
                   1
                   1
                   1
                   1
                   1
                   1
                   1
                   1
                   1
                   1
                   1
                   1
                   1
                   1
                   1
                   1
                   1
                   1
                   1
                   1
                   1
                   1
                   1
                   1
                   1
                   1
                   1
                   1
                   1
                   1
                   1
                   1
                   1
                   1
                   1
                   1
                   1
                   1
                   1
                   1
                   1
                   1
                   1
                   1
                   1
                   1
                   1
                   1
                   1
                   1
                   1
                   1
                   1
                   1
                   1
                   1
                   1
                   1
                   1
                   1
                   1
                   1
                   1
                   1
                   1
                   1
                   1
                   1
                   1
                   1
                   1
                   1
                   1
                   1
                   1
                   1
                   1
                   1
                   1
                   1
                   1
                   1
                   1
                   1
                   1
                   1
                   1
                   1
                   1
                   1
                   1
                   1
                   1
                   1
                   1
                   1
                   1
                   1
                   1
                   1
                   1
                   1
                   1
                   1
                   1
                   1
                   1
                   1
                   1
                   1
                   1
                   1
                   1
                   1
                   1
                   1
                   1
                   1
                   1
                   1
                   1
                   1
                   1
                   1
                   1
                   1
                   1
                   1
                   1
                   1
                   1
                   1
                   1
                   1
                   1
                   1
                   1
                   1
                   1
                   1
                   1
                   1
                   1
                   1
                   1
                   1
                   1
                   1
                   1
                   1
                   1
                   1
                   1
                   1
                   1
                   1
                   1
                   1
                   1
                   1
                   1
                   1
                   1
                   1
                   1
                   1
                   1
                   1
                   1
                   1
                   1
                   1
                   1
                   1
                   1
                   1
                   1
                   1
                   1
                   1
                   1
                   1
                   1
                   1
                   1
                   1
                   1
                   1
                   1
                   1
                   1
                   1
                   1
                   1
                   1
                   1
                   1
                   1
                   1
                   1
                   1
                   1
                   1
                   1
                   1
                   1
                   1
                   1
                   1
                   1
                   1
                   1
                   1
                   1
                   1
                   1
                   1
                   1
                   1
                   1
                   1
                   1
                   1
                   1
                   1
                   1
                   1
                   1
                   1
                   1
                   1
                   1
                   1
                   1
                   1
                   1
                   1
                   1
                   1
                   1
                   1
                   1
                   1
                   1
                   1
                   1
                   1
                   1
                   1
                   1
                   1
                   1
                   1
                   1
                   1
                   1
                   1
                   1
                   1
                   1
                   1
                   1
                   1
                   1
                   1
                   1
                   1
                   1
                   1
                   1
                   1
                   1
                   1
                   1
                   1
                   1
                   1
                   1
                   1
                   1
                   1
                   1
                   1
                   1
                   1
                   1
                   1
                   1
                   1
                   1
                   1
                   1
                   1
                   1
                   1
                   1
                   1
                   1
                   1
                   1
                   1
                   1
                   1
                   1
                   1
                   1
                   1
                   1
                   1
                   1
                   1
                   1
                   1
                   1
                   1
                   1
                   1
                   1
                   1
                   1
                   1
                   1
                   1
                   1
                   1
                   1
                   1
                   1
                   1
                   1
                   1
                   1
                   1
                   1
                   1
                   1
                   1
                   1
                   1
                   1
                   1
                   1
                   1
                   1
                   1
                   1
                   1
                   1
                   1
                   1
                   1
                   1
                   1
                   1
                   1
                   1
                   1
                   1
                   1
                   1
                   1
                   1
                   1
                   1
                   1
                   1
                   1
                   1
                   1
                   1
                   1
                   1
                   1
                   1
                   1
                   1
                   1
                   1
                   1
                   1
                   1
                   1
                   1
                   1
                   1
                   1
                   1
                   1
                   1
                   1
                   1
                   1
                   1
                   1
                   1
                   1
                   1
                   1
                   1
                   1
                   1
                   1
                   1
                   1
                   1
                   1
                   1
                   1
                   1
                   1
                   1
                   1
                   1
                   1
                   1
                   1
                   1
                   1
                   1
                   1
                   1
                   1
                   1
                   1
                   1
                   1
                   1
                   1
                   1
                   1
                   1
                   1
                   1
                   1
                   1
                   1
                   1
                   1
                   1
                   1
                   1
                   1
                   1
                   1
                   1
                   1
                   1
                   1
                   1
                   1
                   1
                   1
                   1
                   1
                   1
                   1
                   1
                   1
                   1
                   1
                   1
                   1
                   1
                   1
                   1
                   1
                   1
                   1
                   1
                   1
                   1
                   1
                   1
                   1
                   1
                   1
                   1
                   1
                   1
                   1
                   1
                   1
                   1
                   1
                   1
                   1
                   1
                   1
                   1
                   1
                   1
                   1
                   1
                   1
                   1
                   1
                   1
                   1
                   1
                   1
                   1
                   1
                   1
                   1
                   1
                   1
                   1
                   1
                   1
                   1
                   1
                   1
                   1
                   1
                   1
                   1
                   1
                   1
                   1
                   1
                   1
                   1
                   1
                   1
                   1
                   1
                   1
                   1
                   1
                   1
                   1
                   1
                   1
                   1
                   1
                   1
                   1
                   1
                   1
                   1
                   1
                   1
                   1
                   1
                   1
                   1
                   1
                   1
                   1
                   1
                   1
                   1
                   1
                   1
                   1
                   1
                   1
                   1
                   1
                   1
                   1
                   1
                   1
                   1
                   1
                   1
                   1
                   1
                   1
                   1
                   1
                   1
                   1
                   1
                   1
                   1
                   1
                   1
                   1
                   1
                   1
                   1
                   1
                   1
                   1
                   1
                   1
                   1
                   1
                   1
                   1
                   1
                   1
                   1
                   1
                   1
                   1
                   1
                   1
                   1
                   1
                   1
                   1
                   1
                   1
                   1
                   1
                   1
                   1
                   1
                   1
                   1
                   1
                   1
                   1
                   1
                   1
                   1
                   1
                   1
                   1
                   1
                   1
                   1
                   1
                   1
                   1
                   1
                   1
                   1
                   1
                   1
                   1
                   1
                   1
                   1
                   1
                   1
                   1
                   1
                   1
                   1
                   1
                   1
                   1
                   1
                   1
                   1
                   1
                   1
                   1
                   1
                   1
                   1
                   1
                   1
                   1
                   1
                   1
                   1
                   1
                   1
                   1
                   1
                   1
                   1
                   1
                   1
                   1
                   1
                   1
                   1
                   1
                   1
                   1
                   1
                   1
                   1
                   1
                   1
                   1
                   1
                   1
                   1
                   1
                   1
                   1
                   1
                   1
                   1
                   1
                   1
                   1
                   1
                   1
                   1
                   1
                   1
                   1
                   1
                   1
                   1
                   1
                   1
                   1
                   1
                   1
                   1
                   1
                   1
                   1
                   1
                   1
                   1
                   1
                   1
                   1
                   1
                   1
                   1
                   1
                   1
                   1
                   1
                   1
                   1
                   1
                   1
                   1
                   1
                   1
                   1
                   1
                   1
                   1
                   1
                   1
                   1
                   1
                   1
                   1
                   1
                   1
                   1
                   1
                   1
                   1
                   1
                   1
                   1
                   1
                   1
                   1
                   1
                   1
                   1
                   1
                   1
                   1
                   1
                   1
                   1
                   1
                   1
                   1
                   1
                   1
                   1
                   1
                   1
                   1
                   1
                   1
                   1
                   1
                   1
                   1
                   1
                   1
                   1
                   1
                   1
                   1
                   1
                   1
                   1
                   1
                   1
                   1
                   1
                   1
                   1
                   1
                   1
                   1
                   1
                   1
                   1
                   1
                   1
                   1
                   1
                   1
                   1
                   1
                   1
                   1
                   1
                   1
                   1
                   1
                   1
                   1
                   1
                   1
                   1
                   1
                   1
                   1
                   1
                   1
                   1
                   1
                   1
                   1
                   1
                   1
                   1
                   1
                   1
                   1
                   1
                   1
                   1
                   1
                   1
                   1
                   1
                   1
                   1
                   1
                   1
                   1
                   1
                   1
                   1
                   1
                   1
                   1
                   1
                   1
                   1
                   1
                   1
                   1
                   1
                   1
                   1
                   1
                   1
                   1
                   1
                   1
                   1
                   1
                   1
                   1
                   1
                   1
                   1
                   1
                   1
                   1
                   1
                   1
                   1
                   1
                   1
                   1
                   1
                   1
                   1
                   1
                   1
                   1
                   1
                   1
                   1
                   1
                   1
                   1
                   1
                   1
                   1
                   1
                   1
                   1
                   1
                   1
                   1
                   1
                   1
                   1
                   1
                   1
                   1
                   1
                   1
                   1
                   1
                   1
                   1
                   1
                   1
                   1
                   1
                   1
                   1
                   1
                   1
                   1
                   1
                   1
                   1
                   1
                   1
                   1
                   1
                   1
                   1
                   1
                   1
                   1
                   1
                   1
                   1
                   1
                   1
                   1
                   1
                   1
                   1
                   1
                   1
                   1
                   1
                   1
                   1
                   1
                   1
                   1
                   1
                   1
                   1
                   1
                   1
                   1
                   1
                   1
                   1
                   1
                   1
                   1
                   1
                   1
                   1
                   1
                   1
                   1
                   1
                   1
                   1
                   1
                   1
                   1
                   1
                   1
                   1
                   1
                   1
                   1
                   1
                   1
                   1
                   1
                   1
                   1
                   1
                   1
                   1
                   1
                   1
                   1
                   1
                   1
                   1
                   1
                   1
                   1
                   1
                   1
                   1
                   1
                   1
                   1
                   1
                   1
                   1
                   1
                   1
                   1
                   1
                   1
                   1
                   1
                   1
                   1
                   1
                   1
                   1
                   1
                   1
                   1
                   1
                   1
                   1
                   1
                   1
                   1
                   1
                   1
                   1
                   1
                   1
                   1
                   1
                   1
                   1
                   1
                   1
                   1
                   1
                   1
                   1
                   1
                   1
                   1
                   1
                   1
                   1
                   1
                   1
                   1
                   1
                   1
                   1
                   1
                   1
                   1
                   1
                   1
                   1
                   1
                   1
                   1
                   1
                   1
                   1
                   1
                   1
                   1
                   1
                   1
                   1
                   1
                   1
                   1
                   1
                   1
                   1
                   1
                   1
                   1
                   1
                   1
                   1
                   1
                   1
                   1
                   1
                   1
                   1
                   1
                   1
                   1
                   1
                   1
                   1
                   1
                   1
                   1
                   1
                   1
                   1
                   1
                   1
                   1
                   1
                   1
                   1
                   1
                   1
                   1
                   1
                   1
                   1
                   1
                   1
                   1
                   1
                   1
                   1
                   1
                   1
                   1
                   1
                   1
                   1
                   1
                   1
                   1
                   1
                   1
                   1
                   1
                   1
                   1
                   1
                   1
                   1
                   1
                   1
                   1
                   1
                   1
                   1
                   1
                   1
                   1
                   1
                   1
                   1
                   1
                   1
                   1
                   1
                   1
                   1
                   1
                   1
                   1
                   1
                   1
                   1
                   1
                   1
                   1
                   1
                   1
                   1
                   1
                   1
                   1
                   1
                   1
                   1
                   1
                   1
                   1
                   1
                   1
                   1
                   1
                   1
                   1
                   1
                   1
                   1
                   1
                   1
                   1
                   1
                   1
                   1
                   1
                   1
                   1
                   1
                   1
                   1
                   1
  
SCALARS                  material_type  double 1
LOOKUP_TABLE default
                   2
                   2
                   2
                   2
                   2
                   2
                   2
                   2
                   2
                   2
                   2
                   2
                   2
                   2
                   2
                   2
                   2
                   2
                   2
                   2
                   2
                   2
                   2
                   2
                   2
                   2
                   2
                   2
                   2
                   2
                   2
                   2
                   2
                   2
                   2
                   2
                   2
                   2
                   2
                   2
                   2
                   2
                   2
                   2
                   2
                   2
                   2
                   2
                   2
                   2
                   2
                   2
                   2
                   2
                   2
                   2
                   2
                   2
                   2
                   2
                   2
                   2
                   2
                   2
                   2
                   2
                   2
                   2
                   2
                   2
                   2
                   2
                   2
                   2
                   2
                   2
                   2
                   2
                   2
                   2
                   2
                   2
                   2
                   2
                   2
                   2
                   2
                   2
                   2
                   2
                   2
                   2
                   2
                   2
                   2
                   2
                   2
                   2
                   2
                   2
                   2
                   2
                   2
                   2
                   2
                   2
                   2
                   2
                   2
                   2
                   2
                   2
                   2
                   2
                   2
                   2
                   2
                   2
                   2
                   2
                   2
                   2
                   2
                   2
                   2
                   2
                   2
                   2
                   2
                   2
                   2
                   2
                   2
                   2
                   2
                   2
                   2
                   2
                   2
                   2
                   2
                   2
                   2
                   2
                   2
                   2
                   2
                   2
                   2
                   2
                   2
                   2
                   2
                   2
                   2
                   2
                   2
                   2
                   2
                   2
                   2
                   2
                   2
                   2
                   2
                   2
                   2
                   2
                   2
                   2
                   2
                   2
                   2
                   2
                   2
                   2
                   2
                   2
                   2
                   2
                   2
                   2
                   2
                   2
                   2
                   2
                   2
                   2
                   2
                   2
                   2
                   2
                   2
                   2
                   2
                   2
                   2
                   2
                   2
                   2
                   2
                   2
                   2
                   2
                   2
                   2
                   2
                   2
                   2
                   2
                   2
                   2
                   2
                   2
                   2
                   2
                   2
                   2
                   2
                   2
                   2
                   2
                   2
                   2
                   2
                   2
                   2
                   2
                   2
                   2
                   2
                   2
                   2
                   2
                   2
                   2
                   2
                   2
                   2
                   2
                   2
                   2
                   2
                   2
                   2
                   2
                   2
                   2
                   2
                   2
                   2
                   2
                   2
                   2
                   2
                   2
                   2
                   2
                   2
                   2
                   2
                   2
                   2
                   2
                   2
                   2
                   2
                   2
                   2
                   2
                   2
                   2
                   2
                   2
                   2
                   2
                   2
                   2
                   2
                   2
                   2
                   2
                   2
                   2
                   2
                   2
                   2
                   2
                   2
                   2
                   2
                   2
                   2
                   2
                   2
                   2
                   2
                   2
                   2
                   2
                   2
                   2
                   2
                   2
                   2
                   2
                   2
                   2
                   2
                   2
                   2
                   2
                   2
                   2
                   2
                   2
                   2
                   2
                   2
                   2
                   2
                   2
                   2
                   2
                   2
                   2
                   2
                   2
                   2
                   2
                   2
                   2
                   2
                   2
                   2
                   2
                   2
                   2
                   2
                   2
                   2
                   2
                   2
                   2
                   2
                   2
                   2
                   2
                   2
                   2
                   2
                   2
                   2
                   2
                   2
                   2
                   2
                   2
                   2
                   2
                   2
                   2
                   2
                   2
                   2
                   2
                   2
                   2
                   2
                   2
                   2
                   2
                   2
                   2
                   2
                   2
                   2
                   2
                   2
                   2
                   2
                   2
                   2
                   2
                   2
                   2
                   2
                   2
                   2
                   2
                   2
                   2
                   2
                   2
                   2
                   2
                   2
                   2
                   2
                   2
                   2
                   2
                   2
                   2
                   2
                   2
                   2
                   2
                   2
                   2
                   2
                   2
                   2
                   2
                   2
                   2
                   2
                   2
                   2
                   2
                   2
                   2
                   2
                   2
                   2
                   2
                   2
                   2
                   2
                   2
                   2
                   2
                   2
                   2
                   2
                   2
                   2
                   2
                   2
                   2
                   2
                   2
                   2
                   2
                   2
                   2
                   2
                   2
                   2
                   2
                   2
                   2
                   2
                   2
                   2
                   2
                   2
                   2
                   2
                   2
                   2
                   2
                   2
                   2
                   2
                   2
                   2
                   2
                   2
                   2
                   2
                   2
                   2
                   2
                   2
                   2
                   2
                   2
                   2
                   2
                   2
                   2
                   2
                   2
                   2
                   2
                   2
                   2
                   2
                   2
                   2
                   2
                   2
                   2
                   2
                   2
                   2
                   2
                   2
                   2
                   2
                   2
                   2
                   2
                   2
                   2
                   2
                   2
                   2
                   2
                   2
                   2
                   2
                   2
                   2
                   2
                   2
                   2
                   2
                   2
                   2
                   2
                   2
                   2
                   2
                   2
                   2
                   2
                   2
                   2
                   2
                   2
                   2
                   2
                   2
                   2
                   2
                   2
                   2
                   2
                   2
                   2
                   2
                   2
                   2
                   2
                   2
                   2
                   2
                   2
                   2
                   2
                   2
                   2
                   2
                   2
                   2
                   2
                   2
                   2
                   2
                   2
                   2
                   2
                   2
                   2
                   2
                   2
                   2
                   2
                   2
                   2
                   2
                   2
                   2
                   2
                   2
                   2
                   2
                   2
                   2
                   2
                   2
                   2
                   2
                   2
                   2
                   2
                   2
                   2
                   2
                   2
                   2
                   2
                   2
                   2
                   2
                   2
                   2
                   2
                   2
                   2
                   2
                   2
                   2
                   2
                   2
                   2
                   2
                   2
                   2
                   2
                   2
                   2
                   2
                   2
                   2
                   2
                   2
                   2
                   2
                   2
                   2
                   2
                   2
                   2
                   2
                   2
                   2
                   2
                   2
                   2
                   2
                   2
                   2
                   2
                   2
                   2
                   2
                   2
                   2
                   2
                   2
                   2
                   2
                   2
                   2
                   2
                   2
                   2
                   2
                   2
                   2
                   2
                   2
                   2
                   2
                   2
                   2
                   2
                   2
                   2
                   2
                   2
                   2
                   2
                   2
                   2
                   2
                   2
                   2
                   2
                   2
                   2
                   2
                   2
                   2
                   2
                   2
                   2
                   2
                   2
                   2
                   2
                   2
                   2
                   2
                   2
                   2
                   2
                   2
                   2
                   2
                   2
                   2
                   2
                   2
                   2
                   2
                   2
                   2
                   2
                   2
                   2
                   2
                   2
                   2
                   2
                   2
                   2
                   2
                   2
                   2
                   2
                   2
                   2
                   2
                   2
                   2
                   2
                   2
                   2
                   2
                   2
                   2
                   2
                   2
                   2
                   2
                   2
                   2
                   2
                   2
                   2
                   2
                   2
                   2
                   2
                   2
                   2
                   2
                   2
                   2
                   2
                   2
                   2
                   2
                   2
                   2
                   2
                   2
                   2
                   2
                   2
                   2
                   2
                   2
                   2
                   2
                   2
                   2
                   2
                   2
                   2
                   2
                   2
                   2
                   2
                   2
                   2
                   2
                   2
                   2
                   2
                   2
                   2
                   2
                   2
                   2
                   2
                   2
                   2
                   2
                   2
                   2
                   2
                   2
                   2
                   2
                   2
                   2
                   2
                   2
                   2
                   2
                   2
                   2
                   2
                   2
                   2
                   2
                   2
                   2
                   2
                   2
                   2
                   2
                   2
                   2
                   2
                   2
                   2
                   2
                   2
                   2
                   2
                   2
                   2
                   2
                   2
                   2
                   2
                   2
                   2
                   2
                   2
                   2
                   2
                   2
                   2
                   2
                   2
                   2
                   2
                   2
                   2
                   2
                   2
                   2
                   2
                   2
                   2
                   2
                   2
                   2
                   2
                   2
                   2
                   2
                   2
                   2
                   2
                   2
                   2
                   2
                   2
                   2
                   2
                   2
                   2
                   2
                   2
                   2
                   2
                   2
                   2
                   2
                   2
                   2
                   2
                   2
                   2
                   2
                   2
                   2
                   2
                   2
                   2
                   2
                   2
                   2
                   2
                   2
                   2
                   2
                   2
                   2
                   2
                   2
                   2
                   2
                   2
                   2
                   2
                   2
                   2
                   2
                   2
                   2
                   2
                   2
                   2
                   2
                   2
                   2
                   2
                   2
                   2
                   2
                   2
                   2
                   2
                   2
                   2
                   2
                   2
                   2
                   2
                   2
                   2
                   2
                   2
                   2
                   2
                   2
                   2
                   2
                   2
                   2
                   2
                   2
                   2
                   2
                   2
                   2
                   2
                   2
                   2
                   2
                   2
                   2
                   2
                   2
                   2
                   2
                   2
                   2
                   2
                   2
                   2
                   2
                   2
                   2
                   2
                   2
                   2
                   2
                   2
                   2
                   2
                   2
                   2
                   2
                   2
                   2
                   2
                   2
                   2
                   2
                   2
                   2
                   2
                   2
                   2
                   2
                   2
                   2
                   2
                   2
                   2
                   2
                   2
                   2
                   2
                   2
                   2
                   2
                   2
                   2
                   2
                   2
                   2
                   2
                   2
                   2
                   2
                   2
                   2
                   2
                   2
                   2
                   2
                   2
                   2
                   2
                   2
                   2
                   2
                   2
                   2
                   2
                   2
                   2
                   2
                   2
                   2
                   2
                   2
                   2
                   2
                   2
                   2
                   2
                   2
                   2
                   2
                   2
                   2
                   2
                   2
                   2
                   2
                   2
                   2
                   2
                   2
                   2
                   2
                   2
                   2
                   2
                   2
                   2
                   2
                   2
                   2
                   2
                   2
                   2
                   2
                   2
                   2
                   2
                   2
                   2
                   2
                   2
                   2
                   2
                   2
                   2
                   2
                   2
                   2
                   2
                   2
                   2
                   2
                   2
                   2
                   2
                   2
                   2
                   2
                   2
                   2
                   2
                   2
                   2
                   2
                   2
                   2
                   2
                   2
                   2
                   2
                   2
                   2
                   2
                   2
                   2
                   2
                   2
                   2
                   2
                   2
                   2
                   2
                   2
                   2
                   2
                   2
                   2
                   2
                   2
                   2
                   2
                   2
                   2
                   2
                   2
                   2
                   2
                   2
                   2
                   2
                   2
                   2
                   2
                   2
                   2
                   2
                   2
                   2
                   2
                   2
                   2
                   2
                   2
                   2
                   2
                   2
                   2
                   2
                   2
                   2
                   2
                   2
                   2
                   2
                   2
                   2
                   2
                   2
                   2
                   2
                   2
                   2
                   2
                   2
                   2
                   2
                   2
                   2
                   2
                   2
                   2
                   2
                   2
                   2
                   2
                   2
                   2
                   2
                   2
                   2
                   2
                   2
                   2
                   2
                   2
                   2
                   2
                   2
                   2
                   2
                   2
                   2
                   2
                   2
                   2
                   2
                   2
                   2
                   2
                   2
                   2
                   2
                   2
                   2
                   2
                   2
                   2
                   2
                   2
                   2
                   2
                   2
                   2
                   2
                   2
                   2
                   2
                   2
                   2
                   2
                   2
                   2
                   2
                   2
                   2
                   2
                   2
                   2
                   2
                   2
                   2
                   2
                   2
                   2
                   2
                   2
                   2
                   2
                   2
                   2
                   2
                   2
                   2
                   2
                   2
                   2
                   2
                   2
                   2
                   2
                   2
                   2
                   2
                   2
                   2
                   2
                   2
                   2
                   2
                   2
                   2
                   2
                   2
                   2
                   2
                   2
                   2
                   2
                   2
                   2
                   2
                   2
                   2
                   2
                   2
                   2
                   2
                   2
                   2
                   2
                   2
                   2
                   2
                   2
                   2
                   2
                   2
                   2
                   2
                   2
                   2
                   2
                   2
                   2
                   2
                   2
                   2
                   2
                   2
                   2
                   2
                   2
                   2
                   2
                   2
                   2
                   2
                   2
                   2
                   2
                   2
                   2
                   2
                   2
                   2
                   2
                   2
                   2
                   2
                   2
                   2
                   2
                   2
                   2
                   2
                   2
                   2
                   2
                   2
                   2
                   2
                   2
                   2
                   2
                   2
                   2
                   2
                   2
                   2
                   2
                   2
                   2
                   2
                   2
                   2
                   2
                   2
                   2
                   2
                   2
                   2
                   2
                   2
                   2
                   2
                   2
                   2
                   2
                   2
                   2
                   2
                   2
                   2
                   2
                   2
                   2
                   2
                   2
                   2
                   2
                   2
                   2
                   2
                   2
                   2
                   2
                   2
                   2
                   2
                   2
                   2
                   2
                   2
                   2
                   2
                   2
                   2
                   2
                   2
                   2
                   2
                   2
                   2
                   2
                   2
                   2
                   2
                   2
                   2
                   2
                   2
                   2
                   2
                   2
                   2
                   2
                   2
                   2
                   2
                   2
                   2
                   2
                   2
                   2
                   2
                   2
                   2
                   2
                   2
                   2
                   2
                   2
                   2
                   2
                   2
                   2
                   2
                   2
                   2
                   2
                   2
                   2
                   2
                   2
                   2
                   2
                   2
                   2
                   2
                   2
                   2
                   2
                   2
                   2
                   2
                   2
                   2
                   2
                   2
                   2
                   2
                   2
                   2
                   2
                   2
                   2
                   2
                   2
                   2
                   2
                   2
                   2
                   2
                   2
                   2
                   2
                   2
                   2
                   2
                   2
                   2
                   2
                   2
                   2
                   2
                   2
                   2
                   2
                   2
                   2
                   2
                   2
                   2
                   2
                   2
                   2
                   2
                   2
                   2
                   2
                   2
                   2
                   2
                   2
                   2
                   2
                   2
                   2
                   2
                   2
                   2
                   2
                   2
                   2
                   2
                   2
                   2
                   2
                   2
                   2
                   2
                   2
                   2
                   2
                   2
                   2
                   2
                   2
                   2
                   2
                   2
                   2
                   2
                   2
                   2
                   2
                   2
                   2
                   2
                   2
                   2
                   2
                   2
                   2
                   2
                   2
                   2
                   2
                   2
                   2
                   2
                   2
                   2
                   2
                   2
                   2
                   2
                   2
                   2
                   2
                   2
                   2
                   2
                   2
                   2
                   2
                   2
                   2
                   2
                   2
                   2
                   2
                   2
                   2
                   2
                   2
                   2
                   2
                   2
                   2
                   2
                   2
                   2
                   2
                   2
                   2
                   2
                   2
                   2
                   2
                   2
                   2
                   2
                   2
                   2
                   2
                   2
                   2
                   2
                   2
                   2
                   2
                   2
                   2
                   2
                   2
                   2
                   2
                   2
                   2
                   2
                   2
                   2
                   2
                   2
                   2
                   2
                   2
                   2
                   2
                   2
                   2
                   2
                   2
                   2
                   2
                   2
                   2
                   2
                   2
                   2
                   2
                   2
                   2
                   2
                   2
                   2
                   2
                   2
                   2
                   2
                   2
                   2
                   2
                   2
                   2
                   2
                   2
                   2
                   2
                   2
                   2
                   2
                   2
                   2
                   2
                   2
                   2
                   2
                   2
                   2
                   2
                   2
                   2
                   2
                   2
                   2
                   2
                   2
                   2
                   2
                   2
                   2
                   2
                   2
                   2
                   2
                   2
                   2
                   2
                   2
                   2
                   2
                   2
                   2
                   2
                   2
                   2
                   2
                   2
                   2
                   2
                   2
                   2
                   2
                   2
                   2
                   2
                   2
                   2
                   2
                   2
                   2
                   2
                   2
                   2
                   2
                   2
                   2
                   2
                   2
                   2
                   2
                   2
                   2
                   2
                   2
                   2
                   2
                   2
                   2
                   2
                   2
                   2
                   2
                   2
                   2
                   2
                   2
                   2
                   2
                   2
                   2
                   2
                   2
                   2
                   2
                   2
                   2
                   2
                   2
                   2
                   2
                   2
                   2
                   2
                   2
                   2
                   2
                   2
                   2
                   2
                   2
                   2
                   2
                   2
                   2
                   2
                   2
                   2
                   2
                   2
                   2
                   2
                   2
                   2
                   2
                   2
                   2
                   2
                   2
                   2
                   2
                   2
                   2
                   2
                   2
                   2
                   2
                   2
                   2
                   2
                   2
                   2
                   2
                   2
                   2
                   2
                   2
                   2
                   2
                   2
                   2
                   2
                   2
                   2
                   2
                   2
                   2
                   2
                   2
                   2
                   2
                   2
                   2
                   2
                   2
                   2
                   2
                   2
                   2
                   2
                   2
                   2
                   2
                   2
                   2
                   2
                   2
                   2
                   2
                   2
                   2
                   2
                   2
                   2
                   2
                   2
                   2
                   2
                   2
                   2
                   2
                   2
                   2
                   2
                   2
                   2
                   2
                   2
                   2
                   2
                   2
                   2
                   2
                   2
                   2
                   2
                   2
                   2
                   2
                   2
                   2
                   2
                   2
                   2
                   2
                   2
                   2
                   2
                   2
                   2
                   2
                   2
                   2
                   2
                   2
                   2
                   2
                   2
                   2
                   2
                   2
                   2
                   2
                   2
                   2
                   2
                   2
                   2
                   2
                   2
                   2
                   2
                   2
                   2
                   2
                   2
                   2
                   2
                   2
                   2
                   2
                   2
                   2
                   2
                   2
                   2
                   2
                   2
                   2
                   2
                   2
                   2
                   2
                   2
                   2
                   2
                   2
                   2
                   2
                   2
                   2
                   2
                   2
                   2
                   2
                   2
                   2
                   2
                   2
                   2
                   2
                   2
                   2
                   2
                   2
                   2
                   2
                   2
                   2
                   2
                   2
                   2
                   2
                   2
                   2
                   2
                   2
                   2
                   2
                   2
                   2
                   2
                   2
                   2
                   2
                   2
                   2
                   2
                   2
                   2
                   2
                   2
                   2
                   2
                   2
                   2
                   2
                   2
                   2
                   2
                   2
                   2
                   2
                   2
                   2
                   2
                   2
                   2
                   2
                   2
                   2
                   2
  
SCALARS                       fixity_x  double 1
LOOKUP_TABLE default
                   0
                   0
                   0
                   0
                   0
                   0
                   0
                   0
                   0
                   0
                   0
                   0
                   0
                   0
                   0
                   0
                   0
                   0
                   0
                   0
                   0
                   0
                   0
                   0
                   0
                   0
                   0
                   0
                   0
                   0
                   0
                   0
                   0
                   0
                   0
                   0
                   0
                   0
                   0
                   0
                   0
                   0
                   0
                   0
                   0
                   0
                   0
                   0
                   0
                   0
                   0
                   0
                   0
                   0
                   0
                   0
                   0
                   0
                   0
                   0
                   0
                   0
                   0
                   0
                   0
                   0
                   0
                   0
                   0
                   0
                   0
                   0
                   0
                   0
                   0
                   0
                   0
                   0
                   0
                   0
                   0
                   0
                   0
                   0
                   0
                   0
                   0
                   0
                   0
                   0
                   0
                   0
                   0
                   0
                   0
                   0
                   0
                   0
                   0
                   0
                   0
                   0
                   0
                   0
                   0
                   0
                   0
                   0
                   0
                   0
                   0
                   0
                   0
                   0
                   0
                   0
                   0
                   0
                   0
                   0
                   0
                   0
                   0
                   0
                   0
                   0
                   0
                   0
                   0
                   0
                   0
                   0
                   0
                   0
                   0
                   0
                   0
                   0
                   0
                   0
                   0
                   0
                   0
                   0
                   0
                   0
                   0
                   0
                   0
                   0
                   0
                   0
                   0
                   0
                   0
                   0
                   0
                   0
                   0
                   0
                   0
                   0
                   0
                   0
                   0
                   0
                   0
                   0
                   0
                   0
                   0
                   0
                   0
                   0
                   0
                   0
                   0
                   0
                   0
                   0
                   0
                   0
                   0
                   0
                   0
                   0
                   0
                   0
                   0
                   0
                   0
                   0
                   0
                   0
                   0
                   0
                   0
                   0
                   0
                   0
                   0
                   0
                   0
                   0
                   0
                   0
                   0
                   0
                   0
                   0
                   0
                   0
                   0
                   0
                   0
                   0
                   0
                   0
                   0
                   0
                   0
                   0
                   0
                   0
                   0
                   0
                   0
                   0
                   0
                   0
                   0
                   0
                   0
                   0
                   0
                   0
                   0
                   0
                   0
                   0
                   0
                   0
                   0
                   0
                   0
                   0
                   0
                   0
                   0
                   0
                   0
                   0
                   0
                   0
                   0
                   0
                   0
                   0
                   0
                   0
                   0
                   0
                   0
                   0
                   0
                   0
                   0
                   0
                   0
                   0
                   0
                   0
                   0
                   0
                   0
                   0
                   0
                   0
                   0
                   0
                   0
                   0
                   0
                   0
                   0
                   0
                   0
                   0
                   0
                   0
                   0
                   0
                   0
                   0
                   0
                   0
                   0
                   0
                   0
                   0
                   0
                   0
                   0
                   0
                   0
                   0
                   0
                   0
                   0
                   0
                   0
                   0
                   0
                   0
                   0
                   0
                   0
                   0
                   0
                   0
                   0
                   0
                   0
                   0
                   0
                   0
                   0
                   0
                   0
                   0
                   0
                   0
                   0
                   0
                   0
                   0
                   0
                   0
                   0
                   0
                   0
                   0
                   0
                   0
                   0
                   0
                   0
                   0
                   0
                   0
                   0
                   0
                   0
                   0
                   0
                   0
                   0
                   0
                   0
                   0
                   0
                   0
                   0
                   0
                   0
                   0
                   0
                   0
                   0
                   0
                   0
                   0
                   0
                   0
                   0
                   0
                   0
                   0
                   0
                   0
                   0
                   0
                   0
                   0
                   0
                   0
                   0
                   0
                   0
                   0
                   0
                   0
                   0
                   0
                   0
                   0
                   0
                   0
                   0
                   0
                   0
                   0
                   0
                   0
                   0
                   0
                   0
                   0
                   0
                   0
                   0
                   0
                   0
                   0
                   0
                   0
                   0
                   0
                   0
                   0
                   0
                   0
                   0
                   0
                   0
                   0
                   0
                   0
                   0
                   0
                   0
                   0
                   0
                   0
                   0
                   0
                   0
                   0
                   0
                   0
                   0
                   0
                   0
                   0
                   0
                   0
                   0
                   0
                   0
                   0
                   0
                   0
                   0
                   0
                   0
                   0
                   0
                   0
                   0
                   0
                   0
                   0
                   0
                   0
                   0
                   0
                   0
                   0
                   0
                   0
                   0
                   0
                   0
                   0
                   0
                   0
                   0
                   0
                   0
                   0
                   0
                   0
                   0
                   0
                   0
                   0
                   0
                   0
                   0
                   0
                   0
                   0
                   0
                   0
                   0
                   0
                   0
                   0
                   0
                   0
                   0
                   0
                   0
                   0
                   0
                   0
                   0
                   0
                   0
                   0
                   0
                   0
                   0
                   0
                   0
                   0
                   0
                   0
                   0
                   0
                   0
                   0
                   0
                   0
                   0
                   0
                   0
                   0
                   0
                   0
                   0
                   0
                   0
                   0
                   0
                   0
                   0
                   0
                   0
                   0
                   0
                   0
                   0
                   0
                   0
                   0
                   0
                   0
                   0
                   0
                   0
                   0
                   0
                   0
                   0
                   0
                   0
                   0
                   0
                   0
                   0
                   0
                   0
                   0
                   0
                   0
                   0
                   0
                   0
                   0
                   0
                   0
                   0
                   0
                   0
                   0
                   0
                   0
                   0
                   0
                   0
                   0
                   0
                   0
                   0
                   0
                   0
                   0
                   0
                   0
                   0
                   0
                   0
                   0
                   0
                   0
                   0
                   0
                   0
                   0
                   0
                   0
                   0
                   0
                   0
                   0
                   0
                   0
                   0
                   0
                   0
                   0
                   0
                   0
                   0
                   0
                   0
                   0
                   0
                   0
                   0
                   0
                   0
                   0
                   0
                   0
                   0
                   0
                   0
                   0
                   0
                   0
                   0
                   0
                   0
                   0
                   0
                   0
                   0
                   0
                   0
                   0
                   0
                   0
                   0
                   0
                   0
                   0
                   0
                   0
                   0
                   0
                   0
                   0
                   0
                   0
                   0
                   0
                   0
                   0
                   0
                   0
                   0
                   0
                   0
                   0
                   0
                   0
                   0
                   0
                   0
                   0
                   0
                   0
                   0
                   0
                   0
                   0
                   0
                   0
                   0
                   0
                   0
                   0
                   0
                   0
                   0
                   0
                   0
                   0
                   0
                   0
                   0
                   0
                   0
                   0
                   0
                   0
                   0
                   0
                   0
                   0
                   0
                   0
                   0
                   0
                   0
                   0
                   0
                   0
                   0
                   0
                   0
                   0
                   0
                   0
                   0
                   0
                   0
                   0
                   0
                   0
                   0
                   0
                   0
                   0
                   0
                   0
                   0
                   0
                   0
                   0
                   0
                   0
                   0
                   0
                   0
                   0
                   0
                   0
                   0
                   0
                   0
                   0
                   0
                   0
                   0
                   0
                   0
                   0
                   0
                   0
                   0
                   0
                   0
                   0
                   0
                   0
                   0
                   0
                   0
                   0
                   0
                   0
                   0
                   0
                   0
                   0
                   0
                   0
                   0
                   0
                   0
                   0
                   0
                   0
                   0
                   0
                   0
                   0
                   0
                   0
                   0
                   0
                   0
                   0
                   0
                   0
                   0
                   0
                   0
                   0
                   0
                   0
                   0
                   0
                   0
                   0
                   0
                   0
                   0
                   0
                   0
                   0
                   0
                   0
                   0
                   0
                   0
                   0
                   0
                   0
                   0
                   0
                   0
                   0
                   0
                   0
                   0
                   0
                   0
                   0
                   0
                   0
                   0
                   0
                   0
                   0
                   0
                   0
                   0
                   0
                   0
                   0
                   0
                   0
                   0
                   0
                   0
                   0
                   0
                   0
                   0
                   0
                   0
                   0
                   0
                   0
                   0
                   0
                   0
                   0
                   0
                   0
                   0
                   0
                   0
                   0
                   0
                   0
                   0
                   0
                   0
                   0
                   0
                   0
                   0
                   0
                   0
                   0
                   0
                   0
                   0
                   0
                   0
                   0
                   0
                   0
                   0
                   0
                   0
                   0
                   0
                   0
                   0
                   0
                   0
                   0
                   0
                   0
                   0
                   0
                   0
                   0
                   0
                   0
                   0
                   0
                   0
                   0
                   0
                   0
                   0
                   0
                   0
                   0
                   0
                   0
                   0
                   0
                   0
                   0
                   0
                   0
                   0
                   0
                   0
                   0
                   0
                   0
                   0
                   0
                   0
                   0
                   0
                   0
                   0
                   0
                   0
                   0
                   0
                   0
                   0
                   0
                   0
                   0
                   0
                   0
                   0
                   0
                   0
                   0
                   0
                   0
                   0
                   0
                   0
                   0
                   0
                   0
                   0
                   0
                   0
                   0
                   0
                   0
                   0
                   0
                   0
                   0
                   0
                   0
                   0
                   0
                   0
                   0
                   0
                   0
                   0
                   0
                   0
                   0
                   0
                   0
                   0
                   0
                   0
                   0
                   0
                   0
                   0
                   0
                   0
                   0
                   0
                   0
                   0
                   0
                   0
                   0
                   0
                   0
                   0
                   0
                   0
                   0
                   0
                   0
                   0
                   0
                   0
                   0
                   0
                   0
                   0
                   0
                   0
                   0
                   0
                   0
                   0
                   0
                   0
                   0
                   0
                   0
                   0
                   0
                   0
                   0
                   0
                   0
                   0
                   0
                   0
                   0
                   0
                   0
                   0
                   0
                   0
                   0
                   0
                   0
                   0
                   0
                   0
                   0
                   0
                   0
                   0
                   0
                   0
                   0
                   0
                   0
                   0
                   0
                   0
                   0
                   0
                   0
                   0
                   0
                   0
                   0
                   0
                   0
                   0
                   0
                   0
                   0
                   0
                   0
                   0
                   0
                   0
                   0
                   0
                   0
                   0
                   0
                   0
                   0
                   0
                   0
                   0
                   0
                   0
                   0
                   0
                   0
                   0
                   0
                   0
                   0
                   0
                   0
                   0
                   0
                   0
                   0
                   0
                   0
                   0
                   0
                   0
                   0
                   0
                   0
                   0
                   0
                   0
                   0
                   0
                   0
                   0
                   0
                   0
                   0
                   0
                   0
                   0
                   0
                   0
                   0
                   0
                   0
                   0
                   0
                   0
                   0
                   0
                   0
                   0
                   0
                   0
                   0
                   0
                   0
                   0
                   0
                   0
                   0
                   0
                   0
                   0
                   0
                   0
                   0
                   0
                   0
                   0
                   0
                   0
                   0
                   0
                   0
                   0
                   0
                   0
                   0
                   0
                   0
                   0
                   0
                   0
                   0
                   0
                   0
                   0
                   0
                   0
                   0
                   0
                   0
                   0
                   0
                   0
                   0
                   0
                   0
                   0
                   0
                   0
                   0
                   0
                   0
                   0
                   0
                   0
                   0
                   0
                   0
                   0
                   0
                   0
                   0
                   0
                   0
                   0
                   0
                   0
                   0
                   0
                   0
                   0
                   0
                   0
                   0
                   0
                   0
                   0
                   0
                   0
                   0
                   0
                   0
                   0
                   0
                   0
                   0
                   0
                   0
                   0
                   0
                   0
                   0
                   0
                   0
                   0
                   0
                   0
                   0
                   0
                   0
                   0
                   0
                   0
                   0
                   0
                   0
                   0
                   0
                   0
                   0
                   0
                   0
                   0
                   0
                   0
                   0
                   0
                   0
                   0
                   0
                   0
                   0
                   0
                   0
                   0
                   0
                   0
                   0
                   0
                   0
                   0
                   0
                   0
                   0
                   0
                   0
                   0
                   0
                   0
                   0
                   0
                   0
                   0
                   0
                   0
                   0
                   0
                   0
                   0
                   0
                   0
                   0
                   0
                   0
                   0
                   0
                   0
                   0
                   0
                   0
                   0
                   0
                   0
                   0
                   0
                   0
                   0
                   0
                   0
                   0
                   0
                   0
                   0
                   0
                   0
                   0
                   0
                   0
                   0
                   0
                   0
                   0
                   0
                   0
                   0
                   0
                   0
                   0
                   0
                   0
                   0
                   0
                   0
                   0
                   0
                   0
                   0
                   0
                   0
                   0
                   0
                   0
                   0
                   0
                   0
                   0
                   0
                   0
                   0
                   0
                   0
                   0
                   0
                   0
                   0
                   0
                   0
                   0
                   0
                   0
                   0
                   0
                   0
                   0
                   0
                   0
                   0
                   0
                   0
                   0
                   0
                   0
                   0
                   0
                   0
                   0
                   0
                   0
                   0
                   0
                   0
                   0
                   0
                   0
                   0
                   0
                   0
                   0
                   0
                   0
                   0
                   0
                   0
                   0
                   0
                   0
                   0
                   0
                   0
                   0
                   0
                   0
                   0
                   0
                   0
                   0
                   0
                   0
                   0
                   0
                   0
                   0
                   0
                   0
                   0
                   0
                   0
                   0
                   0
                   0
                   0
                   0
                   0
                   0
                   0
                   0
                   0
                   0
                   0
                   0
                   0
                   0
                   0
                   0
                   0
                   0
                   0
                   0
                   0
                   0
                   0
                   0
                   0
                   0
                   0
                   0
                   0
                   0
                   0
                   0
                   0
                   0
                   0
                   0
                   0
                   0
                   0
                   0
                   0
                   0
                   0
                   0
                   0
                   0
                   0
                   0
                   0
                   0
                   0
                   0
                   0
                   0
                   0
                   0
                   0
                   0
                   0
                   0
                   0
                   0
                   0
                   0
                   0
                   0
                   0
                   0
                   0
                   0
                   0
                   0
                   0
                   0
                   0
                   0
                   0
                   0
                   0
                   0
                   0
                   0
                   0
                   0
                   0
                   0
                   0
                   0
                   0
                   0
                   0
                   0
                   0
                   0
                   0
                   0
                   0
                   0
                   0
                   0
                   0
                   0
                   0
                   0
                   0
                   0
                   0
                   0
                   0
                   0
                   0
                   0
                   0
                   0
                   0
                   0
                   0
                   0
                   0
                   0
                   0
                   0
                   0
                   0
                   0
                   0
                   0
                   0
                   0
                   0
                   0
                   0
                   0
                   0
                   0
                   0
                   0
                   0
                   0
                   0
                   0
                   0
                   0
                   0
                   0
                   0
                   0
                   0
                   0
                   0
                   0
                   0
                   0
                   0
                   0
                   0
                   0
                   0
                   0
                   0
                   0
                   0
                   0
                   0
                   0
                   0
                   0
                   0
                   0
                   0
                   0
                   0
                   0
                   0
                   0
                   0
                   0
                   0
                   0
                   0
                   0
                   0
                   0
                   0
                   0
                   0
                   0
                   0
                   0
                   0
                   0
                   0
                   0
                   0
                   0
                   0
                   0
                   0
                   0
                   0
                   0
                   0
                   0
                   0
                   0
                   0
                   0
                   0
                   0
                   0
                   0
                   0
                   0
                   0
                   0
                   0
                   0
                   0
                   0
                   0
                   0
                   0
                   0
                   0
                   0
                   0
                   0
                   0
                   0
                   0
                   0
                   0
                   0
                   0
                   0
                   0
                   0
                   0
                   0
                   0
                   0
                   0
                   0
                   0
                   0
                   0
                   0
                   0
                   0
                   0
                   0
                   0
                   0
                   0
                   0
                   0
                   0
                   0
                   0
                   0
                   0
                   0
                   0
                   0
                   0
                   0
                   0
                   0
                   0
                   0
                   0
                   0
                   0
                   0
                   0
                   0
                   0
                   0
                   0
                   0
                   0
                   0
                   0
                   0
                   0
                   0
                   0
                   0
                   0
                   0
                   0
                   0
                   0
                   0
                   0
                   0
                   0
                   0
                   0
                   0
                   0
                   0
                   0
                   0
                   0
                   0
                   0
                   0
                   0
                   0
                   0
                   0
                   0
                   0
                   0
                   0
                   0
                   0
                   0
                   0
                   0
                   0
                   0
                   0
                   0
                   0
                   0
                   0
                   0
                   0
                   0
                   0
                   0
                   0
                   0
                   0
                   0
                   0
                   0
                   0
                   0
                   0
                   0
                   0
                   0
                   0
                   0
                   0
                   0
                   0
                   0
                   0
                   0
                   0
                   0
                   0
                   0
                   0
                   0
                   0
                   0
                   0
                   0
                   0
                   0
                   0
                   0
                   0
                   0
                   0
                   0
                   0
                   0
                   0
                   0
                   0
                   0
                   0
                   0
                   0
                   0
                   0
                   0
                   0
                   0
                   0
                   0
                   0
                   0
                   0
                   0
                   0
                   0
                   0
                   0
                   0
                   0
                   0
                   0
                   0
                   0
                   0
                   0
                   0
                   0
                   0
                   0
                   0
                   0
                   0
                   0
                   0
                   0
                   0
                   0
                   0
                   0
                   0
                   0
                   0
                   0
                   0
                   0
                   0
                   0
                   0
                   0
                   0
                   0
                   0
                   0
                   0
                   0
                   0
                   0
                   0
                   0
                   0
                   0
                   0
                   0
                   0
                   0
                   0
                   0
                   0
                   0
                   0
                   0
                   0
                   0
                   0
                   0
                   0
                   0
                   0
                   0
                   0
                   0
                   0
                   0
                   0
                   0
                   0
                   0
                   0
                   0
                   0
                   0
                   0
                   0
                   0
                   0
                   0
                   0
                   0
                   0
                   0
                   0
                   0
                   0
                   0
                   0
                   0
                   0
                   0
                   0
                   0
                   0
                   0
                   0
                   0
                   0
                   0
                   0
                   0
                   0
                   0
                   0
                   0
                   0
                   0
                   0
                   0
                   0
                   0
                   0
                   0
                   0
                   0
                   0
                   0
                   0
                   0
                   0
                   0
                   0
                   0
                   0
                   0
                   0
                   0
                   0
                   0
                   0
                   0
                   0
                   0
                   0
                   0
                   0
                   0
                   0
                   0
                   0
                   0
                   0
                   0
                   0
                   0
                   0
                   0
                   0
                   0
                   0
                   0
  
SCALARS                       fixity_y  double 1
LOOKUP_TABLE default
                   0
                   0
                   0
                   0
                   0
                   0
                   0
                   0
                   0
                   0
                   0
                   0
                   0
                   0
                   0
                   0
                   0
                   0
                   0
                   0
                   0
                   0
                   0
                   0
                   0
                   0
                   0
                   0
                   0
                   0
                   0
                   0
                   0
                   0
                   0
                   0
                   0
                   0
                   0
                   0
                   0
                   0
                   0
                   0
                   0
                   0
                   0
                   0
                   0
                   0
                   0
                   0
                   0
                   0
                   0
                   0
                   0
                   0
                   0
                   0
                   0
                   0
                   0
                   0
                   0
                   0
                   0
                   0
                   0
                   0
                   0
                   0
                   0
                   0
                   0
                   0
                   0
                   0
                   0
                   0
                   0
                   0
                   0
                   0
                   0
                   0
                   0
                   0
                   0
                   0
                   0
                   0
                   0
                   0
                   0
                   0
                   0
                   0
                   0
                   0
                   0
                   0
                   0
                   0
                   0
                   0
                   0
                   0
                   0
                   0
                   0
                   0
                   0
                   0
                   0
                   0
                   0
                   0
                   0
                   0
                   0
                   0
                   0
                   0
                   0
                   0
                   0
                   0
                   0
                   0
                   0
                   0
                   0
                   0
                   0
                   0
                   0
                   0
                   0
                   0
                   0
                   0
                   0
                   0
                   0
                   0
                   0
                   0
                   0
                   0
                   0
                   0
                   0
                   0
                   0
                   0
                   0
                   0
                   0
                   0
                   0
                   0
                   0
                   0
                   0
                   0
                   0
                   0
                   0
                   0
                   0
                   0
                   0
                   0
                   0
                   0
                   0
                   0
                   0
                   0
                   0
                   0
                   0
                   0
                   0
                   0
                   0
                   0
                   0
                   0
                   0
                   0
                   0
                   0
                   0
                   0
                   0
                   0
                   0
                   0
                   0
                   0
                   0
                   0
                   0
                   0
                   0
                   0
                   0
                   0
                   0
                   0
                   0
                   0
                   0
                   0
                   0
                   0
                   0
                   0
                   0
                   0
                   0
                   0
                   0
                   0
                   0
                   0
                   0
                   0
                   0
                   0
                   0
                   0
                   0
                   0
                   0
                   0
                   0
                   0
                   0
                   0
                   0
                   0
                   0
                   0
                   0
                   0
                   0
                   0
                   0
                   0
                   0
                   0
                   0
                   0
                   0
                   0
                   0
                   0
                   0
                   0
                   0
                   0
                   0
                   0
                   0
                   0
                   0
                   0
                   0
                   0
                   0
                   0
                   0
                   0
                   0
                   0
                   0
                   0
                   0
                   0
                   0
                   0
                   0
                   0
                   0
                   0
                   0
                   0
                   0
                   0
                   0
                   0
                   0
                   0
                   0
                   0
                   0
                   0
                   0
                   0
                   0
                   0
                   0
                   0
                   0
                   0
                   0
                   0
                   0
                   0
                   0
                   0
                   0
                   0
                   0
                   0
                   0
                   0
                   0
                   0
                   0
                   0
                   0
                   0
                   0
                   0
                   0
                   0
                   0
                   0
                   0
                   0
                   0
                   0
                   0
                   0
                   0
                   0
                   0
                   0
                   0
                   0
                   0
                   0
                   0
                   0
                   0
                   0
                   0
                   0
                   0
                   0
                   0
                   0
                   0
                   0
                   0
                   0
                   0
                   0
                   0
                   0
                   0
                   0
                   0
                   0
                   0
                   0
                   0
                   0
                   0
                   0
                   0
                   0
                   0
                   0
                   0
                   0
                   0
                   0
                   0
                   0
                   0
                   0
                   0
                   0
                   0
                   0
                   0
                   0
                   0
                   0
                   0
                   0
                   0
                   0
                   0
                   0
                   0
                   0
                   0
                   0
                   0
                   0
                   0
                   0
                   0
                   0
                   0
                   0
                   0
                   0
                   0
                   0
                   0
                   0
                   0
                   0
                   0
                   0
                   0
                   0
                   0
                   0
                   0
                   0
                   0
                   0
                   0
                   0
                   0
                   0
                   0
                   0
                   0
                   0
                   0
                   0
                   0
                   0
                   0
                   0
                   0
                   0
                   0
                   0
                   0
                   0
                   0
                   0
                   0
                   0
                   0
                   0
                   0
                   0
                   0
                   0
                   0
                   0
                   0
                   0
                   0
                   0
                   0
                   0
                   0
                   0
                   0
                   0
                   0
                   0
                   0
                   0
                   0
                   0
                   0
                   0
                   0
                   0
                   0
                   0
                   0
                   0
                   0
                   0
                   0
                   0
                   0
                   0
                   0
                   0
                   0
                   0
                   0
                   0
                   0
                   0
                   0
                   0
                   0
                   0
                   0
                   0
                   0
                   0
                   0
                   0
                   0
                   0
                   0
                   0
                   0
                   0
                   0
                   0
                   0
                   0
                   0
                   0
                   0
                   0
                   0
                   0
                   0
                   0
                   0
                   0
                   0
                   0
                   0
                   0
                   0
                   0
                   0
                   0
                   0
                   0
                   0
                   0
                   0
                   0
                   0
                   0
                   0
                   0
                   0
                   0
                   0
                   0
                   0
                   0
                   0
                   0
                   0
                   0
                   0
                   0
                   0
                   0
                   0
                   0
                   0
                   0
                   0
                   0
                   0
                   0
                   0
                   0
                   0
                   0
                   0
                   0
                   0
                   0
                   0
                   0
                   0
                   0
                   0
                   0
                   0
                   0
                   0
                   0
                   0
                   0
                   0
                   0
                   0
                   0
                   0
                   0
                   0
                   0
                   0
                   0
                   0
                   0
                   0
                   0
                   0
                   0
                   0
                   0
                   0
                   0
                   0
                   0
                   0
                   0
                   0
                   0
                   0
                   0
                   0
                   0
                   0
                   0
                   0
                   0
                   0
                   0
                   0
                   0
                   0
                   0
                   0
                   0
                   0
                   0
                   0
                   0
                   0
                   0
                   0
                   0
                   0
                   0
                   0
                   0
                   0
                   0
                   0
                   0
                   0
                   0
                   0
                   0
                   0
                   0
                   0
                   0
                   0
                   0
                   0
                   0
                   0
                   0
                   0
                   0
                   0
                   0
                   0
                   0
                   0
                   0
                   0
                   0
                   0
                   0
                   0
                   0
                   0
                   0
                   0
                   0
                   0
                   0
                   0
                   0
                   0
                   0
                   0
                   0
                   0
                   0
                   0
                   0
                   0
                   0
                   0
                   0
                   0
                   0
                   0
                   0
                   0
                   0
                   0
                   0
                   0
                   0
                   0
                   0
                   0
                   0
                   0
                   0
                   0
                   0
                   0
                   0
                   0
                   0
                   0
                   0
                   0
                   0
                   0
                   0
                   0
                   0
                   0
                   0
                   0
                   0
                   0
                   0
                   0
                   0
                   0
                   0
                   0
                   0
                   0
                   0
                   0
                   0
                   0
                   0
                   0
                   0
                   0
                   0
                   0
                   0
                   0
                   0
                   0
                   0
                   0
                   0
                   0
                   0
                   0
                   0
                   0
                   0
                   0
                   0
                   0
                   0
                   0
                   0
                   0
                   0
                   0
                   0
                   0
                   0
                   0
                   0
                   0
                   0
                   0
                   0
                   0
                   0
                   0
                   0
                   0
                   0
                   0
                   0
                   0
                   0
                   0
                   0
                   0
                   0
                   0
                   0
                   0
                   0
                   0
                   0
                   0
                   0
                   0
                   0
                   0
                   0
                   0
                   0
                   0
                   0
                   0
                   0
                   0
                   0
                   0
                   0
                   0
                   0
                   0
                   0
                   0
                   0
                   0
                   0
                   0
                   0
                   0
                   0
                   0
                   0
                   0
                   0
                   0
                   0
                   0
                   0
                   0
                   0
                   0
                   0
                   0
                   0
                   0
                   0
                   0
                   0
                   0
                   0
                   0
                   0
                   0
                   0
                   0
                   0
                   0
                   0
                   0
                   0
                   0
                   0
                   0
                   0
                   0
                   0
                   0
                   0
                   0
                   0
                   0
                   0
                   0
                   0
                   0
                   0
                   0
                   0
                   0
                   0
                   0
                   0
                   0
                   0
                   0
                   0
                   0
                   0
                   0
                   0
                   0
                   0
                   0
                   0
                   0
                   0
                   0
                   0
                   0
                   0
                   0
                   0
                   0
                   0
                   0
                   0
                   0
                   0
                   0
                   0
                   0
                   0
                   0
                   0
                   0
                   0
                   0
                   0
                   0
                   0
                   0
                   0
                   0
                   0
                   0
                   0
                   0
                   0
                   0
                   0
                   0
                   0
                   0
                   0
                   0
                   0
                   0
                   0
                   0
                   0
                   0
                   0
                   0
                   0
                   0
                   0
                   0
                   0
                   0
                   0
                   0
                   0
                   0
                   0
                   0
                   0
                   0
                   0
                   0
                   0
                   0
                   0
                   0
                   0
                   0
                   0
                   0
                   0
                   0
                   0
                   0
                   0
                   0
                   0
                   0
                   0
                   0
                   0
                   0
                   0
                   0
                   0
                   0
                   0
                   0
                   0
                   0
                   0
                   0
                   0
                   0
                   0
                   0
                   0
                   0
                   0
                   0
                   0
                   0
                   0
                   0
                   0
                   0
                   0
                   0
                   0
                   0
                   0
                   0
                   0
                   0
                   0
                   0
                   0
                   0
                   0
                   0
                   0
                   0
                   0
                   0
                   0
                   0
                   0
                   0
                   0
                   0
                   0
                   0
                   0
                   0
                   0
                   0
                   0
                   0
                   0
                   0
                   0
                   0
                   0
                   0
                   0
                   0
                   0
                   0
                   0
                   0
                   0
                   0
                   0
                   0
                   0
                   0
                   0
                   0
                   0
                   0
                   0
                   0
                   0
                   0
                   0
                   0
                   0
                   0
                   0
                   0
                   0
                   0
                   0
                   0
                   0
                   0
                   0
                   0
                   0
                   0
                   0
                   0
                   0
                   0
                   0
                   0
                   0
                   0
                   0
                   0
                   0
                   0
                   0
                   0
                   0
                   0
                   0
                   0
                   0
                   0
                   0
                   0
                   0
                   0
                   0
                   0
                   0
                   0
                   0
                   0
                   0
                   0
                   0
                   0
                   0
                   0
                   0
                   0
                   0
                   0
                   0
                   0
                   0
                   0
                   0
                   0
                   0
                   0
                   0
                   0
                   0
                   0
                   0
                   0
                   0
                   0
                   0
                   0
                   0
                   0
                   0
                   0
                   0
                   0
                   0
                   0
                   0
                   0
                   0
                   0
                   0
                   0
                   0
                   0
                   0
                   0
                   0
                   0
                   0
                   0
                   0
                   0
                   0
                   0
                   0
                   0
                   0
                   0
                   0
                   0
                   0
                   0
                   0
                   0
                   0
                   0
                   0
                   0
                   0
                   0
                   0
                   0
                   0
                   0
                   0
                   0
                   0
                   0
                   0
                   0
                   0
                   0
                   0
                   0
                   0
                   0
                   0
                   0
                   0
                   0
                   0
                   0
                   0
                   0
                   0
                   0
                   0
                   0
                   0
                   0
                   0
                   0
                   0
                   0
                   0
                   0
                   0
                   0
                   0
                   0
                   0
                   0
                   0
                   0
                   0
                   0
                   0
                   0
                   0
                   0
                   0
                   0
                   0
                   0
                   0
                   0
                   0
                   0
                   0
                   0
                   0
                   0
                   0
                   0
                   0
                   0
                   0
                   0
                   0
                   0
                   0
                   0
                   0
                   0
                   0
                   0
                   0
                   0
                   0
                   0
                   0
                   0
                   0
                   0
                   0
                   0
                   0
                   0
                   0
                   0
                   0
                   0
                   0
                   0
                   0
                   0
                   0
                   0
                   0
                   0
                   0
                   0
                   0
                   0
                   0
                   0
                   0
                   0
                   0
                   0
                   0
                   0
                   0
                   0
                   0
                   0
                   0
                   0
                   0
                   0
                   0
                   0
                   0
                   0
                   0
                   0
                   0
                   0
                   0
                   0
                   0
                   0
                   0
                   0
                   0
                   0
                   0
                   0
                   0
                   0
                   0
                   0
                   0
                   0
                   0
                   0
                   0
                   0
                   0
                   0
                   0
                   0
                   0
                   0
                   0
                   0
                   0
                   0
                   0
                   0
                   0
                   0
                   0
                   0
                   0
                   0
                   0
                   0
                   0
                   0
                   0
                   0
                   0
                   0
                   0
                   0
                   0
                   0
                   0
                   0
                   0
                   0
                   0
                   0
                   0
                   0
                   0
                   0
                   0
                   0
                   0
                   0
                   0
                   0
                   0
                   0
                   0
                   0
                   0
                   0
                   0
                   0
                   0
                   0
                   0
                   0
                   0
                   0
                   0
                   0
                   0
                   0
                   0
                   0
                   0
                   0
                   0
                   0
                   0
                   0
                   0
                   0
                   0
                   0
                   0
                   0
                   0
                   0
                   0
                   0
                   0
                   0
                   0
                   0
                   0
                   0
                   0
                   0
                   0
                   0
                   0
                   0
                   0
                   0
                   0
                   0
                   0
                   0
                   0
                   0
                   0
                   0
                   0
                   0
                   0
                   0
                   0
                   0
                   0
                   0
                   0
                   0
                   0
                   0
                   0
                   0
                   0
                   0
                   0
                   0
                   0
                   0
                   0
                   0
                   0
                   0
                   0
                   0
                   0
                   0
                   0
                   0
                   0
                   0
                   0
                   0
                   0
                   0
                   0
                   0
                   0
                   0
                   0
                   0
                   0
                   0
                   0
                   0
                   0
                   0
                   0
                   0
                   0
                   0
                   0
                   0
                   0
                   0
                   0
                   0
                   0
                   0
                   0
                   0
                   0
                   0
                   0
                   0
                   0
                   0
                   0
                   0
                   0
                   0
                   0
                   0
                   0
                   0
                   0
                   0
                   0
                   0
                   0
                   0
                   0
                   0
                   0
                   0
                   0
                   0
                   0
                   0
                   0
                   0
                   0
                   0
                   0
                   0
                   0
                   0
                   0
                   0
                   0
                   0
                   0
                   0
                   0
                   0
                   0
                   0
                   0
                   0
                   0
                   0
                   0
                   0
                   0
                   0
                   0
                   0
                   0
                   0
                   0
                   0
                   0
                   0
                   0
                   0
                   0
                   0
                   0
                   0
                   0
                   0
                   0
                   0
                   0
                   0
                   0
                   0
                   0
                   0
                   0
                   0
                   0
                   0
                   0
                   0
                   0
                   0
                   0
                   0
                   0
                   0
                   0
                   0
                   0
                   0
                   0
                   0
                   0
                   0
                   0
                   0
                   0
                   0
                   0
                   0
                   0
                   0
                   0
                   0
                   0
                   0
                   0
                   0
                   0
                   0
                   0
                   0
                   0
                   0
                   0
                   0
                   0
                   0
                   0
                   0
                   0
                   0
                   0
                   0
                   0
                   0
                   0
                   0
                   0
                   0
                   0
                   0
                   0
                   0
                   0
                   0
                   0
                   0
                   0
                   0
                   0
                   0
                   0
                   0
                   0
                   0
                   0
                   0
                   0
                   0
                   0
                   0
                   0
                   0
                   0
                   0
                   0
                   0
                   0
                   0
                   0
                   0
                   0
                   0
                   0
                   0
                   0
                   0
                   0
                   0
                   0
                   0
                   0
                   0
                   0
                   0
                   0
                   0
                   0
                   0
                   0
                   0
                   0
                   0
                   0
                   0
                   0
                   0
                   0
                   0
                   0
                   0
                   0
                   0
                   0
                   0
                   0
                   0
                   0
                   0
                   0
                   0
                   0
                   0
                   0
                   0
                   0
                   0
                   0
                   0
                   0
                   0
                   0
                   0
                   0
                   0
                   0
                   0
                   0
                   0
                   0
                   0
                   0
                   0
                   0
                   0
                   0
                   0
                   0
                   0
                   0
                   0
                   0
                   0
                   0
                   0
                   0
                   0
                   0
                   0
                   0
                   0
                   0
                   0
                   0
                   0
                   0
                   0
                   0
                   0
                   0
                   0
                   0
                   0
                   0
                   0
                   0
                   0
                   0
                   0
                   0
                   0
                   0
                   0
                   0
                   0
                   0
                   0
                   0
                   0
                   0
                   0
                   0
                   0
                   0
                   0
                   0
                   0
                   0
                   0
                   0
                   0
                   0
                   0
                   0
                   0
                   0
                   0
                   0
                   0
                   0
                   0
                   0
                   0
                   0
                   0
                   0
                   0
                   0
                   0
                   0
                   0
                   0
                   0
                   0
                   0
                   0
                   0
                   0
                   0
                   0
                   0
                   0
                   0
                   0
                   0
                   0
                   0
                   0
                   0
                   0
                   0
                   0
                   0
                   0
                   0
                   0
                   0
                   0
                   0
                   0
                   0
                   0
                   0
                   0
                   0
                   0
                   0
                   0
                   0
                   0
                   0
                   0
                   0
                   0
                   0
                   0
                   0
                   0
                   0
                   0
                   0
                   0
                   0
                   0
                   0
                   0
                   0
                   0
                   0
                   0
                   0
                   0
                   0
                   0
                   0
                   0
                   0
                   0
                   0
                   0
                   0
                   0
                   0
                   0
                   0
                   0
                   0
                   0
                   0
                   0
                   0
                   0
                   0
                   0
                   0
                   0
                   0
                   0
                   0
                   0
                   0
                   0
                   0
                   0
                   0
                   0
                   0
                   0
                   0
                   0
                   0
                   0
                   0
                   0
                   0
                   0
                   0
                   0
                   0
                   0
                   0
                   0
                   0
                   0
                   0
                   0
                   0
                   0
                   0
                   0
                   0
                   0
                   0
                   0
                   0
                   0
                   0
                   0
                   0
                   0
                   0
                   0
                   0
                   0
                   0
                   0
                   0
                   0
                   0
                   0
                   0
                   0
                   0
                   0
                   0
                   0
                   0
                   0
                   0
                   0
                   0
                   0
                   0
                   0
                   0
                   0
  
SCALARS                       fixity_z  double 1
LOOKUP_TABLE default
                   0
                   0
                   0
                   0
                   1
                   1
                   1
                   1
                   0
                   0
                   1
                   1
                   0
                   0
                   1
                   1
                   0
                   0
                   1
                   1
                   0
                   0
                   0
                   1
                   1
                   1
                   0
                   0
                   1
                   1
                   0
                   0
                   0
                   1
                   1
                   1
                   0
                   0
                   1
                   1
                   0
                   0
                   1
                   1
                   0
                   0
                   1
                   1
                   0
                   1
                   0
                   1
                   0
                   1
                   0
                   1
                   0
                   0
                   1
                   1
                   0
                   0
                   1
                   1
                   0
                   1
                   0
                   1
                   0
                   0
                   1
                   1
                   0
                   1
                   0
                   1
                   0
                   1
                   0
                   1
                   0
                   0
                   1
                   1
                   0
                   1
                   0
                   1
                   0
                   1
                   0
                   0
                   1
                   1
                   0
                   1
                   0
                   1
                   0
                   1
                   0
                   0
                   1
                   1
                   0
                   0
                   1
                   1
                   0
                   1
                   0
                   1
                   0
                   1
                   0
                   1
                   0
                   1
                   0
                   1
                   0
                   1
                   0
                   1
                   0
                   1
                   0
                   1
                   0
                   1
                   0
                   1
                   0
                   1
                   0
                   1
                   0
                   1
                   0
                   1
                   0
                   1
                   0
                   1
                   0
                   1
                   0
                   1
                   0
                   1
                   0
                   1
                   0
                   1
                   0
                   1
                   0
                   0
                   0
                   0
                   0
                   0
                   0
                   0
                   0
                   0
                   0
                   0
                   0
                   0
                   0
                   0
                   0
                   0
                   0
                   0
                   0
                   0
                   0
                   0
                   0
                   0
                   0
                   0
                   0
                   0
                   0
                   0
                   0
                   0
                   0
                   0
                   0
                   0
                   0
                   0
                   0
                   0
                   0
                   0
                   0
                   0
                   0
                   0
                   0
                   0
                   0
                   0
                   0
                   0
                   0
                   0
                   0
                   0
                   0
                   0
                   0
                   0
                   0
                   0
                   0
                   0
                   0
                   0
                   0
                   0
                   0
                   0
                   0
                   0
                   0
                   0
                   0
                   0
                   0
                   0
                   0
                   0
                   0
                   0
                   0
                   0
                   0
                   0
                   0
                   0
                   0
                   0
                   0
                   0
                   0
                   0
                   0
                   0
                   0
                   0
                   0
                   0
                   0
                   0
                   0
                   0
                   0
                   0
                   0
                   0
                   0
                   0
                   0
                   0
                   0
                   0
                   0
                   0
                   0
                   0
                   0
                   0
                   0
                   0
                   0
                   0
                   0
                   0
                   0
                   0
                   0
                   0
                   0
                   0
                   0
                   0
                   0
                   0
                   0
                   0
                   0
                   0
                   0
                   0
                   0
                   0
                   0
                   0
                   0
                   0
                   0
                   0
                   0
                   0
                   0
                   0
                   0
                   0
                   0
                   0
                   0
                   0
                   0
                   0
                   0
                   0
                   0
                   0
                   0
                   0
                   0
                   0
                   0
                   0
                   0
                   0
                   0
                   0
                   0
                   0
                   0
                   0
                   0
                   0
                   0
                   0
                   0
                   0
                   0
                   0
                   0
                   0
                   0
                   0
                   0
                   0
                   0
                   0
                   0
                   0
                   0
                   0
                   0
                   0
                   0
                   0
                   0
                   0
                   0
                   0
                   0
                   0
                   0
                   0
                   0
                   0
                   0
                   0
                   0
                   0
                   0
                   0
                   0
                   0
                   0
                   0
                   0
                   0
                   0
                   0
                   0
                   0
                   0
                   0
                   0
                   0
                   0
                   0
                   0
                   0
                   0
                   0
                   0
                   0
                   0
                   0
                   0
                   0
                   0
                   0
                   0
                   0
                   0
                   0
                   0
                   0
                   0
                   0
                   0
                   0
                   0
                   0
                   0
                   0
                   0
                   0
                   0
                   0
                   0
                   0
                   0
                   0
                   0
                   0
                   0
                   0
                   0
                   0
                   0
                   0
                   0
                   0
                   0
                   0
                   0
                   0
                   0
                   0
                   0
                   0
                   0
                   0
                   0
                   0
                   0
                   0
                   0
                   0
                   0
                   0
                   0
                   0
                   0
                   0
                   0
                   0
                   0
                   0
                   0
                   0
                   0
                   0
                   0
                   0
                   0
                   0
                   0
                   0
                   0
                   0
                   0
                   0
                   0
                   0
                   0
                   0
                   0
                   0
                   0
                   0
                   0
                   0
                   0
                   0
                   0
                   0
                   0
                   0
                   0
                   0
                   0
                   0
                   0
                   0
                   0
                   0
                   0
                   0
                   0
                   0
                   0
                   0
                   0
                   0
                   0
                   0
                   0
                   0
                   0
                   0
                   0
                   0
                   0
                   0
                   0
                   0
                   0
                   0
                   0
                   0
                   0
                   0
                   0
                   0
                   0
                   0
                   0
                   0
                   0
                   0
                   0
                   0
                   0
                   0
                   0
                   0
                   0
                   0
                   0
                   0
                   0
                   0
                   0
                   0
                   0
                   0
                   0
                   0
                   0
                   0
                   0
                   0
                   0
                   0
                   0
                   0
                   0
                   0
                   0
                   0
                   0
                   0
                   0
                   0
                   0
                   0
                   0
                   0
                   0
                   0
                   0
                   0
                   0
                   0
                   0
                   0
                   0
                   0
                   0
                   0
                   0
                   0
                   0
                   0
                   0
                   0
                   0
                   0
                   0
                   0
                   0
                   0
                   0
                   0
                   0
                   0
                   0
                   0
                   0
                   0
                   0
                   0
                   0
                   0
                   0
                   0
                   0
                   0
                   0
                   0
                   0
                   0
                   0
                   0
                   0
                   0
                   0
                   0
                   0
                   0
                   0
                   0
                   0
                   0
                   0
                   0
                   0
                   0
                   0
                   0
                   0
                   0
                   0
                   0
                   0
                   0
                   0
                   0
                   0
                   0
                   0
                   0
                   0
                   0
                   0
                   0
                   0
                   0
                   0
                   0
                   0
                   0
                   0
                   0
                   0
                   0
                   0
                   0
                   0
                   0
                   0
                   0
                   0
                   0
                   0
                   0
                   0
                   0
                   0
                   0
                   0
                   0
                   0
                   0
                   0
                   0
                   0
                   0
                   0
                   0
                   0
                   0
                   0
                   0
                   0
                   0
                   0
                   0
                   0
                   0
                   0
                   0
                   0
                   0
                   0
                   0
                   0
                   0
                   0
                   0
                   0
                   0
                   0
                   0
                   0
                   0
                   0
                   0
                   0
                   0
                   0
                   0
                   0
                   0
                   0
                   0
                   0
                   0
                   0
                   0
                   0
                   0
                   0
                   0
                   0
                   0
                   0
                   0
                   0
                   0
                   0
                   0
                   0
                   0
                   0
                   0
                   0
                   0
                   0
                   0
                   0
                   0
                   0
                   0
                   0
                   0
                   0
                   0
                   0
                   0
                   0
                   0
                   0
                   0
                   0
                   0
                   0
                   0
                   0
                   0
                   0
                   0
                   0
                   0
                   0
                   0
                   0
                   0
                   0
                   0
                   0
                   0
                   0
                   0
                   0
                   0
                   0
                   0
                   0
                   0
                   0
                   0
                   0
                   0
                   0
                   0
                   0
                   0
                   0
                   0
                   0
                   0
                   0
                   0
                   0
                   0
                   0
                   0
                   0
                   0
                   0
                   0
                   0
                   0
                   0
                   0
                   0
                   0
                   0
                   0
                   0
                   0
                   0
                   0
                   0
                   0
                   0
                   0
                   0
                   0
                   0
                   0
                   0
                   0
                   0
                   0
                   0
                   0
                   0
                   0
                   0
                   0
                   0
                   0
                   0
                   0
                   0
                   0
                   0
                   0
                   0
                   0
                   0
                   0
                   0
                   0
                   0
                   0
                   0
                   0
                   0
                   0
                   0
                   0
                   0
                   0
                   0
                   0
                   0
                   0
                   0
                   0
                   0
                   0
                   0
                   0
                   0
                   0
                   0
                   0
                   0
                   0
                   0
                   0
                   0
                   0
                   0
                   0
                   0
                   0
                   0
                   0
                   0
                   0
                   0
                   0
                   0
                   0
                   0
                   0
                   0
                   0
                   0
                   0
                   0
                   0
                   0
                   0
                   0
                   0
                   0
                   0
                   0
                   0
                   0
                   0
                   0
                   0
                   0
                   0
                   0
                   0
                   0
                   0
                   0
                   0
                   0
                   0
                   0
                   0
                   0
                   0
                   0
                   0
                   0
                   0
                   0
                   0
                   0
                   0
                   0
                   0
                   0
                   0
                   0
                   0
                   0
                   0
                   0
                   0
                   0
                   0
                   0
                   0
                   0
                   0
                   0
                   0
                   0
                   0
                   0
                   0
                   0
                   0
                   0
                   0
                   0
                   0
                   0
                   0
                   0
                   0
                   0
                   0
                   0
                   0
                   0
                   0
                   0
                   0
                   0
                   0
                   0
                   0
                   0
                   0
                   0
                   0
                   0
                   0
                   0
                   0
                   0
                   0
                   0
                   0
                   0
                   0
                   0
                   0
                   0
                   0
                   0
                   0
                   0
                   0
                   0
                   0
                   0
                   0
                   0
                   0
                   0
                   0
                   0
                   0
                   0
                   0
                   0
                   0
                   0
                   0
                   0
                   0
                   0
                   0
                   0
                   0
                   0
                   0
                   0
                   0
                   0
                   0
                   0
                   0
                   0
                   0
                   0
                   0
                   0
                   0
                   0
                   0
                   0
                   0
                   0
                   0
                   0
                   0
                   0
                   0
                   0
                   0
                   0
                   0
                   0
                   0
                   0
                   0
                   0
                   0
                   0
                   0
                   0
                   0
                   0
                   0
                   0
                   0
                   0
                   0
                   0
                   0
                   0
                   0
                   0
                   0
                   0
                   0
                   0
                   0
                   0
                   0
                   0
                   0
                   0
                   0
                   0
                   0
                   0
                   0
                   0
                   0
                   0
                   0
                   0
                   0
                   0
                   0
                   0
                   0
                   0
                   0
                   0
                   0
                   0
                   0
                   0
                   0
                   0
                   0
                   0
                   0
                   0
                   0
                   0
                   0
                   0
                   0
                   0
                   0
                   0
                   0
                   0
                   0
                   0
                   0
                   0
                   0
                   0
                   0
                   0
                   0
                   0
                   0
                   0
                   0
                   0
                   0
                   0
                   0
                   0
                   0
                   0
                   0
                   0
                   0
                   0
                   0
                   0
                   0
                   0
                   0
                   0
                   0
                   0
                   0
                   0
                   0
                   0
                   0
                   0
                   0
                   0
                   0
                   0
                   0
                   0
                   0
                   0
                   0
                   0
                   0
                   0
                   0
                   0
                   0
                   0
                   0
                   0
                   0
                   0
                   0
                   0
                   0
                   0
                   0
                   0
                   0
                   0
                   0
                   0
                   0
                   0
                   0
                   0
                   0
                   0
                   0
                   0
                   0
                   0
                   0
                   0
                   0
                   0
                   0
                   0
                   0
                   0
                   0
                   0
                   0
                   0
                   0
                   0
                   0
                   0
                   0
                   0
                   0
                   0
                   0
                   0
                   0
                   0
                   0
                   0
                   0
                   0
                   0
                   0
                   0
                   0
                   0
                   0
                   0
                   0
                   0
                   0
                   0
                   0
                   0
                   0
                   0
                   0
                   0
                   0
                   0
                   0
                   0
                   0
                   0
                   0
                   0
                   0
                   0
                   0
                   0
                   0
                   0
                   0
                   0
                   0
                   0
                   0
                   0
                   0
                   0
                   0
                   0
                   0
                   0
                   0
                   0
                   0
                   0
                   0
                   0
                   0
                   0
                   0
                   0
                   0
                   0
                   0
                   0
                   0
                   0
                   0
                   0
                   0
                   0
                   0
                   0
                   0
                   0
                   0
                   0
                   0
                   0
                   0
                   0
                   0
                   0
                   0
                   0
                   0
                   0
                   0
                   0
                   0
                   0
                   0
                   0
                   0
                   0
                   0
                   0
                   0
                   0
                   0
                   0
                   0
                   0
                   0
                   0
                   0
                   0
                   0
                   0
                   0
                   0
                   0
                   0
                   0
                   0
                   0
                   0
                   0
                   0
                   0
                   0
                   0
                   0
                   0
                   0
                   0
                   0
                   0
                   0
                   0
                   0
                   0
                   0
                   0
                   0
                   0
                   0
                   0
                   0
                   0
                   0
                   0
                   0
                   0
                   0
                   0
                   0
                   0
                   0
                   0
                   0
                   0
                   0
                   0
                   0
                   0
                   0
                   0
                   0
                   0
                   0
                   0
                   0
                   0
                   0
                   0
                   0
                   0
                   0
                   0
                   0
                   0
                   0
                   0
                   0
                   0
                   0
                   0
                   0
                   0
                   0
                   0
                   0
                   0
                   0
                   0
                   0
                   0
                   0
                   0
                   0
                   0
                   0
                   0
                   0
                   0
                   0
                   0
                   0
                   0
                   0
                   0
                   0
                   0
                   0
                   0
                   0
                   0
                   0
                   0
                   0
                   0
                   0
                   0
                   0
                   0
                   0
                   0
                   0
                   0
                   0
                   0
                   0
                   0
                   0
                   0
                   0
                   0
                   0
                   0
                   0
                   0
                   0
                   0
                   0
                   0
                   0
                   0
                   0
                   0
                   0
                   0
                   0
                   0
                   0
                   0
                   0
                   0
                   0
                   0
                   0
                   0
                   0
                   0
                   0
                   0
                   0
                   0
                   0
                   0
                   0
                   0
                   0
                   0
                   0
                   0
                   0
                   0
                   0
                   0
                   0
                   0
                   0
                   0
                   0
                   0
                   0
                   0
                   0
                   0
                   0
                   0
                   0
                   0
                   0
                   0
                   0
                   0
                   0
                   0
                   0
                   0
                   0
                   0
                   0
                   0
                   0
                   0
                   0
                   0
                   0
                   0
                   0
                   0
                   0
                   0
                   0
                   0
                   0
                   0
                   0
                   0
                   0
                   0
                   0
                   0
                   0
                   0
                   0
                   0
                   0
                   0
                   0
                   0
                   0
                   0
                   0
                   0
                   0
                   0
                   0
                   0
                   0
                   0
                   0
                   0
                   0
                   0
                   0
                   0
                   0
                   0
                   0
                   0
                   0
                   0
                   0
                   0
                   0
                   0
                   0
                   0
                   0
                   0
                   0
                   0
                   0
                   0
                   0
                   0
                   0
                   0
                   0
                   0
                   0
                   0
                   0
                   0
                   0
                   0
                   0
                   0
                   0
                   0
                   0
                   0
                   0
                   0
                   0
                   0
                   0
                   0
                   0
                   0
                   0
                   0
                   0
                   0
                   0
                   0
                   0
                   0
                   0
                   0
                   0
                   0
                   0
                   0
                   0
                   0
                   0
                   0
                   0
                   0
                   0
                   0
                   0
                   0
                   0
                   0
                   0
                   0
                   0
                   0
                   0
                   0
                   0
                   0
                   0
                   0
                   0
                   0
                   0
                   0
                   0
                   0
                   0
                   0
                   0
                   0
                   0
                   0
                   0
                   0
                   0
                   0
                   0
                   0
                   0
                   0
                   0
                   0
                   0
                   0
                   0
                   0
                   0
                   0
                   0
                   0
                   0
                   0
                   0
                   0
                   0
                   0
                   0
                   0
                   0
                   0
                   0
                   0
                   0
                   0
                   0
                   0
                   0
                   0
                   0
                   0
                   0
                   0
                   0
                   0
                   0
                   0
                   0
                   0
                   0
                   0
                   0
                   0
                   0
                   0
                   0
                   0
                   0
                   0
                   0
                   0
                   0
                   0
                   0
                   0
                   0
                   0
                   0
                   0
                   0
                   0
                   0
                   0
                   0
                   0
                   0
                   0
                   0
                   0
                   0
                   0
                   0
                   0
                   0
                   0
                   0
                   0
                   0
                   0
                   0
                   0
                   0
                   0
                   0
                   0
                   0
                   0
                   0
                   0
                   0
                   0
                   0
                   0
                   0
                   0
                   0
                   0
                   0
                   0
                   0
                   0
                   0
                   0
                   0
                   0
                   0
                   0
                   0
                   0
                   0
                   0
                   0
                   0
                   0
                   0
                   0
                   0
                   0
                   0
                   0
                   0
                   0
                   0
                   0
                   0
                   0
                   0
                   0
                   0
                   0
                   0
                   0
                   0
                   0
                   0
                   0
                   0
                   0
                   0
                   0
                   0
                   0
                   0
                   0
                   0
                   0
                   0
                   0
                   0
                   0
                   0
                   0
                   0
                   0
                   0
                   0
                   0
                   0
                   0
                   0
                   0
                   0
                   0
                   0
                   0
                   0
                   0
                   0
                   0
                   0
                   0
                   0
                   0
                   0
                   0
                   0
                   0
                   0
                   0
                   0
                   0
                   0
                   0
                   0
                   0
                   0
                   0
                   0
                   0
                   0
                   0
                   0
                   0
                   0
                   0
                   0
                   0
                   0
                   0
                   0
                   0
                   0
                   0
                   0
                   0
                   0
                   0
                   0
                   0
                   0
                   0
                   0
                   0
                   0
                   0
                   0
                   0
                   0
                   0
                   0
                   0
                   0
                   0
                   0
                   0
                   0
                   0
                   0
                   0
                   0
                   0
                   0
                   0
                   0
                   0
                   0
                   0
                   0
                   0
                   0
                   0
                   0
                   0
                   0
                   0
                   0
                   0
                   0
                   0
                   0
                   0
                   0
                   0
                   0
                   0
                   0
                   0
                   0
                   0
                   0
                   0
                   0
                   0
                   0
                   0
                   0
                   0
                   0
                   0
                   0
                   0
                   0
                   0
                   0
                   0
                   0
                   0
                   0
                   0
                   0
                   0
                   0
                   0
                   0
                   0
                   0
                   0
                   0
                   0
                   0
                   0
                   0
  
SCALARS                         Ispace  double 1
LOOKUP_TABLE default
                  12
                  12
                  12
                  12
                  12
                  12
                  12
                  12
                  12
                  12
                  12
                  12
                  12
                  11
                  12
                  11
                  11
                  11
                  11
                  11
                  11
                  12
                  12
                  11
                  12
                  12
                  11
                  11
                  11
                  11
                  11
                  11
                  11
                  11
                  11
                  11
                  11
                  11
                  11
                  11
                  11
                  11
                  11
                  11
                  11
                  11
                  11
                  11
                  11
                  11
                  11
                  11
                  11
                  11
                  11
                  11
                  11
                  11
                  11
                  11
                  11
                  11
                  11
                  11
                  11
                  11
                  12
                  12
                  12
                  12
                  12
                  12
                  12
                  12
                  11
                  11
                  11
                  11
                  11
                  11
                  11
                  11
                  11
                  11
                  11
                  11
                  11
                  11
                  11
                  11
                  11
                  11
                  11
                  11
                  11
                  11
                  12
                  12
                  12
                  12
                  12
                  12
                  12
                  12
                  12
                  12
                  12
                  12
                  12
                  12
                  12
                  12
                  12
                  12
                  12
                  12
                  11
                  11
                  11
                  11
                  11
                  11
                  11
                  11
                  11
                  11
                  11
                  11
                  11
                  11
                  11
                  11
                  11
                  11
                  11
                  11
                  11
                  11
                  11
                  11
                  11
                  11
                  11
                  11
                  11
                  11
                  12
                  12
                  12
                  12
                  12
                  12
                  12
                  12
                  12
                  12
                  12
                  12
                  12
                  12
                  12
                  12
                  12
                  11
                  11
                  11
                  11
                  12
                  12
                  11
                  11
                  11
                  11
                  11
                  11
                  11
                  11
                  11
                  11
                  11
                  11
                  11
                  11
                  11
                  11
                  11
                  11
                  11
                  11
                  12
                  12
                  12
                  12
                  11
                  11
                  11
                  11
                  11
                  11
                  11
                  11
                  11
                  11
                  11
                  12
                  12
                  12
                  12
                  12
                  12
                  12
                  12
                  12
                  12
                  11
                  11
                  11
                  11
                  11
                  11
                  11
                  11
                  11
                  11
                  11
                  11
                  11
                  11
                  11
                  12
                  12
                  12
                  12
                  12
                  12
                  12
                  12
                  12
                  12
                  12
                  12
                  11
                  11
                  11
                  11
                  12
                  12
                  11
                  11
                  11
                  11
                  11
                  11
                  11
                  11
                  11
                  11
                  11
                  11
                  11
                  11
                  11
                  11
                  11
                  11
                  11
                  11
                  12
                  12
                  12
                  12
                  11
                  11
                  11
                  11
                  11
                  11
                  11
                  11
                  11
                  11
                  11
                  12
                  12
                  12
                  12
                  12
                  12
                  12
                  12
                  12
                  12
                  11
                  11
                  11
                  11
                  11
                  11
                  11
                  11
                  11
                  11
                  11
                  11
                  11
                  11
                  11
                  12
                  12
                  12
                  12
                  12
                  12
                  12
                  12
                  12
                  12
                  12
                  12
                  11
                  11
                  11
                  11
                  12
                  12
                  11
                  11
                  11
                  11
                  11
                  11
                  11
                  11
                  11
                  11
                  11
                  11
                  11
                  11
                  11
                  11
                  11
                  11
                  11
                  11
                  12
                  12
                  12
                  12
                  11
                  11
                  11
                  11
                  11
                  11
                  11
                  11
                  11
                  11
                  11
                  12
                  12
                  12
                  12
                  12
                  12
                  12
                  12
                  12
                  12
                  11
                  11
                  11
                  11
                  11
                  11
                  11
                  11
                  11
                  11
                  11
                  11
                  11
                  11
                  11
                  12
                  12
                  12
                  12
                  12
                  12
                  12
                  12
                  12
                  12
                  12
                  12
                  11
                  11
                  11
                  11
                  12
                  12
                  11
                  11
                  11
                  11
                  11
                  11
                  11
                  11
                  11
                  11
                  11
                  11
                  11
                  11
                  11
                  11
                  11
                  11
                  11
                  11
                  12
                  12
                  12
                  12
                  11
                  11
                  11
                  11
                  11
                  11
                  11
                  11
                  11
                  11
                  11
                  12
                  12
                  12
                  12
                  12
                  12
                  12
                  12
                  12
                  12
                  11
                  11
                  11
                  11
                  11
                  11
                  11
                  11
                  11
                  11
                  11
                  11
                  11
                  11
                  11
                  12
                  12
                  12
                  12
                  12
                  12
                  12
                  12
                  12
                  12
                  12
                  12
                  11
                  11
                  11
                  11
                  12
                  12
                  11
                  11
                  11
                  11
                  11
                  11
                  11
                  11
                  11
                  11
                  11
                  11
                  11
                  11
                  11
                  11
                  11
                  11
                  11
                  11
                  12
                  12
                  12
                  12
                  11
                  11
                  11
                  11
                  11
                  11
                  11
                  11
                  11
                  11
                  11
                  12
                  12
                  12
                  12
                  12
                  12
                  12
                  12
                  12
                  12
                  11
                  11
                  11
                  11
                  11
                  11
                  11
                  11
                  11
                  11
                  11
                  11
                  11
                  11
                  11
                  12
                  12
                  12
                  12
                  12
                  12
                  12
                  12
                  12
                  12
                  12
                  12
                  11
                  11
                  11
                  11
                  12
                  12
                  11
                  11
                  11
                  11
                  11
                  11
                  11
                  11
                  11
                  11
                  11
                  11
                  11
                  11
                  11
                  11
                  11
                  11
                  11
                  11
                  12
                  12
                  12
                  12
                  11
                  11
                  11
                  11
                  11
                  11
                  11
                  11
                  11
                  11
                  11
                  12
                  12
                  12
                  12
                  12
                  12
                  12
                  12
                  12
                  12
                  11
                  11
                  11
                  11
                  11
                  11
                  11
                  11
                  11
                  11
                  11
                  11
                  11
                  11
                  11
                  12
                  12
                  12
                  12
                  12
                  12
                  12
                  12
                  12
                  12
                  12
                  12
                  11
                  11
                  11
                  11
                  12
                  12
                  11
                  11
                  11
                  11
                  11
                  11
                  11
                  11
                  11
                  11
                  11
                  11
                  11
                  11
                  11
                  11
                  11
                  11
                  11
                  11
                  12
                  12
                  12
                  12
                  11
                  11
                  11
                  11
                  11
                  11
                  11
                  11
                  11
                  11
                  11
                  12
                  12
                  12
                  12
                  12
                  12
                  12
                  12
                  12
                  12
                  11
                  11
                  11
                  11
                  11
                  11
                  11
                  11
                  11
                  11
                  11
                  11
                  11
                  11
                  11
                  12
                  12
                  12
                  12
                  12
                  12
                  12
                  12
                  12
                  12
                  12
                  12
                  11
                  11
                  11
                  11
                  12
                  12
                  11
                  11
                  11
                  11
                  11
                  11
                  11
                  11
                  11
                  11
                  11
                  11
                  11
                  11
                  11
                  11
                  11
                  11
                  11
                  11
                  12
                  12
                  12
                  12
                  11
                  11
                  11
                  11
                  11
                  11
                  11
                  11
                  11
                  11
                  11
                  12
                  12
                  12
                  12
                  12
                  12
                  12
                  12
                  12
                  12
                  11
                  11
                  11
                  11
                  11
                  11
                  11
                  11
                  11
                  11
                  11
                  11
                  11
                  11
                  11
                  12
                  12
                  12
                  12
                  12
                  12
                  12
                  12
                  12
                  12
                  12
                  12
                  11
                  11
                  11
                  11
                  12
                  12
                  11
                  11
                  11
                  11
                  11
                  11
                  11
                  11
                  11
                  11
                  11
                  11
                  11
                  11
                  11
                  11
                  11
                  11
                  11
                  11
                  12
                  12
                  12
                  12
                  11
                  11
                  11
                  11
                  11
                  11
                  11
                  11
                  11
                  11
                  11
                  12
                  12
                  12
                  12
                  12
                  12
                  12
                  12
                  12
                  12
                  11
                  11
                  11
                  11
                  11
                  11
                  11
                  11
                  11
                  11
                  11
                  11
                  11
                  11
                  11
                  12
                  12
                  12
                  12
                  12
                  12
                  12
                  12
                  12
                  12
                  12
                  12
                  11
                  11
                  11
                  11
                  12
                  12
                  11
                  11
                  11
                  11
                  11
                  11
                  11
                  11
                  11
                  11
                  11
                  11
                  11
                  11
                  11
                  11
                  11
                  11
                  11
                  11
                  12
                  12
                  12
                  12
                  11
                  11
                  11
                  11
                  11
                  11
                  11
                  11
                  11
                  11
                  11
                  12
                  12
                  12
                  12
                  12
                  12
                  12
                  12
                  12
                  12
                  11
                  11
                  11
                  11
                  11
                  11
                  11
                  11
                  11
                  11
                  11
                  11
                  11
                  11
                  11
                  12
                  12
                  12
                  12
                  12
                  12
                  12
                  12
                  12
                  12
                  12
                  12
                  11
                  11
                  11
                  11
                  12
                  12
                  11
                  11
                  11
                  11
                  11
                  11
                  11
                  11
                  11
                  11
                  11
                  11
                  11
                  11
                  11
                  11
                  11
                  11
                  11
                  11
                  12
                  12
                  12
                  12
                  11
                  11
                  11
                  11
                  11
                  11
                  11
                  11
                  11
                  11
                  11
                  12
                  12
                  12
                  12
                  12
                  12
                  12
                  12
                  12
                  12
                  11
                  11
                  11
                  11
                  11
                  11
                  11
                  11
                  11
                  11
                  11
                  11
                  11
                  11
                  11
                  12
                  12
                  12
                  12
                  12
                  12
                  12
                  12
                  12
                  12
                  12
                  12
                  11
                  11
                  11
                  11
                  12
                  12
                  11
                  11
                  11
                  11
                  11
                  11
                  11
                  11
                  11
                  11
                  11
                  11
                  11
                  11
                  11
                  11
                  11
                  11
                  11
                  11
                  12
                  12
                  12
                  12
                  11
                  11
                  11
                  11
                  11
                  11
                  11
                  11
                  11
                  11
                  11
                  12
                  12
                  12
                  12
                  12
                  12
                  12
                  12
                  12
                  12
                  11
                  11
                  11
                  11
                  11
                  11
                  11
                  11
                  11
                  11
                  11
                  11
                  11
                  11
                  11
                  12
                  12
                  12
                  12
                  12
                  12
                  12
                  12
                  12
                  12
                  12
                  12
                  11
                  11
                  11
                  11
                  12
                  12
                  11
                  11
                  11
                  11
                  11
                  11
                  11
                  11
                  11
                  11
                  11
                  11
                  11
                  11
                  11
                  11
                  11
                  11
                  11
                  11
                  12
                  12
                  12
                  12
                  11
                  11
                  11
                  11
                  11
                  11
                  11
                  11
                  11
                  11
                  11
                  12
                  12
                  12
                  12
                  12
                  12
                  12
                  12
                  12
                  12
                  11
                  11
                  11
                  11
                  11
                  11
                  11
                  11
                  11
                  11
                  11
                  11
                  11
                  11
                  11
                  12
                  12
                  12
                  12
                  12
                  12
                  12
                  12
                  12
                  12
                  12
                  12
                  11
                  11
                  11
                  11
                  12
                  12
                  11
                  11
                  11
                  11
                  11
                  11
                  11
                  11
                  11
                  11
                  11
                  11
                  11
                  11
                  11
                  11
                  11
                  11
                  11
                  11
                  12
                  12
                  12
                  12
                  11
                  11
                  11
                  11
                  11
                  11
                  11
                  11
                  11
                  11
                  11
                  12
                  12
                  12
                  12
                  12
                  12
                  12
                  12
                  12
                  12
                  11
                  11
                  11
                  11
                  11
                  11
                  11
                  11
                  11
                  11
                  11
                  11
                  11
                  11
                  11
                  12
                  12
                  12
                  12
                  12
                  12
                  12
                  12
                  12
                  12
                  12
                  12
                  11
                  11
                  11
                  11
                  12
                  12
                  11
                  11
                  11
                  11
                  11
                  11
                  11
                  11
                  11
                  11
                  11
                  11
                  11
                  11
                  11
                  11
                  11
                  11
                  11
                  11
                  12
                  12
                  12
                  12
                  11
                  11
                  11
                  11
                  11
                  11
                  11
                  11
                  11
                  11
                  11
                  12
                  12
                  12
                  12
                  12
                  12
                  12
                  12
                  12
                  12
                  11
                  11
                  11
                  11
                  11
                  11
                  11
                  11
                  11
                  11
                  11
                  11
                  11
                  11
                  11
                  12
                  12
                  12
                  12
                  12
                  12
                  12
                  12
                  12
                  12
                  12
                  12
                  11
                  11
                  11
                  11
                  12
                  12
                  11
                  11
                  11
                  11
                  11
                  11
                  11
                  11
                  11
                  11
                  11
                  11
                  11
                  11
                  11
                  11
                  11
                  11
                  11
                  11
                  12
                  12
                  12
                  12
                  11
                  11
                  11
                  11
                  11
                  11
                  11
                  11
                  11
                  11
                  11
                  12
                  12
                  12
                  12
                  12
                  12
                  12
                  12
                  12
                  12
                  11
                  11
                  11
                  11
                  11
                  11
                  11
                  11
                  11
                  11
                  11
                  11
                  11
                  11
                  11
                  12
                  12
                  12
                  12
                  12
                  12
                  12
                  12
                  12
                  12
                  12
                  12
                  11
                  11
                  11
                  11
                  12
                  12
                  11
                  11
                  11
                  11
                  11
                  11
                  11
                  11
                  11
                  11
                  11
                  11
                  11
                  11
                  11
                  11
                  11
                  11
                  11
                  11
                  12
                  12
                  12
                  12
                  11
                  11
                  11
                  11
                  11
                  11
                  11
                  11
                  11
                  11
                  11
                  12
                  12
                  12
                  12
                  12
                  12
                  12
                  12
                  12
                  12
                  11
                  11
                  11
                  11
                  11
                  11
                  11
                  11
                  11
                  11
                  11
                  11
                  11
                  11
                  11
                  12
                  12
                  12
                  12
                  12
                  12
                  12
                  12
                  12
                  12
                  12
                  12
                  11
                  11
                  11
                  11
                  12
                  12
                  11
                  11
                  11
                  11
                  11
                  11
                  11
                  11
                  11
                  11
                  11
                  11
                  11
                  11
                  11
                  11
                  11
                  11
                  11
                  11
                  12
                  12
                  12
                  12
                  11
                  11
                  11
                  11
                  11
                  11
                  11
                  11
                  11
                  11
                  11
                  12
                  12
                  12
                  12
                  12
                  12
                  12
                  12
                  12
                  12
                  11
                  11
                  11
                  11
                  11
                  11
                  11
                  11
                  11
                  11
                  11
                  11
                  11
                  11
                  11
                  12
                  12
                  12
                  12
                  12
                  12
                  12
                  12
                  12
                  12
                  12
                  12
                  11
                  11
                  11
                  11
                  12
                  12
                  11
                  11
                  11
                  11
                  11
                  11
                  11
                  11
                  11
                  11
                  11
                  11
                  11
                  11
                  11
                  11
                  11
                  11
                  11
                  11
                  12
                  12
                  12
                  12
                  11
                  11
                  11
                  11
                  11
                  11
                  11
                  11
                  11
                  11
                  11
                  12
                  12
                  12
                  12
                  12
                  12
                  12
                  12
                  12
                  12
                  11
                  11
                  11
                  11
                  11
                  11
                  11
                  11
                  11
                  11
                  11
                  11
                  11
                  11
                  11
                  12
                  12
                  12
                  12
                  12
                  12
                  12
                  12
                  12
                  12
                  12
                  12
                  11
                  11
                  11
                  11
                  12
                  12
                  11
                  11
                  11
                  11
                  11
                  11
                  11
                  11
                  11
                  11
                  11
                  11
                  11
                  11
                  11
                  11
                  11
                  11
                  11
                  11
                  12
                  12
                  12
                  12
                  11
                  11
                  11
                  11
                  11
                  11
                  11
                  11
                  11
                  11
                  11
                  12
                  12
                  12
                  12
                  12
                  12
                  12
                  12
                  12
                  12
                  11
                  11
                  11
                  11
                  11
                  11
                  11
                  11
                  11
                  11
                  11
                  11
                  11
                  11
                  11
                  12
                  12
                  12
                  12
                  12
                  12
                  12
                  12
                  12
                  12
                  12
                  12
                  11
                  11
                  11
                  11
                  12
                  12
                  11
                  11
                  11
                  11
                  11
                  11
                  11
                  11
                  11
                  11
                  11
                  11
                  11
                  11
                  11
                  11
                  11
                  11
                  11
                  11
                  12
                  12
                  12
                  12
                  11
                  11
                  11
                  11
                  11
                  11
                  11
                  11
                  11
                  11
                  11
                  12
                  12
                  12
                  12
                  12
                  12
                  12
                  12
                  12
                  12
                  11
                  11
                  11
                  11
                  11
                  11
                  11
                  11
                  11
                  11
                  11
                  11
                  11
                  11
                  11
                  12
                  12
                  12
                  12
                  12
                  12
                  12
                  12
                  12
                  12
                  12
                  12
                  11
                  11
                  11
                  11
                  12
                  12
                  11
                  11
                  11
                  11
                  11
                  11
                  11
                  11
                  11
                  11
                  11
                  11
                  11
                  11
                  11
                  11
                  11
                  11
                  11
                  11
                  12
                  12
                  12
                  12
                  11
                  11
                  11
                  11
                  11
                  11
                  11
                  11
                  11
                  11
                  11
                  12
                  12
                  12
                  12
                  12
                  12
                  12
                  12
                  12
                  12
                  11
                  11
                  11
                  11
                  11
                  11
                  11
                  11
                  11
                  11
                  11
                  11
                  11
                  11
                  11
                  12
                  12
                  12
                  12
                  12
                  12
                  12
                  12
                  12
                  12
                  12
                  12
                  11
                  11
                  11
                  11
                  12
                  12
                  11
                  11
                  11
                  11
                  11
                  11
                  11
                  11
                  11
                  11
                  11
                  11
                  11
                  11
                  11
                  11
                  11
                  11
                  11
                  11
                  12
                  12
                  12
                  12
                  11
                  11
                  11
                  11
                  11
                  11
                  11
                  11
                  11
                  11
                  11
                  12
                  12
                  12
                  12
                  12
                  12
                  12
                  12
                  12
                  12
                  11
                  11
                  11
                  11
                  11
                  11
                  11
                  11
                  11
                  11
                  11
                  11
                  11
                  11
                  11
                  12
                  12
                  12
                  12
                  12
  
SCALARS                         Jspace  double 1
LOOKUP_TABLE default
                  11
                  12
                  11
                  11
                  11
                  12
                  11
                  11
                  11
                  11
                  11
                  11
                  12
                  12
                  12
                  12
                  11
                  12
                  11
                  12
                  12
                  12
                  12
                  12
                  12
                  12
                  12
                  12
                  12
                  12
                  11
                  11
                  11
                  11
                  11
                  11
                  11
                  11
                  11
                  11
                  11
                  11
                  11
                  11
                  11
                  11
                  11
                  11
                  11
                  11
                  11
                  11
                  12
                  12
                  12
                  12
                  12
                  11
                  12
                  11
                  11
                  11
                  11
                  11
                  11
                  11
                  11
                  11
                  11
                  12
                  11
                  12
                  12
                  12
                  12
                  12
                  12
                  12
                  12
                  12
                  12
                  12
                  12
                  12
                  11
                  11
                  11
                  11
                  11
                  11
                  11
                  11
                  11
                  11
                  11
                  11
                  11
                  11
                  11
                  11
                  11
                  11
                  11
                  11
                  11
                  11
                  11
                  11
                  12
                  12
                  12
                  12
                  12
                  12
                  12
                  12
                  12
                  12
                  12
                  12
                  12
                  12
                  12
                  12
                  12
                  12
                  12
                  12
                  11
                  11
                  11
                  11
                  11
                  11
                  11
                  11
                  11
                  11
                  11
                  11
                  11
                  11
                  11
                  11
                  11
                  11
                  11
                  11
                  11
                  11
                  11
                  11
                  11
                  11
                  11
                  11
                  11
                  12
                  11
                  11
                  11
                  11
                  12
                  12
                  11
                  12
                  12
                  12
                  12
                  12
                  12
                  11
                  11
                  11
                  11
                  11
                  11
                  11
                  11
                  11
                  11
                  11
                  12
                  12
                  12
                  11
                  11
                  11
                  11
                  11
                  11
                  12
                  12
                  12
                  12
                  12
                  12
                  12
                  11
                  11
                  11
                  11
                  11
                  11
                  11
                  11
                  11
                  11
                  11
                  11
                  12
                  12
                  12
                  12
                  12
                  12
                  12
                  12
                  12
                  12
                  11
                  11
                  11
                  11
                  11
                  11
                  11
                  11
                  11
                  11
                  11
                  11
                  11
                  11
                  11
                  12
                  11
                  11
                  11
                  11
                  12
                  12
                  11
                  12
                  12
                  12
                  12
                  12
                  12
                  11
                  11
                  11
                  11
                  11
                  11
                  11
                  11
                  11
                  11
                  11
                  12
                  12
                  12
                  11
                  11
                  11
                  11
                  11
                  11
                  12
                  12
                  12
                  12
                  12
                  12
                  12
                  11
                  11
                  11
                  11
                  11
                  11
                  11
                  11
                  11
                  11
                  11
                  11
                  12
                  12
                  12
                  12
                  12
                  12
                  12
                  12
                  12
                  12
                  11
                  11
                  11
                  11
                  11
                  11
                  11
                  11
                  11
                  11
                  11
                  11
                  11
                  11
                  11
                  12
                  11
                  11
                  11
                  11
                  12
                  12
                  11
                  12
                  12
                  12
                  12
                  12
                  12
                  11
                  11
                  11
                  11
                  11
                  11
                  11
                  11
                  11
                  11
                  11
                  12
                  12
                  12
                  11
                  11
                  11
                  11
                  11
                  11
                  12
                  12
                  12
                  12
                  12
                  12
                  12
                  11
                  11
                  11
                  11
                  11
                  11
                  11
                  11
                  11
                  11
                  11
                  11
                  12
                  12
                  12
                  12
                  12
                  12
                  12
                  12
                  12
                  12
                  11
                  11
                  11
                  11
                  11
                  11
                  11
                  11
                  11
                  11
                  11
                  11
                  11
                  11
                  11
                  12
                  11
                  11
                  11
                  11
                  12
                  12
                  11
                  12
                  12
                  12
                  12
                  12
                  12
                  11
                  11
                  11
                  11
                  11
                  11
                  11
                  11
                  11
                  11
                  11
                  12
                  12
                  12
                  11
                  11
                  11
                  11
                  11
                  11
                  12
                  12
                  12
                  12
                  12
                  12
                  12
                  11
                  11
                  11
                  11
                  11
                  11
                  11
                  11
                  11
                  11
                  11
                  11
                  12
                  12
                  12
                  12
                  12
                  12
                  12
                  12
                  12
                  12
                  11
                  11
                  11
                  11
                  11
                  11
                  11
                  11
                  11
                  11
                  11
                  11
                  11
                  11
                  11
                  12
                  11
                  11
                  11
                  11
                  12
                  12
                  11
                  12
                  12
                  12
                  12
                  12
                  12
                  11
                  11
                  11
                  11
                  11
                  11
                  11
                  11
                  11
                  11
                  11
                  12
                  12
                  12
                  11
                  11
                  11
                  11
                  11
                  11
                  12
                  12
                  12
                  12
                  12
                  12
                  12
                  11
                  11
                  11
                  11
                  11
                  11
                  11
                  11
                  11
                  11
                  11
                  11
                  12
                  12
                  12
                  12
                  12
                  12
                  12
                  12
                  12
                  12
                  11
                  11
                  11
                  11
                  11
                  11
                  11
                  11
                  11
                  11
                  11
                  11
                  11
                  11
                  11
                  12
                  11
                  11
                  11
                  11
                  12
                  12
                  11
                  12
                  12
                  12
                  12
                  12
                  12
                  11
                  11
                  11
                  11
                  11
                  11
                  11
                  11
                  11
                  11
                  11
                  12
                  12
                  12
                  11
                  11
                  11
                  11
                  11
                  11
                  12
                  12
                  12
                  12
                  12
                  12
                  12
                  11
                  11
                  11
                  11
                  11
                  11
                  11
                  11
                  11
                  11
                  11
                  11
                  12
                  12
                  12
                  12
                  12
                  12
                  12
                  12
                  12
                  12
                  11
                  11
                  11
                  11
                  11
                  11
                  11
                  11
                  11
                  11
                  11
                  11
                  11
                  11
                  11
                  12
                  11
                  11
                  11
                  11
                  12
                  12
                  11
                  12
                  12
                  12
                  12
                  12
                  12
                  11
                  11
                  11
                  11
                  11
                  11
                  11
                  11
                  11
                  11
                  11
                  12
                  12
                  12
                  11
                  11
                  11
                  11
                  11
                  11
                  12
                  12
                  12
                  12
                  12
                  12
                  12
                  11
                  11
                  11
                  11
                  11
                  11
                  11
                  11
                  11
                  11
                  11
                  11
                  12
                  12
                  12
                  12
                  12
                  12
                  12
                  12
                  12
                  12
                  11
                  11
                  11
                  11
                  11
                  11
                  11
                  11
                  11
                  11
                  11
                  11
                  11
                  11
                  11
                  12
                  11
                  11
                  11
                  11
                  12
                  12
                  11
                  12
                  12
                  12
                  12
                  12
                  12
                  11
                  11
                  11
                  11
                  11
                  11
                  11
                  11
                  11
                  11
                  11
                  12
                  12
                  12
                  11
                  11
                  11
                  11
                  11
                  11
                  12
                  12
                  12
                  12
                  12
                  12
                  12
                  11
                  11
                  11
                  11
                  11
                  11
                  11
                  11
                  11
                  11
                  11
                  11
                  12
                  12
                  12
                  12
                  12
                  12
                  12
                  12
                  12
                  12
                  11
                  11
                  11
                  11
                  11
                  11
                  11
                  11
                  11
                  11
                  11
                  11
                  11
                  11
                  11
                  12
                  11
                  11
                  11
                  11
                  12
                  12
                  11
                  12
                  12
                  12
                  12
                  12
                  12
                  11
                  11
                  11
                  11
                  11
                  11
                  11
                  11
                  11
                  11
                  11
                  12
                  12
                  12
                  11
                  11
                  11
                  11
                  11
                  11
                  12
                  12
                  12
                  12
                  12
                  12
                  12
                  11
                  11
                  11
                  11
                  11
                  11
                  11
                  11
                  11
                  11
                  11
                  11
                  12
                  12
                  12
                  12
                  12
                  12
                  12
                  12
                  12
                  12
                  11
                  11
                  11
                  11
                  11
                  11
                  11
                  11
                  11
                  11
                  11
                  11
                  11
                  11
                  11
                  12
                  11
                  11
                  11
                  11
                  12
                  12
                  11
                  12
                  12
                  12
                  12
                  12
                  12
                  11
                  11
                  11
                  11
                  11
                  11
                  11
                  11
                  11
                  11
                  11
                  12
                  12
                  12
                  11
                  11
                  11
                  11
                  11
                  11
                  12
                  12
                  12
                  12
                  12
                  12
                  12
                  11
                  11
                  11
                  11
                  11
                  11
                  11
                  11
                  11
                  11
                  11
                  11
                  12
                  12
                  12
                  12
                  12
                  12
                  12
                  12
                  12
                  12
                  11
                  11
                  11
                  11
                  11
                  11
                  11
                  11
                  11
                  11
                  11
                  11
                  11
                  11
                  11
                  12
                  11
                  11
                  11
                  11
                  12
                  12
                  11
                  12
                  12
                  12
                  12
                  12
                  12
                  11
                  11
                  11
                  11
                  11
                  11
                  11
                  11
                  11
                  11
                  11
                  12
                  12
                  12
                  11
                  11
                  11
                  11
                  11
                  11
                  12
                  12
                  12
                  12
                  12
                  12
                  12
                  11
                  11
                  11
                  11
                  11
                  11
                  11
                  11
                  11
                  11
                  11
                  11
                  12
                  12
                  12
                  12
                  12
                  12
                  12
                  12
                  12
                  12
                  11
                  11
                  11
                  11
                  11
                  11
                  11
                  11
                  11
                  11
                  11
                  11
                  11
                  11
                  11
                  12
                  11
                  11
                  11
                  11
                  12
                  12
                  11
                  12
                  12
                  12
                  12
                  12
                  12
                  11
                  11
                  11
                  11
                  11
                  11
                  11
                  11
                  11
                  11
                  11
                  12
                  12
                  12
                  11
                  11
                  11
                  11
                  11
                  11
                  12
                  12
                  12
                  12
                  12
                  12
                  12
                  11
                  11
                  11
                  11
                  11
                  11
                  11
                  11
                  11
                  11
                  11
                  11
                  12
                  12
                  12
                  12
                  12
                  12
                  12
                  12
                  12
                  12
                  11
                  11
                  11
                  11
                  11
                  11
                  11
                  11
                  11
                  11
                  11
                  11
                  11
                  11
                  11
                  12
                  11
                  11
                  11
                  11
                  12
                  12
                  11
                  12
                  12
                  12
                  12
                  12
                  12
                  11
                  11
                  11
                  11
                  11
                  11
                  11
                  11
                  11
                  11
                  11
                  12
                  12
                  12
                  11
                  11
                  11
                  11
                  11
                  11
                  12
                  12
                  12
                  12
                  12
                  12
                  12
                  11
                  11
                  11
                  11
                  11
                  11
                  11
                  11
                  11
                  11
                  11
                  11
                  12
                  12
                  12
                  12
                  12
                  12
                  12
                  12
                  12
                  12
                  11
                  11
                  11
                  11
                  11
                  11
                  11
                  11
                  11
                  11
                  11
                  11
                  11
                  11
                  11
                  12
                  11
                  11
                  11
                  11
                  12
                  12
                  11
                  12
                  12
                  12
                  12
                  12
                  12
                  11
                  11
                  11
                  11
                  11
                  11
                  11
                  11
                  11
                  11
                  11
                  12
                  12
                  12
                  11
                  11
                  11
                  11
                  11
                  11
                  12
                  12
                  12
                  12
                  12
                  12
                  12
                  11
                  11
                  11
                  11
                  11
                  11
                  11
                  11
                  11
                  11
                  11
                  11
                  12
                  12
                  12
                  12
                  12
                  12
                  12
                  12
                  12
                  12
                  11
                  11
                  11
                  11
                  11
                  11
                  11
                  11
                  11
                  11
                  11
                  11
                  11
                  11
                  11
                  12
                  11
                  11
                  11
                  11
                  12
                  12
                  11
                  12
                  12
                  12
                  12
                  12
                  12
                  11
                  11
                  11
                  11
                  11
                  11
                  11
                  11
                  11
                  11
                  11
                  12
                  12
                  12
                  11
                  11
                  11
                  11
                  11
                  11
                  12
                  12
                  12
                  12
                  12
                  12
                  12
                  11
                  11
                  11
                  11
                  11
                  11
                  11
                  11
                  11
                  11
                  11
                  11
                  12
                  12
                  12
                  12
                  12
                  12
                  12
                  12
                  12
                  12
                  11
                  11
                  11
                  11
                  11
                  11
                  11
                  11
                  11
                  11
                  11
                  11
                  11
                  11
                  11
                  12
                  11
                  11
                  11
                  11
                  12
                  12
                  11
                  12
                  12
                  12
                  12
                  12
                  12
                  11
                  11
                  11
                  11
                  11
                  11
                  11
                  11
                  11
                  11
                  11
                  12
                  12
                  12
                  11
                  11
                  11
                  11
                  11
                  11
                  12
                  12
                  12
                  12
                  12
                  12
                  12
                  11
                  11
                  11
                  11
                  11
                  11
                  11
                  11
                  11
                  11
                  11
                  11
                  12
                  12
                  12
                  12
                  12
                  12
                  12
                  12
                  12
                  12
                  11
                  11
                  11
                  11
                  11
                  11
                  11
                  11
                  11
                  11
                  11
                  11
                  11
                  11
                  11
                  12
                  11
                  11
                  11
                  11
                  12
                  12
                  11
                  12
                  12
                  12
                  12
                  12
                  12
                  11
                  11
                  11
                  11
                  11
                  11
                  11
                  11
                  11
                  11
                  11
                  12
                  12
                  12
                  11
                  11
                  11
                  11
                  11
                  11
                  12
                  12
                  12
                  12
                  12
                  12
                  12
                  11
                  11
                  11
                  11
                  11
                  11
                  11
                  11
                  11
                  11
                  11
                  11
                  12
                  12
                  12
                  12
                  12
                  12
                  12
                  12
                  12
                  12
                  11
                  11
                  11
                  11
                  11
                  11
                  11
                  11
                  11
                  11
                  11
                  11
                  11
                  11
                  11
                  12
                  11
                  11
                  11
                  11
                  12
                  12
                  11
                  12
                  12
                  12
                  12
                  12
                  12
                  11
                  11
                  11
                  11
                  11
                  11
                  11
                  11
                  11
                  11
                  11
                  12
                  12
                  12
                  11
                  11
                  11
                  11
                  11
                  11
                  12
                  12
                  12
                  12
                  12
                  12
                  12
                  11
                  11
                  11
                  11
                  11
                  11
                  11
                  11
                  11
                  11
                  11
                  11
                  12
                  12
                  12
                  12
                  12
                  12
                  12
                  12
                  12
                  12
                  11
                  11
                  11
                  11
                  11
                  11
                  11
                  11
                  11
                  11
                  11
                  11
                  11
                  11
                  11
                  12
                  11
                  11
                  11
                  11
                  12
                  12
                  11
                  12
                  12
                  12
                  12
                  12
                  12
                  11
                  11
                  11
                  11
                  11
                  11
                  11
                  11
                  11
                  11
                  11
                  12
                  12
                  12
                  11
                  11
                  11
                  11
                  11
                  11
                  12
                  12
                  12
                  12
                  12
                  12
                  12
                  11
                  11
                  11
                  11
                  11
                  11
                  11
                  11
                  11
                  11
                  11
                  11
                  12
                  12
                  12
                  12
                  12
                  12
                  12
                  12
                  12
                  12
                  11
                  11
                  11
                  11
                  11
                  11
                  11
                  11
                  11
                  11
                  11
                  11
                  11
                  11
                  11
                  12
                  11
                  11
                  11
                  11
                  12
                  12
                  11
                  12
                  12
                  12
                  12
                  12
                  12
                  11
                  11
                  11
                  11
                  11
                  11
                  11
                  11
                  11
                  11
                  11
                  12
                  12
                  12
                  11
                  11
                  11
                  11
                  11
                  11
                  12
                  12
                  12
                  12
                  12
                  12
                  12
                  11
                  11
                  11
                  11
                  11
                  11
                  11
                  11
                  11
                  11
                  11
                  11
                  12
                  12
                  12
                  12
                  12
                  12
                  12
                  12
                  12
                  12
                  11
                  11
                  11
                  11
                  11
                  11
                  11
                  11
                  11
                  11
                  11
                  11
                  11
                  11
                  11
                  12
                  11
                  11
                  11
                  11
                  12
                  12
                  11
                  12
                  12
                  12
                  12
                  12
                  12
                  11
                  11
                  11
                  11
                  11
                  11
                  11
                  11
                  11
                  11
                  11
                  12
                  12
                  12
                  11
                  11
                  11
                  11
                  11
                  11
                  12
                  12
                  12
                  12
                  12
                  12
                  12
                  11
                  11
                  11
                  11
                  11
                  11
                  11
                  11
                  11
                  11
                  11
                  11
                  12
                  12
                  12
                  12
                  12
                  12
                  12
                  12
                  12
                  12
                  11
                  11
                  11
                  11
                  11
                  11
                  11
                  11
                  11
                  11
                  11
                  11
                  11
                  11
                  11
                  12
                  11
                  11
                  11
                  11
                  12
                  12
                  11
                  12
                  12
                  12
                  12
                  12
                  12
                  11
                  11
                  11
                  11
                  11
                  11
                  11
                  11
                  11
                  11
                  11
                  12
                  12
                  12
                  11
                  11
                  11
                  11
                  11
                  11
                  12
                  12
                  12
                  12
                  12
                  12
                  12
                  11
                  11
                  11
                  11
                  11
                  11
                  11
                  11
                  11
                  11
                  11
                  11
                  12
                  12
                  12
                  12
                  12
                  12
                  12
                  12
                  12
                  12
                  11
                  11
                  11
                  11
                  11
                  11
                  11
                  11
                  11
                  11
                  11
                  11
                  11
                  11
                  11
                  12
                  11
                  11
                  11
                  11
                  12
                  12
                  11
                  12
                  12
                  12
                  12
                  12
                  12
                  11
                  11
                  11
                  11
                  11
                  11
                  11
                  11
                  11
                  11
                  11
                  12
                  12
                  12
                  11
                  11
                  11
                  11
                  11
                  11
                  12
                  12
                  12
                  12
                  12
                  12
                  12
                  11
                  11
                  11
                  11
                  11
                  11
                  11
                  11
                  11
                  11
                  11
                  11
                  12
                  12
                  12
                  12
                  12
                  12
                  12
                  12
                  12
                  12
                  11
                  11
                  11
                  11
                  11
                  11
                  11
                  11
                  11
                  11
                  11
                  11
                  11
                  11
  
SCALARS                         Kspace  double 1
LOOKUP_TABLE default
                  11
                  11
                  11
                  11
                  11
                  11
                  11
                  11
                  11
                  11
                  11
                  11
                  11
                  11
                  11
                  11
                  11
                  11
                  11
                  11
                  11
                  11
                  11
                  11
                  11
                  11
                  11
                  11
                  11
                  11
                  11
                  11
                  11
                  11
                  11
                  11
                  11
                  11
                  11
                  11
                  11
                  11
                  11
                  11
                  11
                  11
                  11
                  11
                  11
                  11
                  11
                  11
                  11
                  11
                  11
                  11
                  11
                  11
                  11
                  11
                  11
                  11
                  11
                  11
                  11
                  11
                  11
                  11
                  11
                  11
                  11
                  11
                  11
                  11
                  11
                  11
                  11
                  11
                  11
                  11
                  11
                  11
                  11
                  11
                  11
                  11
                  11
                  11
                  11
                  11
                  11
                  11
                  11
                  11
                  11
                  11
                  11
                  11
                  11
                  11
                  11
                  11
                  11
                  11
                  11
                  11
                  11
                  11
                  11
                  11
                  11
                  11
                  11
                  11
                  11
                  11
                  11
                  11
                  11
                  11
                  11
                  11
                  11
                  11
                  11
                  11
                  11
                  11
                  11
                  11
                  11
                  11
                  11
                  11
                  11
                  11
                  11
                  11
                  11
                  11
                  11
                  11
                  11
                  11
                  11
                  11
                  11
                  11
                  11
                  11
                  11
                  11
                  11
                  11
                  11
                  11
                  11
                  11
                  11
                  11
                  11
                  11
                  11
                  11
                  11
                  11
                  11
                  11
                  11
                  11
                  11
                  11
                  11
                  11
                  11
                  11
                  11
                  11
                  11
                  11
                  11
                  11
                  11
                  11
                  11
                  11
                  11
                  11
                  11
                  11
                  11
                  11
                  11
                  11
                  11
                  11
                  11
                  11
                  11
                  11
                  11
                  11
                  11
                  11
                  11
                  11
                  11
                  11
                  11
                  11
                  11
                  11
                  11
                  11
                  11
                  11
                  11
                  11
                  11
                  11
                  11
                  11
                  11
                  11
                  11
                  11
                  11
                  11
                  11
                  11
                  11
                  11
                  11
                  11
                  11
                  11
                  11
                  11
                  11
                  11
                  11
                  11
                  11
                  11
                  11
                  11
                  11
                  11
                  11
                  11
                  11
                  11
                  11
                  11
                  11
                  11
                  11
                  11
                  11
                  11
                  11
                  11
                  11
                  11
                  11
                  11
                  11
                  11
                  11
                  11
                  11
                  11
                  11
                  11
                  11
                  11
                  11
                  11
                  11
                  11
                  11
                  11
                  11
                  11
                  11
                  11
                  11
                  11
                  11
                  11
                  11
                  11
                  11
                  11
                  11
                  11
                  11
                  11
                  11
                  11
                  11
                  11
                  11
                  11
                  11
                  11
                  11
                  11
                  11
                  11
                  11
                  11
                  12
                  12
                  12
                  12
                  12
                  12
                  12
                  12
                  12
                  12
                  12
                  12
                  12
                  12
                  12
                  12
                  12
                  12
                  12
                  12
                  12
                  12
                  12
                  12
                  12
                  12
                  12
                  12
                  12
                  12
                  12
                  12
                  12
                  12
                  12
                  12
                  12
                  12
                  12
                  12
                  12
                  12
                  12
                  12
                  12
                  12
                  12
                  12
                  12
                  12
                  12
                  12
                  12
                  12
                  12
                  12
                  12
                  12
                  12
                  12
                  12
                  12
                  12
                  12
                  12
                  12
                  12
                  12
                  12
                  12
                  12
                  12
                  12
                  12
                  12
                  12
                  12
                  12
                  12
                  12
                  12
                  12
                  12
                  12
                  12
                  12
                  12
                  12
                  12
                  12
                  12
                  12
                  12
                  12
                  12
                  12
                  12
                  12
                  12
                  12
                  12
                  12
                  12
                  12
                  12
                  12
                  12
                  12
                  12
                  12
                  12
                  12
                  12
                  12
                  12
                  12
                  12
                  12
                  12
                  12
                  12
                  12
                  12
                  12
                  12
                  12
                  12
                  12
                  12
                  12
                  12
                  12
                  12
                  12
                  12
                  12
                  12
                  12
                  12
                  12
                  12
                  12
                  12
                  12
                  12
                  12
                  12
                  12
                  12
                  12
                  12
                  12
                  12
                  12
                  12
                  12
                  12
                  12
                  12
                  12
                  12
                  12
                  12
                  12
                  12
                  12
                  12
                  12
                  12
                  12
                  12
                  12
                  12
                  12
                  12
                  12
                  12
                  12
                  12
                  12
                  12
                  12
                  12
                  12
                  12
                  12
                  12
                  12
                  12
                  12
                  12
                  12
                  12
                  12
                  12
                  12
                  12
                  12
                  12
                  12
                  12
                  12
                  12
                  12
                  12
                  12
                  12
                  12
                  12
                  12
                  12
                  12
                  12
                  12
                  12
                  12
                  12
                  12
                  12
                  12
                  12
                  12
                  12
                  12
                  12
                  12
                  12
                  12
                  12
                  12
                  12
                  12
                  12
                  12
                  13
                  13
                  13
                  13
                  13
                  13
                  13
                  13
                  13
                  13
                  13
                  13
                  13
                  13
                  13
                  13
                  13
                  13
                  13
                  13
                  13
                  13
                  13
                  13
                  13
                  13
                  13
                  13
                  13
                  13
                  13
                  13
                  13
                  13
                  13
                  13
                  13
                  13
                  13
                  13
                  13
                  13
                  13
                  13
                  13
                  13
                  13
                  13
                  13
                  13
                  13
                  13
                  13
                  13
                  13
                  13
                  13
                  13
                  13
                  13
                  13
                  13
                  13
                  13
                  13
                  13
                  13
                  13
                  13
                  13
                  13
                  13
                  13
                  13
                  13
                  13
                  13
                  13
                  13
                  13
                  13
                  13
                  13
                  13
                  13
                  13
                  13
                  13
                  13
                  13
                  13
                  13
                  13
                  13
                  13
                  13
                  13
                  13
                  13
                  13
                  13
                  13
                  13
                  13
                  13
                  13
                  13
                  13
                  13
                  13
                  13
                  13
                  13
                  13
                  13
                  13
                  13
                  13
                  13
                  13
                  13
                  13
                  13
                  13
                  13
                  13
                  13
                  13
                  13
                  13
                  13
                  13
                  13
                  13
                  13
                  13
                  13
                  13
                  13
                  13
                  13
                  13
                  13
                  13
                  13
                  13
                  13
                  13
                  13
                  13
                  13
                  13
                  13
                  13
                  13
                  13
                  13
                  13
                  13
                  13
                  13
                  13
                  13
                  13
                  13
                  13
                  13
                  13
                  13
                  13
                  13
                  13
                  13
                  13
                  13
                  13
                  13
                  13
                  13
                  13
                  13
                  13
                  13
                  13
                  13
                  13
                  13
                  13
                  13
                  13
                  13
                  13
                  13
                  13
                  13
                  13
                  13
                  13
                  13
                  13
                  13
                  13
                  13
                  13
                  13
                  13
                  13
                  13
                  13
                  13
                  13
                  13
                  13
                  13
                  13
                  13
                  13
                  13
                  13
                  13
                  13
                  13
                  13
                  13
                  13
                  13
                  13
                  13
                  13
                  13
                  13
                  13
                  13
                  13
                  14
                  14
                  14
                  14
                  14
                  14
                  14
                  14
                  14
                  14
                  14
                  14
                  14
                  14
                  14
                  14
                  14
                  14
                  14
                  14
                  14
                  14
                  14
                  14
                  14
                  14
                  14
                  14
                  14
                  14
                  14
                  14
                  14
                  14
                  14
                  14
                  14
                  14
                  14
                  14
                  14
                  14
                  14
                  14
                  14
                  14
                  14
                  14
                  14
                  14
                  14
                  14
                  14
                  14
                  14
                  14
                  14
                  14
                  14
                  14
                  14
                  14
                  14
                  14
                  14
                  14
                  14
                  14
                  14
                  14
                  14
                  14
                  14
                  14
                  14
                  14
                  14
                  14
                  14
                  14
                  14
                  14
                  14
                  14
                  14
                  14
                  14
                  14
                  14
                  14
                  14
                  14
                  14
                  14
                  14
                  14
                  14
                  14
                  14
                  14
                  14
                  14
                  14
                  14
                  14
                  14
                  14
                  14
                  14
                  14
                  14
                  14
                  14
                  14
                  14
                  14
                  14
                  14
                  14
                  14
                  14
                  14
                  14
                  14
                  14
                  14
                  14
                  14
                  14
                  14
                  14
                  14
                  14
                  14
                  14
                  14
                  14
                  14
                  14
                  14
                  14
                  14
                  14
                  14
                  14
                  14
                  14
                  14
                  14
                  14
                  14
                  14
                  14
                  14
                  14
                  14
                  14
                  14
                  14
                  14
                  14
                  14
                  14
                  14
                  14
                  14
                  14
                  14
                  14
                  14
                  14
                  14
                  14
                  14
                  14
                  14
                  14
                  14
                  14
                  14
                  14
                  14
                  14
                  14
                  14
                  14
                  14
                  14
                  14
                  14
                  14
                  14
                  14
                  14
                  14
                  14
                  14
                  14
                  14
                  14
                  14
                  14
                  14
                  14
                  14
                  14
                  14
                  14
                  14
                  14
                  14
                  14
                  14
                  14
                  14
                  14
                  14
                  14
                  14
                  14
                  14
                  14
                  14
                  14
                  14
                  14
                  14
                  14
                  14
                  14
                  14
                  14
                  14
                  14
                  15
                  15
                  15
                  15
                  15
                  15
                  15
                  15
                  15
                  15
                  15
                  15
                  15
                  15
                  15
                  15
                  15
                  15
                  15
                  15
                  15
                  15
                  15
                  15
                  15
                  15
                  15
                  15
                  15
                  15
                  15
                  15
                  15
                  15
                  15
                  15
                  15
                  15
                  15
                  15
                  15
                  15
                  15
                  15
                  15
                  15
                  15
                  15
                  15
                  15
                  15
                  15
                  15
                  15
                  15
                  15
                  15
                  15
                  15
                  15
                  15
                  15
                  15
                  15
                  15
                  15
                  15
                  15
                  15
                  15
                  15
                  15
                  15
                  15
                  15
                  15
                  15
                  15
                  15
                  15
                  15
                  15
                  15
                  15
                  15
                  15
                  15
                  15
                  15
                  15
                  15
                  15
                  15
                  15
                  15
                  15
                  15
                  15
                  15
                  15
                  15
                  15
                  15
                  15
                  15
                  15
                  15
                  15
                  15
                  15
                  15
                  15
                  15
                  15
                  15
                  15
                  15
                  15
                  15
                  15
                  15
                  15
                  15
                  15
                  15
                  15
                  15
                  15
                  15
                  15
                  15
                  15
                  15
                  15
                  15
                  15
                  15
                  15
                  15
                  15
                  15
                  15
                  15
                  15
                  15
                  15
                  15
                  15
                  15
                  15
                  15
                  15
                  15
                  15
                  15
                  15
                  15
                  15
                  15
                  15
                  15
                  15
                  15
                  15
                  15
                  15
                  15
                  15
                  15
                  15
                  15
                  15
                  15
                  15
                  15
                  15
                  15
                  15
                  15
                  15
                  15
                  15
                  15
                  15
                  15
                  15
                  15
                  15
                  15
                  15
                  15
                  15
                  15
                  15
                  15
                  15
                  15
                  15
                  15
                  15
                  15
                  15
                  15
                  15
                  15
                  15
                  15
                  15
                  15
                  15
                  15
                  15
                  15
                  15
                  15
                  15
                  15
                  15
                  15
                  15
                  15
                  15
                  15
                  15
                  15
                  15
                  15
                  15
                  15
                  15
                  15
                  15
                  15
                  15
                  15
                  15
                  15
                  15
                  15
                  15
                  15
                  15
                  15
                  15
                  15
                  15
                  15
                  15
                  15
                  15
                  15
                  15
                  15
                  15
                  15
                  15
                  15
                  15
                  15
                  15
                  15
                  15
                  15
                  15
                  15
                  15
                  15
                  15
                  15
                  15
                  15
                  15
                  15
                  15
                  15
                  15
                  15
                  15
                  15
                  15
                  15
                  15
                  15
                  15
                  15
                  15
                  15
                  15
                  15
                  15
                  15
                  15
                  15
                  15
                  15
                  15
                  15
                  15
                  15
                  15
                  15
                  15
                  15
                  15
                  15
                  15
                  15
                  15
                  15
                  15
                  15
                  15
                  16
                  16
                  16
                  16
                  16
                  16
                  16
                  16
                  16
                  16
                  16
                  16
                  16
                  16
                  16
                  16
                  16
                  16
                  16
                  16
                  16
                  16
                  16
                  16
                  16
                  16
                  16
                  16
                  16
                  16
                  16
                  16
                  16
                  16
                  16
                  16
                  16
                  16
                  16
                  16
                  16
                  16
                  16
                  16
                  16
                  16
                  16
                  16
                  16
                  16
                  16
                  16
                  16
                  16
                  16
                  16
                  16
                  16
                  16
                  16
                  16
                  16
                  16
                  16
                  16
                  16
                  16
                  16
                  16
                  16
                  16
                  16
                  16
                  16
                  16
                  16
                  16
                  16
                  16
                  16
                  16
                  16
                  16
                  16
                  16
                  16
                  16
                  16
                  16
                  16
                  16
                  16
                  16
                  16
                  16
                  16
                  16
                  16
                  16
                  16
                  16
                  16
                  16
                  16
                  16
                  16
                  16
                  16
                  16
                  16
                  16
                  16
                  16
                  16
                  16
                  16
                  16
                  16
                  16
                  16
                  16
                  16
                  16
                  16
                  16
                  16
                  16
                  16
                  16
                  16
                  16
                  16
                  16
                  16
                  16
                  16
                  16
                  16
                  16
                  16
                  16
                  16
                  16
                  16
                  16
                  16
                  16
                  16
                  16
                  16
                  16
                  16
                  16
                  16
                  16
                  16
                  16
                  16
                  16
                  16
                  16
                  16
                  16
                  16
                  16
                  16
                  16
                  16
                  16
                  16
                  16
                  16
                  16
                  16
                  16
                  16
                  16
                  16
                  16
                  16
                  16
                  16
                  16
                  16
                  16
                  16
                  16
                  16
                  16
                  16
                  16
                  16
                  16
                  16
                  16
                  16
                  16
                  16
                  16
                  16
                  16
                  16
                  16
                  16
                  16
                  16
                  16
                  16
                  16
                  16
                  16
                  16
                  16
                  16
                  16
                  16
                  16
                  16
                  16
                  16
                  16
                  16
                  16
                  16
                  16
                  16
                  16
                  16
                  16
                  16
                  16
                  16
                  16
                  16
                  17
                  17
                  17
                  17
                  17
                  17
                  17
                  17
                  17
                  17
                  17
                  17
                  17
                  17
                  17
                  17
                  17
                  17
                  17
                  17
                  17
                  17
                  17
                  17
                  17
                  17
                  17
                  17
                  17
                  17
                  17
                  17
                  17
                  17
                  17
                  17
                  17
                  17
                  17
                  17
                  17
                  17
                  17
                  17
                  17
                  17
                  17
                  17
                  17
                  17
                  17
                  17
                  17
                  17
                  17
                  17
                  17
                  17
                  17
                  17
                  17
                  17
                  17
                  17
                  17
                  17
                  17
                  17
                  17
                  17
                  17
                  17
                  17
                  17
                  17
                  17
                  17
                  17
                  17
                  17
                  17
                  17
                  17
                  17
                  17
                  17
                  17
                  17
                  17
                  17
                  17
                  17
                  17
                  17
                  17
                  17
                  17
                  17
                  17
                  17
                  17
                  17
                  17
                  17
                  17
                  17
                  17
                  17
                  17
                  17
                  17
                  17
                  17
                  17
                  17
                  17
                  17
                  17
                  17
                  17
                  17
                  17
                  17
                  17
                  17
                  17
                  17
                  17
                  17
                  17
                  17
                  17
                  17
                  17
                  17
                  17
                  17
                  17
                  17
                  17
                  17
                  17
                  17
                  17
                  17
                  17
                  17
                  17
                  17
                  17
                  17
                  17
                  17
                  17
                  17
                  17
                  17
                  17
                  17
                  17
                  17
                  17
                  17
                  17
                  17
                  17
                  17
                  17
                  17
                  17
                  17
                  17
                  17
                  17
                  17
                  17
                  17
                  17
                  17
                  17
                  17
                  17
                  17
                  17
                  17
                  17
                  17
                  17
                  17
                  17
                  17
                  17
                  17
                  17
                  17
                  17
                  17
                  17
                  17
                  17
                  17
                  17
                  17
                  17
                  17
                  17
                  17
                  17
                  17
                  17
                  17
                  17
                  17
                  17
                  17
                  17
                  17
                  17
                  17
                  17
                  17
                  17
                  17
                  17
                  17
                  17
                  17
                  17
                  17
                  17
                  17
                  17
                  17
                  17
                  18
                  18
                  18
                  18
                  18
                  18
                  18
                  18
                  18
                  18
                  18
                  18
                  18
                  18
                  18
                  18
                  18
                  18
                  18
                  18
                  18
                  18
                  18
                  18
                  18
                  18
                  18
                  18
                  18
                  18
                  18
                  18
                  18
                  18
                  18
                  18
                  18
                  18
                  18
                  18
                  18
                  18
                  18
                  18
                  18
                  18
                  18
                  18
                  18
                  18
                  18
                  18
                  18
                  18
                  18
                  18
                  18
                  18
                  18
                  18
                  18
                  18
                  18
                  18
                  18
                  18
                  18
                  18
                  18
                  18
                  18
                  18
                  18
                  18
                  18
                  18
                  18
                  18
                  18
                  18
                  18
                  18
                  18
                  18
                  18
                  18
                  18
                  18
                  18
                  18
                  18
                  18
                  18
                  18
                  18
                  18
                  18
                  18
                  18
                  18
                  18
                  18
                  18
                  18
                  18
                  18
                  18
                  18
                  18
                  18
                  18
                  18
                  18
                  18
                  18
                  18
                  18
                  18
                  18
                  18
                  18
                  18
                  18
                  18
                  18
                  18
                  18
                  18
                  18
                  18
                  18
                  18
                  18
                  18
                  18
                  18
                  18
                  18
                  18
                  18
                  18
                  18
                  18
                  18
                  18
                  18
                  18
                  18
                  18
                  18
                  18
                  18
                  18
                  18
                  18
                  18
  
SCALARS                 displacement_x  double 1
LOOKUP_TABLE default
         0.00000E+00
         0.00000E+00
         0.00000E+00
         0.00000E+00
         0.00000E+00
         0.00000E+00
         0.00000E+00
         0.00000E+00
         0.00000E+00
         0.00000E+00
         0.00000E+00
         0.00000E+00
         0.00000E+00
         0.00000E+00
         0.00000E+00
         0.00000E+00
         0.00000E+00
         0.00000E+00
         0.00000E+00
         0.00000E+00
         0.00000E+00
         0.00000E+00
         0.00000E+00
         0.00000E+00
         0.00000E+00
         0.00000E+00
         0.00000E+00
         0.00000E+00
         0.00000E+00
         0.00000E+00
         0.00000E+00
         0.00000E+00
         0.00000E+00
         0.00000E+00
         0.00000E+00
         0.00000E+00
         0.00000E+00
         0.00000E+00
         0.00000E+00
         0.00000E+00
         0.00000E+00
         0.00000E+00
         0.00000E+00
         0.00000E+00
         0.00000E+00
         0.00000E+00
         0.00000E+00
         0.00000E+00
         0.00000E+00
         0.00000E+00
         0.00000E+00
         0.00000E+00
         0.00000E+00
         0.00000E+00
         0.00000E+00
         0.00000E+00
         0.00000E+00
         0.00000E+00
         0.00000E+00
         0.00000E+00
         0.00000E+00
         0.00000E+00
         0.00000E+00
         0.00000E+00
         0.00000E+00
         0.00000E+00
         0.00000E+00
         0.00000E+00
         0.00000E+00
         0.00000E+00
         0.00000E+00
         0.00000E+00
         0.00000E+00
         0.00000E+00
         0.00000E+00
         0.00000E+00
         0.00000E+00
         0.00000E+00
         0.00000E+00
         0.00000E+00
         0.00000E+00
         0.00000E+00
         0.00000E+00
         0.00000E+00
         0.00000E+00
         0.00000E+00
         0.00000E+00
         0.00000E+00
         0.00000E+00
         0.00000E+00
         0.00000E+00
         0.00000E+00
         0.00000E+00
         0.00000E+00
         0.00000E+00
         0.00000E+00
         0.00000E+00
         0.00000E+00
         0.00000E+00
         0.00000E+00
         0.00000E+00
         0.00000E+00
         0.00000E+00
         0.00000E+00
         0.00000E+00
         0.00000E+00
         0.00000E+00
         0.00000E+00
         0.00000E+00
         0.00000E+00
         0.00000E+00
         0.00000E+00
         0.00000E+00
         0.00000E+00
         0.00000E+00
         0.00000E+00
         0.00000E+00
         0.00000E+00
         0.00000E+00
         0.00000E+00
         0.00000E+00
         0.00000E+00
         0.00000E+00
         0.00000E+00
         0.00000E+00
         0.00000E+00
         0.00000E+00
         0.00000E+00
         0.00000E+00
         0.00000E+00
         0.00000E+00
         0.00000E+00
         0.00000E+00
         0.00000E+00
         0.00000E+00
         0.00000E+00
         0.00000E+00
         0.00000E+00
         0.00000E+00
         0.00000E+00
         0.00000E+00
         0.00000E+00
         0.00000E+00
         0.00000E+00
         0.00000E+00
         0.00000E+00
         0.00000E+00
         0.00000E+00
         0.00000E+00
         0.00000E+00
         0.00000E+00
         0.00000E+00
         0.00000E+00
         0.00000E+00
         0.00000E+00
         0.00000E+00
         0.00000E+00
         0.00000E+00
         0.00000E+00
         0.00000E+00
         0.00000E+00
         0.00000E+00
         0.00000E+00
         0.00000E+00
         0.00000E+00
         0.00000E+00
         0.00000E+00
         0.00000E+00
         0.00000E+00
         0.00000E+00
         0.00000E+00
         0.00000E+00
         0.00000E+00
         0.00000E+00
         0.00000E+00
         0.00000E+00
         0.00000E+00
         0.00000E+00
         0.00000E+00
         0.00000E+00
         0.00000E+00
         0.00000E+00
         0.00000E+00
         0.00000E+00
         0.00000E+00
         0.00000E+00
         0.00000E+00
         0.00000E+00
         0.00000E+00
         0.00000E+00
         0.00000E+00
         0.00000E+00
         0.00000E+00
         0.00000E+00
         0.00000E+00
         0.00000E+00
         0.00000E+00
         0.00000E+00
         0.00000E+00
         0.00000E+00
         0.00000E+00
         0.00000E+00
         0.00000E+00
         0.00000E+00
         0.00000E+00
         0.00000E+00
         0.00000E+00
         0.00000E+00
         0.00000E+00
         0.00000E+00
         0.00000E+00
         0.00000E+00
         0.00000E+00
         0.00000E+00
         0.00000E+00
         0.00000E+00
         0.00000E+00
         0.00000E+00
         0.00000E+00
         0.00000E+00
         0.00000E+00
         0.00000E+00
         0.00000E+00
         0.00000E+00
         0.00000E+00
         0.00000E+00
         0.00000E+00
         0.00000E+00
         0.00000E+00
         0.00000E+00
         0.00000E+00
         0.00000E+00
         0.00000E+00
         0.00000E+00
         0.00000E+00
         0.00000E+00
         0.00000E+00
         0.00000E+00
         0.00000E+00
         0.00000E+00
         0.00000E+00
         0.00000E+00
         0.00000E+00
         0.00000E+00
         0.00000E+00
         0.00000E+00
         0.00000E+00
         0.00000E+00
         0.00000E+00
         0.00000E+00
         0.00000E+00
         0.00000E+00
         0.00000E+00
         0.00000E+00
         0.00000E+00
         0.00000E+00
         0.00000E+00
         0.00000E+00
         0.00000E+00
         0.00000E+00
         0.00000E+00
         0.00000E+00
         0.00000E+00
         0.00000E+00
         0.00000E+00
         0.00000E+00
         0.00000E+00
         0.00000E+00
         0.00000E+00
         0.00000E+00
         0.00000E+00
         0.00000E+00
         0.00000E+00
         0.00000E+00
         0.00000E+00
         0.00000E+00
         0.00000E+00
         0.00000E+00
         0.00000E+00
         0.00000E+00
         0.00000E+00
         0.00000E+00
         0.00000E+00
         0.00000E+00
         0.00000E+00
         0.00000E+00
         0.00000E+00
         0.00000E+00
         0.00000E+00
         0.00000E+00
         0.00000E+00
         0.00000E+00
         0.00000E+00
         0.00000E+00
         0.00000E+00
         0.00000E+00
         0.00000E+00
         0.00000E+00
         0.00000E+00
         0.00000E+00
         0.00000E+00
         0.00000E+00
         0.00000E+00
         0.00000E+00
         0.00000E+00
         0.00000E+00
         0.00000E+00
         0.00000E+00
         0.00000E+00
         0.00000E+00
         0.00000E+00
         0.00000E+00
         0.00000E+00
         0.00000E+00
         0.00000E+00
         0.00000E+00
         0.00000E+00
         0.00000E+00
         0.00000E+00
         0.00000E+00
         0.00000E+00
         0.00000E+00
         0.00000E+00
         0.00000E+00
         0.00000E+00
         0.00000E+00
         0.00000E+00
         0.00000E+00
         0.00000E+00
         0.00000E+00
         0.00000E+00
         0.00000E+00
         0.00000E+00
         0.00000E+00
         0.00000E+00
         0.00000E+00
         0.00000E+00
         0.00000E+00
         0.00000E+00
         0.00000E+00
         0.00000E+00
         0.00000E+00
         0.00000E+00
         0.00000E+00
         0.00000E+00
         0.00000E+00
         0.00000E+00
         0.00000E+00
         0.00000E+00
         0.00000E+00
         0.00000E+00
         0.00000E+00
         0.00000E+00
         0.00000E+00
         0.00000E+00
         0.00000E+00
         0.00000E+00
         0.00000E+00
         0.00000E+00
         0.00000E+00
         0.00000E+00
         0.00000E+00
         0.00000E+00
         0.00000E+00
         0.00000E+00
         0.00000E+00
         0.00000E+00
         0.00000E+00
         0.00000E+00
         0.00000E+00
         0.00000E+00
         0.00000E+00
         0.00000E+00
         0.00000E+00
         0.00000E+00
         0.00000E+00
         0.00000E+00
         0.00000E+00
         0.00000E+00
         0.00000E+00
         0.00000E+00
         0.00000E+00
         0.00000E+00
         0.00000E+00
         0.00000E+00
         0.00000E+00
         0.00000E+00
         0.00000E+00
         0.00000E+00
         0.00000E+00
         0.00000E+00
         0.00000E+00
         0.00000E+00
         0.00000E+00
         0.00000E+00
         0.00000E+00
         0.00000E+00
         0.00000E+00
         0.00000E+00
         0.00000E+00
         0.00000E+00
         0.00000E+00
         0.00000E+00
         0.00000E+00
         0.00000E+00
         0.00000E+00
         0.00000E+00
         0.00000E+00
         0.00000E+00
         0.00000E+00
         0.00000E+00
         0.00000E+00
         0.00000E+00
         0.00000E+00
         0.00000E+00
         0.00000E+00
         0.00000E+00
         0.00000E+00
         0.00000E+00
         0.00000E+00
         0.00000E+00
         0.00000E+00
         0.00000E+00
         0.00000E+00
         0.00000E+00
         0.00000E+00
         0.00000E+00
         0.00000E+00
         0.00000E+00
         0.00000E+00
         0.00000E+00
         0.00000E+00
         0.00000E+00
         0.00000E+00
         0.00000E+00
         0.00000E+00
         0.00000E+00
         0.00000E+00
         0.00000E+00
         0.00000E+00
         0.00000E+00
         0.00000E+00
         0.00000E+00
         0.00000E+00
         0.00000E+00
         0.00000E+00
         0.00000E+00
         0.00000E+00
         0.00000E+00
         0.00000E+00
         0.00000E+00
         0.00000E+00
         0.00000E+00
         0.00000E+00
         0.00000E+00
         0.00000E+00
         0.00000E+00
         0.00000E+00
         0.00000E+00
         0.00000E+00
         0.00000E+00
         0.00000E+00
         0.00000E+00
         0.00000E+00
         0.00000E+00
         0.00000E+00
         0.00000E+00
         0.00000E+00
         0.00000E+00
         0.00000E+00
         0.00000E+00
         0.00000E+00
         0.00000E+00
         0.00000E+00
         0.00000E+00
         0.00000E+00
         0.00000E+00
         0.00000E+00
         0.00000E+00
         0.00000E+00
         0.00000E+00
         0.00000E+00
         0.00000E+00
         0.00000E+00
         0.00000E+00
         0.00000E+00
         0.00000E+00
         0.00000E+00
         0.00000E+00
         0.00000E+00
         0.00000E+00
         0.00000E+00
         0.00000E+00
         0.00000E+00
         0.00000E+00
         0.00000E+00
         0.00000E+00
         0.00000E+00
         0.00000E+00
         0.00000E+00
         0.00000E+00
         0.00000E+00
         0.00000E+00
         0.00000E+00
         0.00000E+00
         0.00000E+00
         0.00000E+00
         0.00000E+00
         0.00000E+00
         0.00000E+00
         0.00000E+00
         0.00000E+00
         0.00000E+00
         0.00000E+00
         0.00000E+00
         0.00000E+00
         0.00000E+00
         0.00000E+00
         0.00000E+00
         0.00000E+00
         0.00000E+00
         0.00000E+00
         0.00000E+00
         0.00000E+00
         0.00000E+00
         0.00000E+00
         0.00000E+00
         0.00000E+00
         0.00000E+00
         0.00000E+00
         0.00000E+00
         0.00000E+00
         0.00000E+00
         0.00000E+00
         0.00000E+00
         0.00000E+00
         0.00000E+00
         0.00000E+00
         0.00000E+00
         0.00000E+00
         0.00000E+00
         0.00000E+00
         0.00000E+00
         0.00000E+00
         0.00000E+00
         0.00000E+00
         0.00000E+00
         0.00000E+00
         0.00000E+00
         0.00000E+00
         0.00000E+00
         0.00000E+00
         0.00000E+00
         0.00000E+00
         0.00000E+00
         0.00000E+00
         0.00000E+00
         0.00000E+00
         0.00000E+00
         0.00000E+00
         0.00000E+00
         0.00000E+00
         0.00000E+00
         0.00000E+00
         0.00000E+00
         0.00000E+00
         0.00000E+00
         0.00000E+00
         0.00000E+00
         0.00000E+00
         0.00000E+00
         0.00000E+00
         0.00000E+00
         0.00000E+00
         0.00000E+00
         0.00000E+00
         0.00000E+00
         0.00000E+00
         0.00000E+00
         0.00000E+00
         0.00000E+00
         0.00000E+00
         0.00000E+00
         0.00000E+00
         0.00000E+00
         0.00000E+00
         0.00000E+00
         0.00000E+00
         0.00000E+00
         0.00000E+00
         0.00000E+00
         0.00000E+00
         0.00000E+00
         0.00000E+00
         0.00000E+00
         0.00000E+00
         0.00000E+00
         0.00000E+00
         0.00000E+00
         0.00000E+00
         0.00000E+00
         0.00000E+00
         0.00000E+00
         0.00000E+00
         0.00000E+00
         0.00000E+00
         0.00000E+00
         0.00000E+00
         0.00000E+00
         0.00000E+00
         0.00000E+00
         0.00000E+00
         0.00000E+00
         0.00000E+00
         0.00000E+00
         0.00000E+00
         0.00000E+00
         0.00000E+00
         0.00000E+00
         0.00000E+00
         0.00000E+00
         0.00000E+00
         0.00000E+00
         0.00000E+00
         0.00000E+00
         0.00000E+00
         0.00000E+00
         0.00000E+00
         0.00000E+00
         0.00000E+00
         0.00000E+00
         0.00000E+00
         0.00000E+00
         0.00000E+00
         0.00000E+00
         0.00000E+00
         0.00000E+00
         0.00000E+00
         0.00000E+00
         0.00000E+00
         0.00000E+00
         0.00000E+00
         0.00000E+00
         0.00000E+00
         0.00000E+00
         0.00000E+00
         0.00000E+00
         0.00000E+00
         0.00000E+00
         0.00000E+00
         0.00000E+00
         0.00000E+00
         0.00000E+00
         0.00000E+00
         0.00000E+00
         0.00000E+00
         0.00000E+00
         0.00000E+00
         0.00000E+00
         0.00000E+00
         0.00000E+00
         0.00000E+00
         0.00000E+00
         0.00000E+00
         0.00000E+00
         0.00000E+00
         0.00000E+00
         0.00000E+00
         0.00000E+00
         0.00000E+00
         0.00000E+00
         0.00000E+00
         0.00000E+00
         0.00000E+00
         0.00000E+00
         0.00000E+00
         0.00000E+00
         0.00000E+00
         0.00000E+00
         0.00000E+00
         0.00000E+00
         0.00000E+00
         0.00000E+00
         0.00000E+00
         0.00000E+00
         0.00000E+00
         0.00000E+00
         0.00000E+00
         0.00000E+00
         0.00000E+00
         0.00000E+00
         0.00000E+00
         0.00000E+00
         0.00000E+00
         0.00000E+00
         0.00000E+00
         0.00000E+00
         0.00000E+00
         0.00000E+00
         0.00000E+00
         0.00000E+00
         0.00000E+00
         0.00000E+00
         0.00000E+00
         0.00000E+00
         0.00000E+00
         0.00000E+00
         0.00000E+00
         0.00000E+00
         0.00000E+00
         0.00000E+00
         0.00000E+00
         0.00000E+00
         0.00000E+00
         0.00000E+00
         0.00000E+00
         0.00000E+00
         0.00000E+00
         0.00000E+00
         0.00000E+00
         0.00000E+00
         0.00000E+00
         0.00000E+00
         0.00000E+00
         0.00000E+00
         0.00000E+00
         0.00000E+00
         0.00000E+00
         0.00000E+00
         0.00000E+00
         0.00000E+00
         0.00000E+00
         0.00000E+00
         0.00000E+00
         0.00000E+00
         0.00000E+00
         0.00000E+00
         0.00000E+00
         0.00000E+00
         0.00000E+00
         0.00000E+00
         0.00000E+00
         0.00000E+00
         0.00000E+00
         0.00000E+00
         0.00000E+00
         0.00000E+00
         0.00000E+00
         0.00000E+00
         0.00000E+00
         0.00000E+00
         0.00000E+00
         0.00000E+00
         0.00000E+00
         0.00000E+00
         0.00000E+00
         0.00000E+00
         0.00000E+00
         0.00000E+00
         0.00000E+00
         0.00000E+00
         0.00000E+00
         0.00000E+00
         0.00000E+00
         0.00000E+00
         0.00000E+00
         0.00000E+00
         0.00000E+00
         0.00000E+00
         0.00000E+00
         0.00000E+00
         0.00000E+00
         0.00000E+00
         0.00000E+00
         0.00000E+00
         0.00000E+00
         0.00000E+00
         0.00000E+00
         0.00000E+00
         0.00000E+00
         0.00000E+00
         0.00000E+00
         0.00000E+00
         0.00000E+00
         0.00000E+00
         0.00000E+00
         0.00000E+00
         0.00000E+00
         0.00000E+00
         0.00000E+00
         0.00000E+00
         0.00000E+00
         0.00000E+00
         0.00000E+00
         0.00000E+00
         0.00000E+00
         0.00000E+00
         0.00000E+00
         0.00000E+00
         0.00000E+00
         0.00000E+00
         0.00000E+00
         0.00000E+00
         0.00000E+00
         0.00000E+00
         0.00000E+00
         0.00000E+00
         0.00000E+00
         0.00000E+00
         0.00000E+00
         0.00000E+00
         0.00000E+00
         0.00000E+00
         0.00000E+00
         0.00000E+00
         0.00000E+00
         0.00000E+00
         0.00000E+00
         0.00000E+00
         0.00000E+00
         0.00000E+00
         0.00000E+00
         0.00000E+00
         0.00000E+00
         0.00000E+00
         0.00000E+00
         0.00000E+00
         0.00000E+00
         0.00000E+00
         0.00000E+00
         0.00000E+00
         0.00000E+00
         0.00000E+00
         0.00000E+00
         0.00000E+00
         0.00000E+00
         0.00000E+00
         0.00000E+00
         0.00000E+00
         0.00000E+00
         0.00000E+00
         0.00000E+00
         0.00000E+00
         0.00000E+00
         0.00000E+00
         0.00000E+00
         0.00000E+00
         0.00000E+00
         0.00000E+00
         0.00000E+00
         0.00000E+00
         0.00000E+00
         0.00000E+00
         0.00000E+00
         0.00000E+00
         0.00000E+00
         0.00000E+00
         0.00000E+00
         0.00000E+00
         0.00000E+00
         0.00000E+00
         0.00000E+00
         0.00000E+00
         0.00000E+00
         0.00000E+00
         0.00000E+00
         0.00000E+00
         0.00000E+00
         0.00000E+00
         0.00000E+00
         0.00000E+00
         0.00000E+00
         0.00000E+00
         0.00000E+00
         0.00000E+00
         0.00000E+00
         0.00000E+00
         0.00000E+00
         0.00000E+00
         0.00000E+00
         0.00000E+00
         0.00000E+00
         0.00000E+00
         0.00000E+00
         0.00000E+00
         0.00000E+00
         0.00000E+00
         0.00000E+00
         0.00000E+00
         0.00000E+00
         0.00000E+00
         0.00000E+00
         0.00000E+00
         0.00000E+00
         0.00000E+00
         0.00000E+00
         0.00000E+00
         0.00000E+00
         0.00000E+00
         0.00000E+00
         0.00000E+00
         0.00000E+00
         0.00000E+00
         0.00000E+00
         0.00000E+00
         0.00000E+00
         0.00000E+00
         0.00000E+00
         0.00000E+00
         0.00000E+00
         0.00000E+00
         0.00000E+00
         0.00000E+00
         0.00000E+00
         0.00000E+00
         0.00000E+00
         0.00000E+00
         0.00000E+00
         0.00000E+00
         0.00000E+00
         0.00000E+00
         0.00000E+00
         0.00000E+00
         0.00000E+00
         0.00000E+00
         0.00000E+00
         0.00000E+00
         0.00000E+00
         0.00000E+00
         0.00000E+00
         0.00000E+00
         0.00000E+00
         0.00000E+00
         0.00000E+00
         0.00000E+00
         0.00000E+00
         0.00000E+00
         0.00000E+00
         0.00000E+00
         0.00000E+00
         0.00000E+00
         0.00000E+00
         0.00000E+00
         0.00000E+00
         0.00000E+00
         0.00000E+00
         0.00000E+00
         0.00000E+00
         0.00000E+00
         0.00000E+00
         0.00000E+00
         0.00000E+00
         0.00000E+00
         0.00000E+00
         0.00000E+00
         0.00000E+00
         0.00000E+00
         0.00000E+00
         0.00000E+00
         0.00000E+00
         0.00000E+00
         0.00000E+00
         0.00000E+00
         0.00000E+00
         0.00000E+00
         0.00000E+00
         0.00000E+00
         0.00000E+00
         0.00000E+00
         0.00000E+00
         0.00000E+00
         0.00000E+00
         0.00000E+00
         0.00000E+00
         0.00000E+00
         0.00000E+00
         0.00000E+00
         0.00000E+00
         0.00000E+00
         0.00000E+00
         0.00000E+00
         0.00000E+00
         0.00000E+00
         0.00000E+00
         0.00000E+00
         0.00000E+00
         0.00000E+00
         0.00000E+00
         0.00000E+00
         0.00000E+00
         0.00000E+00
         0.00000E+00
         0.00000E+00
         0.00000E+00
         0.00000E+00
         0.00000E+00
         0.00000E+00
         0.00000E+00
         0.00000E+00
         0.00000E+00
         0.00000E+00
         0.00000E+00
         0.00000E+00
         0.00000E+00
         0.00000E+00
         0.00000E+00
         0.00000E+00
         0.00000E+00
         0.00000E+00
         0.00000E+00
         0.00000E+00
         0.00000E+00
         0.00000E+00
         0.00000E+00
         0.00000E+00
         0.00000E+00
         0.00000E+00
         0.00000E+00
         0.00000E+00
         0.00000E+00
         0.00000E+00
         0.00000E+00
         0.00000E+00
         0.00000E+00
         0.00000E+00
         0.00000E+00
         0.00000E+00
         0.00000E+00
         0.00000E+00
         0.00000E+00
         0.00000E+00
         0.00000E+00
         0.00000E+00
         0.00000E+00
         0.00000E+00
         0.00000E+00
         0.00000E+00
         0.00000E+00
         0.00000E+00
         0.00000E+00
         0.00000E+00
         0.00000E+00
         0.00000E+00
         0.00000E+00
         0.00000E+00
         0.00000E+00
         0.00000E+00
         0.00000E+00
         0.00000E+00
         0.00000E+00
         0.00000E+00
         0.00000E+00
         0.00000E+00
         0.00000E+00
         0.00000E+00
         0.00000E+00
         0.00000E+00
         0.00000E+00
         0.00000E+00
         0.00000E+00
         0.00000E+00
         0.00000E+00
         0.00000E+00
         0.00000E+00
         0.00000E+00
         0.00000E+00
         0.00000E+00
         0.00000E+00
         0.00000E+00
         0.00000E+00
         0.00000E+00
         0.00000E+00
         0.00000E+00
         0.00000E+00
         0.00000E+00
         0.00000E+00
         0.00000E+00
         0.00000E+00
         0.00000E+00
         0.00000E+00
         0.00000E+00
         0.00000E+00
         0.00000E+00
         0.00000E+00
         0.00000E+00
         0.00000E+00
         0.00000E+00
         0.00000E+00
         0.00000E+00
         0.00000E+00
         0.00000E+00
         0.00000E+00
         0.00000E+00
         0.00000E+00
         0.00000E+00
         0.00000E+00
         0.00000E+00
         0.00000E+00
         0.00000E+00
         0.00000E+00
         0.00000E+00
         0.00000E+00
         0.00000E+00
         0.00000E+00
         0.00000E+00
         0.00000E+00
         0.00000E+00
         0.00000E+00
         0.00000E+00
         0.00000E+00
         0.00000E+00
         0.00000E+00
         0.00000E+00
         0.00000E+00
         0.00000E+00
         0.00000E+00
         0.00000E+00
         0.00000E+00
         0.00000E+00
         0.00000E+00
         0.00000E+00
         0.00000E+00
         0.00000E+00
         0.00000E+00
         0.00000E+00
         0.00000E+00
         0.00000E+00
         0.00000E+00
         0.00000E+00
         0.00000E+00
         0.00000E+00
         0.00000E+00
         0.00000E+00
         0.00000E+00
         0.00000E+00
         0.00000E+00
         0.00000E+00
         0.00000E+00
         0.00000E+00
         0.00000E+00
         0.00000E+00
         0.00000E+00
         0.00000E+00
         0.00000E+00
         0.00000E+00
         0.00000E+00
         0.00000E+00
         0.00000E+00
         0.00000E+00
         0.00000E+00
         0.00000E+00
         0.00000E+00
         0.00000E+00
         0.00000E+00
         0.00000E+00
         0.00000E+00
         0.00000E+00
         0.00000E+00
         0.00000E+00
         0.00000E+00
         0.00000E+00
         0.00000E+00
         0.00000E+00
         0.00000E+00
         0.00000E+00
         0.00000E+00
         0.00000E+00
         0.00000E+00
         0.00000E+00
         0.00000E+00
         0.00000E+00
         0.00000E+00
         0.00000E+00
         0.00000E+00
         0.00000E+00
         0.00000E+00
         0.00000E+00
         0.00000E+00
         0.00000E+00
         0.00000E+00
         0.00000E+00
         0.00000E+00
         0.00000E+00
         0.00000E+00
         0.00000E+00
         0.00000E+00
         0.00000E+00
         0.00000E+00
         0.00000E+00
         0.00000E+00
         0.00000E+00
         0.00000E+00
         0.00000E+00
         0.00000E+00
         0.00000E+00
         0.00000E+00
         0.00000E+00
         0.00000E+00
         0.00000E+00
         0.00000E+00
         0.00000E+00
         0.00000E+00
         0.00000E+00
         0.00000E+00
         0.00000E+00
         0.00000E+00
         0.00000E+00
         0.00000E+00
         0.00000E+00
         0.00000E+00
         0.00000E+00
         0.00000E+00
         0.00000E+00
         0.00000E+00
         0.00000E+00
         0.00000E+00
         0.00000E+00
         0.00000E+00
         0.00000E+00
         0.00000E+00
         0.00000E+00
         0.00000E+00
         0.00000E+00
         0.00000E+00
         0.00000E+00
         0.00000E+00
         0.00000E+00
         0.00000E+00
         0.00000E+00
         0.00000E+00
         0.00000E+00
         0.00000E+00
         0.00000E+00
         0.00000E+00
         0.00000E+00
         0.00000E+00
         0.00000E+00
         0.00000E+00
         0.00000E+00
         0.00000E+00
         0.00000E+00
         0.00000E+00
         0.00000E+00
         0.00000E+00
         0.00000E+00
         0.00000E+00
         0.00000E+00
         0.00000E+00
         0.00000E+00
         0.00000E+00
         0.00000E+00
         0.00000E+00
         0.00000E+00
         0.00000E+00
         0.00000E+00
         0.00000E+00
         0.00000E+00
         0.00000E+00
         0.00000E+00
         0.00000E+00
         0.00000E+00
         0.00000E+00
         0.00000E+00
         0.00000E+00
         0.00000E+00
         0.00000E+00
         0.00000E+00
         0.00000E+00
         0.00000E+00
         0.00000E+00
         0.00000E+00
         0.00000E+00
         0.00000E+00
         0.00000E+00
         0.00000E+00
         0.00000E+00
         0.00000E+00
         0.00000E+00
         0.00000E+00
         0.00000E+00
         0.00000E+00
         0.00000E+00
         0.00000E+00
         0.00000E+00
         0.00000E+00
         0.00000E+00
         0.00000E+00
         0.00000E+00
         0.00000E+00
         0.00000E+00
         0.00000E+00
         0.00000E+00
         0.00000E+00
         0.00000E+00
         0.00000E+00
         0.00000E+00
         0.00000E+00
         0.00000E+00
         0.00000E+00
         0.00000E+00
         0.00000E+00
         0.00000E+00
         0.00000E+00
         0.00000E+00
         0.00000E+00
         0.00000E+00
         0.00000E+00
         0.00000E+00
         0.00000E+00
         0.00000E+00
         0.00000E+00
         0.00000E+00
         0.00000E+00
         0.00000E+00
         0.00000E+00
         0.00000E+00
         0.00000E+00
         0.00000E+00
         0.00000E+00
         0.00000E+00
         0.00000E+00
         0.00000E+00
         0.00000E+00
         0.00000E+00
         0.00000E+00
         0.00000E+00
         0.00000E+00
         0.00000E+00
         0.00000E+00
         0.00000E+00
         0.00000E+00
         0.00000E+00
         0.00000E+00
         0.00000E+00
         0.00000E+00
         0.00000E+00
         0.00000E+00
         0.00000E+00
         0.00000E+00
         0.00000E+00
         0.00000E+00
         0.00000E+00
         0.00000E+00
         0.00000E+00
         0.00000E+00
         0.00000E+00
         0.00000E+00
         0.00000E+00
         0.00000E+00
         0.00000E+00
         0.00000E+00
         0.00000E+00
         0.00000E+00
         0.00000E+00
         0.00000E+00
         0.00000E+00
         0.00000E+00
         0.00000E+00
         0.00000E+00
         0.00000E+00
         0.00000E+00
         0.00000E+00
         0.00000E+00
         0.00000E+00
         0.00000E+00
         0.00000E+00
         0.00000E+00
         0.00000E+00
         0.00000E+00
         0.00000E+00
         0.00000E+00
         0.00000E+00
         0.00000E+00
         0.00000E+00
         0.00000E+00
         0.00000E+00
         0.00000E+00
         0.00000E+00
         0.00000E+00
         0.00000E+00
         0.00000E+00
         0.00000E+00
         0.00000E+00
         0.00000E+00
         0.00000E+00
         0.00000E+00
         0.00000E+00
         0.00000E+00
         0.00000E+00
         0.00000E+00
         0.00000E+00
         0.00000E+00
         0.00000E+00
         0.00000E+00
         0.00000E+00
         0.00000E+00
         0.00000E+00
         0.00000E+00
         0.00000E+00
         0.00000E+00
         0.00000E+00
         0.00000E+00
         0.00000E+00
         0.00000E+00
         0.00000E+00
         0.00000E+00
         0.00000E+00
         0.00000E+00
         0.00000E+00
         0.00000E+00
         0.00000E+00
         0.00000E+00
         0.00000E+00
         0.00000E+00
         0.00000E+00
         0.00000E+00
         0.00000E+00
         0.00000E+00
         0.00000E+00
         0.00000E+00
         0.00000E+00
         0.00000E+00
         0.00000E+00
         0.00000E+00
         0.00000E+00
         0.00000E+00
         0.00000E+00
         0.00000E+00
         0.00000E+00
         0.00000E+00
         0.00000E+00
         0.00000E+00
         0.00000E+00
         0.00000E+00
         0.00000E+00
         0.00000E+00
         0.00000E+00
         0.00000E+00
         0.00000E+00
         0.00000E+00
         0.00000E+00
         0.00000E+00
         0.00000E+00
         0.00000E+00
         0.00000E+00
         0.00000E+00
         0.00000E+00
         0.00000E+00
         0.00000E+00
         0.00000E+00
         0.00000E+00
         0.00000E+00
         0.00000E+00
         0.00000E+00
         0.00000E+00
         0.00000E+00
         0.00000E+00
         0.00000E+00
         0.00000E+00
         0.00000E+00
         0.00000E+00
         0.00000E+00
         0.00000E+00
         0.00000E+00
         0.00000E+00
         0.00000E+00
         0.00000E+00
         0.00000E+00
         0.00000E+00
         0.00000E+00
         0.00000E+00
         0.00000E+00
         0.00000E+00
         0.00000E+00
         0.00000E+00
         0.00000E+00
         0.00000E+00
         0.00000E+00
         0.00000E+00
         0.00000E+00
         0.00000E+00
         0.00000E+00
         0.00000E+00
         0.00000E+00
         0.00000E+00
         0.00000E+00
         0.00000E+00
         0.00000E+00
         0.00000E+00
         0.00000E+00
         0.00000E+00
         0.00000E+00
         0.00000E+00
         0.00000E+00
         0.00000E+00
         0.00000E+00
         0.00000E+00
         0.00000E+00
         0.00000E+00
         0.00000E+00
         0.00000E+00
         0.00000E+00
         0.00000E+00
         0.00000E+00
         0.00000E+00
         0.00000E+00
         0.00000E+00
         0.00000E+00
         0.00000E+00
         0.00000E+00
         0.00000E+00
         0.00000E+00
         0.00000E+00
         0.00000E+00
         0.00000E+00
         0.00000E+00
         0.00000E+00
         0.00000E+00
         0.00000E+00
         0.00000E+00
         0.00000E+00
         0.00000E+00
         0.00000E+00
         0.00000E+00
         0.00000E+00
         0.00000E+00
         0.00000E+00
         0.00000E+00
         0.00000E+00
         0.00000E+00
         0.00000E+00
         0.00000E+00
         0.00000E+00
         0.00000E+00
         0.00000E+00
         0.00000E+00
         0.00000E+00
         0.00000E+00
         0.00000E+00
         0.00000E+00
         0.00000E+00
         0.00000E+00
         0.00000E+00
         0.00000E+00
         0.00000E+00
         0.00000E+00
         0.00000E+00
         0.00000E+00
         0.00000E+00
         0.00000E+00
         0.00000E+00
         0.00000E+00
         0.00000E+00
         0.00000E+00
         0.00000E+00
         0.00000E+00
         0.00000E+00
         0.00000E+00
         0.00000E+00
         0.00000E+00
         0.00000E+00
         0.00000E+00
         0.00000E+00
         0.00000E+00
         0.00000E+00
         0.00000E+00
         0.00000E+00
         0.00000E+00
         0.00000E+00
         0.00000E+00
         0.00000E+00
         0.00000E+00
         0.00000E+00
         0.00000E+00
         0.00000E+00
         0.00000E+00
         0.00000E+00
         0.00000E+00
         0.00000E+00
         0.00000E+00
         0.00000E+00
         0.00000E+00
         0.00000E+00
         0.00000E+00
         0.00000E+00
         0.00000E+00
         0.00000E+00
         0.00000E+00
         0.00000E+00
         0.00000E+00
         0.00000E+00
         0.00000E+00
         0.00000E+00
         0.00000E+00
         0.00000E+00
         0.00000E+00
         0.00000E+00
         0.00000E+00
         0.00000E+00
         0.00000E+00
         0.00000E+00
         0.00000E+00
         0.00000E+00
         0.00000E+00
         0.00000E+00
         0.00000E+00
         0.00000E+00
         0.00000E+00
         0.00000E+00
         0.00000E+00
         0.00000E+00
         0.00000E+00
         0.00000E+00
         0.00000E+00
         0.00000E+00
         0.00000E+00
         0.00000E+00
         0.00000E+00
         0.00000E+00
         0.00000E+00
         0.00000E+00
         0.00000E+00
         0.00000E+00
         0.00000E+00
         0.00000E+00
         0.00000E+00
         0.00000E+00
         0.00000E+00
         0.00000E+00
         0.00000E+00
         0.00000E+00
         0.00000E+00
         0.00000E+00
         0.00000E+00
         0.00000E+00
         0.00000E+00
         0.00000E+00
         0.00000E+00
         0.00000E+00
         0.00000E+00
         0.00000E+00
         0.00000E+00
         0.00000E+00
         0.00000E+00
         0.00000E+00
         0.00000E+00
         0.00000E+00
         0.00000E+00
         0.00000E+00
         0.00000E+00
         0.00000E+00
         0.00000E+00
         0.00000E+00
         0.00000E+00
         0.00000E+00
         0.00000E+00
         0.00000E+00
         0.00000E+00
         0.00000E+00
         0.00000E+00
         0.00000E+00
         0.00000E+00
         0.00000E+00
         0.00000E+00
         0.00000E+00
         0.00000E+00
         0.00000E+00
         0.00000E+00
         0.00000E+00
         0.00000E+00
         0.00000E+00
         0.00000E+00
         0.00000E+00
         0.00000E+00
         0.00000E+00
         0.00000E+00
         0.00000E+00
         0.00000E+00
         0.00000E+00
         0.00000E+00
         0.00000E+00
         0.00000E+00
         0.00000E+00
         0.00000E+00
         0.00000E+00
         0.00000E+00
         0.00000E+00
         0.00000E+00
         0.00000E+00
         0.00000E+00
         0.00000E+00
         0.00000E+00
         0.00000E+00
         0.00000E+00
         0.00000E+00
         0.00000E+00
         0.00000E+00
         0.00000E+00
         0.00000E+00
         0.00000E+00
         0.00000E+00
         0.00000E+00
         0.00000E+00
         0.00000E+00
         0.00000E+00
         0.00000E+00
         0.00000E+00
         0.00000E+00
         0.00000E+00
         0.00000E+00
         0.00000E+00
         0.00000E+00
         0.00000E+00
         0.00000E+00
         0.00000E+00
         0.00000E+00
         0.00000E+00
         0.00000E+00
         0.00000E+00
         0.00000E+00
         0.00000E+00
         0.00000E+00
         0.00000E+00
         0.00000E+00
         0.00000E+00
         0.00000E+00
         0.00000E+00
         0.00000E+00
         0.00000E+00
         0.00000E+00
         0.00000E+00
         0.00000E+00
         0.00000E+00
         0.00000E+00
         0.00000E+00
         0.00000E+00
         0.00000E+00
         0.00000E+00
         0.00000E+00
         0.00000E+00
         0.00000E+00
         0.00000E+00
         0.00000E+00
         0.00000E+00
         0.00000E+00
         0.00000E+00
         0.00000E+00
         0.00000E+00
         0.00000E+00
         0.00000E+00
         0.00000E+00
         0.00000E+00
         0.00000E+00
         0.00000E+00
         0.00000E+00
         0.00000E+00
         0.00000E+00
         0.00000E+00
         0.00000E+00
         0.00000E+00
         0.00000E+00
         0.00000E+00
         0.00000E+00
         0.00000E+00
         0.00000E+00
         0.00000E+00
         0.00000E+00
         0.00000E+00
         0.00000E+00
         0.00000E+00
         0.00000E+00
         0.00000E+00
         0.00000E+00
         0.00000E+00
         0.00000E+00
         0.00000E+00
         0.00000E+00
         0.00000E+00
         0.00000E+00
         0.00000E+00
         0.00000E+00
         0.00000E+00
         0.00000E+00
         0.00000E+00
         0.00000E+00
         0.00000E+00
         0.00000E+00
         0.00000E+00
         0.00000E+00
         0.00000E+00
         0.00000E+00
         0.00000E+00
         0.00000E+00
         0.00000E+00
         0.00000E+00
         0.00000E+00
         0.00000E+00
         0.00000E+00
         0.00000E+00
         0.00000E+00
         0.00000E+00
         0.00000E+00
         0.00000E+00
         0.00000E+00
         0.00000E+00
         0.00000E+00
         0.00000E+00
         0.00000E+00
         0.00000E+00
         0.00000E+00
         0.00000E+00
         0.00000E+00
         0.00000E+00
         0.00000E+00
         0.00000E+00
         0.00000E+00
         0.00000E+00
         0.00000E+00
         0.00000E+00
         0.00000E+00
         0.00000E+00
         0.00000E+00
         0.00000E+00
         0.00000E+00
         0.00000E+00
         0.00000E+00
         0.00000E+00
         0.00000E+00
         0.00000E+00
         0.00000E+00
         0.00000E+00
         0.00000E+00
         0.00000E+00
         0.00000E+00
         0.00000E+00
         0.00000E+00
         0.00000E+00
         0.00000E+00
         0.00000E+00
         0.00000E+00
         0.00000E+00
         0.00000E+00
         0.00000E+00
         0.00000E+00
         0.00000E+00
         0.00000E+00
         0.00000E+00
         0.00000E+00
         0.00000E+00
         0.00000E+00
         0.00000E+00
         0.00000E+00
         0.00000E+00
         0.00000E+00
         0.00000E+00
         0.00000E+00
         0.00000E+00
         0.00000E+00
         0.00000E+00
         0.00000E+00
         0.00000E+00
         0.00000E+00
         0.00000E+00
         0.00000E+00
         0.00000E+00
         0.00000E+00
         0.00000E+00
         0.00000E+00
         0.00000E+00
         0.00000E+00
         0.00000E+00
         0.00000E+00
         0.00000E+00
         0.00000E+00
         0.00000E+00
         0.00000E+00
         0.00000E+00
         0.00000E+00
         0.00000E+00
         0.00000E+00
         0.00000E+00
         0.00000E+00
         0.00000E+00
         0.00000E+00
         0.00000E+00
         0.00000E+00
         0.00000E+00
         0.00000E+00
         0.00000E+00
         0.00000E+00
         0.00000E+00
         0.00000E+00
         0.00000E+00
         0.00000E+00
         0.00000E+00
         0.00000E+00
         0.00000E+00
         0.00000E+00
         0.00000E+00
         0.00000E+00
         0.00000E+00
         0.00000E+00
         0.00000E+00
         0.00000E+00
         0.00000E+00
         0.00000E+00
         0.00000E+00
         0.00000E+00
         0.00000E+00
         0.00000E+00
         0.00000E+00
         0.00000E+00
         0.00000E+00
         0.00000E+00
         0.00000E+00
         0.00000E+00
         0.00000E+00
         0.00000E+00
         0.00000E+00
         0.00000E+00
         0.00000E+00
         0.00000E+00
         0.00000E+00
         0.00000E+00
         0.00000E+00
         0.00000E+00
         0.00000E+00
         0.00000E+00
         0.00000E+00
         0.00000E+00
         0.00000E+00
         0.00000E+00
         0.00000E+00
         0.00000E+00
         0.00000E+00
         0.00000E+00
         0.00000E+00
         0.00000E+00
         0.00000E+00
         0.00000E+00
         0.00000E+00
         0.00000E+00
         0.00000E+00
         0.00000E+00
         0.00000E+00
         0.00000E+00
         0.00000E+00
         0.00000E+00
         0.00000E+00
         0.00000E+00
  
SCALARS                 displacement_y  double 1
LOOKUP_TABLE default
         0.00000E+00
         0.00000E+00
         0.00000E+00
         0.00000E+00
         0.00000E+00
         0.00000E+00
         0.00000E+00
         0.00000E+00
         0.00000E+00
         0.00000E+00
         0.00000E+00
         0.00000E+00
         0.00000E+00
         0.00000E+00
         0.00000E+00
         0.00000E+00
         0.00000E+00
         0.00000E+00
         0.00000E+00
         0.00000E+00
         0.00000E+00
         0.00000E+00
         0.00000E+00
         0.00000E+00
         0.00000E+00
         0.00000E+00
         0.00000E+00
         0.00000E+00
         0.00000E+00
         0.00000E+00
         0.00000E+00
         0.00000E+00
         0.00000E+00
         0.00000E+00
         0.00000E+00
         0.00000E+00
         0.00000E+00
         0.00000E+00
         0.00000E+00
         0.00000E+00
         0.00000E+00
         0.00000E+00
         0.00000E+00
         0.00000E+00
         0.00000E+00
         0.00000E+00
         0.00000E+00
         0.00000E+00
         0.00000E+00
         0.00000E+00
         0.00000E+00
         0.00000E+00
         0.00000E+00
         0.00000E+00
         0.00000E+00
         0.00000E+00
         0.00000E+00
         0.00000E+00
         0.00000E+00
         0.00000E+00
         0.00000E+00
         0.00000E+00
         0.00000E+00
         0.00000E+00
         0.00000E+00
         0.00000E+00
         0.00000E+00
         0.00000E+00
         0.00000E+00
         0.00000E+00
         0.00000E+00
         0.00000E+00
         0.00000E+00
         0.00000E+00
         0.00000E+00
         0.00000E+00
         0.00000E+00
         0.00000E+00
         0.00000E+00
         0.00000E+00
         0.00000E+00
         0.00000E+00
         0.00000E+00
         0.00000E+00
         0.00000E+00
         0.00000E+00
         0.00000E+00
         0.00000E+00
         0.00000E+00
         0.00000E+00
         0.00000E+00
         0.00000E+00
         0.00000E+00
         0.00000E+00
         0.00000E+00
         0.00000E+00
         0.00000E+00
         0.00000E+00
         0.00000E+00
         0.00000E+00
         0.00000E+00
         0.00000E+00
         0.00000E+00
         0.00000E+00
         0.00000E+00
         0.00000E+00
         0.00000E+00
         0.00000E+00
         0.00000E+00
         0.00000E+00
         0.00000E+00
         0.00000E+00
         0.00000E+00
         0.00000E+00
         0.00000E+00
         0.00000E+00
         0.00000E+00
         0.00000E+00
         0.00000E+00
         0.00000E+00
         0.00000E+00
         0.00000E+00
         0.00000E+00
         0.00000E+00
         0.00000E+00
         0.00000E+00
         0.00000E+00
         0.00000E+00
         0.00000E+00
         0.00000E+00
         0.00000E+00
         0.00000E+00
         0.00000E+00
         0.00000E+00
         0.00000E+00
         0.00000E+00
         0.00000E+00
         0.00000E+00
         0.00000E+00
         0.00000E+00
         0.00000E+00
         0.00000E+00
         0.00000E+00
         0.00000E+00
         0.00000E+00
         0.00000E+00
         0.00000E+00
         0.00000E+00
         0.00000E+00
         0.00000E+00
         0.00000E+00
         0.00000E+00
         0.00000E+00
         0.00000E+00
         0.00000E+00
         0.00000E+00
         0.00000E+00
         0.00000E+00
         0.00000E+00
         0.00000E+00
         0.00000E+00
         0.00000E+00
         0.00000E+00
         0.00000E+00
         0.00000E+00
         0.00000E+00
         0.00000E+00
         0.00000E+00
         0.00000E+00
         0.00000E+00
         0.00000E+00
         0.00000E+00
         0.00000E+00
         0.00000E+00
         0.00000E+00
         0.00000E+00
         0.00000E+00
         0.00000E+00
         0.00000E+00
         0.00000E+00
         0.00000E+00
         0.00000E+00
         0.00000E+00
         0.00000E+00
         0.00000E+00
         0.00000E+00
         0.00000E+00
         0.00000E+00
         0.00000E+00
         0.00000E+00
         0.00000E+00
         0.00000E+00
         0.00000E+00
         0.00000E+00
         0.00000E+00
         0.00000E+00
         0.00000E+00
         0.00000E+00
         0.00000E+00
         0.00000E+00
         0.00000E+00
         0.00000E+00
         0.00000E+00
         0.00000E+00
         0.00000E+00
         0.00000E+00
         0.00000E+00
         0.00000E+00
         0.00000E+00
         0.00000E+00
         0.00000E+00
         0.00000E+00
         0.00000E+00
         0.00000E+00
         0.00000E+00
         0.00000E+00
         0.00000E+00
         0.00000E+00
         0.00000E+00
         0.00000E+00
         0.00000E+00
         0.00000E+00
         0.00000E+00
         0.00000E+00
         0.00000E+00
         0.00000E+00
         0.00000E+00
         0.00000E+00
         0.00000E+00
         0.00000E+00
         0.00000E+00
         0.00000E+00
         0.00000E+00
         0.00000E+00
         0.00000E+00
         0.00000E+00
         0.00000E+00
         0.00000E+00
         0.00000E+00
         0.00000E+00
         0.00000E+00
         0.00000E+00
         0.00000E+00
         0.00000E+00
         0.00000E+00
         0.00000E+00
         0.00000E+00
         0.00000E+00
         0.00000E+00
         0.00000E+00
         0.00000E+00
         0.00000E+00
         0.00000E+00
         0.00000E+00
         0.00000E+00
         0.00000E+00
         0.00000E+00
         0.00000E+00
         0.00000E+00
         0.00000E+00
         0.00000E+00
         0.00000E+00
         0.00000E+00
         0.00000E+00
         0.00000E+00
         0.00000E+00
         0.00000E+00
         0.00000E+00
         0.00000E+00
         0.00000E+00
         0.00000E+00
         0.00000E+00
         0.00000E+00
         0.00000E+00
         0.00000E+00
         0.00000E+00
         0.00000E+00
         0.00000E+00
         0.00000E+00
         0.00000E+00
         0.00000E+00
         0.00000E+00
         0.00000E+00
         0.00000E+00
         0.00000E+00
         0.00000E+00
         0.00000E+00
         0.00000E+00
         0.00000E+00
         0.00000E+00
         0.00000E+00
         0.00000E+00
         0.00000E+00
         0.00000E+00
         0.00000E+00
         0.00000E+00
         0.00000E+00
         0.00000E+00
         0.00000E+00
         0.00000E+00
         0.00000E+00
         0.00000E+00
         0.00000E+00
         0.00000E+00
         0.00000E+00
         0.00000E+00
         0.00000E+00
         0.00000E+00
         0.00000E+00
         0.00000E+00
         0.00000E+00
         0.00000E+00
         0.00000E+00
         0.00000E+00
         0.00000E+00
         0.00000E+00
         0.00000E+00
         0.00000E+00
         0.00000E+00
         0.00000E+00
         0.00000E+00
         0.00000E+00
         0.00000E+00
         0.00000E+00
         0.00000E+00
         0.00000E+00
         0.00000E+00
         0.00000E+00
         0.00000E+00
         0.00000E+00
         0.00000E+00
         0.00000E+00
         0.00000E+00
         0.00000E+00
         0.00000E+00
         0.00000E+00
         0.00000E+00
         0.00000E+00
         0.00000E+00
         0.00000E+00
         0.00000E+00
         0.00000E+00
         0.00000E+00
         0.00000E+00
         0.00000E+00
         0.00000E+00
         0.00000E+00
         0.00000E+00
         0.00000E+00
         0.00000E+00
         0.00000E+00
         0.00000E+00
         0.00000E+00
         0.00000E+00
         0.00000E+00
         0.00000E+00
         0.00000E+00
         0.00000E+00
         0.00000E+00
         0.00000E+00
         0.00000E+00
         0.00000E+00
         0.00000E+00
         0.00000E+00
         0.00000E+00
         0.00000E+00
         0.00000E+00
         0.00000E+00
         0.00000E+00
         0.00000E+00
         0.00000E+00
         0.00000E+00
         0.00000E+00
         0.00000E+00
         0.00000E+00
         0.00000E+00
         0.00000E+00
         0.00000E+00
         0.00000E+00
         0.00000E+00
         0.00000E+00
         0.00000E+00
         0.00000E+00
         0.00000E+00
         0.00000E+00
         0.00000E+00
         0.00000E+00
         0.00000E+00
         0.00000E+00
         0.00000E+00
         0.00000E+00
         0.00000E+00
         0.00000E+00
         0.00000E+00
         0.00000E+00
         0.00000E+00
         0.00000E+00
         0.00000E+00
         0.00000E+00
         0.00000E+00
         0.00000E+00
         0.00000E+00
         0.00000E+00
         0.00000E+00
         0.00000E+00
         0.00000E+00
         0.00000E+00
         0.00000E+00
         0.00000E+00
         0.00000E+00
         0.00000E+00
         0.00000E+00
         0.00000E+00
         0.00000E+00
         0.00000E+00
         0.00000E+00
         0.00000E+00
         0.00000E+00
         0.00000E+00
         0.00000E+00
         0.00000E+00
         0.00000E+00
         0.00000E+00
         0.00000E+00
         0.00000E+00
         0.00000E+00
         0.00000E+00
         0.00000E+00
         0.00000E+00
         0.00000E+00
         0.00000E+00
         0.00000E+00
         0.00000E+00
         0.00000E+00
         0.00000E+00
         0.00000E+00
         0.00000E+00
         0.00000E+00
         0.00000E+00
         0.00000E+00
         0.00000E+00
         0.00000E+00
         0.00000E+00
         0.00000E+00
         0.00000E+00
         0.00000E+00
         0.00000E+00
         0.00000E+00
         0.00000E+00
         0.00000E+00
         0.00000E+00
         0.00000E+00
         0.00000E+00
         0.00000E+00
         0.00000E+00
         0.00000E+00
         0.00000E+00
         0.00000E+00
         0.00000E+00
         0.00000E+00
         0.00000E+00
         0.00000E+00
         0.00000E+00
         0.00000E+00
         0.00000E+00
         0.00000E+00
         0.00000E+00
         0.00000E+00
         0.00000E+00
         0.00000E+00
         0.00000E+00
         0.00000E+00
         0.00000E+00
         0.00000E+00
         0.00000E+00
         0.00000E+00
         0.00000E+00
         0.00000E+00
         0.00000E+00
         0.00000E+00
         0.00000E+00
         0.00000E+00
         0.00000E+00
         0.00000E+00
         0.00000E+00
         0.00000E+00
         0.00000E+00
         0.00000E+00
         0.00000E+00
         0.00000E+00
         0.00000E+00
         0.00000E+00
         0.00000E+00
         0.00000E+00
         0.00000E+00
         0.00000E+00
         0.00000E+00
         0.00000E+00
         0.00000E+00
         0.00000E+00
         0.00000E+00
         0.00000E+00
         0.00000E+00
         0.00000E+00
         0.00000E+00
         0.00000E+00
         0.00000E+00
         0.00000E+00
         0.00000E+00
         0.00000E+00
         0.00000E+00
         0.00000E+00
         0.00000E+00
         0.00000E+00
         0.00000E+00
         0.00000E+00
         0.00000E+00
         0.00000E+00
         0.00000E+00
         0.00000E+00
         0.00000E+00
         0.00000E+00
         0.00000E+00
         0.00000E+00
         0.00000E+00
         0.00000E+00
         0.00000E+00
         0.00000E+00
         0.00000E+00
         0.00000E+00
         0.00000E+00
         0.00000E+00
         0.00000E+00
         0.00000E+00
         0.00000E+00
         0.00000E+00
         0.00000E+00
         0.00000E+00
         0.00000E+00
         0.00000E+00
         0.00000E+00
         0.00000E+00
         0.00000E+00
         0.00000E+00
         0.00000E+00
         0.00000E+00
         0.00000E+00
         0.00000E+00
         0.00000E+00
         0.00000E+00
         0.00000E+00
         0.00000E+00
         0.00000E+00
         0.00000E+00
         0.00000E+00
         0.00000E+00
         0.00000E+00
         0.00000E+00
         0.00000E+00
         0.00000E+00
         0.00000E+00
         0.00000E+00
         0.00000E+00
         0.00000E+00
         0.00000E+00
         0.00000E+00
         0.00000E+00
         0.00000E+00
         0.00000E+00
         0.00000E+00
         0.00000E+00
         0.00000E+00
         0.00000E+00
         0.00000E+00
         0.00000E+00
         0.00000E+00
         0.00000E+00
         0.00000E+00
         0.00000E+00
         0.00000E+00
         0.00000E+00
         0.00000E+00
         0.00000E+00
         0.00000E+00
         0.00000E+00
         0.00000E+00
         0.00000E+00
         0.00000E+00
         0.00000E+00
         0.00000E+00
         0.00000E+00
         0.00000E+00
         0.00000E+00
         0.00000E+00
         0.00000E+00
         0.00000E+00
         0.00000E+00
         0.00000E+00
         0.00000E+00
         0.00000E+00
         0.00000E+00
         0.00000E+00
         0.00000E+00
         0.00000E+00
         0.00000E+00
         0.00000E+00
         0.00000E+00
         0.00000E+00
         0.00000E+00
         0.00000E+00
         0.00000E+00
         0.00000E+00
         0.00000E+00
         0.00000E+00
         0.00000E+00
         0.00000E+00
         0.00000E+00
         0.00000E+00
         0.00000E+00
         0.00000E+00
         0.00000E+00
         0.00000E+00
         0.00000E+00
         0.00000E+00
         0.00000E+00
         0.00000E+00
         0.00000E+00
         0.00000E+00
         0.00000E+00
         0.00000E+00
         0.00000E+00
         0.00000E+00
         0.00000E+00
         0.00000E+00
         0.00000E+00
         0.00000E+00
         0.00000E+00
         0.00000E+00
         0.00000E+00
         0.00000E+00
         0.00000E+00
         0.00000E+00
         0.00000E+00
         0.00000E+00
         0.00000E+00
         0.00000E+00
         0.00000E+00
         0.00000E+00
         0.00000E+00
         0.00000E+00
         0.00000E+00
         0.00000E+00
         0.00000E+00
         0.00000E+00
         0.00000E+00
         0.00000E+00
         0.00000E+00
         0.00000E+00
         0.00000E+00
         0.00000E+00
         0.00000E+00
         0.00000E+00
         0.00000E+00
         0.00000E+00
         0.00000E+00
         0.00000E+00
         0.00000E+00
         0.00000E+00
         0.00000E+00
         0.00000E+00
         0.00000E+00
         0.00000E+00
         0.00000E+00
         0.00000E+00
         0.00000E+00
         0.00000E+00
         0.00000E+00
         0.00000E+00
         0.00000E+00
         0.00000E+00
         0.00000E+00
         0.00000E+00
         0.00000E+00
         0.00000E+00
         0.00000E+00
         0.00000E+00
         0.00000E+00
         0.00000E+00
         0.00000E+00
         0.00000E+00
         0.00000E+00
         0.00000E+00
         0.00000E+00
         0.00000E+00
         0.00000E+00
         0.00000E+00
         0.00000E+00
         0.00000E+00
         0.00000E+00
         0.00000E+00
         0.00000E+00
         0.00000E+00
         0.00000E+00
         0.00000E+00
         0.00000E+00
         0.00000E+00
         0.00000E+00
         0.00000E+00
         0.00000E+00
         0.00000E+00
         0.00000E+00
         0.00000E+00
         0.00000E+00
         0.00000E+00
         0.00000E+00
         0.00000E+00
         0.00000E+00
         0.00000E+00
         0.00000E+00
         0.00000E+00
         0.00000E+00
         0.00000E+00
         0.00000E+00
         0.00000E+00
         0.00000E+00
         0.00000E+00
         0.00000E+00
         0.00000E+00
         0.00000E+00
         0.00000E+00
         0.00000E+00
         0.00000E+00
         0.00000E+00
         0.00000E+00
         0.00000E+00
         0.00000E+00
         0.00000E+00
         0.00000E+00
         0.00000E+00
         0.00000E+00
         0.00000E+00
         0.00000E+00
         0.00000E+00
         0.00000E+00
         0.00000E+00
         0.00000E+00
         0.00000E+00
         0.00000E+00
         0.00000E+00
         0.00000E+00
         0.00000E+00
         0.00000E+00
         0.00000E+00
         0.00000E+00
         0.00000E+00
         0.00000E+00
         0.00000E+00
         0.00000E+00
         0.00000E+00
         0.00000E+00
         0.00000E+00
         0.00000E+00
         0.00000E+00
         0.00000E+00
         0.00000E+00
         0.00000E+00
         0.00000E+00
         0.00000E+00
         0.00000E+00
         0.00000E+00
         0.00000E+00
         0.00000E+00
         0.00000E+00
         0.00000E+00
         0.00000E+00
         0.00000E+00
         0.00000E+00
         0.00000E+00
         0.00000E+00
         0.00000E+00
         0.00000E+00
         0.00000E+00
         0.00000E+00
         0.00000E+00
         0.00000E+00
         0.00000E+00
         0.00000E+00
         0.00000E+00
         0.00000E+00
         0.00000E+00
         0.00000E+00
         0.00000E+00
         0.00000E+00
         0.00000E+00
         0.00000E+00
         0.00000E+00
         0.00000E+00
         0.00000E+00
         0.00000E+00
         0.00000E+00
         0.00000E+00
         0.00000E+00
         0.00000E+00
         0.00000E+00
         0.00000E+00
         0.00000E+00
         0.00000E+00
         0.00000E+00
         0.00000E+00
         0.00000E+00
         0.00000E+00
         0.00000E+00
         0.00000E+00
         0.00000E+00
         0.00000E+00
         0.00000E+00
         0.00000E+00
         0.00000E+00
         0.00000E+00
         0.00000E+00
         0.00000E+00
         0.00000E+00
         0.00000E+00
         0.00000E+00
         0.00000E+00
         0.00000E+00
         0.00000E+00
         0.00000E+00
         0.00000E+00
         0.00000E+00
         0.00000E+00
         0.00000E+00
         0.00000E+00
         0.00000E+00
         0.00000E+00
         0.00000E+00
         0.00000E+00
         0.00000E+00
         0.00000E+00
         0.00000E+00
         0.00000E+00
         0.00000E+00
         0.00000E+00
         0.00000E+00
         0.00000E+00
         0.00000E+00
         0.00000E+00
         0.00000E+00
         0.00000E+00
         0.00000E+00
         0.00000E+00
         0.00000E+00
         0.00000E+00
         0.00000E+00
         0.00000E+00
         0.00000E+00
         0.00000E+00
         0.00000E+00
         0.00000E+00
         0.00000E+00
         0.00000E+00
         0.00000E+00
         0.00000E+00
         0.00000E+00
         0.00000E+00
         0.00000E+00
         0.00000E+00
         0.00000E+00
         0.00000E+00
         0.00000E+00
         0.00000E+00
         0.00000E+00
         0.00000E+00
         0.00000E+00
         0.00000E+00
         0.00000E+00
         0.00000E+00
         0.00000E+00
         0.00000E+00
         0.00000E+00
         0.00000E+00
         0.00000E+00
         0.00000E+00
         0.00000E+00
         0.00000E+00
         0.00000E+00
         0.00000E+00
         0.00000E+00
         0.00000E+00
         0.00000E+00
         0.00000E+00
         0.00000E+00
         0.00000E+00
         0.00000E+00
         0.00000E+00
         0.00000E+00
         0.00000E+00
         0.00000E+00
         0.00000E+00
         0.00000E+00
         0.00000E+00
         0.00000E+00
         0.00000E+00
         0.00000E+00
         0.00000E+00
         0.00000E+00
         0.00000E+00
         0.00000E+00
         0.00000E+00
         0.00000E+00
         0.00000E+00
         0.00000E+00
         0.00000E+00
         0.00000E+00
         0.00000E+00
         0.00000E+00
         0.00000E+00
         0.00000E+00
         0.00000E+00
         0.00000E+00
         0.00000E+00
         0.00000E+00
         0.00000E+00
         0.00000E+00
         0.00000E+00
         0.00000E+00
         0.00000E+00
         0.00000E+00
         0.00000E+00
         0.00000E+00
         0.00000E+00
         0.00000E+00
         0.00000E+00
         0.00000E+00
         0.00000E+00
         0.00000E+00
         0.00000E+00
         0.00000E+00
         0.00000E+00
         0.00000E+00
         0.00000E+00
         0.00000E+00
         0.00000E+00
         0.00000E+00
         0.00000E+00
         0.00000E+00
         0.00000E+00
         0.00000E+00
         0.00000E+00
         0.00000E+00
         0.00000E+00
         0.00000E+00
         0.00000E+00
         0.00000E+00
         0.00000E+00
         0.00000E+00
         0.00000E+00
         0.00000E+00
         0.00000E+00
         0.00000E+00
         0.00000E+00
         0.00000E+00
         0.00000E+00
         0.00000E+00
         0.00000E+00
         0.00000E+00
         0.00000E+00
         0.00000E+00
         0.00000E+00
         0.00000E+00
         0.00000E+00
         0.00000E+00
         0.00000E+00
         0.00000E+00
         0.00000E+00
         0.00000E+00
         0.00000E+00
         0.00000E+00
         0.00000E+00
         0.00000E+00
         0.00000E+00
         0.00000E+00
         0.00000E+00
         0.00000E+00
         0.00000E+00
         0.00000E+00
         0.00000E+00
         0.00000E+00
         0.00000E+00
         0.00000E+00
         0.00000E+00
         0.00000E+00
         0.00000E+00
         0.00000E+00
         0.00000E+00
         0.00000E+00
         0.00000E+00
         0.00000E+00
         0.00000E+00
         0.00000E+00
         0.00000E+00
         0.00000E+00
         0.00000E+00
         0.00000E+00
         0.00000E+00
         0.00000E+00
         0.00000E+00
         0.00000E+00
         0.00000E+00
         0.00000E+00
         0.00000E+00
         0.00000E+00
         0.00000E+00
         0.00000E+00
         0.00000E+00
         0.00000E+00
         0.00000E+00
         0.00000E+00
         0.00000E+00
         0.00000E+00
         0.00000E+00
         0.00000E+00
         0.00000E+00
         0.00000E+00
         0.00000E+00
         0.00000E+00
         0.00000E+00
         0.00000E+00
         0.00000E+00
         0.00000E+00
         0.00000E+00
         0.00000E+00
         0.00000E+00
         0.00000E+00
         0.00000E+00
         0.00000E+00
         0.00000E+00
         0.00000E+00
         0.00000E+00
         0.00000E+00
         0.00000E+00
         0.00000E+00
         0.00000E+00
         0.00000E+00
         0.00000E+00
         0.00000E+00
         0.00000E+00
         0.00000E+00
         0.00000E+00
         0.00000E+00
         0.00000E+00
         0.00000E+00
         0.00000E+00
         0.00000E+00
         0.00000E+00
         0.00000E+00
         0.00000E+00
         0.00000E+00
         0.00000E+00
         0.00000E+00
         0.00000E+00
         0.00000E+00
         0.00000E+00
         0.00000E+00
         0.00000E+00
         0.00000E+00
         0.00000E+00
         0.00000E+00
         0.00000E+00
         0.00000E+00
         0.00000E+00
         0.00000E+00
         0.00000E+00
         0.00000E+00
         0.00000E+00
         0.00000E+00
         0.00000E+00
         0.00000E+00
         0.00000E+00
         0.00000E+00
         0.00000E+00
         0.00000E+00
         0.00000E+00
         0.00000E+00
         0.00000E+00
         0.00000E+00
         0.00000E+00
         0.00000E+00
         0.00000E+00
         0.00000E+00
         0.00000E+00
         0.00000E+00
         0.00000E+00
         0.00000E+00
         0.00000E+00
         0.00000E+00
         0.00000E+00
         0.00000E+00
         0.00000E+00
         0.00000E+00
         0.00000E+00
         0.00000E+00
         0.00000E+00
         0.00000E+00
         0.00000E+00
         0.00000E+00
         0.00000E+00
         0.00000E+00
         0.00000E+00
         0.00000E+00
         0.00000E+00
         0.00000E+00
         0.00000E+00
         0.00000E+00
         0.00000E+00
         0.00000E+00
         0.00000E+00
         0.00000E+00
         0.00000E+00
         0.00000E+00
         0.00000E+00
         0.00000E+00
         0.00000E+00
         0.00000E+00
         0.00000E+00
         0.00000E+00
         0.00000E+00
         0.00000E+00
         0.00000E+00
         0.00000E+00
         0.00000E+00
         0.00000E+00
         0.00000E+00
         0.00000E+00
         0.00000E+00
         0.00000E+00
         0.00000E+00
         0.00000E+00
         0.00000E+00
         0.00000E+00
         0.00000E+00
         0.00000E+00
         0.00000E+00
         0.00000E+00
         0.00000E+00
         0.00000E+00
         0.00000E+00
         0.00000E+00
         0.00000E+00
         0.00000E+00
         0.00000E+00
         0.00000E+00
         0.00000E+00
         0.00000E+00
         0.00000E+00
         0.00000E+00
         0.00000E+00
         0.00000E+00
         0.00000E+00
         0.00000E+00
         0.00000E+00
         0.00000E+00
         0.00000E+00
         0.00000E+00
         0.00000E+00
         0.00000E+00
         0.00000E+00
         0.00000E+00
         0.00000E+00
         0.00000E+00
         0.00000E+00
         0.00000E+00
         0.00000E+00
         0.00000E+00
         0.00000E+00
         0.00000E+00
         0.00000E+00
         0.00000E+00
         0.00000E+00
         0.00000E+00
         0.00000E+00
         0.00000E+00
         0.00000E+00
         0.00000E+00
         0.00000E+00
         0.00000E+00
         0.00000E+00
         0.00000E+00
         0.00000E+00
         0.00000E+00
         0.00000E+00
         0.00000E+00
         0.00000E+00
         0.00000E+00
         0.00000E+00
         0.00000E+00
         0.00000E+00
         0.00000E+00
         0.00000E+00
         0.00000E+00
         0.00000E+00
         0.00000E+00
         0.00000E+00
         0.00000E+00
         0.00000E+00
         0.00000E+00
         0.00000E+00
         0.00000E+00
         0.00000E+00
         0.00000E+00
         0.00000E+00
         0.00000E+00
         0.00000E+00
         0.00000E+00
         0.00000E+00
         0.00000E+00
         0.00000E+00
         0.00000E+00
         0.00000E+00
         0.00000E+00
         0.00000E+00
         0.00000E+00
         0.00000E+00
         0.00000E+00
         0.00000E+00
         0.00000E+00
         0.00000E+00
         0.00000E+00
         0.00000E+00
         0.00000E+00
         0.00000E+00
         0.00000E+00
         0.00000E+00
         0.00000E+00
         0.00000E+00
         0.00000E+00
         0.00000E+00
         0.00000E+00
         0.00000E+00
         0.00000E+00
         0.00000E+00
         0.00000E+00
         0.00000E+00
         0.00000E+00
         0.00000E+00
         0.00000E+00
         0.00000E+00
         0.00000E+00
         0.00000E+00
         0.00000E+00
         0.00000E+00
         0.00000E+00
         0.00000E+00
         0.00000E+00
         0.00000E+00
         0.00000E+00
         0.00000E+00
         0.00000E+00
         0.00000E+00
         0.00000E+00
         0.00000E+00
         0.00000E+00
         0.00000E+00
         0.00000E+00
         0.00000E+00
         0.00000E+00
         0.00000E+00
         0.00000E+00
         0.00000E+00
         0.00000E+00
         0.00000E+00
         0.00000E+00
         0.00000E+00
         0.00000E+00
         0.00000E+00
         0.00000E+00
         0.00000E+00
         0.00000E+00
         0.00000E+00
         0.00000E+00
         0.00000E+00
         0.00000E+00
         0.00000E+00
         0.00000E+00
         0.00000E+00
         0.00000E+00
         0.00000E+00
         0.00000E+00
         0.00000E+00
         0.00000E+00
         0.00000E+00
         0.00000E+00
         0.00000E+00
         0.00000E+00
         0.00000E+00
         0.00000E+00
         0.00000E+00
         0.00000E+00
         0.00000E+00
         0.00000E+00
         0.00000E+00
         0.00000E+00
         0.00000E+00
         0.00000E+00
         0.00000E+00
         0.00000E+00
         0.00000E+00
         0.00000E+00
         0.00000E+00
         0.00000E+00
         0.00000E+00
         0.00000E+00
         0.00000E+00
         0.00000E+00
         0.00000E+00
         0.00000E+00
         0.00000E+00
         0.00000E+00
         0.00000E+00
         0.00000E+00
         0.00000E+00
         0.00000E+00
         0.00000E+00
         0.00000E+00
         0.00000E+00
         0.00000E+00
         0.00000E+00
         0.00000E+00
         0.00000E+00
         0.00000E+00
         0.00000E+00
         0.00000E+00
         0.00000E+00
         0.00000E+00
         0.00000E+00
         0.00000E+00
         0.00000E+00
         0.00000E+00
         0.00000E+00
         0.00000E+00
         0.00000E+00
         0.00000E+00
         0.00000E+00
         0.00000E+00
         0.00000E+00
         0.00000E+00
         0.00000E+00
         0.00000E+00
         0.00000E+00
         0.00000E+00
         0.00000E+00
         0.00000E+00
         0.00000E+00
         0.00000E+00
         0.00000E+00
         0.00000E+00
         0.00000E+00
         0.00000E+00
         0.00000E+00
         0.00000E+00
         0.00000E+00
         0.00000E+00
         0.00000E+00
         0.00000E+00
         0.00000E+00
         0.00000E+00
         0.00000E+00
         0.00000E+00
         0.00000E+00
         0.00000E+00
         0.00000E+00
         0.00000E+00
         0.00000E+00
         0.00000E+00
         0.00000E+00
         0.00000E+00
         0.00000E+00
         0.00000E+00
         0.00000E+00
         0.00000E+00
         0.00000E+00
         0.00000E+00
         0.00000E+00
         0.00000E+00
         0.00000E+00
         0.00000E+00
         0.00000E+00
         0.00000E+00
         0.00000E+00
         0.00000E+00
         0.00000E+00
         0.00000E+00
         0.00000E+00
         0.00000E+00
         0.00000E+00
         0.00000E+00
         0.00000E+00
         0.00000E+00
         0.00000E+00
         0.00000E+00
         0.00000E+00
         0.00000E+00
         0.00000E+00
         0.00000E+00
         0.00000E+00
         0.00000E+00
         0.00000E+00
         0.00000E+00
         0.00000E+00
         0.00000E+00
         0.00000E+00
         0.00000E+00
         0.00000E+00
         0.00000E+00
         0.00000E+00
         0.00000E+00
         0.00000E+00
         0.00000E+00
         0.00000E+00
         0.00000E+00
         0.00000E+00
         0.00000E+00
         0.00000E+00
         0.00000E+00
         0.00000E+00
         0.00000E+00
         0.00000E+00
         0.00000E+00
         0.00000E+00
         0.00000E+00
         0.00000E+00
         0.00000E+00
         0.00000E+00
         0.00000E+00
         0.00000E+00
         0.00000E+00
         0.00000E+00
         0.00000E+00
         0.00000E+00
         0.00000E+00
         0.00000E+00
         0.00000E+00
         0.00000E+00
         0.00000E+00
         0.00000E+00
         0.00000E+00
         0.00000E+00
         0.00000E+00
         0.00000E+00
         0.00000E+00
         0.00000E+00
         0.00000E+00
         0.00000E+00
         0.00000E+00
         0.00000E+00
         0.00000E+00
         0.00000E+00
         0.00000E+00
         0.00000E+00
         0.00000E+00
         0.00000E+00
         0.00000E+00
         0.00000E+00
         0.00000E+00
         0.00000E+00
         0.00000E+00
         0.00000E+00
         0.00000E+00
         0.00000E+00
         0.00000E+00
         0.00000E+00
         0.00000E+00
         0.00000E+00
         0.00000E+00
         0.00000E+00
         0.00000E+00
         0.00000E+00
         0.00000E+00
         0.00000E+00
         0.00000E+00
         0.00000E+00
         0.00000E+00
         0.00000E+00
         0.00000E+00
         0.00000E+00
         0.00000E+00
         0.00000E+00
         0.00000E+00
         0.00000E+00
         0.00000E+00
         0.00000E+00
         0.00000E+00
         0.00000E+00
         0.00000E+00
         0.00000E+00
         0.00000E+00
         0.00000E+00
         0.00000E+00
         0.00000E+00
         0.00000E+00
         0.00000E+00
         0.00000E+00
         0.00000E+00
         0.00000E+00
         0.00000E+00
         0.00000E+00
         0.00000E+00
         0.00000E+00
         0.00000E+00
         0.00000E+00
         0.00000E+00
         0.00000E+00
         0.00000E+00
         0.00000E+00
         0.00000E+00
         0.00000E+00
         0.00000E+00
         0.00000E+00
         0.00000E+00
         0.00000E+00
         0.00000E+00
         0.00000E+00
         0.00000E+00
         0.00000E+00
         0.00000E+00
         0.00000E+00
         0.00000E+00
         0.00000E+00
         0.00000E+00
         0.00000E+00
         0.00000E+00
         0.00000E+00
         0.00000E+00
         0.00000E+00
         0.00000E+00
         0.00000E+00
         0.00000E+00
         0.00000E+00
         0.00000E+00
         0.00000E+00
         0.00000E+00
         0.00000E+00
         0.00000E+00
         0.00000E+00
         0.00000E+00
         0.00000E+00
         0.00000E+00
         0.00000E+00
         0.00000E+00
         0.00000E+00
         0.00000E+00
         0.00000E+00
         0.00000E+00
         0.00000E+00
         0.00000E+00
         0.00000E+00
         0.00000E+00
         0.00000E+00
         0.00000E+00
         0.00000E+00
         0.00000E+00
         0.00000E+00
         0.00000E+00
         0.00000E+00
         0.00000E+00
         0.00000E+00
         0.00000E+00
         0.00000E+00
         0.00000E+00
         0.00000E+00
         0.00000E+00
         0.00000E+00
         0.00000E+00
         0.00000E+00
         0.00000E+00
         0.00000E+00
         0.00000E+00
         0.00000E+00
         0.00000E+00
         0.00000E+00
         0.00000E+00
         0.00000E+00
         0.00000E+00
         0.00000E+00
         0.00000E+00
         0.00000E+00
         0.00000E+00
         0.00000E+00
         0.00000E+00
         0.00000E+00
         0.00000E+00
         0.00000E+00
         0.00000E+00
         0.00000E+00
         0.00000E+00
         0.00000E+00
         0.00000E+00
         0.00000E+00
         0.00000E+00
         0.00000E+00
         0.00000E+00
         0.00000E+00
         0.00000E+00
         0.00000E+00
         0.00000E+00
         0.00000E+00
         0.00000E+00
         0.00000E+00
         0.00000E+00
         0.00000E+00
         0.00000E+00
         0.00000E+00
         0.00000E+00
         0.00000E+00
         0.00000E+00
         0.00000E+00
         0.00000E+00
         0.00000E+00
         0.00000E+00
         0.00000E+00
         0.00000E+00
         0.00000E+00
         0.00000E+00
         0.00000E+00
         0.00000E+00
         0.00000E+00
         0.00000E+00
         0.00000E+00
         0.00000E+00
         0.00000E+00
         0.00000E+00
         0.00000E+00
         0.00000E+00
         0.00000E+00
         0.00000E+00
         0.00000E+00
         0.00000E+00
         0.00000E+00
         0.00000E+00
         0.00000E+00
         0.00000E+00
         0.00000E+00
         0.00000E+00
         0.00000E+00
         0.00000E+00
         0.00000E+00
         0.00000E+00
         0.00000E+00
         0.00000E+00
         0.00000E+00
         0.00000E+00
         0.00000E+00
         0.00000E+00
         0.00000E+00
         0.00000E+00
         0.00000E+00
         0.00000E+00
         0.00000E+00
         0.00000E+00
         0.00000E+00
         0.00000E+00
         0.00000E+00
         0.00000E+00
         0.00000E+00
         0.00000E+00
         0.00000E+00
         0.00000E+00
         0.00000E+00
         0.00000E+00
         0.00000E+00
         0.00000E+00
         0.00000E+00
         0.00000E+00
         0.00000E+00
         0.00000E+00
         0.00000E+00
         0.00000E+00
         0.00000E+00
         0.00000E+00
         0.00000E+00
         0.00000E+00
         0.00000E+00
         0.00000E+00
         0.00000E+00
         0.00000E+00
         0.00000E+00
         0.00000E+00
         0.00000E+00
         0.00000E+00
         0.00000E+00
         0.00000E+00
         0.00000E+00
         0.00000E+00
         0.00000E+00
         0.00000E+00
         0.00000E+00
         0.00000E+00
         0.00000E+00
         0.00000E+00
         0.00000E+00
         0.00000E+00
         0.00000E+00
         0.00000E+00
         0.00000E+00
         0.00000E+00
         0.00000E+00
         0.00000E+00
         0.00000E+00
         0.00000E+00
         0.00000E+00
         0.00000E+00
         0.00000E+00
         0.00000E+00
         0.00000E+00
         0.00000E+00
         0.00000E+00
         0.00000E+00
         0.00000E+00
         0.00000E+00
         0.00000E+00
         0.00000E+00
         0.00000E+00
         0.00000E+00
         0.00000E+00
         0.00000E+00
         0.00000E+00
         0.00000E+00
         0.00000E+00
         0.00000E+00
         0.00000E+00
         0.00000E+00
         0.00000E+00
         0.00000E+00
         0.00000E+00
         0.00000E+00
         0.00000E+00
         0.00000E+00
         0.00000E+00
         0.00000E+00
         0.00000E+00
         0.00000E+00
         0.00000E+00
         0.00000E+00
         0.00000E+00
         0.00000E+00
         0.00000E+00
         0.00000E+00
         0.00000E+00
         0.00000E+00
         0.00000E+00
         0.00000E+00
         0.00000E+00
         0.00000E+00
         0.00000E+00
         0.00000E+00
         0.00000E+00
         0.00000E+00
         0.00000E+00
         0.00000E+00
         0.00000E+00
         0.00000E+00
         0.00000E+00
         0.00000E+00
         0.00000E+00
         0.00000E+00
         0.00000E+00
         0.00000E+00
         0.00000E+00
         0.00000E+00
         0.00000E+00
         0.00000E+00
         0.00000E+00
         0.00000E+00
         0.00000E+00
         0.00000E+00
         0.00000E+00
         0.00000E+00
         0.00000E+00
         0.00000E+00
         0.00000E+00
         0.00000E+00
         0.00000E+00
         0.00000E+00
         0.00000E+00
         0.00000E+00
         0.00000E+00
         0.00000E+00
         0.00000E+00
         0.00000E+00
         0.00000E+00
         0.00000E+00
         0.00000E+00
         0.00000E+00
         0.00000E+00
         0.00000E+00
         0.00000E+00
         0.00000E+00
         0.00000E+00
         0.00000E+00
         0.00000E+00
         0.00000E+00
         0.00000E+00
         0.00000E+00
         0.00000E+00
         0.00000E+00
         0.00000E+00
         0.00000E+00
         0.00000E+00
         0.00000E+00
         0.00000E+00
         0.00000E+00
         0.00000E+00
         0.00000E+00
         0.00000E+00
         0.00000E+00
         0.00000E+00
         0.00000E+00
         0.00000E+00
         0.00000E+00
         0.00000E+00
         0.00000E+00
         0.00000E+00
         0.00000E+00
         0.00000E+00
         0.00000E+00
         0.00000E+00
         0.00000E+00
         0.00000E+00
         0.00000E+00
         0.00000E+00
         0.00000E+00
         0.00000E+00
         0.00000E+00
         0.00000E+00
         0.00000E+00
         0.00000E+00
         0.00000E+00
         0.00000E+00
         0.00000E+00
         0.00000E+00
         0.00000E+00
         0.00000E+00
         0.00000E+00
         0.00000E+00
         0.00000E+00
         0.00000E+00
         0.00000E+00
         0.00000E+00
         0.00000E+00
         0.00000E+00
         0.00000E+00
         0.00000E+00
         0.00000E+00
         0.00000E+00
         0.00000E+00
         0.00000E+00
         0.00000E+00
         0.00000E+00
         0.00000E+00
         0.00000E+00
         0.00000E+00
         0.00000E+00
         0.00000E+00
         0.00000E+00
         0.00000E+00
         0.00000E+00
         0.00000E+00
         0.00000E+00
         0.00000E+00
         0.00000E+00
         0.00000E+00
         0.00000E+00
         0.00000E+00
         0.00000E+00
         0.00000E+00
         0.00000E+00
         0.00000E+00
         0.00000E+00
         0.00000E+00
         0.00000E+00
         0.00000E+00
         0.00000E+00
         0.00000E+00
         0.00000E+00
         0.00000E+00
         0.00000E+00
         0.00000E+00
         0.00000E+00
         0.00000E+00
         0.00000E+00
         0.00000E+00
         0.00000E+00
         0.00000E+00
         0.00000E+00
         0.00000E+00
         0.00000E+00
         0.00000E+00
         0.00000E+00
         0.00000E+00
         0.00000E+00
         0.00000E+00
         0.00000E+00
         0.00000E+00
         0.00000E+00
         0.00000E+00
         0.00000E+00
         0.00000E+00
         0.00000E+00
         0.00000E+00
         0.00000E+00
         0.00000E+00
         0.00000E+00
         0.00000E+00
         0.00000E+00
         0.00000E+00
         0.00000E+00
         0.00000E+00
         0.00000E+00
         0.00000E+00
         0.00000E+00
         0.00000E+00
         0.00000E+00
         0.00000E+00
         0.00000E+00
         0.00000E+00
         0.00000E+00
         0.00000E+00
         0.00000E+00
         0.00000E+00
         0.00000E+00
         0.00000E+00
         0.00000E+00
         0.00000E+00
         0.00000E+00
         0.00000E+00
         0.00000E+00
         0.00000E+00
         0.00000E+00
         0.00000E+00
         0.00000E+00
         0.00000E+00
         0.00000E+00
         0.00000E+00
         0.00000E+00
         0.00000E+00
         0.00000E+00
         0.00000E+00
         0.00000E+00
         0.00000E+00
         0.00000E+00
  
SCALARS                 displacement_z  double 1
LOOKUP_TABLE default
        -0.29371E-02
        -0.29324E-02
        -0.29317E-02
        -0.29404E-02
        -0.18049E-16
        -0.20239E-16
        -0.19379E-16
        -0.17606E-16
        -0.29229E-02
        -0.29333E-02
        -0.18200E-16
        -0.17613E-16
        -0.29273E-02
        -0.29339E-02
        -0.21625E-16
        -0.20333E-16
        -0.29375E-02
        -0.29387E-02
        -0.15979E-16
        -0.17723E-16
        -0.29238E-02
        -0.29198E-02
        -0.29217E-02
        -0.21432E-16
        -0.18717E-16
        -0.19328E-16
        -0.29320E-02
        -0.29293E-02
        -0.20561E-16
        -0.17340E-16
        -0.29412E-02
        -0.29434E-02
        -0.29396E-02
        -0.17547E-16
        -0.16313E-16
        -0.15860E-16
        -0.29319E-02
        -0.29413E-02
        -0.18564E-16
        -0.16939E-16
        -0.29291E-02
        -0.29371E-02
        -0.16044E-16
        -0.14204E-16
        -0.29217E-02
        -0.29255E-02
        -0.17582E-16
        -0.19646E-16
        -0.29441E-02
        -0.17176E-16
        -0.29307E-02
        -0.20183E-16
        -0.29406E-02
        -0.18138E-16
        -0.29435E-02
        -0.17398E-16
        -0.29356E-02
        -0.29419E-02
        -0.17727E-16
        -0.17264E-16
        -0.29391E-02
        -0.29306E-02
        -0.17776E-16
        -0.20096E-16
        -0.29385E-02
        -0.17153E-16
        -0.29350E-02
        -0.18721E-16
        -0.29098E-02
        -0.29200E-02
        -0.18020E-16
        -0.18881E-16
        -0.29238E-02
        -0.19040E-16
        -0.29348E-02
        -0.15043E-16
        -0.29337E-02
        -0.14601E-16
        -0.29242E-02
        -0.15396E-16
        -0.29132E-02
        -0.29269E-02
        -0.14669E-16
        -0.15293E-16
        -0.29380E-02
        -0.14243E-16
        -0.29227E-02
        -0.18678E-16
        -0.29187E-02
        -0.19117E-16
        -0.29088E-02
        -0.29223E-02
        -0.18358E-16
        -0.18572E-16
        -0.29315E-02
        -0.16869E-16
        -0.29301E-02
        -0.16629E-16
        -0.29228E-02
        -0.17801E-16
        -0.29123E-02
        -0.29246E-02
        -0.17457E-16
        -0.17969E-16
        -0.28819E-02
        -0.28867E-02
        -0.13553E-16
        -0.12748E-16
        -0.28861E-02
        -0.12941E-16
        -0.28826E-02
        -0.12409E-16
        -0.28829E-02
        -0.12236E-16
        -0.28825E-02
        -0.11563E-16
        -0.28853E-02
        -0.10273E-16
        -0.28865E-02
        -0.92500E-17
        -0.28858E-02
        -0.91857E-17
        -0.28852E-02
        -0.99614E-17
        -0.28809E-02
        -0.10469E-16
        -0.28864E-02
        -0.95593E-17
        -0.28883E-02
        -0.86167E-17
        -0.28878E-02
        -0.86070E-17
        -0.28856E-02
        -0.96204E-17
        -0.28835E-02
        -0.10969E-16
        -0.28823E-02
        -0.11784E-16
        -0.28857E-02
        -0.12727E-16
        -0.28825E-02
        -0.13635E-16
        -0.28874E-02
        -0.12491E-16
        -0.28857E-02
        -0.10958E-16
        -0.28841E-02
        -0.10924E-16
        -0.28869E-02
        -0.11952E-16
        -0.28830E-02
        -0.12742E-16
        -0.28869E-02
        -0.12092E-16
        -0.28870E-02
        -0.11690E-16
        -0.41397E-02
        -0.41389E-02
        -0.41388E-02
        -0.41401E-02
        -0.41375E-02
        -0.41391E-02
        -0.41381E-02
        -0.41391E-02
        -0.41400E-02
        -0.41401E-02
        -0.41377E-02
        -0.41371E-02
        -0.41373E-02
        -0.41388E-02
        -0.41385E-02
        -0.41401E-02
        -0.41407E-02
        -0.41401E-02
        -0.41389E-02
        -0.41404E-02
        -0.41384E-02
        -0.41398E-02
        -0.41373E-02
        -0.41380E-02
        -0.41408E-02
        -0.41386E-02
        -0.41403E-02
        -0.41406E-02
        -0.41393E-02
        -0.41404E-02
        -0.41400E-02
        -0.41386E-02
        -0.41399E-02
        -0.41392E-02
        -0.41357E-02
        -0.41370E-02
        -0.41376E-02
        -0.41395E-02
        -0.41392E-02
        -0.41376E-02
        -0.41361E-02
        -0.41381E-02
        -0.41399E-02
        -0.41374E-02
        -0.41368E-02
        -0.41356E-02
        -0.41373E-02
        -0.41388E-02
        -0.41385E-02
        -0.41374E-02
        -0.41361E-02
        -0.41377E-02
        -0.41327E-02
        -0.41335E-02
        -0.41334E-02
        -0.41330E-02
        -0.41331E-02
        -0.41331E-02
        -0.41335E-02
        -0.41336E-02
        -0.41333E-02
        -0.41331E-02
        -0.41324E-02
        -0.41334E-02
        -0.41338E-02
        -0.41338E-02
        -0.41335E-02
        -0.41331E-02
        -0.41330E-02
        -0.41334E-02
        -0.41329E-02
        -0.41337E-02
        -0.41336E-02
        -0.41333E-02
        -0.41335E-02
        -0.41329E-02
        -0.41336E-02
        -0.41338E-02
        -0.42383E-02
        -0.42383E-02
        -0.42383E-02
        -0.42383E-02
        -0.42383E-02
        -0.42383E-02
        -0.42383E-02
        -0.42383E-02
        -0.42383E-02
        -0.42383E-02
        -0.42383E-02
        -0.42383E-02
        -0.42383E-02
        -0.42383E-02
        -0.42383E-02
        -0.42383E-02
        -0.42383E-02
        -0.42383E-02
        -0.42383E-02
        -0.42383E-02
        -0.42383E-02
        -0.42383E-02
        -0.42383E-02
        -0.42383E-02
        -0.42383E-02
        -0.42383E-02
        -0.42383E-02
        -0.42383E-02
        -0.42383E-02
        -0.42383E-02
        -0.42383E-02
        -0.42383E-02
        -0.42383E-02
        -0.42383E-02
        -0.42383E-02
        -0.42383E-02
        -0.42383E-02
        -0.42383E-02
        -0.42383E-02
        -0.42383E-02
        -0.42383E-02
        -0.42383E-02
        -0.42383E-02
        -0.42383E-02
        -0.42383E-02
        -0.42383E-02
        -0.42383E-02
        -0.42383E-02
        -0.42383E-02
        -0.42383E-02
        -0.42383E-02
        -0.42383E-02
        -0.42383E-02
        -0.42383E-02
        -0.42383E-02
        -0.42383E-02
        -0.42383E-02
        -0.42383E-02
        -0.42383E-02
        -0.42383E-02
        -0.42383E-02
        -0.42383E-02
        -0.42383E-02
        -0.42383E-02
        -0.42383E-02
        -0.42383E-02
        -0.42383E-02
        -0.42383E-02
        -0.42383E-02
        -0.42383E-02
        -0.42383E-02
        -0.42383E-02
        -0.42383E-02
        -0.42383E-02
        -0.42383E-02
        -0.42383E-02
        -0.42383E-02
        -0.42383E-02
        -0.42383E-02
        -0.42383E-02
        -0.42383E-02
        -0.42383E-02
        -0.42383E-02
        -0.42383E-02
        -0.42383E-02
        -0.42383E-02
        -0.42383E-02
        -0.42383E-02
        -0.42383E-02
        -0.42383E-02
        -0.42383E-02
        -0.42383E-02
        -0.42383E-02
        -0.42383E-02
        -0.42383E-02
        -0.42383E-02
        -0.42383E-02
        -0.42383E-02
        -0.42383E-02
        -0.42383E-02
        -0.42383E-02
        -0.42383E-02
        -0.42383E-02
        -0.42383E-02
        -0.42383E-02
        -0.42383E-02
        -0.42383E-02
        -0.42383E-02
        -0.42383E-02
        -0.42383E-02
        -0.42383E-02
        -0.42383E-02
        -0.42383E-02
        -0.42383E-02
        -0.42383E-02
        -0.42383E-02
        -0.42383E-02
        -0.42383E-02
        -0.42383E-02
        -0.42383E-02
        -0.42383E-02
        -0.42383E-02
        -0.42383E-02
        -0.42383E-02
        -0.42383E-02
        -0.42383E-02
        -0.42383E-02
        -0.42383E-02
        -0.42383E-02
        -0.42383E-02
        -0.42383E-02
        -0.42383E-02
        -0.42383E-02
        -0.42383E-02
        -0.42383E-02
        -0.42383E-02
        -0.42383E-02
        -0.42383E-02
        -0.42383E-02
        -0.42383E-02
        -0.42383E-02
        -0.42383E-02
        -0.42383E-02
        -0.42383E-02
        -0.42383E-02
        -0.42383E-02
        -0.42383E-02
        -0.42383E-02
        -0.42383E-02
        -0.42383E-02
        -0.42383E-02
        -0.42383E-02
        -0.42383E-02
        -0.42383E-02
        -0.42383E-02
        -0.42383E-02
        -0.42383E-02
        -0.42383E-02
        -0.42383E-02
        -0.42383E-02
        -0.42383E-02
        -0.42383E-02
        -0.42383E-02
        -0.42383E-02
        -0.42383E-02
        -0.42383E-02
        -0.42383E-02
        -0.42383E-02
        -0.42383E-02
        -0.42383E-02
        -0.42383E-02
        -0.42383E-02
        -0.42383E-02
        -0.42383E-02
        -0.42383E-02
        -0.42383E-02
        -0.42383E-02
        -0.42383E-02
        -0.42383E-02
        -0.42383E-02
        -0.42383E-02
        -0.42383E-02
        -0.42383E-02
        -0.42383E-02
        -0.42383E-02
        -0.42383E-02
        -0.42383E-02
        -0.42383E-02
        -0.42383E-02
        -0.42383E-02
        -0.42383E-02
        -0.42383E-02
        -0.42383E-02
        -0.42383E-02
        -0.42383E-02
        -0.42383E-02
        -0.42383E-02
        -0.42383E-02
        -0.42383E-02
        -0.42383E-02
        -0.42383E-02
        -0.42383E-02
        -0.42383E-02
        -0.42383E-02
        -0.42383E-02
        -0.42383E-02
        -0.42383E-02
        -0.42383E-02
        -0.42383E-02
        -0.42383E-02
        -0.42383E-02
        -0.42383E-02
        -0.42383E-02
        -0.42383E-02
        -0.42383E-02
        -0.42383E-02
        -0.42383E-02
        -0.42383E-02
        -0.42383E-02
        -0.42383E-02
        -0.42383E-02
        -0.42383E-02
        -0.42383E-02
        -0.42383E-02
        -0.42383E-02
        -0.42383E-02
        -0.42383E-02
        -0.42383E-02
        -0.42383E-02
        -0.42383E-02
        -0.42383E-02
        -0.42383E-02
        -0.42383E-02
        -0.42383E-02
        -0.42383E-02
        -0.42383E-02
        -0.42383E-02
        -0.42383E-02
        -0.42383E-02
        -0.42383E-02
        -0.42383E-02
        -0.42383E-02
        -0.42383E-02
        -0.42383E-02
        -0.42383E-02
        -0.42383E-02
        -0.42383E-02
        -0.42383E-02
        -0.42383E-02
        -0.42383E-02
        -0.42383E-02
        -0.42383E-02
        -0.42383E-02
        -0.42383E-02
        -0.42383E-02
        -0.42383E-02
        -0.42383E-02
        -0.42383E-02
        -0.42383E-02
        -0.42383E-02
        -0.42383E-02
        -0.42383E-02
        -0.42383E-02
        -0.42383E-02
        -0.42383E-02
        -0.42383E-02
        -0.42383E-02
        -0.42383E-02
        -0.42383E-02
        -0.42383E-02
        -0.42383E-02
        -0.42383E-02
        -0.42383E-02
        -0.42383E-02
        -0.42383E-02
        -0.42383E-02
        -0.42383E-02
        -0.42383E-02
        -0.42383E-02
        -0.42383E-02
        -0.42383E-02
        -0.42383E-02
        -0.42383E-02
        -0.42383E-02
        -0.42383E-02
        -0.42383E-02
        -0.42383E-02
        -0.42383E-02
        -0.42383E-02
        -0.42383E-02
        -0.42383E-02
        -0.42383E-02
        -0.42383E-02
        -0.42383E-02
        -0.42383E-02
        -0.42383E-02
        -0.42383E-02
        -0.42383E-02
        -0.42383E-02
        -0.42383E-02
        -0.42383E-02
        -0.42383E-02
        -0.42383E-02
        -0.42383E-02
        -0.42383E-02
        -0.42383E-02
        -0.42383E-02
        -0.42383E-02
        -0.42383E-02
        -0.42383E-02
        -0.42383E-02
        -0.42383E-02
        -0.42383E-02
        -0.42383E-02
        -0.42383E-02
        -0.42383E-02
        -0.42383E-02
        -0.42383E-02
        -0.42383E-02
        -0.42383E-02
        -0.42383E-02
        -0.42383E-02
        -0.42383E-02
        -0.42383E-02
        -0.42383E-02
        -0.42383E-02
        -0.42383E-02
        -0.42383E-02
        -0.42383E-02
        -0.42383E-02
        -0.42383E-02
        -0.42383E-02
        -0.42383E-02
        -0.42383E-02
        -0.42383E-02
        -0.42383E-02
        -0.42383E-02
        -0.42383E-02
        -0.42383E-02
        -0.42383E-02
        -0.42383E-02
        -0.42383E-02
        -0.42383E-02
        -0.42383E-02
        -0.42383E-02
        -0.42383E-02
        -0.42383E-02
        -0.42383E-02
        -0.42383E-02
        -0.42383E-02
        -0.42383E-02
        -0.42383E-02
        -0.42383E-02
        -0.42383E-02
        -0.42383E-02
        -0.42383E-02
        -0.42383E-02
        -0.42383E-02
        -0.42383E-02
        -0.42383E-02
        -0.42383E-02
        -0.42383E-02
        -0.42383E-02
        -0.42383E-02
        -0.42383E-02
        -0.42383E-02
        -0.42383E-02
        -0.42383E-02
        -0.42383E-02
        -0.42383E-02
        -0.42383E-02
        -0.42383E-02
        -0.42383E-02
        -0.42383E-02
        -0.42383E-02
        -0.42383E-02
        -0.42383E-02
        -0.42383E-02
        -0.42383E-02
        -0.42383E-02
        -0.42383E-02
        -0.42383E-02
        -0.42383E-02
        -0.42383E-02
        -0.42383E-02
        -0.42383E-02
        -0.42383E-02
        -0.42383E-02
        -0.42383E-02
        -0.42383E-02
        -0.42383E-02
        -0.42383E-02
        -0.42383E-02
        -0.42383E-02
        -0.42383E-02
        -0.42383E-02
        -0.42383E-02
        -0.42383E-02
        -0.42383E-02
        -0.42383E-02
        -0.42383E-02
        -0.42383E-02
        -0.42383E-02
        -0.42383E-02
        -0.42383E-02
        -0.42383E-02
        -0.42383E-02
        -0.42383E-02
        -0.42383E-02
        -0.42383E-02
        -0.42383E-02
        -0.42383E-02
        -0.42383E-02
        -0.42383E-02
        -0.42383E-02
        -0.42383E-02
        -0.42383E-02
        -0.42383E-02
        -0.42383E-02
        -0.42383E-02
        -0.42383E-02
        -0.42383E-02
        -0.42383E-02
        -0.42383E-02
        -0.42383E-02
        -0.42383E-02
        -0.42383E-02
        -0.42383E-02
        -0.42383E-02
        -0.42383E-02
        -0.42383E-02
        -0.42383E-02
        -0.42383E-02
        -0.42383E-02
        -0.42383E-02
        -0.42383E-02
        -0.42383E-02
        -0.42383E-02
        -0.42383E-02
        -0.42383E-02
        -0.42383E-02
        -0.42383E-02
        -0.42383E-02
        -0.42383E-02
        -0.42383E-02
        -0.42383E-02
        -0.42383E-02
        -0.42383E-02
        -0.42383E-02
        -0.42383E-02
        -0.42383E-02
        -0.42383E-02
        -0.42383E-02
        -0.42383E-02
        -0.42383E-02
        -0.42383E-02
        -0.42383E-02
        -0.42383E-02
        -0.42383E-02
        -0.42383E-02
        -0.42383E-02
        -0.42383E-02
        -0.42383E-02
        -0.42383E-02
        -0.42383E-02
        -0.42383E-02
        -0.42383E-02
        -0.42383E-02
        -0.42383E-02
        -0.42383E-02
        -0.42383E-02
        -0.42383E-02
        -0.42383E-02
        -0.42383E-02
        -0.42383E-02
        -0.42383E-02
        -0.42383E-02
        -0.42383E-02
        -0.42383E-02
        -0.42383E-02
        -0.42383E-02
        -0.42383E-02
        -0.42383E-02
        -0.42383E-02
        -0.42383E-02
        -0.42383E-02
        -0.42383E-02
        -0.42383E-02
        -0.42383E-02
        -0.42383E-02
        -0.42383E-02
        -0.42383E-02
        -0.42383E-02
        -0.42383E-02
        -0.42383E-02
        -0.42383E-02
        -0.42383E-02
        -0.42383E-02
        -0.42383E-02
        -0.42383E-02
        -0.42383E-02
        -0.42383E-02
        -0.42383E-02
        -0.42383E-02
        -0.42383E-02
        -0.42383E-02
        -0.42383E-02
        -0.42383E-02
        -0.42383E-02
        -0.42383E-02
        -0.42383E-02
        -0.42383E-02
        -0.42383E-02
        -0.42383E-02
        -0.42383E-02
        -0.42383E-02
        -0.42383E-02
        -0.42383E-02
        -0.42383E-02
        -0.42383E-02
        -0.42383E-02
        -0.42383E-02
        -0.42383E-02
        -0.42383E-02
        -0.42383E-02
        -0.42383E-02
        -0.42383E-02
        -0.42383E-02
        -0.42383E-02
        -0.42383E-02
        -0.42383E-02
        -0.42383E-02
        -0.42383E-02
        -0.42383E-02
        -0.42383E-02
        -0.42383E-02
        -0.42383E-02
        -0.42383E-02
        -0.42383E-02
        -0.42383E-02
        -0.42383E-02
        -0.42383E-02
        -0.42383E-02
        -0.42383E-02
        -0.42383E-02
        -0.42383E-02
        -0.42383E-02
        -0.42383E-02
        -0.42383E-02
        -0.42383E-02
        -0.42383E-02
        -0.42383E-02
        -0.42383E-02
        -0.42383E-02
        -0.42383E-02
        -0.42383E-02
        -0.42383E-02
        -0.42383E-02
        -0.42383E-02
        -0.42383E-02
        -0.42383E-02
        -0.42383E-02
        -0.42383E-02
        -0.42383E-02
        -0.42383E-02
        -0.42383E-02
        -0.42383E-02
        -0.42383E-02
        -0.42383E-02
        -0.42383E-02
        -0.42383E-02
        -0.42383E-02
        -0.42383E-02
        -0.42383E-02
        -0.42383E-02
        -0.42383E-02
        -0.42383E-02
        -0.42383E-02
        -0.42383E-02
        -0.42383E-02
        -0.42383E-02
        -0.42383E-02
        -0.42383E-02
        -0.42383E-02
        -0.42383E-02
        -0.42383E-02
        -0.42383E-02
        -0.42383E-02
        -0.42383E-02
        -0.42383E-02
        -0.42383E-02
        -0.42383E-02
        -0.42383E-02
        -0.42383E-02
        -0.42383E-02
        -0.42383E-02
        -0.42383E-02
        -0.42383E-02
        -0.42383E-02
        -0.42383E-02
        -0.42383E-02
        -0.42383E-02
        -0.42383E-02
        -0.42383E-02
        -0.42383E-02
        -0.42383E-02
        -0.42383E-02
        -0.42383E-02
        -0.42383E-02
        -0.42383E-02
        -0.42383E-02
        -0.42383E-02
        -0.42383E-02
        -0.42383E-02
        -0.42383E-02
        -0.42383E-02
        -0.42383E-02
        -0.42383E-02
        -0.42383E-02
        -0.42383E-02
        -0.42383E-02
        -0.42383E-02
        -0.42383E-02
        -0.42383E-02
        -0.42383E-02
        -0.42383E-02
        -0.42383E-02
        -0.42383E-02
        -0.42383E-02
        -0.42383E-02
        -0.42383E-02
        -0.42383E-02
        -0.42383E-02
        -0.42383E-02
        -0.42383E-02
        -0.42383E-02
        -0.42383E-02
        -0.42383E-02
        -0.42383E-02
        -0.42383E-02
        -0.42383E-02
        -0.42383E-02
        -0.42383E-02
        -0.42383E-02
        -0.42383E-02
        -0.42383E-02
        -0.42383E-02
        -0.42383E-02
        -0.42383E-02
        -0.42383E-02
        -0.42383E-02
        -0.42383E-02
        -0.42383E-02
        -0.42383E-02
        -0.42383E-02
        -0.42383E-02
        -0.42383E-02
        -0.42383E-02
        -0.42383E-02
        -0.42383E-02
        -0.42383E-02
        -0.42383E-02
        -0.42383E-02
        -0.42383E-02
        -0.42383E-02
        -0.42383E-02
        -0.42383E-02
        -0.42383E-02
        -0.42383E-02
        -0.42383E-02
        -0.42383E-02
        -0.42383E-02
        -0.42383E-02
        -0.42383E-02
        -0.42383E-02
        -0.42383E-02
        -0.42383E-02
        -0.42383E-02
        -0.42383E-02
        -0.42383E-02
        -0.42383E-02
        -0.42383E-02
        -0.42383E-02
        -0.42383E-02
        -0.42383E-02
        -0.42383E-02
        -0.42383E-02
        -0.42383E-02
        -0.42383E-02
        -0.42383E-02
        -0.42383E-02
        -0.42383E-02
        -0.42383E-02
        -0.42383E-02
        -0.42383E-02
        -0.42383E-02
        -0.42383E-02
        -0.42383E-02
        -0.42383E-02
        -0.42383E-02
        -0.42383E-02
        -0.42383E-02
        -0.42383E-02
        -0.42383E-02
        -0.42383E-02
        -0.42383E-02
        -0.42383E-02
        -0.42383E-02
        -0.42383E-02
        -0.42383E-02
        -0.42383E-02
        -0.42383E-02
        -0.42383E-02
        -0.42383E-02
        -0.42383E-02
        -0.42383E-02
        -0.42383E-02
        -0.42383E-02
        -0.42383E-02
        -0.42383E-02
        -0.42383E-02
        -0.42383E-02
        -0.42383E-02
        -0.42383E-02
        -0.42383E-02
        -0.42383E-02
        -0.42383E-02
        -0.42383E-02
        -0.42383E-02
        -0.42383E-02
        -0.42383E-02
        -0.42383E-02
        -0.42383E-02
        -0.42383E-02
        -0.42383E-02
        -0.42383E-02
        -0.42383E-02
        -0.42383E-02
        -0.42383E-02
        -0.42383E-02
        -0.42383E-02
        -0.42383E-02
        -0.42383E-02
        -0.42383E-02
        -0.42383E-02
        -0.42383E-02
        -0.42383E-02
        -0.42383E-02
        -0.42383E-02
        -0.42383E-02
        -0.42383E-02
        -0.42383E-02
        -0.42383E-02
        -0.42383E-02
        -0.42383E-02
        -0.42383E-02
        -0.42383E-02
        -0.42383E-02
        -0.42383E-02
        -0.42383E-02
        -0.42383E-02
        -0.42383E-02
        -0.42383E-02
        -0.42383E-02
        -0.42383E-02
        -0.42383E-02
        -0.42383E-02
        -0.42383E-02
        -0.42383E-02
        -0.42383E-02
        -0.42383E-02
        -0.42383E-02
        -0.42383E-02
        -0.42383E-02
        -0.42383E-02
        -0.42383E-02
        -0.42383E-02
        -0.42383E-02
        -0.42383E-02
        -0.42383E-02
        -0.42383E-02
        -0.42383E-02
        -0.42383E-02
        -0.42383E-02
        -0.42383E-02
        -0.42383E-02
        -0.42383E-02
        -0.42383E-02
        -0.42383E-02
        -0.42383E-02
        -0.42383E-02
        -0.42383E-02
        -0.42383E-02
        -0.42383E-02
        -0.42383E-02
        -0.42383E-02
        -0.42383E-02
        -0.42383E-02
        -0.42383E-02
        -0.42383E-02
        -0.42383E-02
        -0.42383E-02
        -0.42383E-02
        -0.42383E-02
        -0.42383E-02
        -0.42383E-02
        -0.42383E-02
        -0.42383E-02
        -0.42383E-02
        -0.42383E-02
        -0.42383E-02
        -0.42383E-02
        -0.42383E-02
        -0.42383E-02
        -0.42383E-02
        -0.42383E-02
        -0.42383E-02
        -0.42383E-02
        -0.42383E-02
        -0.42383E-02
        -0.42383E-02
        -0.42383E-02
        -0.42383E-02
        -0.42383E-02
        -0.42383E-02
        -0.42383E-02
        -0.42383E-02
        -0.42383E-02
        -0.42383E-02
        -0.42383E-02
        -0.42383E-02
        -0.42383E-02
        -0.42383E-02
        -0.42383E-02
        -0.42383E-02
        -0.42383E-02
        -0.42383E-02
        -0.42383E-02
        -0.42383E-02
        -0.42383E-02
        -0.42383E-02
        -0.42383E-02
        -0.42383E-02
        -0.42383E-02
        -0.42383E-02
        -0.42383E-02
        -0.42383E-02
        -0.42383E-02
        -0.42383E-02
        -0.42383E-02
        -0.42383E-02
        -0.42383E-02
        -0.42383E-02
        -0.42383E-02
        -0.42383E-02
        -0.42383E-02
        -0.42383E-02
        -0.42383E-02
        -0.42383E-02
        -0.42383E-02
        -0.42383E-02
        -0.42383E-02
        -0.42383E-02
        -0.42383E-02
        -0.42383E-02
        -0.42383E-02
        -0.42383E-02
        -0.42383E-02
        -0.42383E-02
        -0.42383E-02
        -0.42383E-02
        -0.42383E-02
        -0.42383E-02
        -0.42383E-02
        -0.42383E-02
        -0.42383E-02
        -0.42383E-02
        -0.42383E-02
        -0.42383E-02
        -0.42383E-02
        -0.42383E-02
        -0.42383E-02
        -0.42383E-02
        -0.42383E-02
        -0.42383E-02
        -0.42383E-02
        -0.42383E-02
        -0.42383E-02
        -0.42383E-02
        -0.42383E-02
        -0.42383E-02
        -0.42383E-02
        -0.42383E-02
        -0.42383E-02
        -0.42383E-02
        -0.42383E-02
        -0.42383E-02
        -0.42383E-02
        -0.42383E-02
        -0.42383E-02
        -0.42383E-02
        -0.42383E-02
        -0.42383E-02
        -0.42383E-02
        -0.42383E-02
        -0.42383E-02
        -0.42383E-02
        -0.42383E-02
        -0.42383E-02
        -0.42383E-02
        -0.42383E-02
        -0.42383E-02
        -0.42383E-02
        -0.42383E-02
        -0.42383E-02
        -0.42383E-02
        -0.42383E-02
        -0.42383E-02
        -0.42383E-02
        -0.42383E-02
        -0.42383E-02
        -0.42383E-02
        -0.42383E-02
        -0.42383E-02
        -0.42383E-02
        -0.42383E-02
        -0.42383E-02
        -0.42383E-02
        -0.42383E-02
        -0.42383E-02
        -0.42383E-02
        -0.42383E-02
        -0.42383E-02
        -0.42383E-02
        -0.42383E-02
        -0.42383E-02
        -0.42383E-02
        -0.42383E-02
        -0.42383E-02
        -0.42383E-02
        -0.42383E-02
        -0.42383E-02
        -0.42383E-02
        -0.42383E-02
        -0.42383E-02
        -0.42383E-02
        -0.42383E-02
        -0.42383E-02
        -0.42383E-02
        -0.42383E-02
        -0.42383E-02
        -0.42383E-02
        -0.42383E-02
        -0.42383E-02
        -0.42383E-02
        -0.42383E-02
        -0.42383E-02
        -0.42383E-02
        -0.42383E-02
        -0.42383E-02
        -0.42383E-02
        -0.42383E-02
        -0.42383E-02
        -0.42383E-02
        -0.42383E-02
        -0.42383E-02
        -0.42383E-02
        -0.42383E-02
        -0.42383E-02
        -0.42383E-02
        -0.42383E-02
        -0.42383E-02
        -0.42383E-02
        -0.42383E-02
        -0.42383E-02
        -0.42383E-02
        -0.42383E-02
        -0.42383E-02
        -0.42383E-02
        -0.42383E-02
        -0.42383E-02
        -0.42383E-02
        -0.42383E-02
        -0.42383E-02
        -0.42383E-02
        -0.42383E-02
        -0.42383E-02
        -0.42383E-02
        -0.42383E-02
        -0.42383E-02
        -0.42383E-02
        -0.42383E-02
        -0.42383E-02
        -0.42383E-02
        -0.42383E-02
        -0.42383E-02
        -0.42383E-02
        -0.42383E-02
        -0.42383E-02
        -0.42383E-02
        -0.42383E-02
        -0.42383E-02
        -0.42383E-02
        -0.42383E-02
        -0.42383E-02
        -0.42383E-02
        -0.42383E-02
        -0.42383E-02
        -0.42383E-02
        -0.42383E-02
        -0.42383E-02
        -0.42383E-02
        -0.42383E-02
        -0.42383E-02
        -0.42383E-02
        -0.42383E-02
        -0.42383E-02
        -0.42383E-02
        -0.42383E-02
        -0.42383E-02
        -0.42383E-02
        -0.42383E-02
        -0.42383E-02
        -0.42383E-02
        -0.42383E-02
        -0.42383E-02
        -0.42383E-02
        -0.42383E-02
        -0.42383E-02
        -0.42383E-02
        -0.42383E-02
        -0.42383E-02
        -0.42383E-02
        -0.42383E-02
        -0.42383E-02
        -0.42383E-02
        -0.42383E-02
        -0.42383E-02
        -0.42383E-02
        -0.42383E-02
        -0.42383E-02
        -0.42383E-02
        -0.42383E-02
        -0.42383E-02
        -0.42383E-02
        -0.42383E-02
        -0.42383E-02
        -0.42383E-02
        -0.42383E-02
        -0.42383E-02
        -0.42383E-02
        -0.42383E-02
        -0.42383E-02
        -0.42383E-02
        -0.42383E-02
        -0.42383E-02
        -0.42383E-02
        -0.42383E-02
        -0.42383E-02
        -0.42383E-02
        -0.42383E-02
        -0.42383E-02
        -0.42383E-02
        -0.42383E-02
        -0.42383E-02
        -0.42383E-02
        -0.42383E-02
        -0.42383E-02
        -0.42383E-02
        -0.42383E-02
        -0.42383E-02
        -0.42383E-02
        -0.42383E-02
        -0.42383E-02
        -0.42383E-02
        -0.42383E-02
        -0.42383E-02
        -0.42383E-02
        -0.42383E-02
        -0.42383E-02
        -0.42383E-02
        -0.42383E-02
        -0.42383E-02
        -0.42383E-02
        -0.42383E-02
        -0.42383E-02
        -0.42383E-02
        -0.42383E-02
        -0.42383E-02
        -0.42383E-02
        -0.42383E-02
        -0.42383E-02
        -0.42383E-02
        -0.42383E-02
        -0.42383E-02
        -0.42383E-02
        -0.42383E-02
        -0.42383E-02
        -0.42383E-02
        -0.42383E-02
        -0.42383E-02
        -0.42383E-02
        -0.42383E-02
        -0.42383E-02
        -0.42383E-02
        -0.42383E-02
        -0.42383E-02
        -0.42383E-02
        -0.42383E-02
        -0.42383E-02
        -0.42383E-02
        -0.42383E-02
        -0.42383E-02
        -0.42383E-02
        -0.42383E-02
        -0.42383E-02
        -0.42383E-02
        -0.42383E-02
        -0.42383E-02
        -0.42383E-02
        -0.42383E-02
        -0.42383E-02
        -0.42383E-02
        -0.42383E-02
        -0.42383E-02
        -0.42383E-02
        -0.42383E-02
        -0.42383E-02
        -0.42383E-02
        -0.42383E-02
        -0.42383E-02
        -0.42383E-02
        -0.42383E-02
        -0.42383E-02
        -0.42383E-02
        -0.42383E-02
        -0.42383E-02
        -0.42383E-02
        -0.42383E-02
        -0.42383E-02
        -0.42383E-02
        -0.42383E-02
        -0.42383E-02
        -0.42383E-02
        -0.42383E-02
        -0.42383E-02
        -0.42383E-02
        -0.42383E-02
        -0.42383E-02
        -0.42383E-02
        -0.42383E-02
        -0.42383E-02
        -0.42383E-02
        -0.42383E-02
        -0.42383E-02
        -0.42383E-02
        -0.42383E-02
        -0.42383E-02
        -0.42383E-02
        -0.42383E-02
        -0.42383E-02
        -0.42383E-02
        -0.42383E-02
        -0.42383E-02
        -0.42383E-02
        -0.42383E-02
        -0.42383E-02
        -0.42383E-02
        -0.42383E-02
        -0.42383E-02
        -0.42383E-02
        -0.42383E-02
        -0.42383E-02
        -0.42383E-02
        -0.42383E-02
        -0.42383E-02
        -0.42383E-02
        -0.42383E-02
        -0.42383E-02
        -0.42383E-02
        -0.42383E-02
        -0.42383E-02
        -0.42383E-02
        -0.42383E-02
        -0.42383E-02
        -0.42383E-02
        -0.42383E-02
        -0.42383E-02
        -0.42383E-02
        -0.42383E-02
        -0.42383E-02
        -0.42383E-02
        -0.42383E-02
        -0.42383E-02
        -0.42383E-02
        -0.42383E-02
        -0.42383E-02
        -0.42383E-02
        -0.42383E-02
        -0.42383E-02
        -0.42383E-02
        -0.42383E-02
        -0.42383E-02
        -0.42383E-02
        -0.42383E-02
        -0.42383E-02
        -0.42383E-02
        -0.42383E-02
        -0.42383E-02
        -0.42383E-02
        -0.42383E-02
        -0.42383E-02
        -0.42383E-02
        -0.42383E-02
        -0.42383E-02
        -0.42383E-02
        -0.42383E-02
        -0.42383E-02
        -0.42383E-02
        -0.42383E-02
        -0.42383E-02
        -0.42383E-02
        -0.42383E-02
        -0.42383E-02
        -0.42383E-02
        -0.42383E-02
        -0.42383E-02
        -0.42383E-02
        -0.42383E-02
        -0.42383E-02
        -0.42383E-02
        -0.42383E-02
        -0.42383E-02
        -0.42383E-02
        -0.42383E-02
        -0.42383E-02
        -0.42383E-02
        -0.42383E-02
        -0.42383E-02
        -0.42383E-02
        -0.42383E-02
        -0.42383E-02
        -0.42383E-02
        -0.42383E-02
        -0.42383E-02
        -0.42383E-02
        -0.42383E-02
        -0.42383E-02
        -0.42383E-02
        -0.42383E-02
        -0.42383E-02
        -0.42383E-02
        -0.42383E-02
        -0.42383E-02
        -0.42383E-02
        -0.42383E-02
        -0.42383E-02
        -0.42383E-02
        -0.42383E-02
        -0.42383E-02
        -0.42383E-02
        -0.42383E-02
        -0.42383E-02
        -0.42383E-02
        -0.42383E-02
        -0.42383E-02
        -0.42383E-02
        -0.42383E-02
        -0.42383E-02
        -0.42383E-02
        -0.42383E-02
        -0.42383E-02
        -0.42383E-02
        -0.42383E-02
        -0.42383E-02
        -0.42383E-02
        -0.42383E-02
        -0.42383E-02
        -0.42383E-02
        -0.42383E-02
        -0.42383E-02
        -0.42383E-02
        -0.42383E-02
        -0.42383E-02
        -0.42383E-02
        -0.42383E-02
        -0.42383E-02
        -0.42383E-02
        -0.42383E-02
        -0.42383E-02
        -0.42383E-02
        -0.42383E-02
        -0.42383E-02
        -0.42383E-02
        -0.42383E-02
        -0.42383E-02
        -0.42383E-02
        -0.42383E-02
        -0.42383E-02
        -0.42383E-02
        -0.42383E-02
        -0.42383E-02
        -0.42383E-02
        -0.42383E-02
        -0.42383E-02
        -0.42383E-02
        -0.42383E-02
        -0.42383E-02
        -0.42383E-02
        -0.42383E-02
        -0.42383E-02
        -0.42383E-02
        -0.42383E-02
        -0.42383E-02
        -0.42383E-02
        -0.42383E-02
        -0.42383E-02
        -0.42383E-02
        -0.42383E-02
        -0.42383E-02
        -0.42383E-02
        -0.42383E-02
        -0.42383E-02
        -0.42383E-02
        -0.42383E-02
        -0.42383E-02
        -0.42383E-02
        -0.42383E-02
        -0.42383E-02
        -0.42383E-02
        -0.42383E-02
        -0.42383E-02
        -0.42383E-02
        -0.42383E-02
        -0.42383E-02
        -0.42383E-02
        -0.42383E-02
        -0.42383E-02
        -0.42383E-02
        -0.42383E-02
        -0.42383E-02
        -0.42383E-02
        -0.42383E-02
        -0.42383E-02
        -0.42383E-02
        -0.42383E-02
        -0.42383E-02
        -0.42383E-02
        -0.42383E-02
        -0.42383E-02
        -0.42383E-02
        -0.42383E-02
        -0.42383E-02
        -0.42383E-02
        -0.42383E-02
        -0.42383E-02
        -0.42383E-02
        -0.42383E-02
        -0.42383E-02
        -0.42383E-02
        -0.42383E-02
        -0.42383E-02
        -0.42383E-02
        -0.42383E-02
        -0.42383E-02
        -0.42383E-02
        -0.42383E-02
        -0.42383E-02
        -0.42383E-02
        -0.42383E-02
        -0.42383E-02
        -0.42383E-02
        -0.42383E-02
        -0.42383E-02
        -0.42383E-02
        -0.42383E-02
        -0.42383E-02
        -0.42383E-02
        -0.42383E-02
        -0.42383E-02
        -0.42383E-02
        -0.42383E-02
        -0.42383E-02
        -0.42383E-02
        -0.42383E-02
        -0.42383E-02
        -0.42383E-02
        -0.42383E-02
        -0.42383E-02
        -0.42383E-02
        -0.42383E-02
        -0.42383E-02
        -0.42383E-02
        -0.42383E-02
        -0.42383E-02
        -0.42383E-02
        -0.42383E-02
        -0.42383E-02
        -0.42383E-02
        -0.42383E-02
        -0.42383E-02
        -0.42383E-02
        -0.42383E-02
        -0.42383E-02
        -0.42383E-02
        -0.42383E-02
        -0.42383E-02
        -0.42383E-02
        -0.42383E-02
        -0.42383E-02
        -0.42383E-02
        -0.42383E-02
        -0.42383E-02
        -0.42383E-02
        -0.42383E-02
        -0.42383E-02
        -0.42383E-02
        -0.42383E-02
        -0.42383E-02
        -0.42383E-02
        -0.42383E-02
        -0.42383E-02
        -0.42383E-02
        -0.42383E-02
        -0.42383E-02
        -0.42383E-02
        -0.42383E-02
        -0.42383E-02
        -0.42383E-02
        -0.42383E-02
        -0.42383E-02
        -0.42383E-02
        -0.42383E-02
        -0.42383E-02
        -0.42383E-02
        -0.42383E-02
        -0.42383E-02
        -0.42383E-02
        -0.42383E-02
        -0.42383E-02
        -0.42383E-02
        -0.42383E-02
        -0.42383E-02
        -0.42383E-02
        -0.42383E-02
        -0.42383E-02
        -0.42383E-02
        -0.42383E-02
        -0.42383E-02
        -0.42383E-02
        -0.42383E-02
        -0.42383E-02
        -0.42383E-02
        -0.42383E-02
        -0.42383E-02
        -0.42383E-02
        -0.42383E-02
        -0.42383E-02
        -0.42383E-02
        -0.42383E-02
        -0.42383E-02
        -0.42383E-02
        -0.42383E-02
        -0.42383E-02
        -0.42383E-02
        -0.42383E-02
        -0.42383E-02
        -0.42383E-02
        -0.42383E-02
        -0.42383E-02
        -0.42383E-02
        -0.42383E-02
        -0.42383E-02
        -0.42383E-02
        -0.42383E-02
        -0.42383E-02
        -0.42383E-02
        -0.42383E-02
        -0.42383E-02
        -0.42383E-02
        -0.42383E-02
        -0.42383E-02
        -0.42383E-02
        -0.42383E-02
        -0.42383E-02
        -0.42383E-02
        -0.42383E-02
        -0.42383E-02
        -0.42383E-02
        -0.42383E-02
        -0.42383E-02
        -0.42383E-02
        -0.42383E-02
        -0.42383E-02
        -0.42383E-02
        -0.42383E-02
        -0.42383E-02
        -0.42383E-02
        -0.42383E-02
        -0.42383E-02
        -0.42383E-02
        -0.42383E-02
        -0.42383E-02
        -0.42383E-02
        -0.42383E-02
        -0.42383E-02
        -0.42383E-02
        -0.42383E-02
        -0.42383E-02
        -0.42383E-02
        -0.42383E-02
        -0.42383E-02
        -0.42383E-02
        -0.42383E-02
        -0.42383E-02
        -0.42383E-02
        -0.42383E-02
        -0.42383E-02
        -0.42383E-02
        -0.42383E-02
        -0.42383E-02
        -0.42383E-02
        -0.42383E-02
        -0.42383E-02
        -0.42383E-02
        -0.42383E-02
        -0.42383E-02
        -0.42383E-02
        -0.42383E-02
        -0.42383E-02
        -0.42383E-02
        -0.42383E-02
        -0.42383E-02
        -0.42383E-02
        -0.42383E-02
        -0.42383E-02
        -0.42383E-02
        -0.42383E-02
        -0.42383E-02
        -0.42383E-02
        -0.42383E-02
        -0.42383E-02
        -0.42383E-02
        -0.42383E-02
        -0.42383E-02
        -0.42383E-02
        -0.42383E-02
        -0.42383E-02
        -0.42383E-02
        -0.42383E-02
        -0.42383E-02
        -0.42383E-02
        -0.42383E-02
        -0.42383E-02
        -0.42383E-02
        -0.42383E-02
        -0.42383E-02
        -0.42383E-02
        -0.42383E-02
        -0.42383E-02
        -0.42383E-02
        -0.42383E-02
        -0.42383E-02
        -0.42383E-02
        -0.42383E-02
        -0.42383E-02
        -0.42383E-02
        -0.42383E-02
        -0.42383E-02
        -0.42383E-02
        -0.42383E-02
        -0.42383E-02
        -0.42383E-02
        -0.42383E-02
        -0.42383E-02
        -0.42383E-02
        -0.42383E-02
        -0.42383E-02
        -0.42383E-02
        -0.42383E-02
        -0.42383E-02
        -0.42383E-02
        -0.42383E-02
        -0.42383E-02
        -0.42383E-02
        -0.42383E-02
        -0.42383E-02
        -0.42383E-02
        -0.42383E-02
        -0.42383E-02
        -0.42383E-02
        -0.42383E-02
        -0.42383E-02
        -0.42383E-02
        -0.42383E-02
        -0.42383E-02
        -0.42383E-02
        -0.42383E-02
        -0.42383E-02
        -0.42383E-02
        -0.42383E-02
        -0.42383E-02
        -0.42383E-02
        -0.42383E-02
        -0.42383E-02
        -0.42383E-02
        -0.42383E-02
        -0.42383E-02
        -0.42383E-02
        -0.42383E-02
        -0.42383E-02
        -0.42383E-02
        -0.42383E-02
        -0.42383E-02
        -0.42383E-02
        -0.42383E-02
        -0.42383E-02
        -0.42383E-02
        -0.42383E-02
        -0.42383E-02
        -0.42383E-02
        -0.42383E-02
        -0.42383E-02
        -0.42383E-02
        -0.42383E-02
        -0.42383E-02
        -0.42383E-02
        -0.42383E-02
        -0.42383E-02
        -0.42383E-02
        -0.42383E-02
        -0.42383E-02
        -0.42383E-02
        -0.42383E-02
        -0.42383E-02
        -0.42383E-02
        -0.42383E-02
        -0.42383E-02
        -0.42383E-02
        -0.42383E-02
        -0.42383E-02
        -0.42383E-02
        -0.42383E-02
        -0.42383E-02
        -0.42383E-02
        -0.42383E-02
        -0.42383E-02
        -0.42383E-02
        -0.42383E-02
        -0.42383E-02
        -0.42383E-02
        -0.42383E-02
        -0.42383E-02
        -0.42383E-02
        -0.42383E-02
        -0.42383E-02
        -0.42383E-02
        -0.42383E-02
        -0.42383E-02
        -0.42383E-02
        -0.42383E-02
        -0.42383E-02
        -0.42383E-02
        -0.42383E-02
        -0.42383E-02
        -0.42383E-02
        -0.42383E-02
        -0.42383E-02
        -0.42383E-02
        -0.42383E-02
        -0.42383E-02
        -0.42383E-02
        -0.42383E-02
        -0.42383E-02
        -0.42383E-02
        -0.42383E-02
        -0.42383E-02
        -0.42383E-02
        -0.42383E-02
        -0.42383E-02
        -0.42383E-02
        -0.42383E-02
        -0.42383E-02
        -0.42383E-02
        -0.42383E-02
        -0.42383E-02
        -0.42383E-02
        -0.42383E-02
        -0.42383E-02
        -0.42383E-02
        -0.42383E-02
        -0.42383E-02
        -0.42383E-02
        -0.42383E-02
        -0.42383E-02
        -0.42383E-02
        -0.42383E-02
        -0.42383E-02
        -0.42383E-02
        -0.42383E-02
        -0.42383E-02
        -0.42383E-02
        -0.42383E-02
        -0.42383E-02
        -0.42383E-02
        -0.42383E-02
        -0.42383E-02
        -0.42383E-02
        -0.42383E-02
        -0.42383E-02
        -0.42383E-02
        -0.42383E-02
        -0.42383E-02
        -0.42383E-02
        -0.42383E-02
        -0.42383E-02
  
SCALARS                     velocity_x  double 1
LOOKUP_TABLE default
         0.00000E+00
         0.00000E+00
         0.00000E+00
         0.00000E+00
         0.00000E+00
         0.00000E+00
         0.00000E+00
         0.00000E+00
         0.00000E+00
         0.00000E+00
         0.00000E+00
         0.00000E+00
         0.00000E+00
         0.00000E+00
         0.00000E+00
         0.00000E+00
         0.00000E+00
         0.00000E+00
         0.00000E+00
         0.00000E+00
         0.00000E+00
         0.00000E+00
         0.00000E+00
         0.00000E+00
         0.00000E+00
         0.00000E+00
         0.00000E+00
         0.00000E+00
         0.00000E+00
         0.00000E+00
         0.00000E+00
         0.00000E+00
         0.00000E+00
         0.00000E+00
         0.00000E+00
         0.00000E+00
         0.00000E+00
         0.00000E+00
         0.00000E+00
         0.00000E+00
         0.00000E+00
         0.00000E+00
         0.00000E+00
         0.00000E+00
         0.00000E+00
         0.00000E+00
         0.00000E+00
         0.00000E+00
         0.00000E+00
         0.00000E+00
         0.00000E+00
         0.00000E+00
         0.00000E+00
         0.00000E+00
         0.00000E+00
         0.00000E+00
         0.00000E+00
         0.00000E+00
         0.00000E+00
         0.00000E+00
         0.00000E+00
         0.00000E+00
         0.00000E+00
         0.00000E+00
         0.00000E+00
         0.00000E+00
         0.00000E+00
         0.00000E+00
         0.00000E+00
         0.00000E+00
         0.00000E+00
         0.00000E+00
         0.00000E+00
         0.00000E+00
         0.00000E+00
         0.00000E+00
         0.00000E+00
         0.00000E+00
         0.00000E+00
         0.00000E+00
         0.00000E+00
         0.00000E+00
         0.00000E+00
         0.00000E+00
         0.00000E+00
         0.00000E+00
         0.00000E+00
         0.00000E+00
         0.00000E+00
         0.00000E+00
         0.00000E+00
         0.00000E+00
         0.00000E+00
         0.00000E+00
         0.00000E+00
         0.00000E+00
         0.00000E+00
         0.00000E+00
         0.00000E+00
         0.00000E+00
         0.00000E+00
         0.00000E+00
         0.00000E+00
         0.00000E+00
         0.00000E+00
         0.00000E+00
         0.00000E+00
         0.00000E+00
         0.00000E+00
         0.00000E+00
         0.00000E+00
         0.00000E+00
         0.00000E+00
         0.00000E+00
         0.00000E+00
         0.00000E+00
         0.00000E+00
         0.00000E+00
         0.00000E+00
         0.00000E+00
         0.00000E+00
         0.00000E+00
         0.00000E+00
         0.00000E+00
         0.00000E+00
         0.00000E+00
         0.00000E+00
         0.00000E+00
         0.00000E+00
         0.00000E+00
         0.00000E+00
         0.00000E+00
         0.00000E+00
         0.00000E+00
         0.00000E+00
         0.00000E+00
         0.00000E+00
         0.00000E+00
         0.00000E+00
         0.00000E+00
         0.00000E+00
         0.00000E+00
         0.00000E+00
         0.00000E+00
         0.00000E+00
         0.00000E+00
         0.00000E+00
         0.00000E+00
         0.00000E+00
         0.00000E+00
         0.00000E+00
         0.00000E+00
         0.00000E+00
         0.00000E+00
         0.00000E+00
         0.00000E+00
         0.00000E+00
         0.00000E+00
         0.00000E+00
         0.00000E+00
         0.00000E+00
         0.00000E+00
         0.00000E+00
         0.00000E+00
         0.00000E+00
         0.00000E+00
         0.00000E+00
         0.00000E+00
         0.00000E+00
         0.00000E+00
         0.00000E+00
         0.00000E+00
         0.00000E+00
         0.00000E+00
         0.00000E+00
         0.00000E+00
         0.00000E+00
         0.00000E+00
         0.00000E+00
         0.00000E+00
         0.00000E+00
         0.00000E+00
         0.00000E+00
         0.00000E+00
         0.00000E+00
         0.00000E+00
         0.00000E+00
         0.00000E+00
         0.00000E+00
         0.00000E+00
         0.00000E+00
         0.00000E+00
         0.00000E+00
         0.00000E+00
         0.00000E+00
         0.00000E+00
         0.00000E+00
         0.00000E+00
         0.00000E+00
         0.00000E+00
         0.00000E+00
         0.00000E+00
         0.00000E+00
         0.00000E+00
         0.00000E+00
         0.00000E+00
         0.00000E+00
         0.00000E+00
         0.00000E+00
         0.00000E+00
         0.00000E+00
         0.00000E+00
         0.00000E+00
         0.00000E+00
         0.00000E+00
         0.00000E+00
         0.00000E+00
         0.00000E+00
         0.00000E+00
         0.00000E+00
         0.00000E+00
         0.00000E+00
         0.00000E+00
         0.00000E+00
         0.00000E+00
         0.00000E+00
         0.00000E+00
         0.00000E+00
         0.00000E+00
         0.00000E+00
         0.00000E+00
         0.00000E+00
         0.00000E+00
         0.00000E+00
         0.00000E+00
         0.00000E+00
         0.00000E+00
         0.00000E+00
         0.00000E+00
         0.00000E+00
         0.00000E+00
         0.00000E+00
         0.00000E+00
         0.00000E+00
         0.00000E+00
         0.00000E+00
         0.00000E+00
         0.00000E+00
         0.00000E+00
         0.00000E+00
         0.00000E+00
         0.00000E+00
         0.00000E+00
         0.00000E+00
         0.00000E+00
         0.00000E+00
         0.00000E+00
         0.00000E+00
         0.00000E+00
         0.00000E+00
         0.00000E+00
         0.00000E+00
         0.00000E+00
         0.00000E+00
         0.00000E+00
         0.00000E+00
         0.00000E+00
         0.00000E+00
         0.00000E+00
         0.00000E+00
         0.00000E+00
         0.00000E+00
         0.00000E+00
         0.00000E+00
         0.00000E+00
         0.00000E+00
         0.00000E+00
         0.00000E+00
         0.00000E+00
         0.00000E+00
         0.00000E+00
         0.00000E+00
         0.00000E+00
         0.00000E+00
         0.00000E+00
         0.00000E+00
         0.00000E+00
         0.00000E+00
         0.00000E+00
         0.00000E+00
         0.00000E+00
         0.00000E+00
         0.00000E+00
         0.00000E+00
         0.00000E+00
         0.00000E+00
         0.00000E+00
         0.00000E+00
         0.00000E+00
         0.00000E+00
         0.00000E+00
         0.00000E+00
         0.00000E+00
         0.00000E+00
         0.00000E+00
         0.00000E+00
         0.00000E+00
         0.00000E+00
         0.00000E+00
         0.00000E+00
         0.00000E+00
         0.00000E+00
         0.00000E+00
         0.00000E+00
         0.00000E+00
         0.00000E+00
         0.00000E+00
         0.00000E+00
         0.00000E+00
         0.00000E+00
         0.00000E+00
         0.00000E+00
         0.00000E+00
         0.00000E+00
         0.00000E+00
         0.00000E+00
         0.00000E+00
         0.00000E+00
         0.00000E+00
         0.00000E+00
         0.00000E+00
         0.00000E+00
         0.00000E+00
         0.00000E+00
         0.00000E+00
         0.00000E+00
         0.00000E+00
         0.00000E+00
         0.00000E+00
         0.00000E+00
         0.00000E+00
         0.00000E+00
         0.00000E+00
         0.00000E+00
         0.00000E+00
         0.00000E+00
         0.00000E+00
         0.00000E+00
         0.00000E+00
         0.00000E+00
         0.00000E+00
         0.00000E+00
         0.00000E+00
         0.00000E+00
         0.00000E+00
         0.00000E+00
         0.00000E+00
         0.00000E+00
         0.00000E+00
         0.00000E+00
         0.00000E+00
         0.00000E+00
         0.00000E+00
         0.00000E+00
         0.00000E+00
         0.00000E+00
         0.00000E+00
         0.00000E+00
         0.00000E+00
         0.00000E+00
         0.00000E+00
         0.00000E+00
         0.00000E+00
         0.00000E+00
         0.00000E+00
         0.00000E+00
         0.00000E+00
         0.00000E+00
         0.00000E+00
         0.00000E+00
         0.00000E+00
         0.00000E+00
         0.00000E+00
         0.00000E+00
         0.00000E+00
         0.00000E+00
         0.00000E+00
         0.00000E+00
         0.00000E+00
         0.00000E+00
         0.00000E+00
         0.00000E+00
         0.00000E+00
         0.00000E+00
         0.00000E+00
         0.00000E+00
         0.00000E+00
         0.00000E+00
         0.00000E+00
         0.00000E+00
         0.00000E+00
         0.00000E+00
         0.00000E+00
         0.00000E+00
         0.00000E+00
         0.00000E+00
         0.00000E+00
         0.00000E+00
         0.00000E+00
         0.00000E+00
         0.00000E+00
         0.00000E+00
         0.00000E+00
         0.00000E+00
         0.00000E+00
         0.00000E+00
         0.00000E+00
         0.00000E+00
         0.00000E+00
         0.00000E+00
         0.00000E+00
         0.00000E+00
         0.00000E+00
         0.00000E+00
         0.00000E+00
         0.00000E+00
         0.00000E+00
         0.00000E+00
         0.00000E+00
         0.00000E+00
         0.00000E+00
         0.00000E+00
         0.00000E+00
         0.00000E+00
         0.00000E+00
         0.00000E+00
         0.00000E+00
         0.00000E+00
         0.00000E+00
         0.00000E+00
         0.00000E+00
         0.00000E+00
         0.00000E+00
         0.00000E+00
         0.00000E+00
         0.00000E+00
         0.00000E+00
         0.00000E+00
         0.00000E+00
         0.00000E+00
         0.00000E+00
         0.00000E+00
         0.00000E+00
         0.00000E+00
         0.00000E+00
         0.00000E+00
         0.00000E+00
         0.00000E+00
         0.00000E+00
         0.00000E+00
         0.00000E+00
         0.00000E+00
         0.00000E+00
         0.00000E+00
         0.00000E+00
         0.00000E+00
         0.00000E+00
         0.00000E+00
         0.00000E+00
         0.00000E+00
         0.00000E+00
         0.00000E+00
         0.00000E+00
         0.00000E+00
         0.00000E+00
         0.00000E+00
         0.00000E+00
         0.00000E+00
         0.00000E+00
         0.00000E+00
         0.00000E+00
         0.00000E+00
         0.00000E+00
         0.00000E+00
         0.00000E+00
         0.00000E+00
         0.00000E+00
         0.00000E+00
         0.00000E+00
         0.00000E+00
         0.00000E+00
         0.00000E+00
         0.00000E+00
         0.00000E+00
         0.00000E+00
         0.00000E+00
         0.00000E+00
         0.00000E+00
         0.00000E+00
         0.00000E+00
         0.00000E+00
         0.00000E+00
         0.00000E+00
         0.00000E+00
         0.00000E+00
         0.00000E+00
         0.00000E+00
         0.00000E+00
         0.00000E+00
         0.00000E+00
         0.00000E+00
         0.00000E+00
         0.00000E+00
         0.00000E+00
         0.00000E+00
         0.00000E+00
         0.00000E+00
         0.00000E+00
         0.00000E+00
         0.00000E+00
         0.00000E+00
         0.00000E+00
         0.00000E+00
         0.00000E+00
         0.00000E+00
         0.00000E+00
         0.00000E+00
         0.00000E+00
         0.00000E+00
         0.00000E+00
         0.00000E+00
         0.00000E+00
         0.00000E+00
         0.00000E+00
         0.00000E+00
         0.00000E+00
         0.00000E+00
         0.00000E+00
         0.00000E+00
         0.00000E+00
         0.00000E+00
         0.00000E+00
         0.00000E+00
         0.00000E+00
         0.00000E+00
         0.00000E+00
         0.00000E+00
         0.00000E+00
         0.00000E+00
         0.00000E+00
         0.00000E+00
         0.00000E+00
         0.00000E+00
         0.00000E+00
         0.00000E+00
         0.00000E+00
         0.00000E+00
         0.00000E+00
         0.00000E+00
         0.00000E+00
         0.00000E+00
         0.00000E+00
         0.00000E+00
         0.00000E+00
         0.00000E+00
         0.00000E+00
         0.00000E+00
         0.00000E+00
         0.00000E+00
         0.00000E+00
         0.00000E+00
         0.00000E+00
         0.00000E+00
         0.00000E+00
         0.00000E+00
         0.00000E+00
         0.00000E+00
         0.00000E+00
         0.00000E+00
         0.00000E+00
         0.00000E+00
         0.00000E+00
         0.00000E+00
         0.00000E+00
         0.00000E+00
         0.00000E+00
         0.00000E+00
         0.00000E+00
         0.00000E+00
         0.00000E+00
         0.00000E+00
         0.00000E+00
         0.00000E+00
         0.00000E+00
         0.00000E+00
         0.00000E+00
         0.00000E+00
         0.00000E+00
         0.00000E+00
         0.00000E+00
         0.00000E+00
         0.00000E+00
         0.00000E+00
         0.00000E+00
         0.00000E+00
         0.00000E+00
         0.00000E+00
         0.00000E+00
         0.00000E+00
         0.00000E+00
         0.00000E+00
         0.00000E+00
         0.00000E+00
         0.00000E+00
         0.00000E+00
         0.00000E+00
         0.00000E+00
         0.00000E+00
         0.00000E+00
         0.00000E+00
         0.00000E+00
         0.00000E+00
         0.00000E+00
         0.00000E+00
         0.00000E+00
         0.00000E+00
         0.00000E+00
         0.00000E+00
         0.00000E+00
         0.00000E+00
         0.00000E+00
         0.00000E+00
         0.00000E+00
         0.00000E+00
         0.00000E+00
         0.00000E+00
         0.00000E+00
         0.00000E+00
         0.00000E+00
         0.00000E+00
         0.00000E+00
         0.00000E+00
         0.00000E+00
         0.00000E+00
         0.00000E+00
         0.00000E+00
         0.00000E+00
         0.00000E+00
         0.00000E+00
         0.00000E+00
         0.00000E+00
         0.00000E+00
         0.00000E+00
         0.00000E+00
         0.00000E+00
         0.00000E+00
         0.00000E+00
         0.00000E+00
         0.00000E+00
         0.00000E+00
         0.00000E+00
         0.00000E+00
         0.00000E+00
         0.00000E+00
         0.00000E+00
         0.00000E+00
         0.00000E+00
         0.00000E+00
         0.00000E+00
         0.00000E+00
         0.00000E+00
         0.00000E+00
         0.00000E+00
         0.00000E+00
         0.00000E+00
         0.00000E+00
         0.00000E+00
         0.00000E+00
         0.00000E+00
         0.00000E+00
         0.00000E+00
         0.00000E+00
         0.00000E+00
         0.00000E+00
         0.00000E+00
         0.00000E+00
         0.00000E+00
         0.00000E+00
         0.00000E+00
         0.00000E+00
         0.00000E+00
         0.00000E+00
         0.00000E+00
         0.00000E+00
         0.00000E+00
         0.00000E+00
         0.00000E+00
         0.00000E+00
         0.00000E+00
         0.00000E+00
         0.00000E+00
         0.00000E+00
         0.00000E+00
         0.00000E+00
         0.00000E+00
         0.00000E+00
         0.00000E+00
         0.00000E+00
         0.00000E+00
         0.00000E+00
         0.00000E+00
         0.00000E+00
         0.00000E+00
         0.00000E+00
         0.00000E+00
         0.00000E+00
         0.00000E+00
         0.00000E+00
         0.00000E+00
         0.00000E+00
         0.00000E+00
         0.00000E+00
         0.00000E+00
         0.00000E+00
         0.00000E+00
         0.00000E+00
         0.00000E+00
         0.00000E+00
         0.00000E+00
         0.00000E+00
         0.00000E+00
         0.00000E+00
         0.00000E+00
         0.00000E+00
         0.00000E+00
         0.00000E+00
         0.00000E+00
         0.00000E+00
         0.00000E+00
         0.00000E+00
         0.00000E+00
         0.00000E+00
         0.00000E+00
         0.00000E+00
         0.00000E+00
         0.00000E+00
         0.00000E+00
         0.00000E+00
         0.00000E+00
         0.00000E+00
         0.00000E+00
         0.00000E+00
         0.00000E+00
         0.00000E+00
         0.00000E+00
         0.00000E+00
         0.00000E+00
         0.00000E+00
         0.00000E+00
         0.00000E+00
         0.00000E+00
         0.00000E+00
         0.00000E+00
         0.00000E+00
         0.00000E+00
         0.00000E+00
         0.00000E+00
         0.00000E+00
         0.00000E+00
         0.00000E+00
         0.00000E+00
         0.00000E+00
         0.00000E+00
         0.00000E+00
         0.00000E+00
         0.00000E+00
         0.00000E+00
         0.00000E+00
         0.00000E+00
         0.00000E+00
         0.00000E+00
         0.00000E+00
         0.00000E+00
         0.00000E+00
         0.00000E+00
         0.00000E+00
         0.00000E+00
         0.00000E+00
         0.00000E+00
         0.00000E+00
         0.00000E+00
         0.00000E+00
         0.00000E+00
         0.00000E+00
         0.00000E+00
         0.00000E+00
         0.00000E+00
         0.00000E+00
         0.00000E+00
         0.00000E+00
         0.00000E+00
         0.00000E+00
         0.00000E+00
         0.00000E+00
         0.00000E+00
         0.00000E+00
         0.00000E+00
         0.00000E+00
         0.00000E+00
         0.00000E+00
         0.00000E+00
         0.00000E+00
         0.00000E+00
         0.00000E+00
         0.00000E+00
         0.00000E+00
         0.00000E+00
         0.00000E+00
         0.00000E+00
         0.00000E+00
         0.00000E+00
         0.00000E+00
         0.00000E+00
         0.00000E+00
         0.00000E+00
         0.00000E+00
         0.00000E+00
         0.00000E+00
         0.00000E+00
         0.00000E+00
         0.00000E+00
         0.00000E+00
         0.00000E+00
         0.00000E+00
         0.00000E+00
         0.00000E+00
         0.00000E+00
         0.00000E+00
         0.00000E+00
         0.00000E+00
         0.00000E+00
         0.00000E+00
         0.00000E+00
         0.00000E+00
         0.00000E+00
         0.00000E+00
         0.00000E+00
         0.00000E+00
         0.00000E+00
         0.00000E+00
         0.00000E+00
         0.00000E+00
         0.00000E+00
         0.00000E+00
         0.00000E+00
         0.00000E+00
         0.00000E+00
         0.00000E+00
         0.00000E+00
         0.00000E+00
         0.00000E+00
         0.00000E+00
         0.00000E+00
         0.00000E+00
         0.00000E+00
         0.00000E+00
         0.00000E+00
         0.00000E+00
         0.00000E+00
         0.00000E+00
         0.00000E+00
         0.00000E+00
         0.00000E+00
         0.00000E+00
         0.00000E+00
         0.00000E+00
         0.00000E+00
         0.00000E+00
         0.00000E+00
         0.00000E+00
         0.00000E+00
         0.00000E+00
         0.00000E+00
         0.00000E+00
         0.00000E+00
         0.00000E+00
         0.00000E+00
         0.00000E+00
         0.00000E+00
         0.00000E+00
         0.00000E+00
         0.00000E+00
         0.00000E+00
         0.00000E+00
         0.00000E+00
         0.00000E+00
         0.00000E+00
         0.00000E+00
         0.00000E+00
         0.00000E+00
         0.00000E+00
         0.00000E+00
         0.00000E+00
         0.00000E+00
         0.00000E+00
         0.00000E+00
         0.00000E+00
         0.00000E+00
         0.00000E+00
         0.00000E+00
         0.00000E+00
         0.00000E+00
         0.00000E+00
         0.00000E+00
         0.00000E+00
         0.00000E+00
         0.00000E+00
         0.00000E+00
         0.00000E+00
         0.00000E+00
         0.00000E+00
         0.00000E+00
         0.00000E+00
         0.00000E+00
         0.00000E+00
         0.00000E+00
         0.00000E+00
         0.00000E+00
         0.00000E+00
         0.00000E+00
         0.00000E+00
         0.00000E+00
         0.00000E+00
         0.00000E+00
         0.00000E+00
         0.00000E+00
         0.00000E+00
         0.00000E+00
         0.00000E+00
         0.00000E+00
         0.00000E+00
         0.00000E+00
         0.00000E+00
         0.00000E+00
         0.00000E+00
         0.00000E+00
         0.00000E+00
         0.00000E+00
         0.00000E+00
         0.00000E+00
         0.00000E+00
         0.00000E+00
         0.00000E+00
         0.00000E+00
         0.00000E+00
         0.00000E+00
         0.00000E+00
         0.00000E+00
         0.00000E+00
         0.00000E+00
         0.00000E+00
         0.00000E+00
         0.00000E+00
         0.00000E+00
         0.00000E+00
         0.00000E+00
         0.00000E+00
         0.00000E+00
         0.00000E+00
         0.00000E+00
         0.00000E+00
         0.00000E+00
         0.00000E+00
         0.00000E+00
         0.00000E+00
         0.00000E+00
         0.00000E+00
         0.00000E+00
         0.00000E+00
         0.00000E+00
         0.00000E+00
         0.00000E+00
         0.00000E+00
         0.00000E+00
         0.00000E+00
         0.00000E+00
         0.00000E+00
         0.00000E+00
         0.00000E+00
         0.00000E+00
         0.00000E+00
         0.00000E+00
         0.00000E+00
         0.00000E+00
         0.00000E+00
         0.00000E+00
         0.00000E+00
         0.00000E+00
         0.00000E+00
         0.00000E+00
         0.00000E+00
         0.00000E+00
         0.00000E+00
         0.00000E+00
         0.00000E+00
         0.00000E+00
         0.00000E+00
         0.00000E+00
         0.00000E+00
         0.00000E+00
         0.00000E+00
         0.00000E+00
         0.00000E+00
         0.00000E+00
         0.00000E+00
         0.00000E+00
         0.00000E+00
         0.00000E+00
         0.00000E+00
         0.00000E+00
         0.00000E+00
         0.00000E+00
         0.00000E+00
         0.00000E+00
         0.00000E+00
         0.00000E+00
         0.00000E+00
         0.00000E+00
         0.00000E+00
         0.00000E+00
         0.00000E+00
         0.00000E+00
         0.00000E+00
         0.00000E+00
         0.00000E+00
         0.00000E+00
         0.00000E+00
         0.00000E+00
         0.00000E+00
         0.00000E+00
         0.00000E+00
         0.00000E+00
         0.00000E+00
         0.00000E+00
         0.00000E+00
         0.00000E+00
         0.00000E+00
         0.00000E+00
         0.00000E+00
         0.00000E+00
         0.00000E+00
         0.00000E+00
         0.00000E+00
         0.00000E+00
         0.00000E+00
         0.00000E+00
         0.00000E+00
         0.00000E+00
         0.00000E+00
         0.00000E+00
         0.00000E+00
         0.00000E+00
         0.00000E+00
         0.00000E+00
         0.00000E+00
         0.00000E+00
         0.00000E+00
         0.00000E+00
         0.00000E+00
         0.00000E+00
         0.00000E+00
         0.00000E+00
         0.00000E+00
         0.00000E+00
         0.00000E+00
         0.00000E+00
         0.00000E+00
         0.00000E+00
         0.00000E+00
         0.00000E+00
         0.00000E+00
         0.00000E+00
         0.00000E+00
         0.00000E+00
         0.00000E+00
         0.00000E+00
         0.00000E+00
         0.00000E+00
         0.00000E+00
         0.00000E+00
         0.00000E+00
         0.00000E+00
         0.00000E+00
         0.00000E+00
         0.00000E+00
         0.00000E+00
         0.00000E+00
         0.00000E+00
         0.00000E+00
         0.00000E+00
         0.00000E+00
         0.00000E+00
         0.00000E+00
         0.00000E+00
         0.00000E+00
         0.00000E+00
         0.00000E+00
         0.00000E+00
         0.00000E+00
         0.00000E+00
         0.00000E+00
         0.00000E+00
         0.00000E+00
         0.00000E+00
         0.00000E+00
         0.00000E+00
         0.00000E+00
         0.00000E+00
         0.00000E+00
         0.00000E+00
         0.00000E+00
         0.00000E+00
         0.00000E+00
         0.00000E+00
         0.00000E+00
         0.00000E+00
         0.00000E+00
         0.00000E+00
         0.00000E+00
         0.00000E+00
         0.00000E+00
         0.00000E+00
         0.00000E+00
         0.00000E+00
         0.00000E+00
         0.00000E+00
         0.00000E+00
         0.00000E+00
         0.00000E+00
         0.00000E+00
         0.00000E+00
         0.00000E+00
         0.00000E+00
         0.00000E+00
         0.00000E+00
         0.00000E+00
         0.00000E+00
         0.00000E+00
         0.00000E+00
         0.00000E+00
         0.00000E+00
         0.00000E+00
         0.00000E+00
         0.00000E+00
         0.00000E+00
         0.00000E+00
         0.00000E+00
         0.00000E+00
         0.00000E+00
         0.00000E+00
         0.00000E+00
         0.00000E+00
         0.00000E+00
         0.00000E+00
         0.00000E+00
         0.00000E+00
         0.00000E+00
         0.00000E+00
         0.00000E+00
         0.00000E+00
         0.00000E+00
         0.00000E+00
         0.00000E+00
         0.00000E+00
         0.00000E+00
         0.00000E+00
         0.00000E+00
         0.00000E+00
         0.00000E+00
         0.00000E+00
         0.00000E+00
         0.00000E+00
         0.00000E+00
         0.00000E+00
         0.00000E+00
         0.00000E+00
         0.00000E+00
         0.00000E+00
         0.00000E+00
         0.00000E+00
         0.00000E+00
         0.00000E+00
         0.00000E+00
         0.00000E+00
         0.00000E+00
         0.00000E+00
         0.00000E+00
         0.00000E+00
         0.00000E+00
         0.00000E+00
         0.00000E+00
         0.00000E+00
         0.00000E+00
         0.00000E+00
         0.00000E+00
         0.00000E+00
         0.00000E+00
         0.00000E+00
         0.00000E+00
         0.00000E+00
         0.00000E+00
         0.00000E+00
         0.00000E+00
         0.00000E+00
         0.00000E+00
         0.00000E+00
         0.00000E+00
         0.00000E+00
         0.00000E+00
         0.00000E+00
         0.00000E+00
         0.00000E+00
         0.00000E+00
         0.00000E+00
         0.00000E+00
         0.00000E+00
         0.00000E+00
         0.00000E+00
         0.00000E+00
         0.00000E+00
         0.00000E+00
         0.00000E+00
         0.00000E+00
         0.00000E+00
         0.00000E+00
         0.00000E+00
         0.00000E+00
         0.00000E+00
         0.00000E+00
         0.00000E+00
         0.00000E+00
         0.00000E+00
         0.00000E+00
         0.00000E+00
         0.00000E+00
         0.00000E+00
         0.00000E+00
         0.00000E+00
         0.00000E+00
         0.00000E+00
         0.00000E+00
         0.00000E+00
         0.00000E+00
         0.00000E+00
         0.00000E+00
         0.00000E+00
         0.00000E+00
         0.00000E+00
         0.00000E+00
         0.00000E+00
         0.00000E+00
         0.00000E+00
         0.00000E+00
         0.00000E+00
         0.00000E+00
         0.00000E+00
         0.00000E+00
         0.00000E+00
         0.00000E+00
         0.00000E+00
         0.00000E+00
         0.00000E+00
         0.00000E+00
         0.00000E+00
         0.00000E+00
         0.00000E+00
         0.00000E+00
         0.00000E+00
         0.00000E+00
         0.00000E+00
         0.00000E+00
         0.00000E+00
         0.00000E+00
         0.00000E+00
         0.00000E+00
         0.00000E+00
         0.00000E+00
         0.00000E+00
         0.00000E+00
         0.00000E+00
         0.00000E+00
         0.00000E+00
         0.00000E+00
         0.00000E+00
         0.00000E+00
         0.00000E+00
         0.00000E+00
         0.00000E+00
         0.00000E+00
         0.00000E+00
         0.00000E+00
         0.00000E+00
         0.00000E+00
         0.00000E+00
         0.00000E+00
         0.00000E+00
         0.00000E+00
         0.00000E+00
         0.00000E+00
         0.00000E+00
         0.00000E+00
         0.00000E+00
         0.00000E+00
         0.00000E+00
         0.00000E+00
         0.00000E+00
         0.00000E+00
         0.00000E+00
         0.00000E+00
         0.00000E+00
         0.00000E+00
         0.00000E+00
         0.00000E+00
         0.00000E+00
         0.00000E+00
         0.00000E+00
         0.00000E+00
         0.00000E+00
         0.00000E+00
         0.00000E+00
         0.00000E+00
         0.00000E+00
         0.00000E+00
         0.00000E+00
         0.00000E+00
         0.00000E+00
         0.00000E+00
         0.00000E+00
         0.00000E+00
         0.00000E+00
         0.00000E+00
         0.00000E+00
         0.00000E+00
         0.00000E+00
         0.00000E+00
         0.00000E+00
         0.00000E+00
         0.00000E+00
         0.00000E+00
         0.00000E+00
         0.00000E+00
         0.00000E+00
         0.00000E+00
         0.00000E+00
         0.00000E+00
         0.00000E+00
         0.00000E+00
         0.00000E+00
         0.00000E+00
         0.00000E+00
         0.00000E+00
         0.00000E+00
         0.00000E+00
         0.00000E+00
         0.00000E+00
         0.00000E+00
         0.00000E+00
         0.00000E+00
         0.00000E+00
         0.00000E+00
         0.00000E+00
         0.00000E+00
         0.00000E+00
         0.00000E+00
         0.00000E+00
         0.00000E+00
         0.00000E+00
         0.00000E+00
         0.00000E+00
         0.00000E+00
         0.00000E+00
         0.00000E+00
         0.00000E+00
         0.00000E+00
         0.00000E+00
         0.00000E+00
         0.00000E+00
         0.00000E+00
         0.00000E+00
         0.00000E+00
         0.00000E+00
         0.00000E+00
         0.00000E+00
         0.00000E+00
         0.00000E+00
         0.00000E+00
         0.00000E+00
         0.00000E+00
         0.00000E+00
         0.00000E+00
         0.00000E+00
         0.00000E+00
         0.00000E+00
         0.00000E+00
         0.00000E+00
         0.00000E+00
         0.00000E+00
         0.00000E+00
         0.00000E+00
         0.00000E+00
         0.00000E+00
         0.00000E+00
         0.00000E+00
         0.00000E+00
         0.00000E+00
         0.00000E+00
         0.00000E+00
         0.00000E+00
         0.00000E+00
         0.00000E+00
         0.00000E+00
         0.00000E+00
         0.00000E+00
         0.00000E+00
         0.00000E+00
         0.00000E+00
         0.00000E+00
         0.00000E+00
         0.00000E+00
         0.00000E+00
         0.00000E+00
         0.00000E+00
         0.00000E+00
         0.00000E+00
         0.00000E+00
         0.00000E+00
         0.00000E+00
         0.00000E+00
         0.00000E+00
         0.00000E+00
         0.00000E+00
         0.00000E+00
         0.00000E+00
         0.00000E+00
         0.00000E+00
         0.00000E+00
         0.00000E+00
         0.00000E+00
         0.00000E+00
         0.00000E+00
         0.00000E+00
         0.00000E+00
         0.00000E+00
         0.00000E+00
         0.00000E+00
         0.00000E+00
         0.00000E+00
         0.00000E+00
         0.00000E+00
         0.00000E+00
         0.00000E+00
         0.00000E+00
         0.00000E+00
         0.00000E+00
         0.00000E+00
         0.00000E+00
         0.00000E+00
         0.00000E+00
         0.00000E+00
         0.00000E+00
         0.00000E+00
         0.00000E+00
         0.00000E+00
         0.00000E+00
         0.00000E+00
         0.00000E+00
         0.00000E+00
         0.00000E+00
         0.00000E+00
         0.00000E+00
         0.00000E+00
         0.00000E+00
         0.00000E+00
         0.00000E+00
         0.00000E+00
         0.00000E+00
         0.00000E+00
         0.00000E+00
         0.00000E+00
         0.00000E+00
         0.00000E+00
         0.00000E+00
         0.00000E+00
         0.00000E+00
         0.00000E+00
         0.00000E+00
         0.00000E+00
         0.00000E+00
         0.00000E+00
         0.00000E+00
         0.00000E+00
         0.00000E+00
         0.00000E+00
         0.00000E+00
         0.00000E+00
         0.00000E+00
         0.00000E+00
         0.00000E+00
         0.00000E+00
         0.00000E+00
         0.00000E+00
         0.00000E+00
         0.00000E+00
         0.00000E+00
         0.00000E+00
         0.00000E+00
         0.00000E+00
         0.00000E+00
         0.00000E+00
         0.00000E+00
         0.00000E+00
         0.00000E+00
         0.00000E+00
         0.00000E+00
         0.00000E+00
         0.00000E+00
         0.00000E+00
         0.00000E+00
         0.00000E+00
         0.00000E+00
         0.00000E+00
         0.00000E+00
         0.00000E+00
         0.00000E+00
         0.00000E+00
         0.00000E+00
         0.00000E+00
         0.00000E+00
         0.00000E+00
         0.00000E+00
         0.00000E+00
         0.00000E+00
         0.00000E+00
         0.00000E+00
         0.00000E+00
         0.00000E+00
         0.00000E+00
         0.00000E+00
         0.00000E+00
         0.00000E+00
         0.00000E+00
         0.00000E+00
         0.00000E+00
         0.00000E+00
         0.00000E+00
         0.00000E+00
         0.00000E+00
         0.00000E+00
         0.00000E+00
         0.00000E+00
         0.00000E+00
         0.00000E+00
         0.00000E+00
         0.00000E+00
         0.00000E+00
         0.00000E+00
         0.00000E+00
         0.00000E+00
         0.00000E+00
         0.00000E+00
         0.00000E+00
         0.00000E+00
         0.00000E+00
         0.00000E+00
         0.00000E+00
         0.00000E+00
         0.00000E+00
         0.00000E+00
         0.00000E+00
         0.00000E+00
         0.00000E+00
         0.00000E+00
         0.00000E+00
         0.00000E+00
         0.00000E+00
         0.00000E+00
         0.00000E+00
         0.00000E+00
         0.00000E+00
         0.00000E+00
         0.00000E+00
         0.00000E+00
         0.00000E+00
         0.00000E+00
         0.00000E+00
         0.00000E+00
         0.00000E+00
         0.00000E+00
         0.00000E+00
         0.00000E+00
         0.00000E+00
         0.00000E+00
         0.00000E+00
         0.00000E+00
         0.00000E+00
         0.00000E+00
         0.00000E+00
         0.00000E+00
         0.00000E+00
         0.00000E+00
         0.00000E+00
         0.00000E+00
         0.00000E+00
         0.00000E+00
         0.00000E+00
         0.00000E+00
         0.00000E+00
         0.00000E+00
         0.00000E+00
         0.00000E+00
         0.00000E+00
         0.00000E+00
         0.00000E+00
         0.00000E+00
         0.00000E+00
         0.00000E+00
         0.00000E+00
         0.00000E+00
         0.00000E+00
         0.00000E+00
         0.00000E+00
         0.00000E+00
         0.00000E+00
         0.00000E+00
         0.00000E+00
         0.00000E+00
         0.00000E+00
         0.00000E+00
         0.00000E+00
         0.00000E+00
         0.00000E+00
         0.00000E+00
         0.00000E+00
         0.00000E+00
         0.00000E+00
         0.00000E+00
         0.00000E+00
         0.00000E+00
         0.00000E+00
         0.00000E+00
         0.00000E+00
         0.00000E+00
         0.00000E+00
         0.00000E+00
         0.00000E+00
         0.00000E+00
         0.00000E+00
         0.00000E+00
         0.00000E+00
         0.00000E+00
         0.00000E+00
         0.00000E+00
         0.00000E+00
         0.00000E+00
         0.00000E+00
         0.00000E+00
         0.00000E+00
         0.00000E+00
         0.00000E+00
         0.00000E+00
         0.00000E+00
         0.00000E+00
         0.00000E+00
         0.00000E+00
         0.00000E+00
         0.00000E+00
         0.00000E+00
         0.00000E+00
         0.00000E+00
         0.00000E+00
         0.00000E+00
         0.00000E+00
         0.00000E+00
         0.00000E+00
         0.00000E+00
         0.00000E+00
         0.00000E+00
         0.00000E+00
         0.00000E+00
         0.00000E+00
         0.00000E+00
         0.00000E+00
         0.00000E+00
         0.00000E+00
         0.00000E+00
         0.00000E+00
         0.00000E+00
         0.00000E+00
         0.00000E+00
         0.00000E+00
         0.00000E+00
         0.00000E+00
         0.00000E+00
         0.00000E+00
         0.00000E+00
         0.00000E+00
         0.00000E+00
         0.00000E+00
         0.00000E+00
         0.00000E+00
         0.00000E+00
         0.00000E+00
         0.00000E+00
         0.00000E+00
         0.00000E+00
         0.00000E+00
         0.00000E+00
         0.00000E+00
         0.00000E+00
         0.00000E+00
         0.00000E+00
         0.00000E+00
         0.00000E+00
         0.00000E+00
         0.00000E+00
         0.00000E+00
         0.00000E+00
         0.00000E+00
         0.00000E+00
         0.00000E+00
         0.00000E+00
         0.00000E+00
         0.00000E+00
         0.00000E+00
         0.00000E+00
         0.00000E+00
         0.00000E+00
         0.00000E+00
         0.00000E+00
         0.00000E+00
         0.00000E+00
         0.00000E+00
         0.00000E+00
         0.00000E+00
         0.00000E+00
         0.00000E+00
         0.00000E+00
         0.00000E+00
         0.00000E+00
         0.00000E+00
         0.00000E+00
         0.00000E+00
         0.00000E+00
         0.00000E+00
         0.00000E+00
         0.00000E+00
         0.00000E+00
         0.00000E+00
         0.00000E+00
         0.00000E+00
         0.00000E+00
         0.00000E+00
         0.00000E+00
         0.00000E+00
         0.00000E+00
         0.00000E+00
         0.00000E+00
         0.00000E+00
         0.00000E+00
         0.00000E+00
         0.00000E+00
         0.00000E+00
         0.00000E+00
         0.00000E+00
         0.00000E+00
         0.00000E+00
         0.00000E+00
         0.00000E+00
         0.00000E+00
         0.00000E+00
         0.00000E+00
         0.00000E+00
         0.00000E+00
         0.00000E+00
         0.00000E+00
         0.00000E+00
         0.00000E+00
         0.00000E+00
         0.00000E+00
         0.00000E+00
         0.00000E+00
         0.00000E+00
         0.00000E+00
         0.00000E+00
         0.00000E+00
         0.00000E+00
         0.00000E+00
         0.00000E+00
         0.00000E+00
         0.00000E+00
         0.00000E+00
         0.00000E+00
         0.00000E+00
         0.00000E+00
         0.00000E+00
         0.00000E+00
         0.00000E+00
         0.00000E+00
         0.00000E+00
         0.00000E+00
         0.00000E+00
         0.00000E+00
         0.00000E+00
         0.00000E+00
         0.00000E+00
         0.00000E+00
         0.00000E+00
         0.00000E+00
         0.00000E+00
         0.00000E+00
         0.00000E+00
         0.00000E+00
         0.00000E+00
         0.00000E+00
         0.00000E+00
         0.00000E+00
         0.00000E+00
         0.00000E+00
         0.00000E+00
         0.00000E+00
         0.00000E+00
         0.00000E+00
         0.00000E+00
         0.00000E+00
         0.00000E+00
         0.00000E+00
         0.00000E+00
         0.00000E+00
         0.00000E+00
         0.00000E+00
         0.00000E+00
         0.00000E+00
         0.00000E+00
         0.00000E+00
         0.00000E+00
         0.00000E+00
         0.00000E+00
         0.00000E+00
         0.00000E+00
         0.00000E+00
         0.00000E+00
         0.00000E+00
         0.00000E+00
         0.00000E+00
         0.00000E+00
         0.00000E+00
         0.00000E+00
         0.00000E+00
         0.00000E+00
         0.00000E+00
         0.00000E+00
         0.00000E+00
         0.00000E+00
         0.00000E+00
         0.00000E+00
         0.00000E+00
         0.00000E+00
         0.00000E+00
         0.00000E+00
         0.00000E+00
         0.00000E+00
         0.00000E+00
         0.00000E+00
         0.00000E+00
         0.00000E+00
         0.00000E+00
         0.00000E+00
         0.00000E+00
         0.00000E+00
         0.00000E+00
         0.00000E+00
         0.00000E+00
         0.00000E+00
         0.00000E+00
         0.00000E+00
         0.00000E+00
         0.00000E+00
         0.00000E+00
         0.00000E+00
         0.00000E+00
         0.00000E+00
         0.00000E+00
         0.00000E+00
         0.00000E+00
         0.00000E+00
         0.00000E+00
         0.00000E+00
         0.00000E+00
         0.00000E+00
         0.00000E+00
         0.00000E+00
         0.00000E+00
         0.00000E+00
         0.00000E+00
         0.00000E+00
         0.00000E+00
         0.00000E+00
         0.00000E+00
         0.00000E+00
         0.00000E+00
         0.00000E+00
         0.00000E+00
         0.00000E+00
         0.00000E+00
         0.00000E+00
         0.00000E+00
         0.00000E+00
         0.00000E+00
         0.00000E+00
         0.00000E+00
         0.00000E+00
         0.00000E+00
         0.00000E+00
         0.00000E+00
         0.00000E+00
         0.00000E+00
         0.00000E+00
         0.00000E+00
         0.00000E+00
         0.00000E+00
         0.00000E+00
         0.00000E+00
         0.00000E+00
         0.00000E+00
         0.00000E+00
         0.00000E+00
         0.00000E+00
         0.00000E+00
         0.00000E+00
         0.00000E+00
         0.00000E+00
         0.00000E+00
         0.00000E+00
         0.00000E+00
         0.00000E+00
         0.00000E+00
         0.00000E+00
         0.00000E+00
         0.00000E+00
         0.00000E+00
  
SCALARS                     velocity_y  double 1
LOOKUP_TABLE default
         0.00000E+00
         0.00000E+00
         0.00000E+00
         0.00000E+00
         0.00000E+00
         0.00000E+00
         0.00000E+00
         0.00000E+00
         0.00000E+00
         0.00000E+00
         0.00000E+00
         0.00000E+00
         0.00000E+00
         0.00000E+00
         0.00000E+00
         0.00000E+00
         0.00000E+00
         0.00000E+00
         0.00000E+00
         0.00000E+00
         0.00000E+00
         0.00000E+00
         0.00000E+00
         0.00000E+00
         0.00000E+00
         0.00000E+00
         0.00000E+00
         0.00000E+00
         0.00000E+00
         0.00000E+00
         0.00000E+00
         0.00000E+00
         0.00000E+00
         0.00000E+00
         0.00000E+00
         0.00000E+00
         0.00000E+00
         0.00000E+00
         0.00000E+00
         0.00000E+00
         0.00000E+00
         0.00000E+00
         0.00000E+00
         0.00000E+00
         0.00000E+00
         0.00000E+00
         0.00000E+00
         0.00000E+00
         0.00000E+00
         0.00000E+00
         0.00000E+00
         0.00000E+00
         0.00000E+00
         0.00000E+00
         0.00000E+00
         0.00000E+00
         0.00000E+00
         0.00000E+00
         0.00000E+00
         0.00000E+00
         0.00000E+00
         0.00000E+00
         0.00000E+00
         0.00000E+00
         0.00000E+00
         0.00000E+00
         0.00000E+00
         0.00000E+00
         0.00000E+00
         0.00000E+00
         0.00000E+00
         0.00000E+00
         0.00000E+00
         0.00000E+00
         0.00000E+00
         0.00000E+00
         0.00000E+00
         0.00000E+00
         0.00000E+00
         0.00000E+00
         0.00000E+00
         0.00000E+00
         0.00000E+00
         0.00000E+00
         0.00000E+00
         0.00000E+00
         0.00000E+00
         0.00000E+00
         0.00000E+00
         0.00000E+00
         0.00000E+00
         0.00000E+00
         0.00000E+00
         0.00000E+00
         0.00000E+00
         0.00000E+00
         0.00000E+00
         0.00000E+00
         0.00000E+00
         0.00000E+00
         0.00000E+00
         0.00000E+00
         0.00000E+00
         0.00000E+00
         0.00000E+00
         0.00000E+00
         0.00000E+00
         0.00000E+00
         0.00000E+00
         0.00000E+00
         0.00000E+00
         0.00000E+00
         0.00000E+00
         0.00000E+00
         0.00000E+00
         0.00000E+00
         0.00000E+00
         0.00000E+00
         0.00000E+00
         0.00000E+00
         0.00000E+00
         0.00000E+00
         0.00000E+00
         0.00000E+00
         0.00000E+00
         0.00000E+00
         0.00000E+00
         0.00000E+00
         0.00000E+00
         0.00000E+00
         0.00000E+00
         0.00000E+00
         0.00000E+00
         0.00000E+00
         0.00000E+00
         0.00000E+00
         0.00000E+00
         0.00000E+00
         0.00000E+00
         0.00000E+00
         0.00000E+00
         0.00000E+00
         0.00000E+00
         0.00000E+00
         0.00000E+00
         0.00000E+00
         0.00000E+00
         0.00000E+00
         0.00000E+00
         0.00000E+00
         0.00000E+00
         0.00000E+00
         0.00000E+00
         0.00000E+00
         0.00000E+00
         0.00000E+00
         0.00000E+00
         0.00000E+00
         0.00000E+00
         0.00000E+00
         0.00000E+00
         0.00000E+00
         0.00000E+00
         0.00000E+00
         0.00000E+00
         0.00000E+00
         0.00000E+00
         0.00000E+00
         0.00000E+00
         0.00000E+00
         0.00000E+00
         0.00000E+00
         0.00000E+00
         0.00000E+00
         0.00000E+00
         0.00000E+00
         0.00000E+00
         0.00000E+00
         0.00000E+00
         0.00000E+00
         0.00000E+00
         0.00000E+00
         0.00000E+00
         0.00000E+00
         0.00000E+00
         0.00000E+00
         0.00000E+00
         0.00000E+00
         0.00000E+00
         0.00000E+00
         0.00000E+00
         0.00000E+00
         0.00000E+00
         0.00000E+00
         0.00000E+00
         0.00000E+00
         0.00000E+00
         0.00000E+00
         0.00000E+00
         0.00000E+00
         0.00000E+00
         0.00000E+00
         0.00000E+00
         0.00000E+00
         0.00000E+00
         0.00000E+00
         0.00000E+00
         0.00000E+00
         0.00000E+00
         0.00000E+00
         0.00000E+00
         0.00000E+00
         0.00000E+00
         0.00000E+00
         0.00000E+00
         0.00000E+00
         0.00000E+00
         0.00000E+00
         0.00000E+00
         0.00000E+00
         0.00000E+00
         0.00000E+00
         0.00000E+00
         0.00000E+00
         0.00000E+00
         0.00000E+00
         0.00000E+00
         0.00000E+00
         0.00000E+00
         0.00000E+00
         0.00000E+00
         0.00000E+00
         0.00000E+00
         0.00000E+00
         0.00000E+00
         0.00000E+00
         0.00000E+00
         0.00000E+00
         0.00000E+00
         0.00000E+00
         0.00000E+00
         0.00000E+00
         0.00000E+00
         0.00000E+00
         0.00000E+00
         0.00000E+00
         0.00000E+00
         0.00000E+00
         0.00000E+00
         0.00000E+00
         0.00000E+00
         0.00000E+00
         0.00000E+00
         0.00000E+00
         0.00000E+00
         0.00000E+00
         0.00000E+00
         0.00000E+00
         0.00000E+00
         0.00000E+00
         0.00000E+00
         0.00000E+00
         0.00000E+00
         0.00000E+00
         0.00000E+00
         0.00000E+00
         0.00000E+00
         0.00000E+00
         0.00000E+00
         0.00000E+00
         0.00000E+00
         0.00000E+00
         0.00000E+00
         0.00000E+00
         0.00000E+00
         0.00000E+00
         0.00000E+00
         0.00000E+00
         0.00000E+00
         0.00000E+00
         0.00000E+00
         0.00000E+00
         0.00000E+00
         0.00000E+00
         0.00000E+00
         0.00000E+00
         0.00000E+00
         0.00000E+00
         0.00000E+00
         0.00000E+00
         0.00000E+00
         0.00000E+00
         0.00000E+00
         0.00000E+00
         0.00000E+00
         0.00000E+00
         0.00000E+00
         0.00000E+00
         0.00000E+00
         0.00000E+00
         0.00000E+00
         0.00000E+00
         0.00000E+00
         0.00000E+00
         0.00000E+00
         0.00000E+00
         0.00000E+00
         0.00000E+00
         0.00000E+00
         0.00000E+00
         0.00000E+00
         0.00000E+00
         0.00000E+00
         0.00000E+00
         0.00000E+00
         0.00000E+00
         0.00000E+00
         0.00000E+00
         0.00000E+00
         0.00000E+00
         0.00000E+00
         0.00000E+00
         0.00000E+00
         0.00000E+00
         0.00000E+00
         0.00000E+00
         0.00000E+00
         0.00000E+00
         0.00000E+00
         0.00000E+00
         0.00000E+00
         0.00000E+00
         0.00000E+00
         0.00000E+00
         0.00000E+00
         0.00000E+00
         0.00000E+00
         0.00000E+00
         0.00000E+00
         0.00000E+00
         0.00000E+00
         0.00000E+00
         0.00000E+00
         0.00000E+00
         0.00000E+00
         0.00000E+00
         0.00000E+00
         0.00000E+00
         0.00000E+00
         0.00000E+00
         0.00000E+00
         0.00000E+00
         0.00000E+00
         0.00000E+00
         0.00000E+00
         0.00000E+00
         0.00000E+00
         0.00000E+00
         0.00000E+00
         0.00000E+00
         0.00000E+00
         0.00000E+00
         0.00000E+00
         0.00000E+00
         0.00000E+00
         0.00000E+00
         0.00000E+00
         0.00000E+00
         0.00000E+00
         0.00000E+00
         0.00000E+00
         0.00000E+00
         0.00000E+00
         0.00000E+00
         0.00000E+00
         0.00000E+00
         0.00000E+00
         0.00000E+00
         0.00000E+00
         0.00000E+00
         0.00000E+00
         0.00000E+00
         0.00000E+00
         0.00000E+00
         0.00000E+00
         0.00000E+00
         0.00000E+00
         0.00000E+00
         0.00000E+00
         0.00000E+00
         0.00000E+00
         0.00000E+00
         0.00000E+00
         0.00000E+00
         0.00000E+00
         0.00000E+00
         0.00000E+00
         0.00000E+00
         0.00000E+00
         0.00000E+00
         0.00000E+00
         0.00000E+00
         0.00000E+00
         0.00000E+00
         0.00000E+00
         0.00000E+00
         0.00000E+00
         0.00000E+00
         0.00000E+00
         0.00000E+00
         0.00000E+00
         0.00000E+00
         0.00000E+00
         0.00000E+00
         0.00000E+00
         0.00000E+00
         0.00000E+00
         0.00000E+00
         0.00000E+00
         0.00000E+00
         0.00000E+00
         0.00000E+00
         0.00000E+00
         0.00000E+00
         0.00000E+00
         0.00000E+00
         0.00000E+00
         0.00000E+00
         0.00000E+00
         0.00000E+00
         0.00000E+00
         0.00000E+00
         0.00000E+00
         0.00000E+00
         0.00000E+00
         0.00000E+00
         0.00000E+00
         0.00000E+00
         0.00000E+00
         0.00000E+00
         0.00000E+00
         0.00000E+00
         0.00000E+00
         0.00000E+00
         0.00000E+00
         0.00000E+00
         0.00000E+00
         0.00000E+00
         0.00000E+00
         0.00000E+00
         0.00000E+00
         0.00000E+00
         0.00000E+00
         0.00000E+00
         0.00000E+00
         0.00000E+00
         0.00000E+00
         0.00000E+00
         0.00000E+00
         0.00000E+00
         0.00000E+00
         0.00000E+00
         0.00000E+00
         0.00000E+00
         0.00000E+00
         0.00000E+00
         0.00000E+00
         0.00000E+00
         0.00000E+00
         0.00000E+00
         0.00000E+00
         0.00000E+00
         0.00000E+00
         0.00000E+00
         0.00000E+00
         0.00000E+00
         0.00000E+00
         0.00000E+00
         0.00000E+00
         0.00000E+00
         0.00000E+00
         0.00000E+00
         0.00000E+00
         0.00000E+00
         0.00000E+00
         0.00000E+00
         0.00000E+00
         0.00000E+00
         0.00000E+00
         0.00000E+00
         0.00000E+00
         0.00000E+00
         0.00000E+00
         0.00000E+00
         0.00000E+00
         0.00000E+00
         0.00000E+00
         0.00000E+00
         0.00000E+00
         0.00000E+00
         0.00000E+00
         0.00000E+00
         0.00000E+00
         0.00000E+00
         0.00000E+00
         0.00000E+00
         0.00000E+00
         0.00000E+00
         0.00000E+00
         0.00000E+00
         0.00000E+00
         0.00000E+00
         0.00000E+00
         0.00000E+00
         0.00000E+00
         0.00000E+00
         0.00000E+00
         0.00000E+00
         0.00000E+00
         0.00000E+00
         0.00000E+00
         0.00000E+00
         0.00000E+00
         0.00000E+00
         0.00000E+00
         0.00000E+00
         0.00000E+00
         0.00000E+00
         0.00000E+00
         0.00000E+00
         0.00000E+00
         0.00000E+00
         0.00000E+00
         0.00000E+00
         0.00000E+00
         0.00000E+00
         0.00000E+00
         0.00000E+00
         0.00000E+00
         0.00000E+00
         0.00000E+00
         0.00000E+00
         0.00000E+00
         0.00000E+00
         0.00000E+00
         0.00000E+00
         0.00000E+00
         0.00000E+00
         0.00000E+00
         0.00000E+00
         0.00000E+00
         0.00000E+00
         0.00000E+00
         0.00000E+00
         0.00000E+00
         0.00000E+00
         0.00000E+00
         0.00000E+00
         0.00000E+00
         0.00000E+00
         0.00000E+00
         0.00000E+00
         0.00000E+00
         0.00000E+00
         0.00000E+00
         0.00000E+00
         0.00000E+00
         0.00000E+00
         0.00000E+00
         0.00000E+00
         0.00000E+00
         0.00000E+00
         0.00000E+00
         0.00000E+00
         0.00000E+00
         0.00000E+00
         0.00000E+00
         0.00000E+00
         0.00000E+00
         0.00000E+00
         0.00000E+00
         0.00000E+00
         0.00000E+00
         0.00000E+00
         0.00000E+00
         0.00000E+00
         0.00000E+00
         0.00000E+00
         0.00000E+00
         0.00000E+00
         0.00000E+00
         0.00000E+00
         0.00000E+00
         0.00000E+00
         0.00000E+00
         0.00000E+00
         0.00000E+00
         0.00000E+00
         0.00000E+00
         0.00000E+00
         0.00000E+00
         0.00000E+00
         0.00000E+00
         0.00000E+00
         0.00000E+00
         0.00000E+00
         0.00000E+00
         0.00000E+00
         0.00000E+00
         0.00000E+00
         0.00000E+00
         0.00000E+00
         0.00000E+00
         0.00000E+00
         0.00000E+00
         0.00000E+00
         0.00000E+00
         0.00000E+00
         0.00000E+00
         0.00000E+00
         0.00000E+00
         0.00000E+00
         0.00000E+00
         0.00000E+00
         0.00000E+00
         0.00000E+00
         0.00000E+00
         0.00000E+00
         0.00000E+00
         0.00000E+00
         0.00000E+00
         0.00000E+00
         0.00000E+00
         0.00000E+00
         0.00000E+00
         0.00000E+00
         0.00000E+00
         0.00000E+00
         0.00000E+00
         0.00000E+00
         0.00000E+00
         0.00000E+00
         0.00000E+00
         0.00000E+00
         0.00000E+00
         0.00000E+00
         0.00000E+00
         0.00000E+00
         0.00000E+00
         0.00000E+00
         0.00000E+00
         0.00000E+00
         0.00000E+00
         0.00000E+00
         0.00000E+00
         0.00000E+00
         0.00000E+00
         0.00000E+00
         0.00000E+00
         0.00000E+00
         0.00000E+00
         0.00000E+00
         0.00000E+00
         0.00000E+00
         0.00000E+00
         0.00000E+00
         0.00000E+00
         0.00000E+00
         0.00000E+00
         0.00000E+00
         0.00000E+00
         0.00000E+00
         0.00000E+00
         0.00000E+00
         0.00000E+00
         0.00000E+00
         0.00000E+00
         0.00000E+00
         0.00000E+00
         0.00000E+00
         0.00000E+00
         0.00000E+00
         0.00000E+00
         0.00000E+00
         0.00000E+00
         0.00000E+00
         0.00000E+00
         0.00000E+00
         0.00000E+00
         0.00000E+00
         0.00000E+00
         0.00000E+00
         0.00000E+00
         0.00000E+00
         0.00000E+00
         0.00000E+00
         0.00000E+00
         0.00000E+00
         0.00000E+00
         0.00000E+00
         0.00000E+00
         0.00000E+00
         0.00000E+00
         0.00000E+00
         0.00000E+00
         0.00000E+00
         0.00000E+00
         0.00000E+00
         0.00000E+00
         0.00000E+00
         0.00000E+00
         0.00000E+00
         0.00000E+00
         0.00000E+00
         0.00000E+00
         0.00000E+00
         0.00000E+00
         0.00000E+00
         0.00000E+00
         0.00000E+00
         0.00000E+00
         0.00000E+00
         0.00000E+00
         0.00000E+00
         0.00000E+00
         0.00000E+00
         0.00000E+00
         0.00000E+00
         0.00000E+00
         0.00000E+00
         0.00000E+00
         0.00000E+00
         0.00000E+00
         0.00000E+00
         0.00000E+00
         0.00000E+00
         0.00000E+00
         0.00000E+00
         0.00000E+00
         0.00000E+00
         0.00000E+00
         0.00000E+00
         0.00000E+00
         0.00000E+00
         0.00000E+00
         0.00000E+00
         0.00000E+00
         0.00000E+00
         0.00000E+00
         0.00000E+00
         0.00000E+00
         0.00000E+00
         0.00000E+00
         0.00000E+00
         0.00000E+00
         0.00000E+00
         0.00000E+00
         0.00000E+00
         0.00000E+00
         0.00000E+00
         0.00000E+00
         0.00000E+00
         0.00000E+00
         0.00000E+00
         0.00000E+00
         0.00000E+00
         0.00000E+00
         0.00000E+00
         0.00000E+00
         0.00000E+00
         0.00000E+00
         0.00000E+00
         0.00000E+00
         0.00000E+00
         0.00000E+00
         0.00000E+00
         0.00000E+00
         0.00000E+00
         0.00000E+00
         0.00000E+00
         0.00000E+00
         0.00000E+00
         0.00000E+00
         0.00000E+00
         0.00000E+00
         0.00000E+00
         0.00000E+00
         0.00000E+00
         0.00000E+00
         0.00000E+00
         0.00000E+00
         0.00000E+00
         0.00000E+00
         0.00000E+00
         0.00000E+00
         0.00000E+00
         0.00000E+00
         0.00000E+00
         0.00000E+00
         0.00000E+00
         0.00000E+00
         0.00000E+00
         0.00000E+00
         0.00000E+00
         0.00000E+00
         0.00000E+00
         0.00000E+00
         0.00000E+00
         0.00000E+00
         0.00000E+00
         0.00000E+00
         0.00000E+00
         0.00000E+00
         0.00000E+00
         0.00000E+00
         0.00000E+00
         0.00000E+00
         0.00000E+00
         0.00000E+00
         0.00000E+00
         0.00000E+00
         0.00000E+00
         0.00000E+00
         0.00000E+00
         0.00000E+00
         0.00000E+00
         0.00000E+00
         0.00000E+00
         0.00000E+00
         0.00000E+00
         0.00000E+00
         0.00000E+00
         0.00000E+00
         0.00000E+00
         0.00000E+00
         0.00000E+00
         0.00000E+00
         0.00000E+00
         0.00000E+00
         0.00000E+00
         0.00000E+00
         0.00000E+00
         0.00000E+00
         0.00000E+00
         0.00000E+00
         0.00000E+00
         0.00000E+00
         0.00000E+00
         0.00000E+00
         0.00000E+00
         0.00000E+00
         0.00000E+00
         0.00000E+00
         0.00000E+00
         0.00000E+00
         0.00000E+00
         0.00000E+00
         0.00000E+00
         0.00000E+00
         0.00000E+00
         0.00000E+00
         0.00000E+00
         0.00000E+00
         0.00000E+00
         0.00000E+00
         0.00000E+00
         0.00000E+00
         0.00000E+00
         0.00000E+00
         0.00000E+00
         0.00000E+00
         0.00000E+00
         0.00000E+00
         0.00000E+00
         0.00000E+00
         0.00000E+00
         0.00000E+00
         0.00000E+00
         0.00000E+00
         0.00000E+00
         0.00000E+00
         0.00000E+00
         0.00000E+00
         0.00000E+00
         0.00000E+00
         0.00000E+00
         0.00000E+00
         0.00000E+00
         0.00000E+00
         0.00000E+00
         0.00000E+00
         0.00000E+00
         0.00000E+00
         0.00000E+00
         0.00000E+00
         0.00000E+00
         0.00000E+00
         0.00000E+00
         0.00000E+00
         0.00000E+00
         0.00000E+00
         0.00000E+00
         0.00000E+00
         0.00000E+00
         0.00000E+00
         0.00000E+00
         0.00000E+00
         0.00000E+00
         0.00000E+00
         0.00000E+00
         0.00000E+00
         0.00000E+00
         0.00000E+00
         0.00000E+00
         0.00000E+00
         0.00000E+00
         0.00000E+00
         0.00000E+00
         0.00000E+00
         0.00000E+00
         0.00000E+00
         0.00000E+00
         0.00000E+00
         0.00000E+00
         0.00000E+00
         0.00000E+00
         0.00000E+00
         0.00000E+00
         0.00000E+00
         0.00000E+00
         0.00000E+00
         0.00000E+00
         0.00000E+00
         0.00000E+00
         0.00000E+00
         0.00000E+00
         0.00000E+00
         0.00000E+00
         0.00000E+00
         0.00000E+00
         0.00000E+00
         0.00000E+00
         0.00000E+00
         0.00000E+00
         0.00000E+00
         0.00000E+00
         0.00000E+00
         0.00000E+00
         0.00000E+00
         0.00000E+00
         0.00000E+00
         0.00000E+00
         0.00000E+00
         0.00000E+00
         0.00000E+00
         0.00000E+00
         0.00000E+00
         0.00000E+00
         0.00000E+00
         0.00000E+00
         0.00000E+00
         0.00000E+00
         0.00000E+00
         0.00000E+00
         0.00000E+00
         0.00000E+00
         0.00000E+00
         0.00000E+00
         0.00000E+00
         0.00000E+00
         0.00000E+00
         0.00000E+00
         0.00000E+00
         0.00000E+00
         0.00000E+00
         0.00000E+00
         0.00000E+00
         0.00000E+00
         0.00000E+00
         0.00000E+00
         0.00000E+00
         0.00000E+00
         0.00000E+00
         0.00000E+00
         0.00000E+00
         0.00000E+00
         0.00000E+00
         0.00000E+00
         0.00000E+00
         0.00000E+00
         0.00000E+00
         0.00000E+00
         0.00000E+00
         0.00000E+00
         0.00000E+00
         0.00000E+00
         0.00000E+00
         0.00000E+00
         0.00000E+00
         0.00000E+00
         0.00000E+00
         0.00000E+00
         0.00000E+00
         0.00000E+00
         0.00000E+00
         0.00000E+00
         0.00000E+00
         0.00000E+00
         0.00000E+00
         0.00000E+00
         0.00000E+00
         0.00000E+00
         0.00000E+00
         0.00000E+00
         0.00000E+00
         0.00000E+00
         0.00000E+00
         0.00000E+00
         0.00000E+00
         0.00000E+00
         0.00000E+00
         0.00000E+00
         0.00000E+00
         0.00000E+00
         0.00000E+00
         0.00000E+00
         0.00000E+00
         0.00000E+00
         0.00000E+00
         0.00000E+00
         0.00000E+00
         0.00000E+00
         0.00000E+00
         0.00000E+00
         0.00000E+00
         0.00000E+00
         0.00000E+00
         0.00000E+00
         0.00000E+00
         0.00000E+00
         0.00000E+00
         0.00000E+00
         0.00000E+00
         0.00000E+00
         0.00000E+00
         0.00000E+00
         0.00000E+00
         0.00000E+00
         0.00000E+00
         0.00000E+00
         0.00000E+00
         0.00000E+00
         0.00000E+00
         0.00000E+00
         0.00000E+00
         0.00000E+00
         0.00000E+00
         0.00000E+00
         0.00000E+00
         0.00000E+00
         0.00000E+00
         0.00000E+00
         0.00000E+00
         0.00000E+00
         0.00000E+00
         0.00000E+00
         0.00000E+00
         0.00000E+00
         0.00000E+00
         0.00000E+00
         0.00000E+00
         0.00000E+00
         0.00000E+00
         0.00000E+00
         0.00000E+00
         0.00000E+00
         0.00000E+00
         0.00000E+00
         0.00000E+00
         0.00000E+00
         0.00000E+00
         0.00000E+00
         0.00000E+00
         0.00000E+00
         0.00000E+00
         0.00000E+00
         0.00000E+00
         0.00000E+00
         0.00000E+00
         0.00000E+00
         0.00000E+00
         0.00000E+00
         0.00000E+00
         0.00000E+00
         0.00000E+00
         0.00000E+00
         0.00000E+00
         0.00000E+00
         0.00000E+00
         0.00000E+00
         0.00000E+00
         0.00000E+00
         0.00000E+00
         0.00000E+00
         0.00000E+00
         0.00000E+00
         0.00000E+00
         0.00000E+00
         0.00000E+00
         0.00000E+00
         0.00000E+00
         0.00000E+00
         0.00000E+00
         0.00000E+00
         0.00000E+00
         0.00000E+00
         0.00000E+00
         0.00000E+00
         0.00000E+00
         0.00000E+00
         0.00000E+00
         0.00000E+00
         0.00000E+00
         0.00000E+00
         0.00000E+00
         0.00000E+00
         0.00000E+00
         0.00000E+00
         0.00000E+00
         0.00000E+00
         0.00000E+00
         0.00000E+00
         0.00000E+00
         0.00000E+00
         0.00000E+00
         0.00000E+00
         0.00000E+00
         0.00000E+00
         0.00000E+00
         0.00000E+00
         0.00000E+00
         0.00000E+00
         0.00000E+00
         0.00000E+00
         0.00000E+00
         0.00000E+00
         0.00000E+00
         0.00000E+00
         0.00000E+00
         0.00000E+00
         0.00000E+00
         0.00000E+00
         0.00000E+00
         0.00000E+00
         0.00000E+00
         0.00000E+00
         0.00000E+00
         0.00000E+00
         0.00000E+00
         0.00000E+00
         0.00000E+00
         0.00000E+00
         0.00000E+00
         0.00000E+00
         0.00000E+00
         0.00000E+00
         0.00000E+00
         0.00000E+00
         0.00000E+00
         0.00000E+00
         0.00000E+00
         0.00000E+00
         0.00000E+00
         0.00000E+00
         0.00000E+00
         0.00000E+00
         0.00000E+00
         0.00000E+00
         0.00000E+00
         0.00000E+00
         0.00000E+00
         0.00000E+00
         0.00000E+00
         0.00000E+00
         0.00000E+00
         0.00000E+00
         0.00000E+00
         0.00000E+00
         0.00000E+00
         0.00000E+00
         0.00000E+00
         0.00000E+00
         0.00000E+00
         0.00000E+00
         0.00000E+00
         0.00000E+00
         0.00000E+00
         0.00000E+00
         0.00000E+00
         0.00000E+00
         0.00000E+00
         0.00000E+00
         0.00000E+00
         0.00000E+00
         0.00000E+00
         0.00000E+00
         0.00000E+00
         0.00000E+00
         0.00000E+00
         0.00000E+00
         0.00000E+00
         0.00000E+00
         0.00000E+00
         0.00000E+00
         0.00000E+00
         0.00000E+00
         0.00000E+00
         0.00000E+00
         0.00000E+00
         0.00000E+00
         0.00000E+00
         0.00000E+00
         0.00000E+00
         0.00000E+00
         0.00000E+00
         0.00000E+00
         0.00000E+00
         0.00000E+00
         0.00000E+00
         0.00000E+00
         0.00000E+00
         0.00000E+00
         0.00000E+00
         0.00000E+00
         0.00000E+00
         0.00000E+00
         0.00000E+00
         0.00000E+00
         0.00000E+00
         0.00000E+00
         0.00000E+00
         0.00000E+00
         0.00000E+00
         0.00000E+00
         0.00000E+00
         0.00000E+00
         0.00000E+00
         0.00000E+00
         0.00000E+00
         0.00000E+00
         0.00000E+00
         0.00000E+00
         0.00000E+00
         0.00000E+00
         0.00000E+00
         0.00000E+00
         0.00000E+00
         0.00000E+00
         0.00000E+00
         0.00000E+00
         0.00000E+00
         0.00000E+00
         0.00000E+00
         0.00000E+00
         0.00000E+00
         0.00000E+00
         0.00000E+00
         0.00000E+00
         0.00000E+00
         0.00000E+00
         0.00000E+00
         0.00000E+00
         0.00000E+00
         0.00000E+00
         0.00000E+00
         0.00000E+00
         0.00000E+00
         0.00000E+00
         0.00000E+00
         0.00000E+00
         0.00000E+00
         0.00000E+00
         0.00000E+00
         0.00000E+00
         0.00000E+00
         0.00000E+00
         0.00000E+00
         0.00000E+00
         0.00000E+00
         0.00000E+00
         0.00000E+00
         0.00000E+00
         0.00000E+00
         0.00000E+00
         0.00000E+00
         0.00000E+00
         0.00000E+00
         0.00000E+00
         0.00000E+00
         0.00000E+00
         0.00000E+00
         0.00000E+00
         0.00000E+00
         0.00000E+00
         0.00000E+00
         0.00000E+00
         0.00000E+00
         0.00000E+00
         0.00000E+00
         0.00000E+00
         0.00000E+00
         0.00000E+00
         0.00000E+00
         0.00000E+00
         0.00000E+00
         0.00000E+00
         0.00000E+00
         0.00000E+00
         0.00000E+00
         0.00000E+00
         0.00000E+00
         0.00000E+00
         0.00000E+00
         0.00000E+00
         0.00000E+00
         0.00000E+00
         0.00000E+00
         0.00000E+00
         0.00000E+00
         0.00000E+00
         0.00000E+00
         0.00000E+00
         0.00000E+00
         0.00000E+00
         0.00000E+00
         0.00000E+00
         0.00000E+00
         0.00000E+00
         0.00000E+00
         0.00000E+00
         0.00000E+00
         0.00000E+00
         0.00000E+00
         0.00000E+00
         0.00000E+00
         0.00000E+00
         0.00000E+00
         0.00000E+00
         0.00000E+00
         0.00000E+00
         0.00000E+00
         0.00000E+00
         0.00000E+00
         0.00000E+00
         0.00000E+00
         0.00000E+00
         0.00000E+00
         0.00000E+00
         0.00000E+00
         0.00000E+00
         0.00000E+00
         0.00000E+00
         0.00000E+00
         0.00000E+00
         0.00000E+00
         0.00000E+00
         0.00000E+00
         0.00000E+00
         0.00000E+00
         0.00000E+00
         0.00000E+00
         0.00000E+00
         0.00000E+00
         0.00000E+00
         0.00000E+00
         0.00000E+00
         0.00000E+00
         0.00000E+00
         0.00000E+00
         0.00000E+00
         0.00000E+00
         0.00000E+00
         0.00000E+00
         0.00000E+00
         0.00000E+00
         0.00000E+00
         0.00000E+00
         0.00000E+00
         0.00000E+00
         0.00000E+00
         0.00000E+00
         0.00000E+00
         0.00000E+00
         0.00000E+00
         0.00000E+00
         0.00000E+00
         0.00000E+00
         0.00000E+00
         0.00000E+00
         0.00000E+00
         0.00000E+00
         0.00000E+00
         0.00000E+00
         0.00000E+00
         0.00000E+00
         0.00000E+00
         0.00000E+00
         0.00000E+00
         0.00000E+00
         0.00000E+00
         0.00000E+00
         0.00000E+00
         0.00000E+00
         0.00000E+00
         0.00000E+00
         0.00000E+00
         0.00000E+00
         0.00000E+00
         0.00000E+00
         0.00000E+00
         0.00000E+00
         0.00000E+00
         0.00000E+00
         0.00000E+00
         0.00000E+00
         0.00000E+00
         0.00000E+00
         0.00000E+00
         0.00000E+00
         0.00000E+00
         0.00000E+00
         0.00000E+00
         0.00000E+00
         0.00000E+00
         0.00000E+00
         0.00000E+00
         0.00000E+00
         0.00000E+00
         0.00000E+00
         0.00000E+00
         0.00000E+00
         0.00000E+00
         0.00000E+00
         0.00000E+00
         0.00000E+00
         0.00000E+00
         0.00000E+00
         0.00000E+00
         0.00000E+00
         0.00000E+00
         0.00000E+00
         0.00000E+00
         0.00000E+00
         0.00000E+00
         0.00000E+00
         0.00000E+00
         0.00000E+00
         0.00000E+00
         0.00000E+00
         0.00000E+00
         0.00000E+00
         0.00000E+00
         0.00000E+00
         0.00000E+00
         0.00000E+00
         0.00000E+00
         0.00000E+00
         0.00000E+00
         0.00000E+00
         0.00000E+00
         0.00000E+00
         0.00000E+00
         0.00000E+00
         0.00000E+00
         0.00000E+00
         0.00000E+00
         0.00000E+00
         0.00000E+00
         0.00000E+00
         0.00000E+00
         0.00000E+00
         0.00000E+00
         0.00000E+00
         0.00000E+00
         0.00000E+00
         0.00000E+00
         0.00000E+00
         0.00000E+00
         0.00000E+00
         0.00000E+00
         0.00000E+00
         0.00000E+00
         0.00000E+00
         0.00000E+00
         0.00000E+00
         0.00000E+00
         0.00000E+00
         0.00000E+00
         0.00000E+00
         0.00000E+00
         0.00000E+00
         0.00000E+00
         0.00000E+00
         0.00000E+00
         0.00000E+00
         0.00000E+00
         0.00000E+00
         0.00000E+00
         0.00000E+00
         0.00000E+00
         0.00000E+00
         0.00000E+00
         0.00000E+00
         0.00000E+00
         0.00000E+00
         0.00000E+00
         0.00000E+00
         0.00000E+00
         0.00000E+00
         0.00000E+00
         0.00000E+00
         0.00000E+00
         0.00000E+00
         0.00000E+00
         0.00000E+00
         0.00000E+00
         0.00000E+00
         0.00000E+00
         0.00000E+00
         0.00000E+00
         0.00000E+00
         0.00000E+00
         0.00000E+00
         0.00000E+00
         0.00000E+00
         0.00000E+00
         0.00000E+00
         0.00000E+00
         0.00000E+00
         0.00000E+00
         0.00000E+00
         0.00000E+00
         0.00000E+00
         0.00000E+00
         0.00000E+00
         0.00000E+00
         0.00000E+00
         0.00000E+00
         0.00000E+00
         0.00000E+00
         0.00000E+00
         0.00000E+00
         0.00000E+00
         0.00000E+00
         0.00000E+00
         0.00000E+00
         0.00000E+00
         0.00000E+00
         0.00000E+00
         0.00000E+00
         0.00000E+00
         0.00000E+00
         0.00000E+00
         0.00000E+00
         0.00000E+00
         0.00000E+00
         0.00000E+00
         0.00000E+00
         0.00000E+00
         0.00000E+00
         0.00000E+00
         0.00000E+00
         0.00000E+00
         0.00000E+00
         0.00000E+00
         0.00000E+00
         0.00000E+00
         0.00000E+00
         0.00000E+00
         0.00000E+00
         0.00000E+00
         0.00000E+00
         0.00000E+00
         0.00000E+00
         0.00000E+00
         0.00000E+00
         0.00000E+00
         0.00000E+00
         0.00000E+00
         0.00000E+00
         0.00000E+00
         0.00000E+00
         0.00000E+00
         0.00000E+00
         0.00000E+00
         0.00000E+00
         0.00000E+00
         0.00000E+00
         0.00000E+00
         0.00000E+00
         0.00000E+00
         0.00000E+00
         0.00000E+00
         0.00000E+00
         0.00000E+00
         0.00000E+00
         0.00000E+00
         0.00000E+00
         0.00000E+00
         0.00000E+00
         0.00000E+00
         0.00000E+00
         0.00000E+00
         0.00000E+00
         0.00000E+00
         0.00000E+00
         0.00000E+00
         0.00000E+00
         0.00000E+00
         0.00000E+00
         0.00000E+00
         0.00000E+00
         0.00000E+00
         0.00000E+00
         0.00000E+00
         0.00000E+00
         0.00000E+00
         0.00000E+00
         0.00000E+00
         0.00000E+00
         0.00000E+00
         0.00000E+00
         0.00000E+00
         0.00000E+00
         0.00000E+00
         0.00000E+00
         0.00000E+00
         0.00000E+00
         0.00000E+00
         0.00000E+00
         0.00000E+00
         0.00000E+00
         0.00000E+00
         0.00000E+00
         0.00000E+00
         0.00000E+00
         0.00000E+00
         0.00000E+00
         0.00000E+00
         0.00000E+00
         0.00000E+00
         0.00000E+00
         0.00000E+00
         0.00000E+00
         0.00000E+00
         0.00000E+00
         0.00000E+00
         0.00000E+00
         0.00000E+00
         0.00000E+00
         0.00000E+00
         0.00000E+00
         0.00000E+00
         0.00000E+00
         0.00000E+00
         0.00000E+00
         0.00000E+00
         0.00000E+00
         0.00000E+00
         0.00000E+00
         0.00000E+00
         0.00000E+00
         0.00000E+00
         0.00000E+00
         0.00000E+00
         0.00000E+00
         0.00000E+00
         0.00000E+00
         0.00000E+00
         0.00000E+00
         0.00000E+00
         0.00000E+00
         0.00000E+00
         0.00000E+00
         0.00000E+00
         0.00000E+00
         0.00000E+00
         0.00000E+00
         0.00000E+00
         0.00000E+00
         0.00000E+00
         0.00000E+00
         0.00000E+00
         0.00000E+00
         0.00000E+00
         0.00000E+00
         0.00000E+00
         0.00000E+00
         0.00000E+00
         0.00000E+00
         0.00000E+00
         0.00000E+00
         0.00000E+00
         0.00000E+00
         0.00000E+00
         0.00000E+00
         0.00000E+00
         0.00000E+00
         0.00000E+00
         0.00000E+00
         0.00000E+00
         0.00000E+00
         0.00000E+00
         0.00000E+00
         0.00000E+00
         0.00000E+00
         0.00000E+00
         0.00000E+00
         0.00000E+00
         0.00000E+00
         0.00000E+00
         0.00000E+00
         0.00000E+00
         0.00000E+00
         0.00000E+00
         0.00000E+00
         0.00000E+00
         0.00000E+00
         0.00000E+00
         0.00000E+00
         0.00000E+00
         0.00000E+00
         0.00000E+00
         0.00000E+00
         0.00000E+00
         0.00000E+00
         0.00000E+00
         0.00000E+00
         0.00000E+00
         0.00000E+00
         0.00000E+00
         0.00000E+00
         0.00000E+00
         0.00000E+00
         0.00000E+00
         0.00000E+00
         0.00000E+00
         0.00000E+00
         0.00000E+00
         0.00000E+00
         0.00000E+00
         0.00000E+00
         0.00000E+00
         0.00000E+00
         0.00000E+00
         0.00000E+00
         0.00000E+00
         0.00000E+00
         0.00000E+00
         0.00000E+00
         0.00000E+00
         0.00000E+00
         0.00000E+00
         0.00000E+00
         0.00000E+00
         0.00000E+00
         0.00000E+00
         0.00000E+00
         0.00000E+00
         0.00000E+00
         0.00000E+00
         0.00000E+00
         0.00000E+00
         0.00000E+00
         0.00000E+00
         0.00000E+00
         0.00000E+00
         0.00000E+00
         0.00000E+00
         0.00000E+00
         0.00000E+00
         0.00000E+00
         0.00000E+00
         0.00000E+00
         0.00000E+00
         0.00000E+00
         0.00000E+00
         0.00000E+00
         0.00000E+00
         0.00000E+00
         0.00000E+00
         0.00000E+00
         0.00000E+00
         0.00000E+00
         0.00000E+00
         0.00000E+00
         0.00000E+00
         0.00000E+00
         0.00000E+00
         0.00000E+00
         0.00000E+00
         0.00000E+00
         0.00000E+00
         0.00000E+00
         0.00000E+00
         0.00000E+00
         0.00000E+00
         0.00000E+00
         0.00000E+00
         0.00000E+00
         0.00000E+00
         0.00000E+00
         0.00000E+00
         0.00000E+00
         0.00000E+00
         0.00000E+00
         0.00000E+00
         0.00000E+00
         0.00000E+00
         0.00000E+00
         0.00000E+00
         0.00000E+00
         0.00000E+00
         0.00000E+00
         0.00000E+00
         0.00000E+00
         0.00000E+00
         0.00000E+00
         0.00000E+00
         0.00000E+00
         0.00000E+00
         0.00000E+00
         0.00000E+00
         0.00000E+00
         0.00000E+00
         0.00000E+00
         0.00000E+00
         0.00000E+00
         0.00000E+00
         0.00000E+00
         0.00000E+00
         0.00000E+00
         0.00000E+00
         0.00000E+00
         0.00000E+00
         0.00000E+00
         0.00000E+00
         0.00000E+00
         0.00000E+00
         0.00000E+00
         0.00000E+00
         0.00000E+00
         0.00000E+00
         0.00000E+00
         0.00000E+00
         0.00000E+00
         0.00000E+00
         0.00000E+00
         0.00000E+00
         0.00000E+00
         0.00000E+00
         0.00000E+00
         0.00000E+00
         0.00000E+00
         0.00000E+00
         0.00000E+00
         0.00000E+00
         0.00000E+00
         0.00000E+00
         0.00000E+00
         0.00000E+00
         0.00000E+00
         0.00000E+00
         0.00000E+00
         0.00000E+00
         0.00000E+00
         0.00000E+00
         0.00000E+00
         0.00000E+00
         0.00000E+00
         0.00000E+00
         0.00000E+00
         0.00000E+00
         0.00000E+00
         0.00000E+00
         0.00000E+00
         0.00000E+00
         0.00000E+00
         0.00000E+00
         0.00000E+00
         0.00000E+00
         0.00000E+00
         0.00000E+00
         0.00000E+00
         0.00000E+00
         0.00000E+00
         0.00000E+00
         0.00000E+00
         0.00000E+00
         0.00000E+00
         0.00000E+00
         0.00000E+00
         0.00000E+00
         0.00000E+00
         0.00000E+00
         0.00000E+00
         0.00000E+00
         0.00000E+00
         0.00000E+00
         0.00000E+00
         0.00000E+00
         0.00000E+00
         0.00000E+00
         0.00000E+00
         0.00000E+00
         0.00000E+00
         0.00000E+00
         0.00000E+00
         0.00000E+00
         0.00000E+00
         0.00000E+00
         0.00000E+00
         0.00000E+00
         0.00000E+00
         0.00000E+00
         0.00000E+00
         0.00000E+00
         0.00000E+00
         0.00000E+00
         0.00000E+00
         0.00000E+00
         0.00000E+00
         0.00000E+00
         0.00000E+00
         0.00000E+00
         0.00000E+00
         0.00000E+00
         0.00000E+00
         0.00000E+00
         0.00000E+00
         0.00000E+00
         0.00000E+00
         0.00000E+00
         0.00000E+00
         0.00000E+00
         0.00000E+00
         0.00000E+00
         0.00000E+00
         0.00000E+00
         0.00000E+00
  
SCALARS                     velocity_z  double 1
LOOKUP_TABLE default
        -0.37300E+03
        -0.37300E+03
        -0.37300E+03
        -0.37300E+03
         0.00000E+00
         0.00000E+00
         0.00000E+00
         0.00000E+00
        -0.37300E+03
        -0.37300E+03
         0.00000E+00
         0.00000E+00
        -0.37300E+03
        -0.37300E+03
         0.00000E+00
         0.00000E+00
        -0.37300E+03
        -0.37300E+03
         0.00000E+00
         0.00000E+00
        -0.37300E+03
        -0.37300E+03
        -0.37300E+03
         0.00000E+00
         0.00000E+00
         0.00000E+00
        -0.37300E+03
        -0.37300E+03
         0.00000E+00
         0.00000E+00
        -0.37300E+03
        -0.37300E+03
        -0.37300E+03
         0.00000E+00
         0.00000E+00
         0.00000E+00
        -0.37300E+03
        -0.37300E+03
         0.00000E+00
         0.00000E+00
        -0.37300E+03
        -0.37300E+03
         0.00000E+00
         0.00000E+00
        -0.37300E+03
        -0.37300E+03
         0.00000E+00
         0.00000E+00
        -0.37300E+03
         0.00000E+00
        -0.37300E+03
         0.00000E+00
        -0.37300E+03
         0.00000E+00
        -0.37300E+03
         0.00000E+00
        -0.37300E+03
        -0.37300E+03
         0.00000E+00
         0.00000E+00
        -0.37300E+03
        -0.37300E+03
         0.00000E+00
         0.00000E+00
        -0.37300E+03
         0.00000E+00
        -0.37300E+03
         0.00000E+00
        -0.37300E+03
        -0.37300E+03
         0.00000E+00
         0.00000E+00
        -0.37300E+03
         0.00000E+00
        -0.37300E+03
         0.00000E+00
        -0.37300E+03
         0.00000E+00
        -0.37300E+03
         0.00000E+00
        -0.37300E+03
        -0.37300E+03
         0.00000E+00
         0.00000E+00
        -0.37300E+03
         0.00000E+00
        -0.37300E+03
         0.00000E+00
        -0.37300E+03
         0.00000E+00
        -0.37300E+03
        -0.37300E+03
         0.00000E+00
         0.00000E+00
        -0.37300E+03
         0.00000E+00
        -0.37300E+03
         0.00000E+00
        -0.37300E+03
         0.00000E+00
        -0.37300E+03
        -0.37300E+03
         0.00000E+00
         0.00000E+00
        -0.37300E+03
        -0.37300E+03
         0.00000E+00
         0.00000E+00
        -0.37300E+03
         0.00000E+00
        -0.37300E+03
         0.00000E+00
        -0.37300E+03
         0.00000E+00
        -0.37300E+03
         0.00000E+00
        -0.37300E+03
         0.00000E+00
        -0.37300E+03
         0.00000E+00
        -0.37300E+03
         0.00000E+00
        -0.37300E+03
         0.00000E+00
        -0.37300E+03
         0.00000E+00
        -0.37300E+03
         0.00000E+00
        -0.37300E+03
         0.00000E+00
        -0.37300E+03
         0.00000E+00
        -0.37300E+03
         0.00000E+00
        -0.37300E+03
         0.00000E+00
        -0.37300E+03
         0.00000E+00
        -0.37300E+03
         0.00000E+00
        -0.37300E+03
         0.00000E+00
        -0.37300E+03
         0.00000E+00
        -0.37300E+03
         0.00000E+00
        -0.37300E+03
         0.00000E+00
        -0.37300E+03
         0.00000E+00
        -0.37300E+03
         0.00000E+00
        -0.37300E+03
         0.00000E+00
        -0.37300E+03
         0.00000E+00
        -0.37300E+03
        -0.37300E+03
        -0.37300E+03
        -0.37300E+03
        -0.37300E+03
        -0.37300E+03
        -0.37300E+03
        -0.37300E+03
        -0.37300E+03
        -0.37300E+03
        -0.37300E+03
        -0.37300E+03
        -0.37300E+03
        -0.37300E+03
        -0.37300E+03
        -0.37300E+03
        -0.37300E+03
        -0.37300E+03
        -0.37300E+03
        -0.37300E+03
        -0.37300E+03
        -0.37300E+03
        -0.37300E+03
        -0.37300E+03
        -0.37300E+03
        -0.37300E+03
        -0.37300E+03
        -0.37300E+03
        -0.37300E+03
        -0.37300E+03
        -0.37300E+03
        -0.37300E+03
        -0.37300E+03
        -0.37300E+03
        -0.37300E+03
        -0.37300E+03
        -0.37300E+03
        -0.37300E+03
        -0.37300E+03
        -0.37300E+03
        -0.37300E+03
        -0.37300E+03
        -0.37300E+03
        -0.37300E+03
        -0.37300E+03
        -0.37300E+03
        -0.37300E+03
        -0.37300E+03
        -0.37300E+03
        -0.37300E+03
        -0.37300E+03
        -0.37300E+03
        -0.37300E+03
        -0.37300E+03
        -0.37300E+03
        -0.37300E+03
        -0.37300E+03
        -0.37300E+03
        -0.37300E+03
        -0.37300E+03
        -0.37300E+03
        -0.37300E+03
        -0.37300E+03
        -0.37300E+03
        -0.37300E+03
        -0.37300E+03
        -0.37300E+03
        -0.37300E+03
        -0.37300E+03
        -0.37300E+03
        -0.37300E+03
        -0.37300E+03
        -0.37300E+03
        -0.37300E+03
        -0.37300E+03
        -0.37300E+03
        -0.37300E+03
        -0.37300E+03
        -0.37300E+03
        -0.37300E+03
        -0.37300E+03
        -0.37300E+03
        -0.37300E+03
        -0.37300E+03
        -0.37300E+03
        -0.37300E+03
        -0.37300E+03
        -0.37300E+03
        -0.37300E+03
        -0.37300E+03
        -0.37300E+03
        -0.37300E+03
        -0.37300E+03
        -0.37300E+03
        -0.37300E+03
        -0.37300E+03
        -0.37300E+03
        -0.37300E+03
        -0.37300E+03
        -0.37300E+03
        -0.37300E+03
        -0.37300E+03
        -0.37300E+03
        -0.37300E+03
        -0.37300E+03
        -0.37300E+03
        -0.37300E+03
        -0.37300E+03
        -0.37300E+03
        -0.37300E+03
        -0.37300E+03
        -0.37300E+03
        -0.37300E+03
        -0.37300E+03
        -0.37300E+03
        -0.37300E+03
        -0.37300E+03
        -0.37300E+03
        -0.37300E+03
        -0.37300E+03
        -0.37300E+03
        -0.37300E+03
        -0.37300E+03
        -0.37300E+03
        -0.37300E+03
        -0.37300E+03
        -0.37300E+03
        -0.37300E+03
        -0.37300E+03
        -0.37300E+03
        -0.37300E+03
        -0.37300E+03
        -0.37300E+03
        -0.37300E+03
        -0.37300E+03
        -0.37300E+03
        -0.37300E+03
        -0.37300E+03
        -0.37300E+03
        -0.37300E+03
        -0.37300E+03
        -0.37300E+03
        -0.37300E+03
        -0.37300E+03
        -0.37300E+03
        -0.37300E+03
        -0.37300E+03
        -0.37300E+03
        -0.37300E+03
        -0.37300E+03
        -0.37300E+03
        -0.37300E+03
        -0.37300E+03
        -0.37300E+03
        -0.37300E+03
        -0.37300E+03
        -0.37300E+03
        -0.37300E+03
        -0.37300E+03
        -0.37300E+03
        -0.37300E+03
        -0.37300E+03
        -0.37300E+03
        -0.37300E+03
        -0.37300E+03
        -0.37300E+03
        -0.37300E+03
        -0.37300E+03
        -0.37300E+03
        -0.37300E+03
        -0.37300E+03
        -0.37300E+03
        -0.37300E+03
        -0.37300E+03
        -0.37300E+03
        -0.37300E+03
        -0.37300E+03
        -0.37300E+03
        -0.37300E+03
        -0.37300E+03
        -0.37300E+03
        -0.37300E+03
        -0.37300E+03
        -0.37300E+03
        -0.37300E+03
        -0.37300E+03
        -0.37300E+03
        -0.37300E+03
        -0.37300E+03
        -0.37300E+03
        -0.37300E+03
        -0.37300E+03
        -0.37300E+03
        -0.37300E+03
        -0.37300E+03
        -0.37300E+03
        -0.37300E+03
        -0.37300E+03
        -0.37300E+03
        -0.37300E+03
        -0.37300E+03
        -0.37300E+03
        -0.37300E+03
        -0.37300E+03
        -0.37300E+03
        -0.37300E+03
        -0.37300E+03
        -0.37300E+03
        -0.37300E+03
        -0.37300E+03
        -0.37300E+03
        -0.37300E+03
        -0.37300E+03
        -0.37300E+03
        -0.37300E+03
        -0.37300E+03
        -0.37300E+03
        -0.37300E+03
        -0.37300E+03
        -0.37300E+03
        -0.37300E+03
        -0.37300E+03
        -0.37300E+03
        -0.37300E+03
        -0.37300E+03
        -0.37300E+03
        -0.37300E+03
        -0.37300E+03
        -0.37300E+03
        -0.37300E+03
        -0.37300E+03
        -0.37300E+03
        -0.37300E+03
        -0.37300E+03
        -0.37300E+03
        -0.37300E+03
        -0.37300E+03
        -0.37300E+03
        -0.37300E+03
        -0.37300E+03
        -0.37300E+03
        -0.37300E+03
        -0.37300E+03
        -0.37300E+03
        -0.37300E+03
        -0.37300E+03
        -0.37300E+03
        -0.37300E+03
        -0.37300E+03
        -0.37300E+03
        -0.37300E+03
        -0.37300E+03
        -0.37300E+03
        -0.37300E+03
        -0.37300E+03
        -0.37300E+03
        -0.37300E+03
        -0.37300E+03
        -0.37300E+03
        -0.37300E+03
        -0.37300E+03
        -0.37300E+03
        -0.37300E+03
        -0.37300E+03
        -0.37300E+03
        -0.37300E+03
        -0.37300E+03
        -0.37300E+03
        -0.37300E+03
        -0.37300E+03
        -0.37300E+03
        -0.37300E+03
        -0.37300E+03
        -0.37300E+03
        -0.37300E+03
        -0.37300E+03
        -0.37300E+03
        -0.37300E+03
        -0.37300E+03
        -0.37300E+03
        -0.37300E+03
        -0.37300E+03
        -0.37300E+03
        -0.37300E+03
        -0.37300E+03
        -0.37300E+03
        -0.37300E+03
        -0.37300E+03
        -0.37300E+03
        -0.37300E+03
        -0.37300E+03
        -0.37300E+03
        -0.37300E+03
        -0.37300E+03
        -0.37300E+03
        -0.37300E+03
        -0.37300E+03
        -0.37300E+03
        -0.37300E+03
        -0.37300E+03
        -0.37300E+03
        -0.37300E+03
        -0.37300E+03
        -0.37300E+03
        -0.37300E+03
        -0.37300E+03
        -0.37300E+03
        -0.37300E+03
        -0.37300E+03
        -0.37300E+03
        -0.37300E+03
        -0.37300E+03
        -0.37300E+03
        -0.37300E+03
        -0.37300E+03
        -0.37300E+03
        -0.37300E+03
        -0.37300E+03
        -0.37300E+03
        -0.37300E+03
        -0.37300E+03
        -0.37300E+03
        -0.37300E+03
        -0.37300E+03
        -0.37300E+03
        -0.37300E+03
        -0.37300E+03
        -0.37300E+03
        -0.37300E+03
        -0.37300E+03
        -0.37300E+03
        -0.37300E+03
        -0.37300E+03
        -0.37300E+03
        -0.37300E+03
        -0.37300E+03
        -0.37300E+03
        -0.37300E+03
        -0.37300E+03
        -0.37300E+03
        -0.37300E+03
        -0.37300E+03
        -0.37300E+03
        -0.37300E+03
        -0.37300E+03
        -0.37300E+03
        -0.37300E+03
        -0.37300E+03
        -0.37300E+03
        -0.37300E+03
        -0.37300E+03
        -0.37300E+03
        -0.37300E+03
        -0.37300E+03
        -0.37300E+03
        -0.37300E+03
        -0.37300E+03
        -0.37300E+03
        -0.37300E+03
        -0.37300E+03
        -0.37300E+03
        -0.37300E+03
        -0.37300E+03
        -0.37300E+03
        -0.37300E+03
        -0.37300E+03
        -0.37300E+03
        -0.37300E+03
        -0.37300E+03
        -0.37300E+03
        -0.37300E+03
        -0.37300E+03
        -0.37300E+03
        -0.37300E+03
        -0.37300E+03
        -0.37300E+03
        -0.37300E+03
        -0.37300E+03
        -0.37300E+03
        -0.37300E+03
        -0.37300E+03
        -0.37300E+03
        -0.37300E+03
        -0.37300E+03
        -0.37300E+03
        -0.37300E+03
        -0.37300E+03
        -0.37300E+03
        -0.37300E+03
        -0.37300E+03
        -0.37300E+03
        -0.37300E+03
        -0.37300E+03
        -0.37300E+03
        -0.37300E+03
        -0.37300E+03
        -0.37300E+03
        -0.37300E+03
        -0.37300E+03
        -0.37300E+03
        -0.37300E+03
        -0.37300E+03
        -0.37300E+03
        -0.37300E+03
        -0.37300E+03
        -0.37300E+03
        -0.37300E+03
        -0.37300E+03
        -0.37300E+03
        -0.37300E+03
        -0.37300E+03
        -0.37300E+03
        -0.37300E+03
        -0.37300E+03
        -0.37300E+03
        -0.37300E+03
        -0.37300E+03
        -0.37300E+03
        -0.37300E+03
        -0.37300E+03
        -0.37300E+03
        -0.37300E+03
        -0.37300E+03
        -0.37300E+03
        -0.37300E+03
        -0.37300E+03
        -0.37300E+03
        -0.37300E+03
        -0.37300E+03
        -0.37300E+03
        -0.37300E+03
        -0.37300E+03
        -0.37300E+03
        -0.37300E+03
        -0.37300E+03
        -0.37300E+03
        -0.37300E+03
        -0.37300E+03
        -0.37300E+03
        -0.37300E+03
        -0.37300E+03
        -0.37300E+03
        -0.37300E+03
        -0.37300E+03
        -0.37300E+03
        -0.37300E+03
        -0.37300E+03
        -0.37300E+03
        -0.37300E+03
        -0.37300E+03
        -0.37300E+03
        -0.37300E+03
        -0.37300E+03
        -0.37300E+03
        -0.37300E+03
        -0.37300E+03
        -0.37300E+03
        -0.37300E+03
        -0.37300E+03
        -0.37300E+03
        -0.37300E+03
        -0.37300E+03
        -0.37300E+03
        -0.37300E+03
        -0.37300E+03
        -0.37300E+03
        -0.37300E+03
        -0.37300E+03
        -0.37300E+03
        -0.37300E+03
        -0.37300E+03
        -0.37300E+03
        -0.37300E+03
        -0.37300E+03
        -0.37300E+03
        -0.37300E+03
        -0.37300E+03
        -0.37300E+03
        -0.37300E+03
        -0.37300E+03
        -0.37300E+03
        -0.37300E+03
        -0.37300E+03
        -0.37300E+03
        -0.37300E+03
        -0.37300E+03
        -0.37300E+03
        -0.37300E+03
        -0.37300E+03
        -0.37300E+03
        -0.37300E+03
        -0.37300E+03
        -0.37300E+03
        -0.37300E+03
        -0.37300E+03
        -0.37300E+03
        -0.37300E+03
        -0.37300E+03
        -0.37300E+03
        -0.37300E+03
        -0.37300E+03
        -0.37300E+03
        -0.37300E+03
        -0.37300E+03
        -0.37300E+03
        -0.37300E+03
        -0.37300E+03
        -0.37300E+03
        -0.37300E+03
        -0.37300E+03
        -0.37300E+03
        -0.37300E+03
        -0.37300E+03
        -0.37300E+03
        -0.37300E+03
        -0.37300E+03
        -0.37300E+03
        -0.37300E+03
        -0.37300E+03
        -0.37300E+03
        -0.37300E+03
        -0.37300E+03
        -0.37300E+03
        -0.37300E+03
        -0.37300E+03
        -0.37300E+03
        -0.37300E+03
        -0.37300E+03
        -0.37300E+03
        -0.37300E+03
        -0.37300E+03
        -0.37300E+03
        -0.37300E+03
        -0.37300E+03
        -0.37300E+03
        -0.37300E+03
        -0.37300E+03
        -0.37300E+03
        -0.37300E+03
        -0.37300E+03
        -0.37300E+03
        -0.37300E+03
        -0.37300E+03
        -0.37300E+03
        -0.37300E+03
        -0.37300E+03
        -0.37300E+03
        -0.37300E+03
        -0.37300E+03
        -0.37300E+03
        -0.37300E+03
        -0.37300E+03
        -0.37300E+03
        -0.37300E+03
        -0.37300E+03
        -0.37300E+03
        -0.37300E+03
        -0.37300E+03
        -0.37300E+03
        -0.37300E+03
        -0.37300E+03
        -0.37300E+03
        -0.37300E+03
        -0.37300E+03
        -0.37300E+03
        -0.37300E+03
        -0.37300E+03
        -0.37300E+03
        -0.37300E+03
        -0.37300E+03
        -0.37300E+03
        -0.37300E+03
        -0.37300E+03
        -0.37300E+03
        -0.37300E+03
        -0.37300E+03
        -0.37300E+03
        -0.37300E+03
        -0.37300E+03
        -0.37300E+03
        -0.37300E+03
        -0.37300E+03
        -0.37300E+03
        -0.37300E+03
        -0.37300E+03
        -0.37300E+03
        -0.37300E+03
        -0.37300E+03
        -0.37300E+03
        -0.37300E+03
        -0.37300E+03
        -0.37300E+03
        -0.37300E+03
        -0.37300E+03
        -0.37300E+03
        -0.37300E+03
        -0.37300E+03
        -0.37300E+03
        -0.37300E+03
        -0.37300E+03
        -0.37300E+03
        -0.37300E+03
        -0.37300E+03
        -0.37300E+03
        -0.37300E+03
        -0.37300E+03
        -0.37300E+03
        -0.37300E+03
        -0.37300E+03
        -0.37300E+03
        -0.37300E+03
        -0.37300E+03
        -0.37300E+03
        -0.37300E+03
        -0.37300E+03
        -0.37300E+03
        -0.37300E+03
        -0.37300E+03
        -0.37300E+03
        -0.37300E+03
        -0.37300E+03
        -0.37300E+03
        -0.37300E+03
        -0.37300E+03
        -0.37300E+03
        -0.37300E+03
        -0.37300E+03
        -0.37300E+03
        -0.37300E+03
        -0.37300E+03
        -0.37300E+03
        -0.37300E+03
        -0.37300E+03
        -0.37300E+03
        -0.37300E+03
        -0.37300E+03
        -0.37300E+03
        -0.37300E+03
        -0.37300E+03
        -0.37300E+03
        -0.37300E+03
        -0.37300E+03
        -0.37300E+03
        -0.37300E+03
        -0.37300E+03
        -0.37300E+03
        -0.37300E+03
        -0.37300E+03
        -0.37300E+03
        -0.37300E+03
        -0.37300E+03
        -0.37300E+03
        -0.37300E+03
        -0.37300E+03
        -0.37300E+03
        -0.37300E+03
        -0.37300E+03
        -0.37300E+03
        -0.37300E+03
        -0.37300E+03
        -0.37300E+03
        -0.37300E+03
        -0.37300E+03
        -0.37300E+03
        -0.37300E+03
        -0.37300E+03
        -0.37300E+03
        -0.37300E+03
        -0.37300E+03
        -0.37300E+03
        -0.37300E+03
        -0.37300E+03
        -0.37300E+03
        -0.37300E+03
        -0.37300E+03
        -0.37300E+03
        -0.37300E+03
        -0.37300E+03
        -0.37300E+03
        -0.37300E+03
        -0.37300E+03
        -0.37300E+03
        -0.37300E+03
        -0.37300E+03
        -0.37300E+03
        -0.37300E+03
        -0.37300E+03
        -0.37300E+03
        -0.37300E+03
        -0.37300E+03
        -0.37300E+03
        -0.37300E+03
        -0.37300E+03
        -0.37300E+03
        -0.37300E+03
        -0.37300E+03
        -0.37300E+03
        -0.37300E+03
        -0.37300E+03
        -0.37300E+03
        -0.37300E+03
        -0.37300E+03
        -0.37300E+03
        -0.37300E+03
        -0.37300E+03
        -0.37300E+03
        -0.37300E+03
        -0.37300E+03
        -0.37300E+03
        -0.37300E+03
        -0.37300E+03
        -0.37300E+03
        -0.37300E+03
        -0.37300E+03
        -0.37300E+03
        -0.37300E+03
        -0.37300E+03
        -0.37300E+03
        -0.37300E+03
        -0.37300E+03
        -0.37300E+03
        -0.37300E+03
        -0.37300E+03
        -0.37300E+03
        -0.37300E+03
        -0.37300E+03
        -0.37300E+03
        -0.37300E+03
        -0.37300E+03
        -0.37300E+03
        -0.37300E+03
        -0.37300E+03
        -0.37300E+03
        -0.37300E+03
        -0.37300E+03
        -0.37300E+03
        -0.37300E+03
        -0.37300E+03
        -0.37300E+03
        -0.37300E+03
        -0.37300E+03
        -0.37300E+03
        -0.37300E+03
        -0.37300E+03
        -0.37300E+03
        -0.37300E+03
        -0.37300E+03
        -0.37300E+03
        -0.37300E+03
        -0.37300E+03
        -0.37300E+03
        -0.37300E+03
        -0.37300E+03
        -0.37300E+03
        -0.37300E+03
        -0.37300E+03
        -0.37300E+03
        -0.37300E+03
        -0.37300E+03
        -0.37300E+03
        -0.37300E+03
        -0.37300E+03
        -0.37300E+03
        -0.37300E+03
        -0.37300E+03
        -0.37300E+03
        -0.37300E+03
        -0.37300E+03
        -0.37300E+03
        -0.37300E+03
        -0.37300E+03
        -0.37300E+03
        -0.37300E+03
        -0.37300E+03
        -0.37300E+03
        -0.37300E+03
        -0.37300E+03
        -0.37300E+03
        -0.37300E+03
        -0.37300E+03
        -0.37300E+03
        -0.37300E+03
        -0.37300E+03
        -0.37300E+03
        -0.37300E+03
        -0.37300E+03
        -0.37300E+03
        -0.37300E+03
        -0.37300E+03
        -0.37300E+03
        -0.37300E+03
        -0.37300E+03
        -0.37300E+03
        -0.37300E+03
        -0.37300E+03
        -0.37300E+03
        -0.37300E+03
        -0.37300E+03
        -0.37300E+03
        -0.37300E+03
        -0.37300E+03
        -0.37300E+03
        -0.37300E+03
        -0.37300E+03
        -0.37300E+03
        -0.37300E+03
        -0.37300E+03
        -0.37300E+03
        -0.37300E+03
        -0.37300E+03
        -0.37300E+03
        -0.37300E+03
        -0.37300E+03
        -0.37300E+03
        -0.37300E+03
        -0.37300E+03
        -0.37300E+03
        -0.37300E+03
        -0.37300E+03
        -0.37300E+03
        -0.37300E+03
        -0.37300E+03
        -0.37300E+03
        -0.37300E+03
        -0.37300E+03
        -0.37300E+03
        -0.37300E+03
        -0.37300E+03
        -0.37300E+03
        -0.37300E+03
        -0.37300E+03
        -0.37300E+03
        -0.37300E+03
        -0.37300E+03
        -0.37300E+03
        -0.37300E+03
        -0.37300E+03
        -0.37300E+03
        -0.37300E+03
        -0.37300E+03
        -0.37300E+03
        -0.37300E+03
        -0.37300E+03
        -0.37300E+03
        -0.37300E+03
        -0.37300E+03
        -0.37300E+03
        -0.37300E+03
        -0.37300E+03
        -0.37300E+03
        -0.37300E+03
        -0.37300E+03
        -0.37300E+03
        -0.37300E+03
        -0.37300E+03
        -0.37300E+03
        -0.37300E+03
        -0.37300E+03
        -0.37300E+03
        -0.37300E+03
        -0.37300E+03
        -0.37300E+03
        -0.37300E+03
        -0.37300E+03
        -0.37300E+03
        -0.37300E+03
        -0.37300E+03
        -0.37300E+03
        -0.37300E+03
        -0.37300E+03
        -0.37300E+03
        -0.37300E+03
        -0.37300E+03
        -0.37300E+03
        -0.37300E+03
        -0.37300E+03
        -0.37300E+03
        -0.37300E+03
        -0.37300E+03
        -0.37300E+03
        -0.37300E+03
        -0.37300E+03
        -0.37300E+03
        -0.37300E+03
        -0.37300E+03
        -0.37300E+03
        -0.37300E+03
        -0.37300E+03
        -0.37300E+03
        -0.37300E+03
        -0.37300E+03
        -0.37300E+03
        -0.37300E+03
        -0.37300E+03
        -0.37300E+03
        -0.37300E+03
        -0.37300E+03
        -0.37300E+03
        -0.37300E+03
        -0.37300E+03
        -0.37300E+03
        -0.37300E+03
        -0.37300E+03
        -0.37300E+03
        -0.37300E+03
        -0.37300E+03
        -0.37300E+03
        -0.37300E+03
        -0.37300E+03
        -0.37300E+03
        -0.37300E+03
        -0.37300E+03
        -0.37300E+03
        -0.37300E+03
        -0.37300E+03
        -0.37300E+03
        -0.37300E+03
        -0.37300E+03
        -0.37300E+03
        -0.37300E+03
        -0.37300E+03
        -0.37300E+03
        -0.37300E+03
        -0.37300E+03
        -0.37300E+03
        -0.37300E+03
        -0.37300E+03
        -0.37300E+03
        -0.37300E+03
        -0.37300E+03
        -0.37300E+03
        -0.37300E+03
        -0.37300E+03
        -0.37300E+03
        -0.37300E+03
        -0.37300E+03
        -0.37300E+03
        -0.37300E+03
        -0.37300E+03
        -0.37300E+03
        -0.37300E+03
        -0.37300E+03
        -0.37300E+03
        -0.37300E+03
        -0.37300E+03
        -0.37300E+03
        -0.37300E+03
        -0.37300E+03
        -0.37300E+03
        -0.37300E+03
        -0.37300E+03
        -0.37300E+03
        -0.37300E+03
        -0.37300E+03
        -0.37300E+03
        -0.37300E+03
        -0.37300E+03
        -0.37300E+03
        -0.37300E+03
        -0.37300E+03
        -0.37300E+03
        -0.37300E+03
        -0.37300E+03
        -0.37300E+03
        -0.37300E+03
        -0.37300E+03
        -0.37300E+03
        -0.37300E+03
        -0.37300E+03
        -0.37300E+03
        -0.37300E+03
        -0.37300E+03
        -0.37300E+03
        -0.37300E+03
        -0.37300E+03
        -0.37300E+03
        -0.37300E+03
        -0.37300E+03
        -0.37300E+03
        -0.37300E+03
        -0.37300E+03
        -0.37300E+03
        -0.37300E+03
        -0.37300E+03
        -0.37300E+03
        -0.37300E+03
        -0.37300E+03
        -0.37300E+03
        -0.37300E+03
        -0.37300E+03
        -0.37300E+03
        -0.37300E+03
        -0.37300E+03
        -0.37300E+03
        -0.37300E+03
        -0.37300E+03
        -0.37300E+03
        -0.37300E+03
        -0.37300E+03
        -0.37300E+03
        -0.37300E+03
        -0.37300E+03
        -0.37300E+03
        -0.37300E+03
        -0.37300E+03
        -0.37300E+03
        -0.37300E+03
        -0.37300E+03
        -0.37300E+03
        -0.37300E+03
        -0.37300E+03
        -0.37300E+03
        -0.37300E+03
        -0.37300E+03
        -0.37300E+03
        -0.37300E+03
        -0.37300E+03
        -0.37300E+03
        -0.37300E+03
        -0.37300E+03
        -0.37300E+03
        -0.37300E+03
        -0.37300E+03
        -0.37300E+03
        -0.37300E+03
        -0.37300E+03
        -0.37300E+03
        -0.37300E+03
        -0.37300E+03
        -0.37300E+03
        -0.37300E+03
        -0.37300E+03
        -0.37300E+03
        -0.37300E+03
        -0.37300E+03
        -0.37300E+03
        -0.37300E+03
        -0.37300E+03
        -0.37300E+03
        -0.37300E+03
        -0.37300E+03
        -0.37300E+03
        -0.37300E+03
        -0.37300E+03
        -0.37300E+03
        -0.37300E+03
        -0.37300E+03
        -0.37300E+03
        -0.37300E+03
        -0.37300E+03
        -0.37300E+03
        -0.37300E+03
        -0.37300E+03
        -0.37300E+03
        -0.37300E+03
        -0.37300E+03
        -0.37300E+03
        -0.37300E+03
        -0.37300E+03
        -0.37300E+03
        -0.37300E+03
        -0.37300E+03
        -0.37300E+03
        -0.37300E+03
        -0.37300E+03
        -0.37300E+03
        -0.37300E+03
        -0.37300E+03
        -0.37300E+03
        -0.37300E+03
        -0.37300E+03
        -0.37300E+03
        -0.37300E+03
        -0.37300E+03
        -0.37300E+03
        -0.37300E+03
        -0.37300E+03
        -0.37300E+03
        -0.37300E+03
        -0.37300E+03
        -0.37300E+03
        -0.37300E+03
        -0.37300E+03
        -0.37300E+03
        -0.37300E+03
        -0.37300E+03
        -0.37300E+03
        -0.37300E+03
        -0.37300E+03
        -0.37300E+03
        -0.37300E+03
        -0.37300E+03
        -0.37300E+03
        -0.37300E+03
        -0.37300E+03
        -0.37300E+03
        -0.37300E+03
        -0.37300E+03
        -0.37300E+03
        -0.37300E+03
        -0.37300E+03
        -0.37300E+03
        -0.37300E+03
        -0.37300E+03
        -0.37300E+03
        -0.37300E+03
        -0.37300E+03
        -0.37300E+03
        -0.37300E+03
        -0.37300E+03
        -0.37300E+03
        -0.37300E+03
        -0.37300E+03
        -0.37300E+03
        -0.37300E+03
        -0.37300E+03
        -0.37300E+03
        -0.37300E+03
        -0.37300E+03
        -0.37300E+03
        -0.37300E+03
        -0.37300E+03
        -0.37300E+03
        -0.37300E+03
        -0.37300E+03
        -0.37300E+03
        -0.37300E+03
        -0.37300E+03
        -0.37300E+03
        -0.37300E+03
        -0.37300E+03
        -0.37300E+03
        -0.37300E+03
        -0.37300E+03
        -0.37300E+03
        -0.37300E+03
        -0.37300E+03
        -0.37300E+03
        -0.37300E+03
        -0.37300E+03
        -0.37300E+03
        -0.37300E+03
        -0.37300E+03
        -0.37300E+03
        -0.37300E+03
        -0.37300E+03
        -0.37300E+03
        -0.37300E+03
        -0.37300E+03
        -0.37300E+03
        -0.37300E+03
        -0.37300E+03
        -0.37300E+03
        -0.37300E+03
        -0.37300E+03
        -0.37300E+03
        -0.37300E+03
        -0.37300E+03
        -0.37300E+03
        -0.37300E+03
        -0.37300E+03
        -0.37300E+03
        -0.37300E+03
        -0.37300E+03
        -0.37300E+03
        -0.37300E+03
        -0.37300E+03
        -0.37300E+03
        -0.37300E+03
        -0.37300E+03
        -0.37300E+03
        -0.37300E+03
        -0.37300E+03
        -0.37300E+03
        -0.37300E+03
        -0.37300E+03
        -0.37300E+03
        -0.37300E+03
        -0.37300E+03
        -0.37300E+03
        -0.37300E+03
        -0.37300E+03
        -0.37300E+03
        -0.37300E+03
        -0.37300E+03
        -0.37300E+03
        -0.37300E+03
        -0.37300E+03
        -0.37300E+03
        -0.37300E+03
        -0.37300E+03
        -0.37300E+03
        -0.37300E+03
        -0.37300E+03
        -0.37300E+03
        -0.37300E+03
        -0.37300E+03
        -0.37300E+03
        -0.37300E+03
        -0.37300E+03
        -0.37300E+03
        -0.37300E+03
        -0.37300E+03
        -0.37300E+03
        -0.37300E+03
        -0.37300E+03
        -0.37300E+03
        -0.37300E+03
        -0.37300E+03
        -0.37300E+03
        -0.37300E+03
        -0.37300E+03
        -0.37300E+03
        -0.37300E+03
        -0.37300E+03
        -0.37300E+03
        -0.37300E+03
        -0.37300E+03
        -0.37300E+03
        -0.37300E+03
        -0.37300E+03
        -0.37300E+03
        -0.37300E+03
        -0.37300E+03
        -0.37300E+03
        -0.37300E+03
        -0.37300E+03
        -0.37300E+03
        -0.37300E+03
        -0.37300E+03
        -0.37300E+03
        -0.37300E+03
        -0.37300E+03
        -0.37300E+03
        -0.37300E+03
        -0.37300E+03
        -0.37300E+03
        -0.37300E+03
        -0.37300E+03
        -0.37300E+03
        -0.37300E+03
        -0.37300E+03
        -0.37300E+03
        -0.37300E+03
        -0.37300E+03
        -0.37300E+03
        -0.37300E+03
        -0.37300E+03
        -0.37300E+03
        -0.37300E+03
        -0.37300E+03
        -0.37300E+03
        -0.37300E+03
        -0.37300E+03
        -0.37300E+03
        -0.37300E+03
        -0.37300E+03
        -0.37300E+03
        -0.37300E+03
        -0.37300E+03
        -0.37300E+03
        -0.37300E+03
        -0.37300E+03
        -0.37300E+03
        -0.37300E+03
        -0.37300E+03
        -0.37300E+03
        -0.37300E+03
        -0.37300E+03
        -0.37300E+03
        -0.37300E+03
        -0.37300E+03
        -0.37300E+03
        -0.37300E+03
        -0.37300E+03
        -0.37300E+03
        -0.37300E+03
        -0.37300E+03
        -0.37300E+03
        -0.37300E+03
        -0.37300E+03
        -0.37300E+03
        -0.37300E+03
        -0.37300E+03
        -0.37300E+03
        -0.37300E+03
        -0.37300E+03
        -0.37300E+03
        -0.37300E+03
        -0.37300E+03
        -0.37300E+03
        -0.37300E+03
        -0.37300E+03
        -0.37300E+03
        -0.37300E+03
        -0.37300E+03
        -0.37300E+03
        -0.37300E+03
        -0.37300E+03
        -0.37300E+03
        -0.37300E+03
        -0.37300E+03
        -0.37300E+03
        -0.37300E+03
        -0.37300E+03
        -0.37300E+03
        -0.37300E+03
        -0.37300E+03
        -0.37300E+03
        -0.37300E+03
        -0.37300E+03
        -0.37300E+03
        -0.37300E+03
        -0.37300E+03
        -0.37300E+03
        -0.37300E+03
        -0.37300E+03
        -0.37300E+03
        -0.37300E+03
        -0.37300E+03
        -0.37300E+03
        -0.37300E+03
        -0.37300E+03
        -0.37300E+03
        -0.37300E+03
        -0.37300E+03
        -0.37300E+03
        -0.37300E+03
        -0.37300E+03
        -0.37300E+03
        -0.37300E+03
        -0.37300E+03
        -0.37300E+03
        -0.37300E+03
        -0.37300E+03
        -0.37300E+03
        -0.37300E+03
        -0.37300E+03
        -0.37300E+03
        -0.37300E+03
        -0.37300E+03
        -0.37300E+03
        -0.37300E+03
        -0.37300E+03
        -0.37300E+03
        -0.37300E+03
        -0.37300E+03
        -0.37300E+03
        -0.37300E+03
        -0.37300E+03
        -0.37300E+03
        -0.37300E+03
        -0.37300E+03
        -0.37300E+03
        -0.37300E+03
        -0.37300E+03
        -0.37300E+03
        -0.37300E+03
        -0.37300E+03
        -0.37300E+03
        -0.37300E+03
        -0.37300E+03
        -0.37300E+03
        -0.37300E+03
        -0.37300E+03
        -0.37300E+03
        -0.37300E+03
        -0.37300E+03
        -0.37300E+03
        -0.37300E+03
        -0.37300E+03
        -0.37300E+03
        -0.37300E+03
        -0.37300E+03
        -0.37300E+03
        -0.37300E+03
        -0.37300E+03
        -0.37300E+03
        -0.37300E+03
        -0.37300E+03
        -0.37300E+03
        -0.37300E+03
        -0.37300E+03
        -0.37300E+03
        -0.37300E+03
        -0.37300E+03
        -0.37300E+03
        -0.37300E+03
        -0.37300E+03
        -0.37300E+03
        -0.37300E+03
        -0.37300E+03
        -0.37300E+03
        -0.37300E+03
        -0.37300E+03
        -0.37300E+03
        -0.37300E+03
        -0.37300E+03
        -0.37300E+03
        -0.37300E+03
        -0.37300E+03
        -0.37300E+03
        -0.37300E+03
        -0.37300E+03
        -0.37300E+03
        -0.37300E+03
        -0.37300E+03
        -0.37300E+03
        -0.37300E+03
        -0.37300E+03
        -0.37300E+03
        -0.37300E+03
        -0.37300E+03
        -0.37300E+03
        -0.37300E+03
        -0.37300E+03
        -0.37300E+03
        -0.37300E+03
        -0.37300E+03
        -0.37300E+03
        -0.37300E+03
        -0.37300E+03
        -0.37300E+03
        -0.37300E+03
        -0.37300E+03
        -0.37300E+03
        -0.37300E+03
        -0.37300E+03
        -0.37300E+03
        -0.37300E+03
        -0.37300E+03
        -0.37300E+03
        -0.37300E+03
        -0.37300E+03
        -0.37300E+03
        -0.37300E+03
        -0.37300E+03
        -0.37300E+03
        -0.37300E+03
        -0.37300E+03
        -0.37300E+03
        -0.37300E+03
        -0.37300E+03
        -0.37300E+03
        -0.37300E+03
        -0.37300E+03
        -0.37300E+03
        -0.37300E+03
        -0.37300E+03
        -0.37300E+03
        -0.37300E+03
        -0.37300E+03
        -0.37300E+03
        -0.37300E+03
        -0.37300E+03
        -0.37300E+03
        -0.37300E+03
        -0.37300E+03
        -0.37300E+03
        -0.37300E+03
        -0.37300E+03
        -0.37300E+03
        -0.37300E+03
        -0.37300E+03
        -0.37300E+03
        -0.37300E+03
        -0.37300E+03
        -0.37300E+03
        -0.37300E+03
        -0.37300E+03
        -0.37300E+03
        -0.37300E+03
        -0.37300E+03
        -0.37300E+03
        -0.37300E+03
        -0.37300E+03
        -0.37300E+03
        -0.37300E+03
        -0.37300E+03
        -0.37300E+03
        -0.37300E+03
        -0.37300E+03
        -0.37300E+03
        -0.37300E+03
        -0.37300E+03
        -0.37300E+03
        -0.37300E+03
        -0.37300E+03
        -0.37300E+03
        -0.37300E+03
        -0.37300E+03
        -0.37300E+03
        -0.37300E+03
        -0.37300E+03
        -0.37300E+03
        -0.37300E+03
        -0.37300E+03
        -0.37300E+03
        -0.37300E+03
        -0.37300E+03
        -0.37300E+03
        -0.37300E+03
        -0.37300E+03
        -0.37300E+03
        -0.37300E+03
        -0.37300E+03
        -0.37300E+03
        -0.37300E+03
        -0.37300E+03
        -0.37300E+03
        -0.37300E+03
        -0.37300E+03
        -0.37300E+03
        -0.37300E+03
        -0.37300E+03
        -0.37300E+03
        -0.37300E+03
        -0.37300E+03
        -0.37300E+03
        -0.37300E+03
        -0.37300E+03
        -0.37300E+03
        -0.37300E+03
        -0.37300E+03
        -0.37300E+03
        -0.37300E+03
        -0.37300E+03
        -0.37300E+03
        -0.37300E+03
        -0.37300E+03
        -0.37300E+03
        -0.37300E+03
        -0.37300E+03
        -0.37300E+03
        -0.37300E+03
        -0.37300E+03
        -0.37300E+03
        -0.37300E+03
        -0.37300E+03
        -0.37300E+03
        -0.37300E+03
        -0.37300E+03
        -0.37300E+03
        -0.37300E+03
        -0.37300E+03
        -0.37300E+03
        -0.37300E+03
        -0.37300E+03
        -0.37300E+03
        -0.37300E+03
        -0.37300E+03
        -0.37300E+03
        -0.37300E+03
        -0.37300E+03
        -0.37300E+03
        -0.37300E+03
        -0.37300E+03
        -0.37300E+03
        -0.37300E+03
        -0.37300E+03
        -0.37300E+03
        -0.37300E+03
        -0.37300E+03
        -0.37300E+03
        -0.37300E+03
        -0.37300E+03
        -0.37300E+03
        -0.37300E+03
        -0.37300E+03
        -0.37300E+03
        -0.37300E+03
        -0.37300E+03
        -0.37300E+03
        -0.37300E+03
        -0.37300E+03
        -0.37300E+03
        -0.37300E+03
        -0.37300E+03
        -0.37300E+03
        -0.37300E+03
        -0.37300E+03
        -0.37300E+03
        -0.37300E+03
        -0.37300E+03
        -0.37300E+03
        -0.37300E+03
        -0.37300E+03
        -0.37300E+03
        -0.37300E+03
        -0.37300E+03
        -0.37300E+03
        -0.37300E+03
        -0.37300E+03
        -0.37300E+03
        -0.37300E+03
        -0.37300E+03
        -0.37300E+03
        -0.37300E+03
        -0.37300E+03
        -0.37300E+03
        -0.37300E+03
        -0.37300E+03
        -0.37300E+03
        -0.37300E+03
        -0.37300E+03
        -0.37300E+03
        -0.37300E+03
        -0.37300E+03
        -0.37300E+03
        -0.37300E+03
        -0.37300E+03
        -0.37300E+03
        -0.37300E+03
        -0.37300E+03
        -0.37300E+03
        -0.37300E+03
        -0.37300E+03
        -0.37300E+03
        -0.37300E+03
        -0.37300E+03
        -0.37300E+03
        -0.37300E+03
        -0.37300E+03
        -0.37300E+03
        -0.37300E+03
        -0.37300E+03
        -0.37300E+03
        -0.37300E+03
        -0.37300E+03
        -0.37300E+03
        -0.37300E+03
        -0.37300E+03
        -0.37300E+03
        -0.37300E+03
        -0.37300E+03
        -0.37300E+03
        -0.37300E+03
        -0.37300E+03
        -0.37300E+03
        -0.37300E+03
        -0.37300E+03
        -0.37300E+03
        -0.37300E+03
        -0.37300E+03
        -0.37300E+03
        -0.37300E+03
        -0.37300E+03
        -0.37300E+03
        -0.37300E+03
        -0.37300E+03
        -0.37300E+03
        -0.37300E+03
        -0.37300E+03
        -0.37300E+03
        -0.37300E+03
        -0.37300E+03
        -0.37300E+03
        -0.37300E+03
        -0.37300E+03
        -0.37300E+03
        -0.37300E+03
        -0.37300E+03
        -0.37300E+03
        -0.37300E+03
        -0.37300E+03
        -0.37300E+03
        -0.37300E+03
        -0.37300E+03
        -0.37300E+03
        -0.37300E+03
        -0.37300E+03
        -0.37300E+03
        -0.37300E+03
        -0.37300E+03
        -0.37300E+03
        -0.37300E+03
        -0.37300E+03
        -0.37300E+03
        -0.37300E+03
        -0.37300E+03
        -0.37300E+03
        -0.37300E+03
        -0.37300E+03
        -0.37300E+03
        -0.37300E+03
        -0.37300E+03
        -0.37300E+03
        -0.37300E+03
        -0.37300E+03
        -0.37300E+03
        -0.37300E+03
        -0.37300E+03
        -0.37300E+03
        -0.37300E+03
        -0.37300E+03
        -0.37300E+03
        -0.37300E+03
        -0.37300E+03
        -0.37300E+03
        -0.37300E+03
        -0.37300E+03
        -0.37300E+03
        -0.37300E+03
        -0.37300E+03
        -0.37300E+03
        -0.37300E+03
        -0.37300E+03
        -0.37300E+03
        -0.37300E+03
        -0.37300E+03
        -0.37300E+03
        -0.37300E+03
        -0.37300E+03
        -0.37300E+03
        -0.37300E+03
        -0.37300E+03
        -0.37300E+03
        -0.37300E+03
        -0.37300E+03
        -0.37300E+03
        -0.37300E+03
        -0.37300E+03
        -0.37300E+03
        -0.37300E+03
        -0.37300E+03
        -0.37300E+03
        -0.37300E+03
        -0.37300E+03
        -0.37300E+03
        -0.37300E+03
        -0.37300E+03
        -0.37300E+03
        -0.37300E+03
        -0.37300E+03
        -0.37300E+03
        -0.37300E+03
        -0.37300E+03
        -0.37300E+03
        -0.37300E+03
        -0.37300E+03
        -0.37300E+03
        -0.37300E+03
        -0.37300E+03
        -0.37300E+03
        -0.37300E+03
        -0.37300E+03
        -0.37300E+03
        -0.37300E+03
        -0.37300E+03
        -0.37300E+03
        -0.37300E+03
        -0.37300E+03
        -0.37300E+03
        -0.37300E+03
        -0.37300E+03
        -0.37300E+03
        -0.37300E+03
        -0.37300E+03
        -0.37300E+03
        -0.37300E+03
        -0.37300E+03
        -0.37300E+03
        -0.37300E+03
        -0.37300E+03
        -0.37300E+03
        -0.37300E+03
        -0.37300E+03
        -0.37300E+03
        -0.37300E+03
        -0.37300E+03
        -0.37300E+03
        -0.37300E+03
        -0.37300E+03
        -0.37300E+03
        -0.37300E+03
        -0.37300E+03
        -0.37300E+03
        -0.37300E+03
        -0.37300E+03
        -0.37300E+03
        -0.37300E+03
        -0.37300E+03
        -0.37300E+03
        -0.37300E+03
        -0.37300E+03
        -0.37300E+03
        -0.37300E+03
        -0.37300E+03
        -0.37300E+03
        -0.37300E+03
        -0.37300E+03
        -0.37300E+03
        -0.37300E+03
        -0.37300E+03
  
SCALARS                 acceleration_x  double 1
LOOKUP_TABLE default
         0.00000E+00
         0.00000E+00
         0.00000E+00
         0.00000E+00
         0.00000E+00
         0.00000E+00
         0.00000E+00
         0.00000E+00
         0.00000E+00
         0.00000E+00
         0.00000E+00
         0.00000E+00
         0.00000E+00
         0.00000E+00
         0.00000E+00
         0.00000E+00
         0.00000E+00
         0.00000E+00
         0.00000E+00
         0.00000E+00
         0.00000E+00
         0.00000E+00
         0.00000E+00
         0.00000E+00
         0.00000E+00
         0.00000E+00
         0.00000E+00
         0.00000E+00
         0.00000E+00
         0.00000E+00
         0.00000E+00
         0.00000E+00
         0.00000E+00
         0.00000E+00
         0.00000E+00
         0.00000E+00
         0.00000E+00
         0.00000E+00
         0.00000E+00
         0.00000E+00
         0.00000E+00
         0.00000E+00
         0.00000E+00
         0.00000E+00
         0.00000E+00
         0.00000E+00
         0.00000E+00
         0.00000E+00
         0.00000E+00
         0.00000E+00
         0.00000E+00
         0.00000E+00
         0.00000E+00
         0.00000E+00
         0.00000E+00
         0.00000E+00
         0.00000E+00
         0.00000E+00
         0.00000E+00
         0.00000E+00
         0.00000E+00
         0.00000E+00
         0.00000E+00
         0.00000E+00
         0.00000E+00
         0.00000E+00
         0.00000E+00
         0.00000E+00
         0.00000E+00
         0.00000E+00
         0.00000E+00
         0.00000E+00
         0.00000E+00
         0.00000E+00
         0.00000E+00
         0.00000E+00
         0.00000E+00
         0.00000E+00
         0.00000E+00
         0.00000E+00
         0.00000E+00
         0.00000E+00
         0.00000E+00
         0.00000E+00
         0.00000E+00
         0.00000E+00
         0.00000E+00
         0.00000E+00
         0.00000E+00
         0.00000E+00
         0.00000E+00
         0.00000E+00
         0.00000E+00
         0.00000E+00
         0.00000E+00
         0.00000E+00
         0.00000E+00
         0.00000E+00
         0.00000E+00
         0.00000E+00
         0.00000E+00
         0.00000E+00
         0.00000E+00
         0.00000E+00
         0.00000E+00
         0.00000E+00
         0.00000E+00
         0.00000E+00
         0.00000E+00
         0.00000E+00
         0.00000E+00
         0.00000E+00
         0.00000E+00
         0.00000E+00
         0.00000E+00
         0.00000E+00
         0.00000E+00
         0.00000E+00
         0.00000E+00
         0.00000E+00
         0.00000E+00
         0.00000E+00
         0.00000E+00
         0.00000E+00
         0.00000E+00
         0.00000E+00
         0.00000E+00
         0.00000E+00
         0.00000E+00
         0.00000E+00
         0.00000E+00
         0.00000E+00
         0.00000E+00
         0.00000E+00
         0.00000E+00
         0.00000E+00
         0.00000E+00
         0.00000E+00
         0.00000E+00
         0.00000E+00
         0.00000E+00
         0.00000E+00
         0.00000E+00
         0.00000E+00
         0.00000E+00
         0.00000E+00
         0.00000E+00
         0.00000E+00
         0.00000E+00
         0.00000E+00
         0.00000E+00
         0.00000E+00
         0.00000E+00
         0.00000E+00
         0.00000E+00
         0.00000E+00
         0.00000E+00
         0.00000E+00
         0.00000E+00
         0.00000E+00
         0.00000E+00
         0.00000E+00
         0.00000E+00
         0.00000E+00
         0.00000E+00
         0.00000E+00
         0.00000E+00
         0.00000E+00
         0.00000E+00
         0.00000E+00
         0.00000E+00
         0.00000E+00
         0.00000E+00
         0.00000E+00
         0.00000E+00
         0.00000E+00
         0.00000E+00
         0.00000E+00
         0.00000E+00
         0.00000E+00
         0.00000E+00
         0.00000E+00
         0.00000E+00
         0.00000E+00
         0.00000E+00
         0.00000E+00
         0.00000E+00
         0.00000E+00
         0.00000E+00
         0.00000E+00
         0.00000E+00
         0.00000E+00
         0.00000E+00
         0.00000E+00
         0.00000E+00
         0.00000E+00
         0.00000E+00
         0.00000E+00
         0.00000E+00
         0.00000E+00
         0.00000E+00
         0.00000E+00
         0.00000E+00
         0.00000E+00
         0.00000E+00
         0.00000E+00
         0.00000E+00
         0.00000E+00
         0.00000E+00
         0.00000E+00
         0.00000E+00
         0.00000E+00
         0.00000E+00
         0.00000E+00
         0.00000E+00
         0.00000E+00
         0.00000E+00
         0.00000E+00
         0.00000E+00
         0.00000E+00
         0.00000E+00
         0.00000E+00
         0.00000E+00
         0.00000E+00
         0.00000E+00
         0.00000E+00
         0.00000E+00
         0.00000E+00
         0.00000E+00
         0.00000E+00
         0.00000E+00
         0.00000E+00
         0.00000E+00
         0.00000E+00
         0.00000E+00
         0.00000E+00
         0.00000E+00
         0.00000E+00
         0.00000E+00
         0.00000E+00
         0.00000E+00
         0.00000E+00
         0.00000E+00
         0.00000E+00
         0.00000E+00
         0.00000E+00
         0.00000E+00
         0.00000E+00
         0.00000E+00
         0.00000E+00
         0.00000E+00
         0.00000E+00
         0.00000E+00
         0.00000E+00
         0.00000E+00
         0.00000E+00
         0.00000E+00
         0.00000E+00
         0.00000E+00
         0.00000E+00
         0.00000E+00
         0.00000E+00
         0.00000E+00
         0.00000E+00
         0.00000E+00
         0.00000E+00
         0.00000E+00
         0.00000E+00
         0.00000E+00
         0.00000E+00
         0.00000E+00
         0.00000E+00
         0.00000E+00
         0.00000E+00
         0.00000E+00
         0.00000E+00
         0.00000E+00
         0.00000E+00
         0.00000E+00
         0.00000E+00
         0.00000E+00
         0.00000E+00
         0.00000E+00
         0.00000E+00
         0.00000E+00
         0.00000E+00
         0.00000E+00
         0.00000E+00
         0.00000E+00
         0.00000E+00
         0.00000E+00
         0.00000E+00
         0.00000E+00
         0.00000E+00
         0.00000E+00
         0.00000E+00
         0.00000E+00
         0.00000E+00
         0.00000E+00
         0.00000E+00
         0.00000E+00
         0.00000E+00
         0.00000E+00
         0.00000E+00
         0.00000E+00
         0.00000E+00
         0.00000E+00
         0.00000E+00
         0.00000E+00
         0.00000E+00
         0.00000E+00
         0.00000E+00
         0.00000E+00
         0.00000E+00
         0.00000E+00
         0.00000E+00
         0.00000E+00
         0.00000E+00
         0.00000E+00
         0.00000E+00
         0.00000E+00
         0.00000E+00
         0.00000E+00
         0.00000E+00
         0.00000E+00
         0.00000E+00
         0.00000E+00
         0.00000E+00
         0.00000E+00
         0.00000E+00
         0.00000E+00
         0.00000E+00
         0.00000E+00
         0.00000E+00
         0.00000E+00
         0.00000E+00
         0.00000E+00
         0.00000E+00
         0.00000E+00
         0.00000E+00
         0.00000E+00
         0.00000E+00
         0.00000E+00
         0.00000E+00
         0.00000E+00
         0.00000E+00
         0.00000E+00
         0.00000E+00
         0.00000E+00
         0.00000E+00
         0.00000E+00
         0.00000E+00
         0.00000E+00
         0.00000E+00
         0.00000E+00
         0.00000E+00
         0.00000E+00
         0.00000E+00
         0.00000E+00
         0.00000E+00
         0.00000E+00
         0.00000E+00
         0.00000E+00
         0.00000E+00
         0.00000E+00
         0.00000E+00
         0.00000E+00
         0.00000E+00
         0.00000E+00
         0.00000E+00
         0.00000E+00
         0.00000E+00
         0.00000E+00
         0.00000E+00
         0.00000E+00
         0.00000E+00
         0.00000E+00
         0.00000E+00
         0.00000E+00
         0.00000E+00
         0.00000E+00
         0.00000E+00
         0.00000E+00
         0.00000E+00
         0.00000E+00
         0.00000E+00
         0.00000E+00
         0.00000E+00
         0.00000E+00
         0.00000E+00
         0.00000E+00
         0.00000E+00
         0.00000E+00
         0.00000E+00
         0.00000E+00
         0.00000E+00
         0.00000E+00
         0.00000E+00
         0.00000E+00
         0.00000E+00
         0.00000E+00
         0.00000E+00
         0.00000E+00
         0.00000E+00
         0.00000E+00
         0.00000E+00
         0.00000E+00
         0.00000E+00
         0.00000E+00
         0.00000E+00
         0.00000E+00
         0.00000E+00
         0.00000E+00
         0.00000E+00
         0.00000E+00
         0.00000E+00
         0.00000E+00
         0.00000E+00
         0.00000E+00
         0.00000E+00
         0.00000E+00
         0.00000E+00
         0.00000E+00
         0.00000E+00
         0.00000E+00
         0.00000E+00
         0.00000E+00
         0.00000E+00
         0.00000E+00
         0.00000E+00
         0.00000E+00
         0.00000E+00
         0.00000E+00
         0.00000E+00
         0.00000E+00
         0.00000E+00
         0.00000E+00
         0.00000E+00
         0.00000E+00
         0.00000E+00
         0.00000E+00
         0.00000E+00
         0.00000E+00
         0.00000E+00
         0.00000E+00
         0.00000E+00
         0.00000E+00
         0.00000E+00
         0.00000E+00
         0.00000E+00
         0.00000E+00
         0.00000E+00
         0.00000E+00
         0.00000E+00
         0.00000E+00
         0.00000E+00
         0.00000E+00
         0.00000E+00
         0.00000E+00
         0.00000E+00
         0.00000E+00
         0.00000E+00
         0.00000E+00
         0.00000E+00
         0.00000E+00
         0.00000E+00
         0.00000E+00
         0.00000E+00
         0.00000E+00
         0.00000E+00
         0.00000E+00
         0.00000E+00
         0.00000E+00
         0.00000E+00
         0.00000E+00
         0.00000E+00
         0.00000E+00
         0.00000E+00
         0.00000E+00
         0.00000E+00
         0.00000E+00
         0.00000E+00
         0.00000E+00
         0.00000E+00
         0.00000E+00
         0.00000E+00
         0.00000E+00
         0.00000E+00
         0.00000E+00
         0.00000E+00
         0.00000E+00
         0.00000E+00
         0.00000E+00
         0.00000E+00
         0.00000E+00
         0.00000E+00
         0.00000E+00
         0.00000E+00
         0.00000E+00
         0.00000E+00
         0.00000E+00
         0.00000E+00
         0.00000E+00
         0.00000E+00
         0.00000E+00
         0.00000E+00
         0.00000E+00
         0.00000E+00
         0.00000E+00
         0.00000E+00
         0.00000E+00
         0.00000E+00
         0.00000E+00
         0.00000E+00
         0.00000E+00
         0.00000E+00
         0.00000E+00
         0.00000E+00
         0.00000E+00
         0.00000E+00
         0.00000E+00
         0.00000E+00
         0.00000E+00
         0.00000E+00
         0.00000E+00
         0.00000E+00
         0.00000E+00
         0.00000E+00
         0.00000E+00
         0.00000E+00
         0.00000E+00
         0.00000E+00
         0.00000E+00
         0.00000E+00
         0.00000E+00
         0.00000E+00
         0.00000E+00
         0.00000E+00
         0.00000E+00
         0.00000E+00
         0.00000E+00
         0.00000E+00
         0.00000E+00
         0.00000E+00
         0.00000E+00
         0.00000E+00
         0.00000E+00
         0.00000E+00
         0.00000E+00
         0.00000E+00
         0.00000E+00
         0.00000E+00
         0.00000E+00
         0.00000E+00
         0.00000E+00
         0.00000E+00
         0.00000E+00
         0.00000E+00
         0.00000E+00
         0.00000E+00
         0.00000E+00
         0.00000E+00
         0.00000E+00
         0.00000E+00
         0.00000E+00
         0.00000E+00
         0.00000E+00
         0.00000E+00
         0.00000E+00
         0.00000E+00
         0.00000E+00
         0.00000E+00
         0.00000E+00
         0.00000E+00
         0.00000E+00
         0.00000E+00
         0.00000E+00
         0.00000E+00
         0.00000E+00
         0.00000E+00
         0.00000E+00
         0.00000E+00
         0.00000E+00
         0.00000E+00
         0.00000E+00
         0.00000E+00
         0.00000E+00
         0.00000E+00
         0.00000E+00
         0.00000E+00
         0.00000E+00
         0.00000E+00
         0.00000E+00
         0.00000E+00
         0.00000E+00
         0.00000E+00
         0.00000E+00
         0.00000E+00
         0.00000E+00
         0.00000E+00
         0.00000E+00
         0.00000E+00
         0.00000E+00
         0.00000E+00
         0.00000E+00
         0.00000E+00
         0.00000E+00
         0.00000E+00
         0.00000E+00
         0.00000E+00
         0.00000E+00
         0.00000E+00
         0.00000E+00
         0.00000E+00
         0.00000E+00
         0.00000E+00
         0.00000E+00
         0.00000E+00
         0.00000E+00
         0.00000E+00
         0.00000E+00
         0.00000E+00
         0.00000E+00
         0.00000E+00
         0.00000E+00
         0.00000E+00
         0.00000E+00
         0.00000E+00
         0.00000E+00
         0.00000E+00
         0.00000E+00
         0.00000E+00
         0.00000E+00
         0.00000E+00
         0.00000E+00
         0.00000E+00
         0.00000E+00
         0.00000E+00
         0.00000E+00
         0.00000E+00
         0.00000E+00
         0.00000E+00
         0.00000E+00
         0.00000E+00
         0.00000E+00
         0.00000E+00
         0.00000E+00
         0.00000E+00
         0.00000E+00
         0.00000E+00
         0.00000E+00
         0.00000E+00
         0.00000E+00
         0.00000E+00
         0.00000E+00
         0.00000E+00
         0.00000E+00
         0.00000E+00
         0.00000E+00
         0.00000E+00
         0.00000E+00
         0.00000E+00
         0.00000E+00
         0.00000E+00
         0.00000E+00
         0.00000E+00
         0.00000E+00
         0.00000E+00
         0.00000E+00
         0.00000E+00
         0.00000E+00
         0.00000E+00
         0.00000E+00
         0.00000E+00
         0.00000E+00
         0.00000E+00
         0.00000E+00
         0.00000E+00
         0.00000E+00
         0.00000E+00
         0.00000E+00
         0.00000E+00
         0.00000E+00
         0.00000E+00
         0.00000E+00
         0.00000E+00
         0.00000E+00
         0.00000E+00
         0.00000E+00
         0.00000E+00
         0.00000E+00
         0.00000E+00
         0.00000E+00
         0.00000E+00
         0.00000E+00
         0.00000E+00
         0.00000E+00
         0.00000E+00
         0.00000E+00
         0.00000E+00
         0.00000E+00
         0.00000E+00
         0.00000E+00
         0.00000E+00
         0.00000E+00
         0.00000E+00
         0.00000E+00
         0.00000E+00
         0.00000E+00
         0.00000E+00
         0.00000E+00
         0.00000E+00
         0.00000E+00
         0.00000E+00
         0.00000E+00
         0.00000E+00
         0.00000E+00
         0.00000E+00
         0.00000E+00
         0.00000E+00
         0.00000E+00
         0.00000E+00
         0.00000E+00
         0.00000E+00
         0.00000E+00
         0.00000E+00
         0.00000E+00
         0.00000E+00
         0.00000E+00
         0.00000E+00
         0.00000E+00
         0.00000E+00
         0.00000E+00
         0.00000E+00
         0.00000E+00
         0.00000E+00
         0.00000E+00
         0.00000E+00
         0.00000E+00
         0.00000E+00
         0.00000E+00
         0.00000E+00
         0.00000E+00
         0.00000E+00
         0.00000E+00
         0.00000E+00
         0.00000E+00
         0.00000E+00
         0.00000E+00
         0.00000E+00
         0.00000E+00
         0.00000E+00
         0.00000E+00
         0.00000E+00
         0.00000E+00
         0.00000E+00
         0.00000E+00
         0.00000E+00
         0.00000E+00
         0.00000E+00
         0.00000E+00
         0.00000E+00
         0.00000E+00
         0.00000E+00
         0.00000E+00
         0.00000E+00
         0.00000E+00
         0.00000E+00
         0.00000E+00
         0.00000E+00
         0.00000E+00
         0.00000E+00
         0.00000E+00
         0.00000E+00
         0.00000E+00
         0.00000E+00
         0.00000E+00
         0.00000E+00
         0.00000E+00
         0.00000E+00
         0.00000E+00
         0.00000E+00
         0.00000E+00
         0.00000E+00
         0.00000E+00
         0.00000E+00
         0.00000E+00
         0.00000E+00
         0.00000E+00
         0.00000E+00
         0.00000E+00
         0.00000E+00
         0.00000E+00
         0.00000E+00
         0.00000E+00
         0.00000E+00
         0.00000E+00
         0.00000E+00
         0.00000E+00
         0.00000E+00
         0.00000E+00
         0.00000E+00
         0.00000E+00
         0.00000E+00
         0.00000E+00
         0.00000E+00
         0.00000E+00
         0.00000E+00
         0.00000E+00
         0.00000E+00
         0.00000E+00
         0.00000E+00
         0.00000E+00
         0.00000E+00
         0.00000E+00
         0.00000E+00
         0.00000E+00
         0.00000E+00
         0.00000E+00
         0.00000E+00
         0.00000E+00
         0.00000E+00
         0.00000E+00
         0.00000E+00
         0.00000E+00
         0.00000E+00
         0.00000E+00
         0.00000E+00
         0.00000E+00
         0.00000E+00
         0.00000E+00
         0.00000E+00
         0.00000E+00
         0.00000E+00
         0.00000E+00
         0.00000E+00
         0.00000E+00
         0.00000E+00
         0.00000E+00
         0.00000E+00
         0.00000E+00
         0.00000E+00
         0.00000E+00
         0.00000E+00
         0.00000E+00
         0.00000E+00
         0.00000E+00
         0.00000E+00
         0.00000E+00
         0.00000E+00
         0.00000E+00
         0.00000E+00
         0.00000E+00
         0.00000E+00
         0.00000E+00
         0.00000E+00
         0.00000E+00
         0.00000E+00
         0.00000E+00
         0.00000E+00
         0.00000E+00
         0.00000E+00
         0.00000E+00
         0.00000E+00
         0.00000E+00
         0.00000E+00
         0.00000E+00
         0.00000E+00
         0.00000E+00
         0.00000E+00
         0.00000E+00
         0.00000E+00
         0.00000E+00
         0.00000E+00
         0.00000E+00
         0.00000E+00
         0.00000E+00
         0.00000E+00
         0.00000E+00
         0.00000E+00
         0.00000E+00
         0.00000E+00
         0.00000E+00
         0.00000E+00
         0.00000E+00
         0.00000E+00
         0.00000E+00
         0.00000E+00
         0.00000E+00
         0.00000E+00
         0.00000E+00
         0.00000E+00
         0.00000E+00
         0.00000E+00
         0.00000E+00
         0.00000E+00
         0.00000E+00
         0.00000E+00
         0.00000E+00
         0.00000E+00
         0.00000E+00
         0.00000E+00
         0.00000E+00
         0.00000E+00
         0.00000E+00
         0.00000E+00
         0.00000E+00
         0.00000E+00
         0.00000E+00
         0.00000E+00
         0.00000E+00
         0.00000E+00
         0.00000E+00
         0.00000E+00
         0.00000E+00
         0.00000E+00
         0.00000E+00
         0.00000E+00
         0.00000E+00
         0.00000E+00
         0.00000E+00
         0.00000E+00
         0.00000E+00
         0.00000E+00
         0.00000E+00
         0.00000E+00
         0.00000E+00
         0.00000E+00
         0.00000E+00
         0.00000E+00
         0.00000E+00
         0.00000E+00
         0.00000E+00
         0.00000E+00
         0.00000E+00
         0.00000E+00
         0.00000E+00
         0.00000E+00
         0.00000E+00
         0.00000E+00
         0.00000E+00
         0.00000E+00
         0.00000E+00
         0.00000E+00
         0.00000E+00
         0.00000E+00
         0.00000E+00
         0.00000E+00
         0.00000E+00
         0.00000E+00
         0.00000E+00
         0.00000E+00
         0.00000E+00
         0.00000E+00
         0.00000E+00
         0.00000E+00
         0.00000E+00
         0.00000E+00
         0.00000E+00
         0.00000E+00
         0.00000E+00
         0.00000E+00
         0.00000E+00
         0.00000E+00
         0.00000E+00
         0.00000E+00
         0.00000E+00
         0.00000E+00
         0.00000E+00
         0.00000E+00
         0.00000E+00
         0.00000E+00
         0.00000E+00
         0.00000E+00
         0.00000E+00
         0.00000E+00
         0.00000E+00
         0.00000E+00
         0.00000E+00
         0.00000E+00
         0.00000E+00
         0.00000E+00
         0.00000E+00
         0.00000E+00
         0.00000E+00
         0.00000E+00
         0.00000E+00
         0.00000E+00
         0.00000E+00
         0.00000E+00
         0.00000E+00
         0.00000E+00
         0.00000E+00
         0.00000E+00
         0.00000E+00
         0.00000E+00
         0.00000E+00
         0.00000E+00
         0.00000E+00
         0.00000E+00
         0.00000E+00
         0.00000E+00
         0.00000E+00
         0.00000E+00
         0.00000E+00
         0.00000E+00
         0.00000E+00
         0.00000E+00
         0.00000E+00
         0.00000E+00
         0.00000E+00
         0.00000E+00
         0.00000E+00
         0.00000E+00
         0.00000E+00
         0.00000E+00
         0.00000E+00
         0.00000E+00
         0.00000E+00
         0.00000E+00
         0.00000E+00
         0.00000E+00
         0.00000E+00
         0.00000E+00
         0.00000E+00
         0.00000E+00
         0.00000E+00
         0.00000E+00
         0.00000E+00
         0.00000E+00
         0.00000E+00
         0.00000E+00
         0.00000E+00
         0.00000E+00
         0.00000E+00
         0.00000E+00
         0.00000E+00
         0.00000E+00
         0.00000E+00
         0.00000E+00
         0.00000E+00
         0.00000E+00
         0.00000E+00
         0.00000E+00
         0.00000E+00
         0.00000E+00
         0.00000E+00
         0.00000E+00
         0.00000E+00
         0.00000E+00
         0.00000E+00
         0.00000E+00
         0.00000E+00
         0.00000E+00
         0.00000E+00
         0.00000E+00
         0.00000E+00
         0.00000E+00
         0.00000E+00
         0.00000E+00
         0.00000E+00
         0.00000E+00
         0.00000E+00
         0.00000E+00
         0.00000E+00
         0.00000E+00
         0.00000E+00
         0.00000E+00
         0.00000E+00
         0.00000E+00
         0.00000E+00
         0.00000E+00
         0.00000E+00
         0.00000E+00
         0.00000E+00
         0.00000E+00
         0.00000E+00
         0.00000E+00
         0.00000E+00
         0.00000E+00
         0.00000E+00
         0.00000E+00
         0.00000E+00
         0.00000E+00
         0.00000E+00
         0.00000E+00
         0.00000E+00
         0.00000E+00
         0.00000E+00
         0.00000E+00
         0.00000E+00
         0.00000E+00
         0.00000E+00
         0.00000E+00
         0.00000E+00
         0.00000E+00
         0.00000E+00
         0.00000E+00
         0.00000E+00
         0.00000E+00
         0.00000E+00
         0.00000E+00
         0.00000E+00
         0.00000E+00
         0.00000E+00
         0.00000E+00
         0.00000E+00
         0.00000E+00
         0.00000E+00
         0.00000E+00
         0.00000E+00
         0.00000E+00
         0.00000E+00
         0.00000E+00
         0.00000E+00
         0.00000E+00
         0.00000E+00
         0.00000E+00
         0.00000E+00
         0.00000E+00
         0.00000E+00
         0.00000E+00
         0.00000E+00
         0.00000E+00
         0.00000E+00
         0.00000E+00
         0.00000E+00
         0.00000E+00
         0.00000E+00
         0.00000E+00
         0.00000E+00
         0.00000E+00
         0.00000E+00
         0.00000E+00
         0.00000E+00
         0.00000E+00
         0.00000E+00
         0.00000E+00
         0.00000E+00
         0.00000E+00
         0.00000E+00
         0.00000E+00
         0.00000E+00
         0.00000E+00
         0.00000E+00
         0.00000E+00
         0.00000E+00
         0.00000E+00
         0.00000E+00
         0.00000E+00
         0.00000E+00
         0.00000E+00
         0.00000E+00
         0.00000E+00
         0.00000E+00
         0.00000E+00
         0.00000E+00
         0.00000E+00
         0.00000E+00
         0.00000E+00
         0.00000E+00
         0.00000E+00
         0.00000E+00
         0.00000E+00
         0.00000E+00
         0.00000E+00
         0.00000E+00
         0.00000E+00
         0.00000E+00
         0.00000E+00
         0.00000E+00
         0.00000E+00
         0.00000E+00
         0.00000E+00
         0.00000E+00
         0.00000E+00
         0.00000E+00
         0.00000E+00
         0.00000E+00
         0.00000E+00
         0.00000E+00
         0.00000E+00
         0.00000E+00
         0.00000E+00
         0.00000E+00
         0.00000E+00
         0.00000E+00
         0.00000E+00
         0.00000E+00
         0.00000E+00
         0.00000E+00
         0.00000E+00
         0.00000E+00
         0.00000E+00
         0.00000E+00
         0.00000E+00
         0.00000E+00
         0.00000E+00
         0.00000E+00
         0.00000E+00
         0.00000E+00
         0.00000E+00
         0.00000E+00
         0.00000E+00
         0.00000E+00
         0.00000E+00
         0.00000E+00
         0.00000E+00
         0.00000E+00
         0.00000E+00
         0.00000E+00
         0.00000E+00
         0.00000E+00
         0.00000E+00
         0.00000E+00
         0.00000E+00
         0.00000E+00
         0.00000E+00
         0.00000E+00
         0.00000E+00
         0.00000E+00
         0.00000E+00
         0.00000E+00
         0.00000E+00
         0.00000E+00
         0.00000E+00
         0.00000E+00
         0.00000E+00
         0.00000E+00
         0.00000E+00
         0.00000E+00
         0.00000E+00
         0.00000E+00
         0.00000E+00
         0.00000E+00
         0.00000E+00
         0.00000E+00
         0.00000E+00
         0.00000E+00
         0.00000E+00
         0.00000E+00
         0.00000E+00
         0.00000E+00
         0.00000E+00
         0.00000E+00
         0.00000E+00
         0.00000E+00
         0.00000E+00
         0.00000E+00
         0.00000E+00
         0.00000E+00
         0.00000E+00
         0.00000E+00
         0.00000E+00
         0.00000E+00
         0.00000E+00
         0.00000E+00
         0.00000E+00
         0.00000E+00
         0.00000E+00
         0.00000E+00
         0.00000E+00
         0.00000E+00
         0.00000E+00
         0.00000E+00
         0.00000E+00
         0.00000E+00
         0.00000E+00
         0.00000E+00
         0.00000E+00
         0.00000E+00
         0.00000E+00
         0.00000E+00
         0.00000E+00
         0.00000E+00
         0.00000E+00
         0.00000E+00
         0.00000E+00
         0.00000E+00
         0.00000E+00
         0.00000E+00
         0.00000E+00
         0.00000E+00
         0.00000E+00
         0.00000E+00
         0.00000E+00
         0.00000E+00
         0.00000E+00
         0.00000E+00
         0.00000E+00
         0.00000E+00
         0.00000E+00
         0.00000E+00
         0.00000E+00
         0.00000E+00
         0.00000E+00
         0.00000E+00
         0.00000E+00
         0.00000E+00
         0.00000E+00
         0.00000E+00
         0.00000E+00
         0.00000E+00
         0.00000E+00
         0.00000E+00
         0.00000E+00
         0.00000E+00
         0.00000E+00
         0.00000E+00
         0.00000E+00
         0.00000E+00
         0.00000E+00
         0.00000E+00
         0.00000E+00
         0.00000E+00
         0.00000E+00
         0.00000E+00
         0.00000E+00
         0.00000E+00
         0.00000E+00
         0.00000E+00
         0.00000E+00
         0.00000E+00
         0.00000E+00
         0.00000E+00
         0.00000E+00
         0.00000E+00
         0.00000E+00
         0.00000E+00
         0.00000E+00
         0.00000E+00
         0.00000E+00
         0.00000E+00
         0.00000E+00
         0.00000E+00
         0.00000E+00
         0.00000E+00
         0.00000E+00
         0.00000E+00
         0.00000E+00
         0.00000E+00
         0.00000E+00
         0.00000E+00
         0.00000E+00
         0.00000E+00
         0.00000E+00
         0.00000E+00
         0.00000E+00
         0.00000E+00
         0.00000E+00
         0.00000E+00
         0.00000E+00
         0.00000E+00
         0.00000E+00
         0.00000E+00
         0.00000E+00
         0.00000E+00
         0.00000E+00
         0.00000E+00
         0.00000E+00
         0.00000E+00
         0.00000E+00
         0.00000E+00
         0.00000E+00
         0.00000E+00
         0.00000E+00
         0.00000E+00
         0.00000E+00
         0.00000E+00
         0.00000E+00
         0.00000E+00
         0.00000E+00
         0.00000E+00
         0.00000E+00
         0.00000E+00
         0.00000E+00
         0.00000E+00
         0.00000E+00
         0.00000E+00
         0.00000E+00
         0.00000E+00
         0.00000E+00
         0.00000E+00
         0.00000E+00
         0.00000E+00
         0.00000E+00
         0.00000E+00
         0.00000E+00
         0.00000E+00
         0.00000E+00
         0.00000E+00
         0.00000E+00
         0.00000E+00
         0.00000E+00
         0.00000E+00
         0.00000E+00
         0.00000E+00
         0.00000E+00
         0.00000E+00
         0.00000E+00
         0.00000E+00
         0.00000E+00
         0.00000E+00
         0.00000E+00
         0.00000E+00
         0.00000E+00
         0.00000E+00
         0.00000E+00
         0.00000E+00
         0.00000E+00
         0.00000E+00
         0.00000E+00
         0.00000E+00
         0.00000E+00
         0.00000E+00
         0.00000E+00
         0.00000E+00
         0.00000E+00
         0.00000E+00
         0.00000E+00
         0.00000E+00
         0.00000E+00
         0.00000E+00
         0.00000E+00
         0.00000E+00
         0.00000E+00
         0.00000E+00
         0.00000E+00
         0.00000E+00
         0.00000E+00
         0.00000E+00
         0.00000E+00
         0.00000E+00
         0.00000E+00
         0.00000E+00
         0.00000E+00
         0.00000E+00
         0.00000E+00
         0.00000E+00
         0.00000E+00
         0.00000E+00
         0.00000E+00
         0.00000E+00
         0.00000E+00
         0.00000E+00
         0.00000E+00
         0.00000E+00
         0.00000E+00
         0.00000E+00
         0.00000E+00
         0.00000E+00
         0.00000E+00
         0.00000E+00
         0.00000E+00
         0.00000E+00
         0.00000E+00
         0.00000E+00
         0.00000E+00
         0.00000E+00
         0.00000E+00
         0.00000E+00
         0.00000E+00
         0.00000E+00
         0.00000E+00
         0.00000E+00
         0.00000E+00
         0.00000E+00
         0.00000E+00
         0.00000E+00
         0.00000E+00
         0.00000E+00
         0.00000E+00
         0.00000E+00
         0.00000E+00
         0.00000E+00
         0.00000E+00
         0.00000E+00
         0.00000E+00
         0.00000E+00
         0.00000E+00
         0.00000E+00
         0.00000E+00
         0.00000E+00
         0.00000E+00
         0.00000E+00
         0.00000E+00
         0.00000E+00
         0.00000E+00
         0.00000E+00
         0.00000E+00
         0.00000E+00
         0.00000E+00
         0.00000E+00
         0.00000E+00
         0.00000E+00
         0.00000E+00
         0.00000E+00
         0.00000E+00
         0.00000E+00
         0.00000E+00
         0.00000E+00
         0.00000E+00
         0.00000E+00
         0.00000E+00
         0.00000E+00
         0.00000E+00
         0.00000E+00
         0.00000E+00
         0.00000E+00
         0.00000E+00
         0.00000E+00
         0.00000E+00
         0.00000E+00
         0.00000E+00
         0.00000E+00
         0.00000E+00
         0.00000E+00
         0.00000E+00
         0.00000E+00
         0.00000E+00
         0.00000E+00
         0.00000E+00
         0.00000E+00
         0.00000E+00
         0.00000E+00
         0.00000E+00
         0.00000E+00
         0.00000E+00
         0.00000E+00
         0.00000E+00
         0.00000E+00
         0.00000E+00
         0.00000E+00
         0.00000E+00
         0.00000E+00
         0.00000E+00
         0.00000E+00
         0.00000E+00
         0.00000E+00
         0.00000E+00
         0.00000E+00
         0.00000E+00
         0.00000E+00
         0.00000E+00
         0.00000E+00
         0.00000E+00
         0.00000E+00
         0.00000E+00
         0.00000E+00
         0.00000E+00
         0.00000E+00
         0.00000E+00
         0.00000E+00
         0.00000E+00
         0.00000E+00
         0.00000E+00
         0.00000E+00
         0.00000E+00
         0.00000E+00
         0.00000E+00
         0.00000E+00
         0.00000E+00
         0.00000E+00
         0.00000E+00
         0.00000E+00
         0.00000E+00
         0.00000E+00
         0.00000E+00
         0.00000E+00
         0.00000E+00
         0.00000E+00
         0.00000E+00
         0.00000E+00
         0.00000E+00
         0.00000E+00
         0.00000E+00
         0.00000E+00
         0.00000E+00
         0.00000E+00
         0.00000E+00
         0.00000E+00
         0.00000E+00
         0.00000E+00
         0.00000E+00
         0.00000E+00
         0.00000E+00
         0.00000E+00
         0.00000E+00
         0.00000E+00
         0.00000E+00
         0.00000E+00
         0.00000E+00
         0.00000E+00
         0.00000E+00
         0.00000E+00
         0.00000E+00
         0.00000E+00
         0.00000E+00
         0.00000E+00
         0.00000E+00
         0.00000E+00
         0.00000E+00
         0.00000E+00
         0.00000E+00
         0.00000E+00
         0.00000E+00
         0.00000E+00
         0.00000E+00
         0.00000E+00
         0.00000E+00
         0.00000E+00
         0.00000E+00
         0.00000E+00
         0.00000E+00
         0.00000E+00
         0.00000E+00
         0.00000E+00
         0.00000E+00
         0.00000E+00
         0.00000E+00
         0.00000E+00
         0.00000E+00
         0.00000E+00
         0.00000E+00
         0.00000E+00
         0.00000E+00
         0.00000E+00
         0.00000E+00
         0.00000E+00
         0.00000E+00
         0.00000E+00
         0.00000E+00
         0.00000E+00
         0.00000E+00
         0.00000E+00
         0.00000E+00
         0.00000E+00
         0.00000E+00
         0.00000E+00
         0.00000E+00
         0.00000E+00
         0.00000E+00
         0.00000E+00
         0.00000E+00
         0.00000E+00
         0.00000E+00
         0.00000E+00
         0.00000E+00
         0.00000E+00
         0.00000E+00
         0.00000E+00
         0.00000E+00
         0.00000E+00
         0.00000E+00
         0.00000E+00
         0.00000E+00
         0.00000E+00
         0.00000E+00
         0.00000E+00
         0.00000E+00
         0.00000E+00
         0.00000E+00
         0.00000E+00
         0.00000E+00
         0.00000E+00
         0.00000E+00
         0.00000E+00
         0.00000E+00
         0.00000E+00
         0.00000E+00
         0.00000E+00
         0.00000E+00
         0.00000E+00
         0.00000E+00
         0.00000E+00
         0.00000E+00
         0.00000E+00
         0.00000E+00
         0.00000E+00
         0.00000E+00
         0.00000E+00
         0.00000E+00
         0.00000E+00
         0.00000E+00
         0.00000E+00
         0.00000E+00
         0.00000E+00
         0.00000E+00
         0.00000E+00
         0.00000E+00
         0.00000E+00
         0.00000E+00
         0.00000E+00
         0.00000E+00
         0.00000E+00
         0.00000E+00
         0.00000E+00
         0.00000E+00
         0.00000E+00
         0.00000E+00
         0.00000E+00
         0.00000E+00
         0.00000E+00
         0.00000E+00
         0.00000E+00
         0.00000E+00
         0.00000E+00
         0.00000E+00
         0.00000E+00
         0.00000E+00
         0.00000E+00
         0.00000E+00
         0.00000E+00
         0.00000E+00
         0.00000E+00
         0.00000E+00
         0.00000E+00
         0.00000E+00
         0.00000E+00
         0.00000E+00
         0.00000E+00
         0.00000E+00
         0.00000E+00
         0.00000E+00
         0.00000E+00
         0.00000E+00
         0.00000E+00
         0.00000E+00
         0.00000E+00
         0.00000E+00
         0.00000E+00
         0.00000E+00
         0.00000E+00
         0.00000E+00
         0.00000E+00
         0.00000E+00
         0.00000E+00
         0.00000E+00
         0.00000E+00
         0.00000E+00
         0.00000E+00
         0.00000E+00
         0.00000E+00
         0.00000E+00
         0.00000E+00
         0.00000E+00
         0.00000E+00
         0.00000E+00
         0.00000E+00
         0.00000E+00
         0.00000E+00
         0.00000E+00
         0.00000E+00
         0.00000E+00
         0.00000E+00
         0.00000E+00
         0.00000E+00
         0.00000E+00
         0.00000E+00
         0.00000E+00
         0.00000E+00
         0.00000E+00
         0.00000E+00
         0.00000E+00
         0.00000E+00
         0.00000E+00
         0.00000E+00
         0.00000E+00
         0.00000E+00
         0.00000E+00
         0.00000E+00
         0.00000E+00
         0.00000E+00
         0.00000E+00
         0.00000E+00
         0.00000E+00
         0.00000E+00
         0.00000E+00
         0.00000E+00
         0.00000E+00
         0.00000E+00
         0.00000E+00
         0.00000E+00
         0.00000E+00
         0.00000E+00
         0.00000E+00
         0.00000E+00
         0.00000E+00
         0.00000E+00
         0.00000E+00
         0.00000E+00
         0.00000E+00
         0.00000E+00
         0.00000E+00
         0.00000E+00
         0.00000E+00
         0.00000E+00
         0.00000E+00
         0.00000E+00
         0.00000E+00
         0.00000E+00
         0.00000E+00
         0.00000E+00
         0.00000E+00
         0.00000E+00
         0.00000E+00
         0.00000E+00
         0.00000E+00
         0.00000E+00
         0.00000E+00
         0.00000E+00
         0.00000E+00
         0.00000E+00
         0.00000E+00
         0.00000E+00
         0.00000E+00
         0.00000E+00
         0.00000E+00
         0.00000E+00
         0.00000E+00
         0.00000E+00
         0.00000E+00
         0.00000E+00
         0.00000E+00
         0.00000E+00
         0.00000E+00
         0.00000E+00
         0.00000E+00
         0.00000E+00
         0.00000E+00
         0.00000E+00
         0.00000E+00
         0.00000E+00
         0.00000E+00
         0.00000E+00
         0.00000E+00
         0.00000E+00
         0.00000E+00
         0.00000E+00
         0.00000E+00
         0.00000E+00
         0.00000E+00
         0.00000E+00
         0.00000E+00
         0.00000E+00
         0.00000E+00
         0.00000E+00
         0.00000E+00
         0.00000E+00
         0.00000E+00
         0.00000E+00
         0.00000E+00
         0.00000E+00
         0.00000E+00
         0.00000E+00
         0.00000E+00
         0.00000E+00
         0.00000E+00
         0.00000E+00
         0.00000E+00
         0.00000E+00
         0.00000E+00
         0.00000E+00
         0.00000E+00
         0.00000E+00
         0.00000E+00
         0.00000E+00
         0.00000E+00
         0.00000E+00
         0.00000E+00
         0.00000E+00
         0.00000E+00
         0.00000E+00
         0.00000E+00
         0.00000E+00
         0.00000E+00
         0.00000E+00
         0.00000E+00
         0.00000E+00
         0.00000E+00
         0.00000E+00
         0.00000E+00
         0.00000E+00
         0.00000E+00
         0.00000E+00
         0.00000E+00
         0.00000E+00
         0.00000E+00
         0.00000E+00
         0.00000E+00
         0.00000E+00
         0.00000E+00
         0.00000E+00
         0.00000E+00
         0.00000E+00
         0.00000E+00
         0.00000E+00
         0.00000E+00
         0.00000E+00
         0.00000E+00
         0.00000E+00
         0.00000E+00
         0.00000E+00
         0.00000E+00
         0.00000E+00
         0.00000E+00
         0.00000E+00
         0.00000E+00
         0.00000E+00
         0.00000E+00
         0.00000E+00
         0.00000E+00
         0.00000E+00
         0.00000E+00
         0.00000E+00
         0.00000E+00
         0.00000E+00
         0.00000E+00
         0.00000E+00
         0.00000E+00
         0.00000E+00
         0.00000E+00
         0.00000E+00
         0.00000E+00
         0.00000E+00
         0.00000E+00
         0.00000E+00
         0.00000E+00
         0.00000E+00
         0.00000E+00
         0.00000E+00
         0.00000E+00
         0.00000E+00
         0.00000E+00
         0.00000E+00
         0.00000E+00
         0.00000E+00
         0.00000E+00
         0.00000E+00
         0.00000E+00
         0.00000E+00
         0.00000E+00
         0.00000E+00
         0.00000E+00
         0.00000E+00
         0.00000E+00
         0.00000E+00
         0.00000E+00
         0.00000E+00
         0.00000E+00
  
SCALARS                 acceleration_y  double 1
LOOKUP_TABLE default
         0.00000E+00
         0.00000E+00
         0.00000E+00
         0.00000E+00
         0.00000E+00
         0.00000E+00
         0.00000E+00
         0.00000E+00
         0.00000E+00
         0.00000E+00
         0.00000E+00
         0.00000E+00
         0.00000E+00
         0.00000E+00
         0.00000E+00
         0.00000E+00
         0.00000E+00
         0.00000E+00
         0.00000E+00
         0.00000E+00
         0.00000E+00
         0.00000E+00
         0.00000E+00
         0.00000E+00
         0.00000E+00
         0.00000E+00
         0.00000E+00
         0.00000E+00
         0.00000E+00
         0.00000E+00
         0.00000E+00
         0.00000E+00
         0.00000E+00
         0.00000E+00
         0.00000E+00
         0.00000E+00
         0.00000E+00
         0.00000E+00
         0.00000E+00
         0.00000E+00
         0.00000E+00
         0.00000E+00
         0.00000E+00
         0.00000E+00
         0.00000E+00
         0.00000E+00
         0.00000E+00
         0.00000E+00
         0.00000E+00
         0.00000E+00
         0.00000E+00
         0.00000E+00
         0.00000E+00
         0.00000E+00
         0.00000E+00
         0.00000E+00
         0.00000E+00
         0.00000E+00
         0.00000E+00
         0.00000E+00
         0.00000E+00
         0.00000E+00
         0.00000E+00
         0.00000E+00
         0.00000E+00
         0.00000E+00
         0.00000E+00
         0.00000E+00
         0.00000E+00
         0.00000E+00
         0.00000E+00
         0.00000E+00
         0.00000E+00
         0.00000E+00
         0.00000E+00
         0.00000E+00
         0.00000E+00
         0.00000E+00
         0.00000E+00
         0.00000E+00
         0.00000E+00
         0.00000E+00
         0.00000E+00
         0.00000E+00
         0.00000E+00
         0.00000E+00
         0.00000E+00
         0.00000E+00
         0.00000E+00
         0.00000E+00
         0.00000E+00
         0.00000E+00
         0.00000E+00
         0.00000E+00
         0.00000E+00
         0.00000E+00
         0.00000E+00
         0.00000E+00
         0.00000E+00
         0.00000E+00
         0.00000E+00
         0.00000E+00
         0.00000E+00
         0.00000E+00
         0.00000E+00
         0.00000E+00
         0.00000E+00
         0.00000E+00
         0.00000E+00
         0.00000E+00
         0.00000E+00
         0.00000E+00
         0.00000E+00
         0.00000E+00
         0.00000E+00
         0.00000E+00
         0.00000E+00
         0.00000E+00
         0.00000E+00
         0.00000E+00
         0.00000E+00
         0.00000E+00
         0.00000E+00
         0.00000E+00
         0.00000E+00
         0.00000E+00
         0.00000E+00
         0.00000E+00
         0.00000E+00
         0.00000E+00
         0.00000E+00
         0.00000E+00
         0.00000E+00
         0.00000E+00
         0.00000E+00
         0.00000E+00
         0.00000E+00
         0.00000E+00
         0.00000E+00
         0.00000E+00
         0.00000E+00
         0.00000E+00
         0.00000E+00
         0.00000E+00
         0.00000E+00
         0.00000E+00
         0.00000E+00
         0.00000E+00
         0.00000E+00
         0.00000E+00
         0.00000E+00
         0.00000E+00
         0.00000E+00
         0.00000E+00
         0.00000E+00
         0.00000E+00
         0.00000E+00
         0.00000E+00
         0.00000E+00
         0.00000E+00
         0.00000E+00
         0.00000E+00
         0.00000E+00
         0.00000E+00
         0.00000E+00
         0.00000E+00
         0.00000E+00
         0.00000E+00
         0.00000E+00
         0.00000E+00
         0.00000E+00
         0.00000E+00
         0.00000E+00
         0.00000E+00
         0.00000E+00
         0.00000E+00
         0.00000E+00
         0.00000E+00
         0.00000E+00
         0.00000E+00
         0.00000E+00
         0.00000E+00
         0.00000E+00
         0.00000E+00
         0.00000E+00
         0.00000E+00
         0.00000E+00
         0.00000E+00
         0.00000E+00
         0.00000E+00
         0.00000E+00
         0.00000E+00
         0.00000E+00
         0.00000E+00
         0.00000E+00
         0.00000E+00
         0.00000E+00
         0.00000E+00
         0.00000E+00
         0.00000E+00
         0.00000E+00
         0.00000E+00
         0.00000E+00
         0.00000E+00
         0.00000E+00
         0.00000E+00
         0.00000E+00
         0.00000E+00
         0.00000E+00
         0.00000E+00
         0.00000E+00
         0.00000E+00
         0.00000E+00
         0.00000E+00
         0.00000E+00
         0.00000E+00
         0.00000E+00
         0.00000E+00
         0.00000E+00
         0.00000E+00
         0.00000E+00
         0.00000E+00
         0.00000E+00
         0.00000E+00
         0.00000E+00
         0.00000E+00
         0.00000E+00
         0.00000E+00
         0.00000E+00
         0.00000E+00
         0.00000E+00
         0.00000E+00
         0.00000E+00
         0.00000E+00
         0.00000E+00
         0.00000E+00
         0.00000E+00
         0.00000E+00
         0.00000E+00
         0.00000E+00
         0.00000E+00
         0.00000E+00
         0.00000E+00
         0.00000E+00
         0.00000E+00
         0.00000E+00
         0.00000E+00
         0.00000E+00
         0.00000E+00
         0.00000E+00
         0.00000E+00
         0.00000E+00
         0.00000E+00
         0.00000E+00
         0.00000E+00
         0.00000E+00
         0.00000E+00
         0.00000E+00
         0.00000E+00
         0.00000E+00
         0.00000E+00
         0.00000E+00
         0.00000E+00
         0.00000E+00
         0.00000E+00
         0.00000E+00
         0.00000E+00
         0.00000E+00
         0.00000E+00
         0.00000E+00
         0.00000E+00
         0.00000E+00
         0.00000E+00
         0.00000E+00
         0.00000E+00
         0.00000E+00
         0.00000E+00
         0.00000E+00
         0.00000E+00
         0.00000E+00
         0.00000E+00
         0.00000E+00
         0.00000E+00
         0.00000E+00
         0.00000E+00
         0.00000E+00
         0.00000E+00
         0.00000E+00
         0.00000E+00
         0.00000E+00
         0.00000E+00
         0.00000E+00
         0.00000E+00
         0.00000E+00
         0.00000E+00
         0.00000E+00
         0.00000E+00
         0.00000E+00
         0.00000E+00
         0.00000E+00
         0.00000E+00
         0.00000E+00
         0.00000E+00
         0.00000E+00
         0.00000E+00
         0.00000E+00
         0.00000E+00
         0.00000E+00
         0.00000E+00
         0.00000E+00
         0.00000E+00
         0.00000E+00
         0.00000E+00
         0.00000E+00
         0.00000E+00
         0.00000E+00
         0.00000E+00
         0.00000E+00
         0.00000E+00
         0.00000E+00
         0.00000E+00
         0.00000E+00
         0.00000E+00
         0.00000E+00
         0.00000E+00
         0.00000E+00
         0.00000E+00
         0.00000E+00
         0.00000E+00
         0.00000E+00
         0.00000E+00
         0.00000E+00
         0.00000E+00
         0.00000E+00
         0.00000E+00
         0.00000E+00
         0.00000E+00
         0.00000E+00
         0.00000E+00
         0.00000E+00
         0.00000E+00
         0.00000E+00
         0.00000E+00
         0.00000E+00
         0.00000E+00
         0.00000E+00
         0.00000E+00
         0.00000E+00
         0.00000E+00
         0.00000E+00
         0.00000E+00
         0.00000E+00
         0.00000E+00
         0.00000E+00
         0.00000E+00
         0.00000E+00
         0.00000E+00
         0.00000E+00
         0.00000E+00
         0.00000E+00
         0.00000E+00
         0.00000E+00
         0.00000E+00
         0.00000E+00
         0.00000E+00
         0.00000E+00
         0.00000E+00
         0.00000E+00
         0.00000E+00
         0.00000E+00
         0.00000E+00
         0.00000E+00
         0.00000E+00
         0.00000E+00
         0.00000E+00
         0.00000E+00
         0.00000E+00
         0.00000E+00
         0.00000E+00
         0.00000E+00
         0.00000E+00
         0.00000E+00
         0.00000E+00
         0.00000E+00
         0.00000E+00
         0.00000E+00
         0.00000E+00
         0.00000E+00
         0.00000E+00
         0.00000E+00
         0.00000E+00
         0.00000E+00
         0.00000E+00
         0.00000E+00
         0.00000E+00
         0.00000E+00
         0.00000E+00
         0.00000E+00
         0.00000E+00
         0.00000E+00
         0.00000E+00
         0.00000E+00
         0.00000E+00
         0.00000E+00
         0.00000E+00
         0.00000E+00
         0.00000E+00
         0.00000E+00
         0.00000E+00
         0.00000E+00
         0.00000E+00
         0.00000E+00
         0.00000E+00
         0.00000E+00
         0.00000E+00
         0.00000E+00
         0.00000E+00
         0.00000E+00
         0.00000E+00
         0.00000E+00
         0.00000E+00
         0.00000E+00
         0.00000E+00
         0.00000E+00
         0.00000E+00
         0.00000E+00
         0.00000E+00
         0.00000E+00
         0.00000E+00
         0.00000E+00
         0.00000E+00
         0.00000E+00
         0.00000E+00
         0.00000E+00
         0.00000E+00
         0.00000E+00
         0.00000E+00
         0.00000E+00
         0.00000E+00
         0.00000E+00
         0.00000E+00
         0.00000E+00
         0.00000E+00
         0.00000E+00
         0.00000E+00
         0.00000E+00
         0.00000E+00
         0.00000E+00
         0.00000E+00
         0.00000E+00
         0.00000E+00
         0.00000E+00
         0.00000E+00
         0.00000E+00
         0.00000E+00
         0.00000E+00
         0.00000E+00
         0.00000E+00
         0.00000E+00
         0.00000E+00
         0.00000E+00
         0.00000E+00
         0.00000E+00
         0.00000E+00
         0.00000E+00
         0.00000E+00
         0.00000E+00
         0.00000E+00
         0.00000E+00
         0.00000E+00
         0.00000E+00
         0.00000E+00
         0.00000E+00
         0.00000E+00
         0.00000E+00
         0.00000E+00
         0.00000E+00
         0.00000E+00
         0.00000E+00
         0.00000E+00
         0.00000E+00
         0.00000E+00
         0.00000E+00
         0.00000E+00
         0.00000E+00
         0.00000E+00
         0.00000E+00
         0.00000E+00
         0.00000E+00
         0.00000E+00
         0.00000E+00
         0.00000E+00
         0.00000E+00
         0.00000E+00
         0.00000E+00
         0.00000E+00
         0.00000E+00
         0.00000E+00
         0.00000E+00
         0.00000E+00
         0.00000E+00
         0.00000E+00
         0.00000E+00
         0.00000E+00
         0.00000E+00
         0.00000E+00
         0.00000E+00
         0.00000E+00
         0.00000E+00
         0.00000E+00
         0.00000E+00
         0.00000E+00
         0.00000E+00
         0.00000E+00
         0.00000E+00
         0.00000E+00
         0.00000E+00
         0.00000E+00
         0.00000E+00
         0.00000E+00
         0.00000E+00
         0.00000E+00
         0.00000E+00
         0.00000E+00
         0.00000E+00
         0.00000E+00
         0.00000E+00
         0.00000E+00
         0.00000E+00
         0.00000E+00
         0.00000E+00
         0.00000E+00
         0.00000E+00
         0.00000E+00
         0.00000E+00
         0.00000E+00
         0.00000E+00
         0.00000E+00
         0.00000E+00
         0.00000E+00
         0.00000E+00
         0.00000E+00
         0.00000E+00
         0.00000E+00
         0.00000E+00
         0.00000E+00
         0.00000E+00
         0.00000E+00
         0.00000E+00
         0.00000E+00
         0.00000E+00
         0.00000E+00
         0.00000E+00
         0.00000E+00
         0.00000E+00
         0.00000E+00
         0.00000E+00
         0.00000E+00
         0.00000E+00
         0.00000E+00
         0.00000E+00
         0.00000E+00
         0.00000E+00
         0.00000E+00
         0.00000E+00
         0.00000E+00
         0.00000E+00
         0.00000E+00
         0.00000E+00
         0.00000E+00
         0.00000E+00
         0.00000E+00
         0.00000E+00
         0.00000E+00
         0.00000E+00
         0.00000E+00
         0.00000E+00
         0.00000E+00
         0.00000E+00
         0.00000E+00
         0.00000E+00
         0.00000E+00
         0.00000E+00
         0.00000E+00
         0.00000E+00
         0.00000E+00
         0.00000E+00
         0.00000E+00
         0.00000E+00
         0.00000E+00
         0.00000E+00
         0.00000E+00
         0.00000E+00
         0.00000E+00
         0.00000E+00
         0.00000E+00
         0.00000E+00
         0.00000E+00
         0.00000E+00
         0.00000E+00
         0.00000E+00
         0.00000E+00
         0.00000E+00
         0.00000E+00
         0.00000E+00
         0.00000E+00
         0.00000E+00
         0.00000E+00
         0.00000E+00
         0.00000E+00
         0.00000E+00
         0.00000E+00
         0.00000E+00
         0.00000E+00
         0.00000E+00
         0.00000E+00
         0.00000E+00
         0.00000E+00
         0.00000E+00
         0.00000E+00
         0.00000E+00
         0.00000E+00
         0.00000E+00
         0.00000E+00
         0.00000E+00
         0.00000E+00
         0.00000E+00
         0.00000E+00
         0.00000E+00
         0.00000E+00
         0.00000E+00
         0.00000E+00
         0.00000E+00
         0.00000E+00
         0.00000E+00
         0.00000E+00
         0.00000E+00
         0.00000E+00
         0.00000E+00
         0.00000E+00
         0.00000E+00
         0.00000E+00
         0.00000E+00
         0.00000E+00
         0.00000E+00
         0.00000E+00
         0.00000E+00
         0.00000E+00
         0.00000E+00
         0.00000E+00
         0.00000E+00
         0.00000E+00
         0.00000E+00
         0.00000E+00
         0.00000E+00
         0.00000E+00
         0.00000E+00
         0.00000E+00
         0.00000E+00
         0.00000E+00
         0.00000E+00
         0.00000E+00
         0.00000E+00
         0.00000E+00
         0.00000E+00
         0.00000E+00
         0.00000E+00
         0.00000E+00
         0.00000E+00
         0.00000E+00
         0.00000E+00
         0.00000E+00
         0.00000E+00
         0.00000E+00
         0.00000E+00
         0.00000E+00
         0.00000E+00
         0.00000E+00
         0.00000E+00
         0.00000E+00
         0.00000E+00
         0.00000E+00
         0.00000E+00
         0.00000E+00
         0.00000E+00
         0.00000E+00
         0.00000E+00
         0.00000E+00
         0.00000E+00
         0.00000E+00
         0.00000E+00
         0.00000E+00
         0.00000E+00
         0.00000E+00
         0.00000E+00
         0.00000E+00
         0.00000E+00
         0.00000E+00
         0.00000E+00
         0.00000E+00
         0.00000E+00
         0.00000E+00
         0.00000E+00
         0.00000E+00
         0.00000E+00
         0.00000E+00
         0.00000E+00
         0.00000E+00
         0.00000E+00
         0.00000E+00
         0.00000E+00
         0.00000E+00
         0.00000E+00
         0.00000E+00
         0.00000E+00
         0.00000E+00
         0.00000E+00
         0.00000E+00
         0.00000E+00
         0.00000E+00
         0.00000E+00
         0.00000E+00
         0.00000E+00
         0.00000E+00
         0.00000E+00
         0.00000E+00
         0.00000E+00
         0.00000E+00
         0.00000E+00
         0.00000E+00
         0.00000E+00
         0.00000E+00
         0.00000E+00
         0.00000E+00
         0.00000E+00
         0.00000E+00
         0.00000E+00
         0.00000E+00
         0.00000E+00
         0.00000E+00
         0.00000E+00
         0.00000E+00
         0.00000E+00
         0.00000E+00
         0.00000E+00
         0.00000E+00
         0.00000E+00
         0.00000E+00
         0.00000E+00
         0.00000E+00
         0.00000E+00
         0.00000E+00
         0.00000E+00
         0.00000E+00
         0.00000E+00
         0.00000E+00
         0.00000E+00
         0.00000E+00
         0.00000E+00
         0.00000E+00
         0.00000E+00
         0.00000E+00
         0.00000E+00
         0.00000E+00
         0.00000E+00
         0.00000E+00
         0.00000E+00
         0.00000E+00
         0.00000E+00
         0.00000E+00
         0.00000E+00
         0.00000E+00
         0.00000E+00
         0.00000E+00
         0.00000E+00
         0.00000E+00
         0.00000E+00
         0.00000E+00
         0.00000E+00
         0.00000E+00
         0.00000E+00
         0.00000E+00
         0.00000E+00
         0.00000E+00
         0.00000E+00
         0.00000E+00
         0.00000E+00
         0.00000E+00
         0.00000E+00
         0.00000E+00
         0.00000E+00
         0.00000E+00
         0.00000E+00
         0.00000E+00
         0.00000E+00
         0.00000E+00
         0.00000E+00
         0.00000E+00
         0.00000E+00
         0.00000E+00
         0.00000E+00
         0.00000E+00
         0.00000E+00
         0.00000E+00
         0.00000E+00
         0.00000E+00
         0.00000E+00
         0.00000E+00
         0.00000E+00
         0.00000E+00
         0.00000E+00
         0.00000E+00
         0.00000E+00
         0.00000E+00
         0.00000E+00
         0.00000E+00
         0.00000E+00
         0.00000E+00
         0.00000E+00
         0.00000E+00
         0.00000E+00
         0.00000E+00
         0.00000E+00
         0.00000E+00
         0.00000E+00
         0.00000E+00
         0.00000E+00
         0.00000E+00
         0.00000E+00
         0.00000E+00
         0.00000E+00
         0.00000E+00
         0.00000E+00
         0.00000E+00
         0.00000E+00
         0.00000E+00
         0.00000E+00
         0.00000E+00
         0.00000E+00
         0.00000E+00
         0.00000E+00
         0.00000E+00
         0.00000E+00
         0.00000E+00
         0.00000E+00
         0.00000E+00
         0.00000E+00
         0.00000E+00
         0.00000E+00
         0.00000E+00
         0.00000E+00
         0.00000E+00
         0.00000E+00
         0.00000E+00
         0.00000E+00
         0.00000E+00
         0.00000E+00
         0.00000E+00
         0.00000E+00
         0.00000E+00
         0.00000E+00
         0.00000E+00
         0.00000E+00
         0.00000E+00
         0.00000E+00
         0.00000E+00
         0.00000E+00
         0.00000E+00
         0.00000E+00
         0.00000E+00
         0.00000E+00
         0.00000E+00
         0.00000E+00
         0.00000E+00
         0.00000E+00
         0.00000E+00
         0.00000E+00
         0.00000E+00
         0.00000E+00
         0.00000E+00
         0.00000E+00
         0.00000E+00
         0.00000E+00
         0.00000E+00
         0.00000E+00
         0.00000E+00
         0.00000E+00
         0.00000E+00
         0.00000E+00
         0.00000E+00
         0.00000E+00
         0.00000E+00
         0.00000E+00
         0.00000E+00
         0.00000E+00
         0.00000E+00
         0.00000E+00
         0.00000E+00
         0.00000E+00
         0.00000E+00
         0.00000E+00
         0.00000E+00
         0.00000E+00
         0.00000E+00
         0.00000E+00
         0.00000E+00
         0.00000E+00
         0.00000E+00
         0.00000E+00
         0.00000E+00
         0.00000E+00
         0.00000E+00
         0.00000E+00
         0.00000E+00
         0.00000E+00
         0.00000E+00
         0.00000E+00
         0.00000E+00
         0.00000E+00
         0.00000E+00
         0.00000E+00
         0.00000E+00
         0.00000E+00
         0.00000E+00
         0.00000E+00
         0.00000E+00
         0.00000E+00
         0.00000E+00
         0.00000E+00
         0.00000E+00
         0.00000E+00
         0.00000E+00
         0.00000E+00
         0.00000E+00
         0.00000E+00
         0.00000E+00
         0.00000E+00
         0.00000E+00
         0.00000E+00
         0.00000E+00
         0.00000E+00
         0.00000E+00
         0.00000E+00
         0.00000E+00
         0.00000E+00
         0.00000E+00
         0.00000E+00
         0.00000E+00
         0.00000E+00
         0.00000E+00
         0.00000E+00
         0.00000E+00
         0.00000E+00
         0.00000E+00
         0.00000E+00
         0.00000E+00
         0.00000E+00
         0.00000E+00
         0.00000E+00
         0.00000E+00
         0.00000E+00
         0.00000E+00
         0.00000E+00
         0.00000E+00
         0.00000E+00
         0.00000E+00
         0.00000E+00
         0.00000E+00
         0.00000E+00
         0.00000E+00
         0.00000E+00
         0.00000E+00
         0.00000E+00
         0.00000E+00
         0.00000E+00
         0.00000E+00
         0.00000E+00
         0.00000E+00
         0.00000E+00
         0.00000E+00
         0.00000E+00
         0.00000E+00
         0.00000E+00
         0.00000E+00
         0.00000E+00
         0.00000E+00
         0.00000E+00
         0.00000E+00
         0.00000E+00
         0.00000E+00
         0.00000E+00
         0.00000E+00
         0.00000E+00
         0.00000E+00
         0.00000E+00
         0.00000E+00
         0.00000E+00
         0.00000E+00
         0.00000E+00
         0.00000E+00
         0.00000E+00
         0.00000E+00
         0.00000E+00
         0.00000E+00
         0.00000E+00
         0.00000E+00
         0.00000E+00
         0.00000E+00
         0.00000E+00
         0.00000E+00
         0.00000E+00
         0.00000E+00
         0.00000E+00
         0.00000E+00
         0.00000E+00
         0.00000E+00
         0.00000E+00
         0.00000E+00
         0.00000E+00
         0.00000E+00
         0.00000E+00
         0.00000E+00
         0.00000E+00
         0.00000E+00
         0.00000E+00
         0.00000E+00
         0.00000E+00
         0.00000E+00
         0.00000E+00
         0.00000E+00
         0.00000E+00
         0.00000E+00
         0.00000E+00
         0.00000E+00
         0.00000E+00
         0.00000E+00
         0.00000E+00
         0.00000E+00
         0.00000E+00
         0.00000E+00
         0.00000E+00
         0.00000E+00
         0.00000E+00
         0.00000E+00
         0.00000E+00
         0.00000E+00
         0.00000E+00
         0.00000E+00
         0.00000E+00
         0.00000E+00
         0.00000E+00
         0.00000E+00
         0.00000E+00
         0.00000E+00
         0.00000E+00
         0.00000E+00
         0.00000E+00
         0.00000E+00
         0.00000E+00
         0.00000E+00
         0.00000E+00
         0.00000E+00
         0.00000E+00
         0.00000E+00
         0.00000E+00
         0.00000E+00
         0.00000E+00
         0.00000E+00
         0.00000E+00
         0.00000E+00
         0.00000E+00
         0.00000E+00
         0.00000E+00
         0.00000E+00
         0.00000E+00
         0.00000E+00
         0.00000E+00
         0.00000E+00
         0.00000E+00
         0.00000E+00
         0.00000E+00
         0.00000E+00
         0.00000E+00
         0.00000E+00
         0.00000E+00
         0.00000E+00
         0.00000E+00
         0.00000E+00
         0.00000E+00
         0.00000E+00
         0.00000E+00
         0.00000E+00
         0.00000E+00
         0.00000E+00
         0.00000E+00
         0.00000E+00
         0.00000E+00
         0.00000E+00
         0.00000E+00
         0.00000E+00
         0.00000E+00
         0.00000E+00
         0.00000E+00
         0.00000E+00
         0.00000E+00
         0.00000E+00
         0.00000E+00
         0.00000E+00
         0.00000E+00
         0.00000E+00
         0.00000E+00
         0.00000E+00
         0.00000E+00
         0.00000E+00
         0.00000E+00
         0.00000E+00
         0.00000E+00
         0.00000E+00
         0.00000E+00
         0.00000E+00
         0.00000E+00
         0.00000E+00
         0.00000E+00
         0.00000E+00
         0.00000E+00
         0.00000E+00
         0.00000E+00
         0.00000E+00
         0.00000E+00
         0.00000E+00
         0.00000E+00
         0.00000E+00
         0.00000E+00
         0.00000E+00
         0.00000E+00
         0.00000E+00
         0.00000E+00
         0.00000E+00
         0.00000E+00
         0.00000E+00
         0.00000E+00
         0.00000E+00
         0.00000E+00
         0.00000E+00
         0.00000E+00
         0.00000E+00
         0.00000E+00
         0.00000E+00
         0.00000E+00
         0.00000E+00
         0.00000E+00
         0.00000E+00
         0.00000E+00
         0.00000E+00
         0.00000E+00
         0.00000E+00
         0.00000E+00
         0.00000E+00
         0.00000E+00
         0.00000E+00
         0.00000E+00
         0.00000E+00
         0.00000E+00
         0.00000E+00
         0.00000E+00
         0.00000E+00
         0.00000E+00
         0.00000E+00
         0.00000E+00
         0.00000E+00
         0.00000E+00
         0.00000E+00
         0.00000E+00
         0.00000E+00
         0.00000E+00
         0.00000E+00
         0.00000E+00
         0.00000E+00
         0.00000E+00
         0.00000E+00
         0.00000E+00
         0.00000E+00
         0.00000E+00
         0.00000E+00
         0.00000E+00
         0.00000E+00
         0.00000E+00
         0.00000E+00
         0.00000E+00
         0.00000E+00
         0.00000E+00
         0.00000E+00
         0.00000E+00
         0.00000E+00
         0.00000E+00
         0.00000E+00
         0.00000E+00
         0.00000E+00
         0.00000E+00
         0.00000E+00
         0.00000E+00
         0.00000E+00
         0.00000E+00
         0.00000E+00
         0.00000E+00
         0.00000E+00
         0.00000E+00
         0.00000E+00
         0.00000E+00
         0.00000E+00
         0.00000E+00
         0.00000E+00
         0.00000E+00
         0.00000E+00
         0.00000E+00
         0.00000E+00
         0.00000E+00
         0.00000E+00
         0.00000E+00
         0.00000E+00
         0.00000E+00
         0.00000E+00
         0.00000E+00
         0.00000E+00
         0.00000E+00
         0.00000E+00
         0.00000E+00
         0.00000E+00
         0.00000E+00
         0.00000E+00
         0.00000E+00
         0.00000E+00
         0.00000E+00
         0.00000E+00
         0.00000E+00
         0.00000E+00
         0.00000E+00
         0.00000E+00
         0.00000E+00
         0.00000E+00
         0.00000E+00
         0.00000E+00
         0.00000E+00
         0.00000E+00
         0.00000E+00
         0.00000E+00
         0.00000E+00
         0.00000E+00
         0.00000E+00
         0.00000E+00
         0.00000E+00
         0.00000E+00
         0.00000E+00
         0.00000E+00
         0.00000E+00
         0.00000E+00
         0.00000E+00
         0.00000E+00
         0.00000E+00
         0.00000E+00
         0.00000E+00
         0.00000E+00
         0.00000E+00
         0.00000E+00
         0.00000E+00
         0.00000E+00
         0.00000E+00
         0.00000E+00
         0.00000E+00
         0.00000E+00
         0.00000E+00
         0.00000E+00
         0.00000E+00
         0.00000E+00
         0.00000E+00
         0.00000E+00
         0.00000E+00
         0.00000E+00
         0.00000E+00
         0.00000E+00
         0.00000E+00
         0.00000E+00
         0.00000E+00
         0.00000E+00
         0.00000E+00
         0.00000E+00
         0.00000E+00
         0.00000E+00
         0.00000E+00
         0.00000E+00
         0.00000E+00
         0.00000E+00
         0.00000E+00
         0.00000E+00
         0.00000E+00
         0.00000E+00
         0.00000E+00
         0.00000E+00
         0.00000E+00
         0.00000E+00
         0.00000E+00
         0.00000E+00
         0.00000E+00
         0.00000E+00
         0.00000E+00
         0.00000E+00
         0.00000E+00
         0.00000E+00
         0.00000E+00
         0.00000E+00
         0.00000E+00
         0.00000E+00
         0.00000E+00
         0.00000E+00
         0.00000E+00
         0.00000E+00
         0.00000E+00
         0.00000E+00
         0.00000E+00
         0.00000E+00
         0.00000E+00
         0.00000E+00
         0.00000E+00
         0.00000E+00
         0.00000E+00
         0.00000E+00
         0.00000E+00
         0.00000E+00
         0.00000E+00
         0.00000E+00
         0.00000E+00
         0.00000E+00
         0.00000E+00
         0.00000E+00
         0.00000E+00
         0.00000E+00
         0.00000E+00
         0.00000E+00
         0.00000E+00
         0.00000E+00
         0.00000E+00
         0.00000E+00
         0.00000E+00
         0.00000E+00
         0.00000E+00
         0.00000E+00
         0.00000E+00
         0.00000E+00
         0.00000E+00
         0.00000E+00
         0.00000E+00
         0.00000E+00
         0.00000E+00
         0.00000E+00
         0.00000E+00
         0.00000E+00
         0.00000E+00
         0.00000E+00
         0.00000E+00
         0.00000E+00
         0.00000E+00
         0.00000E+00
         0.00000E+00
         0.00000E+00
         0.00000E+00
         0.00000E+00
         0.00000E+00
         0.00000E+00
         0.00000E+00
         0.00000E+00
         0.00000E+00
         0.00000E+00
         0.00000E+00
         0.00000E+00
         0.00000E+00
         0.00000E+00
         0.00000E+00
         0.00000E+00
         0.00000E+00
         0.00000E+00
         0.00000E+00
         0.00000E+00
         0.00000E+00
         0.00000E+00
         0.00000E+00
         0.00000E+00
         0.00000E+00
         0.00000E+00
         0.00000E+00
         0.00000E+00
         0.00000E+00
         0.00000E+00
         0.00000E+00
         0.00000E+00
         0.00000E+00
         0.00000E+00
         0.00000E+00
         0.00000E+00
         0.00000E+00
         0.00000E+00
         0.00000E+00
         0.00000E+00
         0.00000E+00
         0.00000E+00
         0.00000E+00
         0.00000E+00
         0.00000E+00
         0.00000E+00
         0.00000E+00
         0.00000E+00
         0.00000E+00
         0.00000E+00
         0.00000E+00
         0.00000E+00
         0.00000E+00
         0.00000E+00
         0.00000E+00
         0.00000E+00
         0.00000E+00
         0.00000E+00
         0.00000E+00
         0.00000E+00
         0.00000E+00
         0.00000E+00
         0.00000E+00
         0.00000E+00
         0.00000E+00
         0.00000E+00
         0.00000E+00
         0.00000E+00
         0.00000E+00
         0.00000E+00
         0.00000E+00
         0.00000E+00
         0.00000E+00
         0.00000E+00
         0.00000E+00
         0.00000E+00
         0.00000E+00
         0.00000E+00
         0.00000E+00
         0.00000E+00
         0.00000E+00
         0.00000E+00
         0.00000E+00
         0.00000E+00
         0.00000E+00
         0.00000E+00
         0.00000E+00
         0.00000E+00
         0.00000E+00
         0.00000E+00
         0.00000E+00
         0.00000E+00
         0.00000E+00
         0.00000E+00
         0.00000E+00
         0.00000E+00
         0.00000E+00
         0.00000E+00
         0.00000E+00
         0.00000E+00
         0.00000E+00
         0.00000E+00
         0.00000E+00
         0.00000E+00
         0.00000E+00
         0.00000E+00
         0.00000E+00
         0.00000E+00
         0.00000E+00
         0.00000E+00
         0.00000E+00
         0.00000E+00
         0.00000E+00
         0.00000E+00
         0.00000E+00
         0.00000E+00
         0.00000E+00
         0.00000E+00
         0.00000E+00
         0.00000E+00
         0.00000E+00
         0.00000E+00
         0.00000E+00
         0.00000E+00
         0.00000E+00
         0.00000E+00
         0.00000E+00
         0.00000E+00
         0.00000E+00
         0.00000E+00
         0.00000E+00
         0.00000E+00
         0.00000E+00
         0.00000E+00
         0.00000E+00
         0.00000E+00
         0.00000E+00
         0.00000E+00
         0.00000E+00
         0.00000E+00
         0.00000E+00
         0.00000E+00
         0.00000E+00
         0.00000E+00
         0.00000E+00
         0.00000E+00
         0.00000E+00
         0.00000E+00
         0.00000E+00
         0.00000E+00
         0.00000E+00
         0.00000E+00
         0.00000E+00
         0.00000E+00
         0.00000E+00
         0.00000E+00
         0.00000E+00
         0.00000E+00
         0.00000E+00
         0.00000E+00
         0.00000E+00
         0.00000E+00
         0.00000E+00
         0.00000E+00
         0.00000E+00
         0.00000E+00
         0.00000E+00
         0.00000E+00
         0.00000E+00
         0.00000E+00
         0.00000E+00
         0.00000E+00
         0.00000E+00
         0.00000E+00
         0.00000E+00
         0.00000E+00
         0.00000E+00
         0.00000E+00
         0.00000E+00
         0.00000E+00
         0.00000E+00
         0.00000E+00
         0.00000E+00
         0.00000E+00
         0.00000E+00
         0.00000E+00
         0.00000E+00
         0.00000E+00
         0.00000E+00
         0.00000E+00
         0.00000E+00
         0.00000E+00
         0.00000E+00
         0.00000E+00
         0.00000E+00
         0.00000E+00
         0.00000E+00
         0.00000E+00
         0.00000E+00
         0.00000E+00
         0.00000E+00
         0.00000E+00
         0.00000E+00
         0.00000E+00
         0.00000E+00
         0.00000E+00
         0.00000E+00
         0.00000E+00
         0.00000E+00
         0.00000E+00
         0.00000E+00
         0.00000E+00
         0.00000E+00
         0.00000E+00
         0.00000E+00
         0.00000E+00
         0.00000E+00
         0.00000E+00
         0.00000E+00
         0.00000E+00
         0.00000E+00
         0.00000E+00
         0.00000E+00
         0.00000E+00
         0.00000E+00
         0.00000E+00
         0.00000E+00
         0.00000E+00
         0.00000E+00
         0.00000E+00
         0.00000E+00
         0.00000E+00
         0.00000E+00
         0.00000E+00
         0.00000E+00
         0.00000E+00
         0.00000E+00
         0.00000E+00
         0.00000E+00
         0.00000E+00
         0.00000E+00
         0.00000E+00
         0.00000E+00
         0.00000E+00
         0.00000E+00
         0.00000E+00
         0.00000E+00
         0.00000E+00
         0.00000E+00
         0.00000E+00
         0.00000E+00
         0.00000E+00
         0.00000E+00
         0.00000E+00
         0.00000E+00
         0.00000E+00
         0.00000E+00
         0.00000E+00
         0.00000E+00
         0.00000E+00
         0.00000E+00
         0.00000E+00
         0.00000E+00
         0.00000E+00
         0.00000E+00
         0.00000E+00
         0.00000E+00
         0.00000E+00
         0.00000E+00
         0.00000E+00
         0.00000E+00
         0.00000E+00
         0.00000E+00
         0.00000E+00
         0.00000E+00
         0.00000E+00
         0.00000E+00
         0.00000E+00
         0.00000E+00
         0.00000E+00
         0.00000E+00
         0.00000E+00
         0.00000E+00
         0.00000E+00
         0.00000E+00
         0.00000E+00
         0.00000E+00
         0.00000E+00
         0.00000E+00
         0.00000E+00
         0.00000E+00
         0.00000E+00
         0.00000E+00
         0.00000E+00
         0.00000E+00
         0.00000E+00
         0.00000E+00
         0.00000E+00
         0.00000E+00
         0.00000E+00
         0.00000E+00
         0.00000E+00
         0.00000E+00
         0.00000E+00
         0.00000E+00
         0.00000E+00
         0.00000E+00
         0.00000E+00
         0.00000E+00
         0.00000E+00
         0.00000E+00
         0.00000E+00
         0.00000E+00
         0.00000E+00
         0.00000E+00
         0.00000E+00
         0.00000E+00
         0.00000E+00
         0.00000E+00
         0.00000E+00
         0.00000E+00
         0.00000E+00
         0.00000E+00
         0.00000E+00
         0.00000E+00
         0.00000E+00
         0.00000E+00
         0.00000E+00
         0.00000E+00
         0.00000E+00
         0.00000E+00
         0.00000E+00
         0.00000E+00
         0.00000E+00
         0.00000E+00
         0.00000E+00
         0.00000E+00
         0.00000E+00
         0.00000E+00
         0.00000E+00
         0.00000E+00
         0.00000E+00
         0.00000E+00
         0.00000E+00
         0.00000E+00
         0.00000E+00
         0.00000E+00
         0.00000E+00
         0.00000E+00
         0.00000E+00
         0.00000E+00
         0.00000E+00
         0.00000E+00
         0.00000E+00
         0.00000E+00
         0.00000E+00
         0.00000E+00
         0.00000E+00
         0.00000E+00
         0.00000E+00
         0.00000E+00
         0.00000E+00
         0.00000E+00
         0.00000E+00
         0.00000E+00
         0.00000E+00
         0.00000E+00
         0.00000E+00
         0.00000E+00
         0.00000E+00
         0.00000E+00
         0.00000E+00
         0.00000E+00
         0.00000E+00
         0.00000E+00
         0.00000E+00
         0.00000E+00
         0.00000E+00
         0.00000E+00
         0.00000E+00
         0.00000E+00
         0.00000E+00
         0.00000E+00
         0.00000E+00
         0.00000E+00
         0.00000E+00
         0.00000E+00
         0.00000E+00
         0.00000E+00
         0.00000E+00
         0.00000E+00
         0.00000E+00
         0.00000E+00
         0.00000E+00
         0.00000E+00
         0.00000E+00
         0.00000E+00
         0.00000E+00
         0.00000E+00
         0.00000E+00
         0.00000E+00
         0.00000E+00
         0.00000E+00
         0.00000E+00
         0.00000E+00
         0.00000E+00
         0.00000E+00
         0.00000E+00
         0.00000E+00
         0.00000E+00
         0.00000E+00
         0.00000E+00
         0.00000E+00
         0.00000E+00
         0.00000E+00
         0.00000E+00
         0.00000E+00
         0.00000E+00
         0.00000E+00
         0.00000E+00
         0.00000E+00
         0.00000E+00
         0.00000E+00
         0.00000E+00
         0.00000E+00
         0.00000E+00
         0.00000E+00
         0.00000E+00
         0.00000E+00
         0.00000E+00
         0.00000E+00
         0.00000E+00
         0.00000E+00
         0.00000E+00
         0.00000E+00
         0.00000E+00
         0.00000E+00
         0.00000E+00
         0.00000E+00
         0.00000E+00
         0.00000E+00
         0.00000E+00
         0.00000E+00
         0.00000E+00
         0.00000E+00
         0.00000E+00
         0.00000E+00
         0.00000E+00
         0.00000E+00
         0.00000E+00
         0.00000E+00
         0.00000E+00
         0.00000E+00
         0.00000E+00
         0.00000E+00
         0.00000E+00
         0.00000E+00
         0.00000E+00
         0.00000E+00
         0.00000E+00
         0.00000E+00
         0.00000E+00
         0.00000E+00
         0.00000E+00
         0.00000E+00
         0.00000E+00
         0.00000E+00
         0.00000E+00
         0.00000E+00
         0.00000E+00
         0.00000E+00
         0.00000E+00
         0.00000E+00
         0.00000E+00
         0.00000E+00
         0.00000E+00
         0.00000E+00
         0.00000E+00
         0.00000E+00
         0.00000E+00
         0.00000E+00
         0.00000E+00
         0.00000E+00
         0.00000E+00
         0.00000E+00
         0.00000E+00
         0.00000E+00
         0.00000E+00
         0.00000E+00
         0.00000E+00
         0.00000E+00
         0.00000E+00
         0.00000E+00
         0.00000E+00
         0.00000E+00
         0.00000E+00
         0.00000E+00
         0.00000E+00
         0.00000E+00
         0.00000E+00
         0.00000E+00
         0.00000E+00
         0.00000E+00
         0.00000E+00
         0.00000E+00
         0.00000E+00
         0.00000E+00
         0.00000E+00
         0.00000E+00
         0.00000E+00
         0.00000E+00
         0.00000E+00
         0.00000E+00
         0.00000E+00
         0.00000E+00
         0.00000E+00
         0.00000E+00
         0.00000E+00
         0.00000E+00
         0.00000E+00
         0.00000E+00
         0.00000E+00
         0.00000E+00
         0.00000E+00
         0.00000E+00
         0.00000E+00
         0.00000E+00
         0.00000E+00
         0.00000E+00
         0.00000E+00
         0.00000E+00
         0.00000E+00
         0.00000E+00
         0.00000E+00
         0.00000E+00
         0.00000E+00
         0.00000E+00
         0.00000E+00
         0.00000E+00
         0.00000E+00
         0.00000E+00
         0.00000E+00
         0.00000E+00
         0.00000E+00
         0.00000E+00
         0.00000E+00
         0.00000E+00
         0.00000E+00
         0.00000E+00
         0.00000E+00
         0.00000E+00
         0.00000E+00
         0.00000E+00
         0.00000E+00
         0.00000E+00
         0.00000E+00
         0.00000E+00
         0.00000E+00
         0.00000E+00
         0.00000E+00
         0.00000E+00
         0.00000E+00
         0.00000E+00
         0.00000E+00
         0.00000E+00
         0.00000E+00
         0.00000E+00
         0.00000E+00
         0.00000E+00
         0.00000E+00
         0.00000E+00
         0.00000E+00
         0.00000E+00
         0.00000E+00
         0.00000E+00
         0.00000E+00
         0.00000E+00
         0.00000E+00
         0.00000E+00
         0.00000E+00
         0.00000E+00
         0.00000E+00
         0.00000E+00
         0.00000E+00
         0.00000E+00
         0.00000E+00
         0.00000E+00
         0.00000E+00
  
SCALARS                 acceleration_z  double 1
LOOKUP_TABLE default
         0.00000E+00
         0.00000E+00
         0.00000E+00
         0.00000E+00
         0.00000E+00
         0.00000E+00
         0.00000E+00
         0.00000E+00
         0.00000E+00
         0.00000E+00
         0.00000E+00
         0.00000E+00
         0.00000E+00
         0.00000E+00
         0.00000E+00
         0.00000E+00
         0.00000E+00
         0.00000E+00
         0.00000E+00
         0.00000E+00
         0.00000E+00
         0.00000E+00
         0.00000E+00
         0.00000E+00
         0.00000E+00
         0.00000E+00
         0.00000E+00
         0.00000E+00
         0.00000E+00
         0.00000E+00
         0.00000E+00
         0.00000E+00
         0.00000E+00
         0.00000E+00
         0.00000E+00
         0.00000E+00
         0.00000E+00
         0.00000E+00
         0.00000E+00
         0.00000E+00
         0.00000E+00
         0.00000E+00
         0.00000E+00
         0.00000E+00
         0.00000E+00
         0.00000E+00
         0.00000E+00
         0.00000E+00
         0.00000E+00
         0.00000E+00
         0.00000E+00
         0.00000E+00
         0.00000E+00
         0.00000E+00
         0.00000E+00
         0.00000E+00
         0.00000E+00
         0.00000E+00
         0.00000E+00
         0.00000E+00
         0.00000E+00
         0.00000E+00
         0.00000E+00
         0.00000E+00
         0.00000E+00
         0.00000E+00
         0.00000E+00
         0.00000E+00
         0.00000E+00
         0.00000E+00
         0.00000E+00
         0.00000E+00
         0.00000E+00
         0.00000E+00
         0.00000E+00
         0.00000E+00
         0.00000E+00
         0.00000E+00
         0.00000E+00
         0.00000E+00
         0.00000E+00
         0.00000E+00
         0.00000E+00
         0.00000E+00
         0.00000E+00
         0.00000E+00
         0.00000E+00
         0.00000E+00
         0.00000E+00
         0.00000E+00
         0.00000E+00
         0.00000E+00
         0.00000E+00
         0.00000E+00
         0.00000E+00
         0.00000E+00
         0.00000E+00
         0.00000E+00
         0.00000E+00
         0.00000E+00
         0.00000E+00
         0.00000E+00
         0.00000E+00
         0.00000E+00
         0.00000E+00
         0.00000E+00
         0.00000E+00
         0.00000E+00
         0.00000E+00
         0.00000E+00
         0.00000E+00
         0.00000E+00
         0.00000E+00
         0.00000E+00
         0.00000E+00
         0.00000E+00
         0.00000E+00
         0.00000E+00
         0.00000E+00
         0.00000E+00
         0.00000E+00
         0.00000E+00
         0.00000E+00
         0.00000E+00
         0.00000E+00
         0.00000E+00
         0.00000E+00
         0.00000E+00
         0.00000E+00
         0.00000E+00
         0.00000E+00
         0.00000E+00
         0.00000E+00
         0.00000E+00
         0.00000E+00
         0.00000E+00
         0.00000E+00
         0.00000E+00
         0.00000E+00
         0.00000E+00
         0.00000E+00
         0.00000E+00
         0.00000E+00
         0.00000E+00
         0.00000E+00
         0.00000E+00
         0.00000E+00
         0.00000E+00
         0.00000E+00
         0.00000E+00
         0.00000E+00
         0.00000E+00
         0.00000E+00
         0.00000E+00
         0.00000E+00
         0.00000E+00
         0.00000E+00
         0.00000E+00
         0.00000E+00
         0.00000E+00
         0.00000E+00
         0.00000E+00
         0.00000E+00
         0.00000E+00
         0.00000E+00
         0.00000E+00
         0.00000E+00
         0.00000E+00
         0.00000E+00
         0.00000E+00
         0.00000E+00
         0.00000E+00
         0.00000E+00
         0.00000E+00
         0.00000E+00
         0.00000E+00
         0.00000E+00
         0.00000E+00
         0.00000E+00
         0.00000E+00
         0.00000E+00
         0.00000E+00
         0.00000E+00
         0.00000E+00
         0.00000E+00
         0.00000E+00
         0.00000E+00
         0.00000E+00
         0.00000E+00
         0.00000E+00
         0.00000E+00
         0.00000E+00
         0.00000E+00
         0.00000E+00
         0.00000E+00
         0.00000E+00
         0.00000E+00
         0.00000E+00
         0.00000E+00
         0.00000E+00
         0.00000E+00
         0.00000E+00
         0.00000E+00
         0.00000E+00
         0.00000E+00
         0.00000E+00
         0.00000E+00
         0.00000E+00
         0.00000E+00
         0.00000E+00
         0.00000E+00
         0.00000E+00
         0.00000E+00
         0.00000E+00
         0.00000E+00
         0.00000E+00
         0.00000E+00
         0.00000E+00
         0.00000E+00
         0.00000E+00
         0.00000E+00
         0.00000E+00
         0.00000E+00
         0.00000E+00
         0.00000E+00
         0.00000E+00
         0.00000E+00
         0.00000E+00
         0.00000E+00
         0.00000E+00
         0.00000E+00
         0.00000E+00
         0.00000E+00
         0.00000E+00
         0.00000E+00
         0.00000E+00
         0.00000E+00
         0.00000E+00
         0.00000E+00
         0.00000E+00
         0.00000E+00
         0.00000E+00
         0.00000E+00
         0.00000E+00
         0.00000E+00
         0.00000E+00
         0.00000E+00
         0.00000E+00
         0.00000E+00
         0.00000E+00
         0.00000E+00
         0.00000E+00
         0.00000E+00
         0.00000E+00
         0.00000E+00
         0.00000E+00
         0.00000E+00
         0.00000E+00
         0.00000E+00
         0.00000E+00
         0.00000E+00
         0.00000E+00
         0.00000E+00
         0.00000E+00
         0.00000E+00
         0.00000E+00
         0.00000E+00
         0.00000E+00
         0.00000E+00
         0.00000E+00
         0.00000E+00
         0.00000E+00
         0.00000E+00
         0.00000E+00
         0.00000E+00
         0.00000E+00
         0.00000E+00
         0.00000E+00
         0.00000E+00
         0.00000E+00
         0.00000E+00
         0.00000E+00
         0.00000E+00
         0.00000E+00
         0.00000E+00
         0.00000E+00
         0.00000E+00
         0.00000E+00
         0.00000E+00
         0.00000E+00
         0.00000E+00
         0.00000E+00
         0.00000E+00
         0.00000E+00
         0.00000E+00
         0.00000E+00
         0.00000E+00
         0.00000E+00
         0.00000E+00
         0.00000E+00
         0.00000E+00
         0.00000E+00
         0.00000E+00
         0.00000E+00
         0.00000E+00
         0.00000E+00
         0.00000E+00
         0.00000E+00
         0.00000E+00
         0.00000E+00
         0.00000E+00
         0.00000E+00
         0.00000E+00
         0.00000E+00
         0.00000E+00
         0.00000E+00
         0.00000E+00
         0.00000E+00
         0.00000E+00
         0.00000E+00
         0.00000E+00
         0.00000E+00
         0.00000E+00
         0.00000E+00
         0.00000E+00
         0.00000E+00
         0.00000E+00
         0.00000E+00
         0.00000E+00
         0.00000E+00
         0.00000E+00
         0.00000E+00
         0.00000E+00
         0.00000E+00
         0.00000E+00
         0.00000E+00
         0.00000E+00
         0.00000E+00
         0.00000E+00
         0.00000E+00
         0.00000E+00
         0.00000E+00
         0.00000E+00
         0.00000E+00
         0.00000E+00
         0.00000E+00
         0.00000E+00
         0.00000E+00
         0.00000E+00
         0.00000E+00
         0.00000E+00
         0.00000E+00
         0.00000E+00
         0.00000E+00
         0.00000E+00
         0.00000E+00
         0.00000E+00
         0.00000E+00
         0.00000E+00
         0.00000E+00
         0.00000E+00
         0.00000E+00
         0.00000E+00
         0.00000E+00
         0.00000E+00
         0.00000E+00
         0.00000E+00
         0.00000E+00
         0.00000E+00
         0.00000E+00
         0.00000E+00
         0.00000E+00
         0.00000E+00
         0.00000E+00
         0.00000E+00
         0.00000E+00
         0.00000E+00
         0.00000E+00
         0.00000E+00
         0.00000E+00
         0.00000E+00
         0.00000E+00
         0.00000E+00
         0.00000E+00
         0.00000E+00
         0.00000E+00
         0.00000E+00
         0.00000E+00
         0.00000E+00
         0.00000E+00
         0.00000E+00
         0.00000E+00
         0.00000E+00
         0.00000E+00
         0.00000E+00
         0.00000E+00
         0.00000E+00
         0.00000E+00
         0.00000E+00
         0.00000E+00
         0.00000E+00
         0.00000E+00
         0.00000E+00
         0.00000E+00
         0.00000E+00
         0.00000E+00
         0.00000E+00
         0.00000E+00
         0.00000E+00
         0.00000E+00
         0.00000E+00
         0.00000E+00
         0.00000E+00
         0.00000E+00
         0.00000E+00
         0.00000E+00
         0.00000E+00
         0.00000E+00
         0.00000E+00
         0.00000E+00
         0.00000E+00
         0.00000E+00
         0.00000E+00
         0.00000E+00
         0.00000E+00
         0.00000E+00
         0.00000E+00
         0.00000E+00
         0.00000E+00
         0.00000E+00
         0.00000E+00
         0.00000E+00
         0.00000E+00
         0.00000E+00
         0.00000E+00
         0.00000E+00
         0.00000E+00
         0.00000E+00
         0.00000E+00
         0.00000E+00
         0.00000E+00
         0.00000E+00
         0.00000E+00
         0.00000E+00
         0.00000E+00
         0.00000E+00
         0.00000E+00
         0.00000E+00
         0.00000E+00
         0.00000E+00
         0.00000E+00
         0.00000E+00
         0.00000E+00
         0.00000E+00
         0.00000E+00
         0.00000E+00
         0.00000E+00
         0.00000E+00
         0.00000E+00
         0.00000E+00
         0.00000E+00
         0.00000E+00
         0.00000E+00
         0.00000E+00
         0.00000E+00
         0.00000E+00
         0.00000E+00
         0.00000E+00
         0.00000E+00
         0.00000E+00
         0.00000E+00
         0.00000E+00
         0.00000E+00
         0.00000E+00
         0.00000E+00
         0.00000E+00
         0.00000E+00
         0.00000E+00
         0.00000E+00
         0.00000E+00
         0.00000E+00
         0.00000E+00
         0.00000E+00
         0.00000E+00
         0.00000E+00
         0.00000E+00
         0.00000E+00
         0.00000E+00
         0.00000E+00
         0.00000E+00
         0.00000E+00
         0.00000E+00
         0.00000E+00
         0.00000E+00
         0.00000E+00
         0.00000E+00
         0.00000E+00
         0.00000E+00
         0.00000E+00
         0.00000E+00
         0.00000E+00
         0.00000E+00
         0.00000E+00
         0.00000E+00
         0.00000E+00
         0.00000E+00
         0.00000E+00
         0.00000E+00
         0.00000E+00
         0.00000E+00
         0.00000E+00
         0.00000E+00
         0.00000E+00
         0.00000E+00
         0.00000E+00
         0.00000E+00
         0.00000E+00
         0.00000E+00
         0.00000E+00
         0.00000E+00
         0.00000E+00
         0.00000E+00
         0.00000E+00
         0.00000E+00
         0.00000E+00
         0.00000E+00
         0.00000E+00
         0.00000E+00
         0.00000E+00
         0.00000E+00
         0.00000E+00
         0.00000E+00
         0.00000E+00
         0.00000E+00
         0.00000E+00
         0.00000E+00
         0.00000E+00
         0.00000E+00
         0.00000E+00
         0.00000E+00
         0.00000E+00
         0.00000E+00
         0.00000E+00
         0.00000E+00
         0.00000E+00
         0.00000E+00
         0.00000E+00
         0.00000E+00
         0.00000E+00
         0.00000E+00
         0.00000E+00
         0.00000E+00
         0.00000E+00
         0.00000E+00
         0.00000E+00
         0.00000E+00
         0.00000E+00
         0.00000E+00
         0.00000E+00
         0.00000E+00
         0.00000E+00
         0.00000E+00
         0.00000E+00
         0.00000E+00
         0.00000E+00
         0.00000E+00
         0.00000E+00
         0.00000E+00
         0.00000E+00
         0.00000E+00
         0.00000E+00
         0.00000E+00
         0.00000E+00
         0.00000E+00
         0.00000E+00
         0.00000E+00
         0.00000E+00
         0.00000E+00
         0.00000E+00
         0.00000E+00
         0.00000E+00
         0.00000E+00
         0.00000E+00
         0.00000E+00
         0.00000E+00
         0.00000E+00
         0.00000E+00
         0.00000E+00
         0.00000E+00
         0.00000E+00
         0.00000E+00
         0.00000E+00
         0.00000E+00
         0.00000E+00
         0.00000E+00
         0.00000E+00
         0.00000E+00
         0.00000E+00
         0.00000E+00
         0.00000E+00
         0.00000E+00
         0.00000E+00
         0.00000E+00
         0.00000E+00
         0.00000E+00
         0.00000E+00
         0.00000E+00
         0.00000E+00
         0.00000E+00
         0.00000E+00
         0.00000E+00
         0.00000E+00
         0.00000E+00
         0.00000E+00
         0.00000E+00
         0.00000E+00
         0.00000E+00
         0.00000E+00
         0.00000E+00
         0.00000E+00
         0.00000E+00
         0.00000E+00
         0.00000E+00
         0.00000E+00
         0.00000E+00
         0.00000E+00
         0.00000E+00
         0.00000E+00
         0.00000E+00
         0.00000E+00
         0.00000E+00
         0.00000E+00
         0.00000E+00
         0.00000E+00
         0.00000E+00
         0.00000E+00
         0.00000E+00
         0.00000E+00
         0.00000E+00
         0.00000E+00
         0.00000E+00
         0.00000E+00
         0.00000E+00
         0.00000E+00
         0.00000E+00
         0.00000E+00
         0.00000E+00
         0.00000E+00
         0.00000E+00
         0.00000E+00
         0.00000E+00
         0.00000E+00
         0.00000E+00
         0.00000E+00
         0.00000E+00
         0.00000E+00
         0.00000E+00
         0.00000E+00
         0.00000E+00
         0.00000E+00
         0.00000E+00
         0.00000E+00
         0.00000E+00
         0.00000E+00
         0.00000E+00
         0.00000E+00
         0.00000E+00
         0.00000E+00
         0.00000E+00
         0.00000E+00
         0.00000E+00
         0.00000E+00
         0.00000E+00
         0.00000E+00
         0.00000E+00
         0.00000E+00
         0.00000E+00
         0.00000E+00
         0.00000E+00
         0.00000E+00
         0.00000E+00
         0.00000E+00
         0.00000E+00
         0.00000E+00
         0.00000E+00
         0.00000E+00
         0.00000E+00
         0.00000E+00
         0.00000E+00
         0.00000E+00
         0.00000E+00
         0.00000E+00
         0.00000E+00
         0.00000E+00
         0.00000E+00
         0.00000E+00
         0.00000E+00
         0.00000E+00
         0.00000E+00
         0.00000E+00
         0.00000E+00
         0.00000E+00
         0.00000E+00
         0.00000E+00
         0.00000E+00
         0.00000E+00
         0.00000E+00
         0.00000E+00
         0.00000E+00
         0.00000E+00
         0.00000E+00
         0.00000E+00
         0.00000E+00
         0.00000E+00
         0.00000E+00
         0.00000E+00
         0.00000E+00
         0.00000E+00
         0.00000E+00
         0.00000E+00
         0.00000E+00
         0.00000E+00
         0.00000E+00
         0.00000E+00
         0.00000E+00
         0.00000E+00
         0.00000E+00
         0.00000E+00
         0.00000E+00
         0.00000E+00
         0.00000E+00
         0.00000E+00
         0.00000E+00
         0.00000E+00
         0.00000E+00
         0.00000E+00
         0.00000E+00
         0.00000E+00
         0.00000E+00
         0.00000E+00
         0.00000E+00
         0.00000E+00
         0.00000E+00
         0.00000E+00
         0.00000E+00
         0.00000E+00
         0.00000E+00
         0.00000E+00
         0.00000E+00
         0.00000E+00
         0.00000E+00
         0.00000E+00
         0.00000E+00
         0.00000E+00
         0.00000E+00
         0.00000E+00
         0.00000E+00
         0.00000E+00
         0.00000E+00
         0.00000E+00
         0.00000E+00
         0.00000E+00
         0.00000E+00
         0.00000E+00
         0.00000E+00
         0.00000E+00
         0.00000E+00
         0.00000E+00
         0.00000E+00
         0.00000E+00
         0.00000E+00
         0.00000E+00
         0.00000E+00
         0.00000E+00
         0.00000E+00
         0.00000E+00
         0.00000E+00
         0.00000E+00
         0.00000E+00
         0.00000E+00
         0.00000E+00
         0.00000E+00
         0.00000E+00
         0.00000E+00
         0.00000E+00
         0.00000E+00
         0.00000E+00
         0.00000E+00
         0.00000E+00
         0.00000E+00
         0.00000E+00
         0.00000E+00
         0.00000E+00
         0.00000E+00
         0.00000E+00
         0.00000E+00
         0.00000E+00
         0.00000E+00
         0.00000E+00
         0.00000E+00
         0.00000E+00
         0.00000E+00
         0.00000E+00
         0.00000E+00
         0.00000E+00
         0.00000E+00
         0.00000E+00
         0.00000E+00
         0.00000E+00
         0.00000E+00
         0.00000E+00
         0.00000E+00
         0.00000E+00
         0.00000E+00
         0.00000E+00
         0.00000E+00
         0.00000E+00
         0.00000E+00
         0.00000E+00
         0.00000E+00
         0.00000E+00
         0.00000E+00
         0.00000E+00
         0.00000E+00
         0.00000E+00
         0.00000E+00
         0.00000E+00
         0.00000E+00
         0.00000E+00
         0.00000E+00
         0.00000E+00
         0.00000E+00
         0.00000E+00
         0.00000E+00
         0.00000E+00
         0.00000E+00
         0.00000E+00
         0.00000E+00
         0.00000E+00
         0.00000E+00
         0.00000E+00
         0.00000E+00
         0.00000E+00
         0.00000E+00
         0.00000E+00
         0.00000E+00
         0.00000E+00
         0.00000E+00
         0.00000E+00
         0.00000E+00
         0.00000E+00
         0.00000E+00
         0.00000E+00
         0.00000E+00
         0.00000E+00
         0.00000E+00
         0.00000E+00
         0.00000E+00
         0.00000E+00
         0.00000E+00
         0.00000E+00
         0.00000E+00
         0.00000E+00
         0.00000E+00
         0.00000E+00
         0.00000E+00
         0.00000E+00
         0.00000E+00
         0.00000E+00
         0.00000E+00
         0.00000E+00
         0.00000E+00
         0.00000E+00
         0.00000E+00
         0.00000E+00
         0.00000E+00
         0.00000E+00
         0.00000E+00
         0.00000E+00
         0.00000E+00
         0.00000E+00
         0.00000E+00
         0.00000E+00
         0.00000E+00
         0.00000E+00
         0.00000E+00
         0.00000E+00
         0.00000E+00
         0.00000E+00
         0.00000E+00
         0.00000E+00
         0.00000E+00
         0.00000E+00
         0.00000E+00
         0.00000E+00
         0.00000E+00
         0.00000E+00
         0.00000E+00
         0.00000E+00
         0.00000E+00
         0.00000E+00
         0.00000E+00
         0.00000E+00
         0.00000E+00
         0.00000E+00
         0.00000E+00
         0.00000E+00
         0.00000E+00
         0.00000E+00
         0.00000E+00
         0.00000E+00
         0.00000E+00
         0.00000E+00
         0.00000E+00
         0.00000E+00
         0.00000E+00
         0.00000E+00
         0.00000E+00
         0.00000E+00
         0.00000E+00
         0.00000E+00
         0.00000E+00
         0.00000E+00
         0.00000E+00
         0.00000E+00
         0.00000E+00
         0.00000E+00
         0.00000E+00
         0.00000E+00
         0.00000E+00
         0.00000E+00
         0.00000E+00
         0.00000E+00
         0.00000E+00
         0.00000E+00
         0.00000E+00
         0.00000E+00
         0.00000E+00
         0.00000E+00
         0.00000E+00
         0.00000E+00
         0.00000E+00
         0.00000E+00
         0.00000E+00
         0.00000E+00
         0.00000E+00
         0.00000E+00
         0.00000E+00
         0.00000E+00
         0.00000E+00
         0.00000E+00
         0.00000E+00
         0.00000E+00
         0.00000E+00
         0.00000E+00
         0.00000E+00
         0.00000E+00
         0.00000E+00
         0.00000E+00
         0.00000E+00
         0.00000E+00
         0.00000E+00
         0.00000E+00
         0.00000E+00
         0.00000E+00
         0.00000E+00
         0.00000E+00
         0.00000E+00
         0.00000E+00
         0.00000E+00
         0.00000E+00
         0.00000E+00
         0.00000E+00
         0.00000E+00
         0.00000E+00
         0.00000E+00
         0.00000E+00
         0.00000E+00
         0.00000E+00
         0.00000E+00
         0.00000E+00
         0.00000E+00
         0.00000E+00
         0.00000E+00
         0.00000E+00
         0.00000E+00
         0.00000E+00
         0.00000E+00
         0.00000E+00
         0.00000E+00
         0.00000E+00
         0.00000E+00
         0.00000E+00
         0.00000E+00
         0.00000E+00
         0.00000E+00
         0.00000E+00
         0.00000E+00
         0.00000E+00
         0.00000E+00
         0.00000E+00
         0.00000E+00
         0.00000E+00
         0.00000E+00
         0.00000E+00
         0.00000E+00
         0.00000E+00
         0.00000E+00
         0.00000E+00
         0.00000E+00
         0.00000E+00
         0.00000E+00
         0.00000E+00
         0.00000E+00
         0.00000E+00
         0.00000E+00
         0.00000E+00
         0.00000E+00
         0.00000E+00
         0.00000E+00
         0.00000E+00
         0.00000E+00
         0.00000E+00
         0.00000E+00
         0.00000E+00
         0.00000E+00
         0.00000E+00
         0.00000E+00
         0.00000E+00
         0.00000E+00
         0.00000E+00
         0.00000E+00
         0.00000E+00
         0.00000E+00
         0.00000E+00
         0.00000E+00
         0.00000E+00
         0.00000E+00
         0.00000E+00
         0.00000E+00
         0.00000E+00
         0.00000E+00
         0.00000E+00
         0.00000E+00
         0.00000E+00
         0.00000E+00
         0.00000E+00
         0.00000E+00
         0.00000E+00
         0.00000E+00
         0.00000E+00
         0.00000E+00
         0.00000E+00
         0.00000E+00
         0.00000E+00
         0.00000E+00
         0.00000E+00
         0.00000E+00
         0.00000E+00
         0.00000E+00
         0.00000E+00
         0.00000E+00
         0.00000E+00
         0.00000E+00
         0.00000E+00
         0.00000E+00
         0.00000E+00
         0.00000E+00
         0.00000E+00
         0.00000E+00
         0.00000E+00
         0.00000E+00
         0.00000E+00
         0.00000E+00
         0.00000E+00
         0.00000E+00
         0.00000E+00
         0.00000E+00
         0.00000E+00
         0.00000E+00
         0.00000E+00
         0.00000E+00
         0.00000E+00
         0.00000E+00
         0.00000E+00
         0.00000E+00
         0.00000E+00
         0.00000E+00
         0.00000E+00
         0.00000E+00
         0.00000E+00
         0.00000E+00
         0.00000E+00
         0.00000E+00
         0.00000E+00
         0.00000E+00
         0.00000E+00
         0.00000E+00
         0.00000E+00
         0.00000E+00
         0.00000E+00
         0.00000E+00
         0.00000E+00
         0.00000E+00
         0.00000E+00
         0.00000E+00
         0.00000E+00
         0.00000E+00
         0.00000E+00
         0.00000E+00
         0.00000E+00
         0.00000E+00
         0.00000E+00
         0.00000E+00
         0.00000E+00
         0.00000E+00
         0.00000E+00
         0.00000E+00
         0.00000E+00
         0.00000E+00
         0.00000E+00
         0.00000E+00
         0.00000E+00
         0.00000E+00
         0.00000E+00
         0.00000E+00
         0.00000E+00
         0.00000E+00
         0.00000E+00
         0.00000E+00
         0.00000E+00
         0.00000E+00
         0.00000E+00
         0.00000E+00
         0.00000E+00
         0.00000E+00
         0.00000E+00
         0.00000E+00
         0.00000E+00
         0.00000E+00
         0.00000E+00
         0.00000E+00
         0.00000E+00
         0.00000E+00
         0.00000E+00
         0.00000E+00
         0.00000E+00
         0.00000E+00
         0.00000E+00
         0.00000E+00
         0.00000E+00
         0.00000E+00
         0.00000E+00
         0.00000E+00
         0.00000E+00
         0.00000E+00
         0.00000E+00
         0.00000E+00
         0.00000E+00
         0.00000E+00
         0.00000E+00
         0.00000E+00
         0.00000E+00
         0.00000E+00
         0.00000E+00
         0.00000E+00
         0.00000E+00
         0.00000E+00
         0.00000E+00
         0.00000E+00
         0.00000E+00
         0.00000E+00
         0.00000E+00
         0.00000E+00
         0.00000E+00
         0.00000E+00
         0.00000E+00
         0.00000E+00
         0.00000E+00
         0.00000E+00
         0.00000E+00
         0.00000E+00
         0.00000E+00
         0.00000E+00
         0.00000E+00
         0.00000E+00
         0.00000E+00
         0.00000E+00
         0.00000E+00
         0.00000E+00
         0.00000E+00
         0.00000E+00
         0.00000E+00
         0.00000E+00
         0.00000E+00
         0.00000E+00
         0.00000E+00
         0.00000E+00
         0.00000E+00
         0.00000E+00
         0.00000E+00
         0.00000E+00
         0.00000E+00
         0.00000E+00
         0.00000E+00
         0.00000E+00
         0.00000E+00
         0.00000E+00
         0.00000E+00
         0.00000E+00
         0.00000E+00
         0.00000E+00
         0.00000E+00
         0.00000E+00
         0.00000E+00
         0.00000E+00
         0.00000E+00
         0.00000E+00
         0.00000E+00
         0.00000E+00
         0.00000E+00
         0.00000E+00
         0.00000E+00
         0.00000E+00
         0.00000E+00
         0.00000E+00
         0.00000E+00
         0.00000E+00
         0.00000E+00
         0.00000E+00
         0.00000E+00
         0.00000E+00
         0.00000E+00
         0.00000E+00
         0.00000E+00
         0.00000E+00
         0.00000E+00
         0.00000E+00
         0.00000E+00
         0.00000E+00
         0.00000E+00
         0.00000E+00
         0.00000E+00
         0.00000E+00
         0.00000E+00
         0.00000E+00
         0.00000E+00
         0.00000E+00
         0.00000E+00
         0.00000E+00
         0.00000E+00
         0.00000E+00
         0.00000E+00
         0.00000E+00
         0.00000E+00
         0.00000E+00
         0.00000E+00
         0.00000E+00
         0.00000E+00
         0.00000E+00
         0.00000E+00
         0.00000E+00
         0.00000E+00
         0.00000E+00
         0.00000E+00
         0.00000E+00
         0.00000E+00
         0.00000E+00
         0.00000E+00
         0.00000E+00
         0.00000E+00
         0.00000E+00
         0.00000E+00
         0.00000E+00
         0.00000E+00
         0.00000E+00
         0.00000E+00
         0.00000E+00
         0.00000E+00
         0.00000E+00
         0.00000E+00
         0.00000E+00
         0.00000E+00
         0.00000E+00
         0.00000E+00
         0.00000E+00
         0.00000E+00
         0.00000E+00
         0.00000E+00
         0.00000E+00
         0.00000E+00
         0.00000E+00
         0.00000E+00
         0.00000E+00
         0.00000E+00
         0.00000E+00
         0.00000E+00
         0.00000E+00
         0.00000E+00
         0.00000E+00
         0.00000E+00
         0.00000E+00
         0.00000E+00
         0.00000E+00
         0.00000E+00
         0.00000E+00
         0.00000E+00
         0.00000E+00
         0.00000E+00
         0.00000E+00
         0.00000E+00
         0.00000E+00
         0.00000E+00
         0.00000E+00
         0.00000E+00
         0.00000E+00
         0.00000E+00
         0.00000E+00
         0.00000E+00
         0.00000E+00
         0.00000E+00
         0.00000E+00
         0.00000E+00
         0.00000E+00
         0.00000E+00
         0.00000E+00
         0.00000E+00
         0.00000E+00
         0.00000E+00
         0.00000E+00
         0.00000E+00
         0.00000E+00
         0.00000E+00
         0.00000E+00
         0.00000E+00
         0.00000E+00
         0.00000E+00
         0.00000E+00
         0.00000E+00
         0.00000E+00
         0.00000E+00
         0.00000E+00
         0.00000E+00
         0.00000E+00
         0.00000E+00
         0.00000E+00
         0.00000E+00
         0.00000E+00
         0.00000E+00
         0.00000E+00
         0.00000E+00
         0.00000E+00
         0.00000E+00
         0.00000E+00
         0.00000E+00
         0.00000E+00
         0.00000E+00
         0.00000E+00
         0.00000E+00
         0.00000E+00
         0.00000E+00
         0.00000E+00
         0.00000E+00
         0.00000E+00
         0.00000E+00
         0.00000E+00
         0.00000E+00
         0.00000E+00
         0.00000E+00
         0.00000E+00
         0.00000E+00
         0.00000E+00
         0.00000E+00
         0.00000E+00
         0.00000E+00
         0.00000E+00
         0.00000E+00
         0.00000E+00
         0.00000E+00
         0.00000E+00
         0.00000E+00
         0.00000E+00
         0.00000E+00
         0.00000E+00
         0.00000E+00
         0.00000E+00
         0.00000E+00
         0.00000E+00
         0.00000E+00
         0.00000E+00
         0.00000E+00
         0.00000E+00
         0.00000E+00
         0.00000E+00
         0.00000E+00
         0.00000E+00
         0.00000E+00
         0.00000E+00
         0.00000E+00
         0.00000E+00
         0.00000E+00
         0.00000E+00
         0.00000E+00
         0.00000E+00
         0.00000E+00
         0.00000E+00
         0.00000E+00
         0.00000E+00
         0.00000E+00
         0.00000E+00
         0.00000E+00
         0.00000E+00
         0.00000E+00
         0.00000E+00
         0.00000E+00
         0.00000E+00
         0.00000E+00
         0.00000E+00
         0.00000E+00
         0.00000E+00
         0.00000E+00
         0.00000E+00
         0.00000E+00
         0.00000E+00
         0.00000E+00
         0.00000E+00
         0.00000E+00
         0.00000E+00
         0.00000E+00
         0.00000E+00
         0.00000E+00
         0.00000E+00
         0.00000E+00
         0.00000E+00
         0.00000E+00
         0.00000E+00
         0.00000E+00
         0.00000E+00
         0.00000E+00
         0.00000E+00
         0.00000E+00
         0.00000E+00
         0.00000E+00
         0.00000E+00
         0.00000E+00
         0.00000E+00
         0.00000E+00
         0.00000E+00
         0.00000E+00
         0.00000E+00
         0.00000E+00
         0.00000E+00
         0.00000E+00
         0.00000E+00
         0.00000E+00
         0.00000E+00
         0.00000E+00
         0.00000E+00
         0.00000E+00
         0.00000E+00
         0.00000E+00
         0.00000E+00
         0.00000E+00
         0.00000E+00
         0.00000E+00
         0.00000E+00
         0.00000E+00
         0.00000E+00
         0.00000E+00
         0.00000E+00
         0.00000E+00
         0.00000E+00
         0.00000E+00
         0.00000E+00
         0.00000E+00
         0.00000E+00
         0.00000E+00
         0.00000E+00
         0.00000E+00
         0.00000E+00
         0.00000E+00
         0.00000E+00
         0.00000E+00
         0.00000E+00
         0.00000E+00
         0.00000E+00
         0.00000E+00
         0.00000E+00
         0.00000E+00
         0.00000E+00
         0.00000E+00
         0.00000E+00
         0.00000E+00
         0.00000E+00
         0.00000E+00
         0.00000E+00
         0.00000E+00
         0.00000E+00
         0.00000E+00
         0.00000E+00
         0.00000E+00
         0.00000E+00
         0.00000E+00
         0.00000E+00
         0.00000E+00
         0.00000E+00
         0.00000E+00
         0.00000E+00
         0.00000E+00
         0.00000E+00
         0.00000E+00
         0.00000E+00
         0.00000E+00
         0.00000E+00
         0.00000E+00
         0.00000E+00
         0.00000E+00
         0.00000E+00
         0.00000E+00
         0.00000E+00
         0.00000E+00
         0.00000E+00
         0.00000E+00
         0.00000E+00
         0.00000E+00
         0.00000E+00
         0.00000E+00
         0.00000E+00
         0.00000E+00
         0.00000E+00
         0.00000E+00
         0.00000E+00
         0.00000E+00
         0.00000E+00
         0.00000E+00
         0.00000E+00
         0.00000E+00
         0.00000E+00
         0.00000E+00
         0.00000E+00
         0.00000E+00
         0.00000E+00
         0.00000E+00
         0.00000E+00
         0.00000E+00
         0.00000E+00
         0.00000E+00
         0.00000E+00
         0.00000E+00
         0.00000E+00
         0.00000E+00
         0.00000E+00
         0.00000E+00
         0.00000E+00
         0.00000E+00
         0.00000E+00
         0.00000E+00
         0.00000E+00
         0.00000E+00
         0.00000E+00
         0.00000E+00
         0.00000E+00
         0.00000E+00
         0.00000E+00
         0.00000E+00
         0.00000E+00
         0.00000E+00
         0.00000E+00
         0.00000E+00
         0.00000E+00
         0.00000E+00
         0.00000E+00
         0.00000E+00
         0.00000E+00
         0.00000E+00
         0.00000E+00
         0.00000E+00
         0.00000E+00
         0.00000E+00
         0.00000E+00
         0.00000E+00
         0.00000E+00
         0.00000E+00
         0.00000E+00
         0.00000E+00
         0.00000E+00
         0.00000E+00
         0.00000E+00
         0.00000E+00
         0.00000E+00
         0.00000E+00
         0.00000E+00
         0.00000E+00
         0.00000E+00
         0.00000E+00
         0.00000E+00
         0.00000E+00
         0.00000E+00
         0.00000E+00
         0.00000E+00
         0.00000E+00
         0.00000E+00
         0.00000E+00
         0.00000E+00
         0.00000E+00
         0.00000E+00
         0.00000E+00
         0.00000E+00
         0.00000E+00
         0.00000E+00
         0.00000E+00
         0.00000E+00
         0.00000E+00
         0.00000E+00
         0.00000E+00
         0.00000E+00
         0.00000E+00
         0.00000E+00
         0.00000E+00
         0.00000E+00
         0.00000E+00
         0.00000E+00
         0.00000E+00
         0.00000E+00
         0.00000E+00
         0.00000E+00
         0.00000E+00
         0.00000E+00
         0.00000E+00
         0.00000E+00
         0.00000E+00
         0.00000E+00
         0.00000E+00
         0.00000E+00
         0.00000E+00
         0.00000E+00
         0.00000E+00
         0.00000E+00
         0.00000E+00
         0.00000E+00
         0.00000E+00
         0.00000E+00
         0.00000E+00
         0.00000E+00
         0.00000E+00
         0.00000E+00
         0.00000E+00
         0.00000E+00
         0.00000E+00
         0.00000E+00
         0.00000E+00
         0.00000E+00
         0.00000E+00
         0.00000E+00
         0.00000E+00
         0.00000E+00
         0.00000E+00
         0.00000E+00
         0.00000E+00
         0.00000E+00
         0.00000E+00
         0.00000E+00
         0.00000E+00
         0.00000E+00
         0.00000E+00
         0.00000E+00
         0.00000E+00
         0.00000E+00
         0.00000E+00
         0.00000E+00
         0.00000E+00
         0.00000E+00
         0.00000E+00
         0.00000E+00
         0.00000E+00
         0.00000E+00
         0.00000E+00
         0.00000E+00
         0.00000E+00
         0.00000E+00
         0.00000E+00
         0.00000E+00
         0.00000E+00
         0.00000E+00
         0.00000E+00
         0.00000E+00
         0.00000E+00
         0.00000E+00
         0.00000E+00
         0.00000E+00
         0.00000E+00
         0.00000E+00
         0.00000E+00
         0.00000E+00
         0.00000E+00
         0.00000E+00
         0.00000E+00
         0.00000E+00
         0.00000E+00
         0.00000E+00
         0.00000E+00
         0.00000E+00
         0.00000E+00
         0.00000E+00
         0.00000E+00
         0.00000E+00
         0.00000E+00
         0.00000E+00
         0.00000E+00
         0.00000E+00
         0.00000E+00
         0.00000E+00
         0.00000E+00
         0.00000E+00
         0.00000E+00
         0.00000E+00
         0.00000E+00
         0.00000E+00
         0.00000E+00
         0.00000E+00
         0.00000E+00
         0.00000E+00
         0.00000E+00
         0.00000E+00
         0.00000E+00
         0.00000E+00
         0.00000E+00
         0.00000E+00
         0.00000E+00
         0.00000E+00
         0.00000E+00
         0.00000E+00
         0.00000E+00
         0.00000E+00
         0.00000E+00
         0.00000E+00
         0.00000E+00
         0.00000E+00
         0.00000E+00
         0.00000E+00
         0.00000E+00
         0.00000E+00
         0.00000E+00
         0.00000E+00
         0.00000E+00
         0.00000E+00
         0.00000E+00
         0.00000E+00
         0.00000E+00
         0.00000E+00
         0.00000E+00
         0.00000E+00
         0.00000E+00
         0.00000E+00
         0.00000E+00
         0.00000E+00
         0.00000E+00
         0.00000E+00
         0.00000E+00
         0.00000E+00
         0.00000E+00
         0.00000E+00
         0.00000E+00
         0.00000E+00
         0.00000E+00
         0.00000E+00
         0.00000E+00
         0.00000E+00
         0.00000E+00
         0.00000E+00
         0.00000E+00
         0.00000E+00
         0.00000E+00
         0.00000E+00
         0.00000E+00
         0.00000E+00
         0.00000E+00
         0.00000E+00
         0.00000E+00
         0.00000E+00
         0.00000E+00
         0.00000E+00
         0.00000E+00
         0.00000E+00
         0.00000E+00
         0.00000E+00
         0.00000E+00
         0.00000E+00
         0.00000E+00
         0.00000E+00
         0.00000E+00
         0.00000E+00
         0.00000E+00
         0.00000E+00
         0.00000E+00
         0.00000E+00
         0.00000E+00
         0.00000E+00
         0.00000E+00
         0.00000E+00
         0.00000E+00
         0.00000E+00
         0.00000E+00
         0.00000E+00
         0.00000E+00
         0.00000E+00
         0.00000E+00
         0.00000E+00
         0.00000E+00
         0.00000E+00
         0.00000E+00
         0.00000E+00
         0.00000E+00
         0.00000E+00
         0.00000E+00
         0.00000E+00
         0.00000E+00
         0.00000E+00
         0.00000E+00
         0.00000E+00
         0.00000E+00
         0.00000E+00
         0.00000E+00
         0.00000E+00
         0.00000E+00
         0.00000E+00
         0.00000E+00
         0.00000E+00
         0.00000E+00
         0.00000E+00
         0.00000E+00
         0.00000E+00
         0.00000E+00
         0.00000E+00
         0.00000E+00
         0.00000E+00
         0.00000E+00
         0.00000E+00
         0.00000E+00
         0.00000E+00
         0.00000E+00
         0.00000E+00
         0.00000E+00
         0.00000E+00
         0.00000E+00
         0.00000E+00
         0.00000E+00
         0.00000E+00
         0.00000E+00
         0.00000E+00
         0.00000E+00
         0.00000E+00
         0.00000E+00
         0.00000E+00
         0.00000E+00
         0.00000E+00
         0.00000E+00
         0.00000E+00
         0.00000E+00
         0.00000E+00
         0.00000E+00
         0.00000E+00
         0.00000E+00
         0.00000E+00
         0.00000E+00
         0.00000E+00
         0.00000E+00
         0.00000E+00
         0.00000E+00
         0.00000E+00
         0.00000E+00
         0.00000E+00
         0.00000E+00
         0.00000E+00
         0.00000E+00
         0.00000E+00
         0.00000E+00
         0.00000E+00
         0.00000E+00
         0.00000E+00
         0.00000E+00
         0.00000E+00
         0.00000E+00
         0.00000E+00
         0.00000E+00
         0.00000E+00
         0.00000E+00
         0.00000E+00
         0.00000E+00
         0.00000E+00
         0.00000E+00
         0.00000E+00
         0.00000E+00
         0.00000E+00
         0.00000E+00
         0.00000E+00
         0.00000E+00
         0.00000E+00
         0.00000E+00
         0.00000E+00
         0.00000E+00
         0.00000E+00
         0.00000E+00
         0.00000E+00
         0.00000E+00
         0.00000E+00
         0.00000E+00
         0.00000E+00
         0.00000E+00
         0.00000E+00
         0.00000E+00
         0.00000E+00
         0.00000E+00
         0.00000E+00
         0.00000E+00
         0.00000E+00
         0.00000E+00
         0.00000E+00
         0.00000E+00
         0.00000E+00
         0.00000E+00
         0.00000E+00
         0.00000E+00
         0.00000E+00
         0.00000E+00
         0.00000E+00
         0.00000E+00
         0.00000E+00
         0.00000E+00
         0.00000E+00
         0.00000E+00
         0.00000E+00
         0.00000E+00
         0.00000E+00
         0.00000E+00
         0.00000E+00
         0.00000E+00
         0.00000E+00
         0.00000E+00
         0.00000E+00
         0.00000E+00
         0.00000E+00
         0.00000E+00
         0.00000E+00
         0.00000E+00
         0.00000E+00
         0.00000E+00
         0.00000E+00
         0.00000E+00
         0.00000E+00
  
SCALARS                         fint_x  double 1
LOOKUP_TABLE default
         0.00000E+00
         0.00000E+00
         0.00000E+00
         0.00000E+00
         0.00000E+00
         0.00000E+00
         0.00000E+00
         0.00000E+00
         0.00000E+00
         0.00000E+00
         0.00000E+00
         0.00000E+00
         0.00000E+00
         0.00000E+00
         0.00000E+00
         0.00000E+00
         0.00000E+00
         0.00000E+00
         0.00000E+00
         0.00000E+00
         0.00000E+00
         0.00000E+00
         0.00000E+00
         0.00000E+00
         0.00000E+00
         0.00000E+00
         0.00000E+00
         0.00000E+00
         0.00000E+00
         0.00000E+00
         0.00000E+00
         0.00000E+00
         0.00000E+00
         0.00000E+00
         0.00000E+00
         0.00000E+00
         0.00000E+00
         0.00000E+00
         0.00000E+00
         0.00000E+00
         0.00000E+00
         0.00000E+00
         0.00000E+00
         0.00000E+00
         0.00000E+00
         0.00000E+00
         0.00000E+00
         0.00000E+00
         0.00000E+00
         0.00000E+00
         0.00000E+00
         0.00000E+00
         0.00000E+00
         0.00000E+00
         0.00000E+00
         0.00000E+00
         0.00000E+00
         0.00000E+00
         0.00000E+00
         0.00000E+00
         0.00000E+00
         0.00000E+00
         0.00000E+00
         0.00000E+00
         0.00000E+00
         0.00000E+00
         0.00000E+00
         0.00000E+00
         0.00000E+00
         0.00000E+00
         0.00000E+00
         0.00000E+00
         0.00000E+00
         0.00000E+00
         0.00000E+00
         0.00000E+00
         0.00000E+00
         0.00000E+00
         0.00000E+00
         0.00000E+00
         0.00000E+00
         0.00000E+00
         0.00000E+00
         0.00000E+00
         0.00000E+00
         0.00000E+00
         0.00000E+00
         0.00000E+00
         0.00000E+00
         0.00000E+00
         0.00000E+00
         0.00000E+00
         0.00000E+00
         0.00000E+00
         0.00000E+00
         0.00000E+00
         0.00000E+00
         0.00000E+00
         0.00000E+00
         0.00000E+00
         0.00000E+00
         0.00000E+00
         0.00000E+00
         0.00000E+00
         0.00000E+00
         0.00000E+00
         0.00000E+00
         0.00000E+00
         0.00000E+00
         0.00000E+00
         0.00000E+00
         0.00000E+00
         0.00000E+00
         0.00000E+00
         0.00000E+00
         0.00000E+00
         0.00000E+00
         0.00000E+00
         0.00000E+00
         0.00000E+00
         0.00000E+00
         0.00000E+00
         0.00000E+00
         0.00000E+00
         0.00000E+00
         0.00000E+00
         0.00000E+00
         0.00000E+00
         0.00000E+00
         0.00000E+00
         0.00000E+00
         0.00000E+00
         0.00000E+00
         0.00000E+00
         0.00000E+00
         0.00000E+00
         0.00000E+00
         0.00000E+00
         0.00000E+00
         0.00000E+00
         0.00000E+00
         0.00000E+00
         0.00000E+00
         0.00000E+00
         0.00000E+00
         0.00000E+00
         0.00000E+00
         0.00000E+00
         0.00000E+00
         0.00000E+00
         0.00000E+00
         0.00000E+00
         0.00000E+00
         0.00000E+00
         0.00000E+00
         0.00000E+00
         0.00000E+00
         0.00000E+00
         0.00000E+00
         0.00000E+00
         0.00000E+00
         0.00000E+00
         0.00000E+00
         0.00000E+00
         0.00000E+00
         0.00000E+00
         0.00000E+00
         0.00000E+00
         0.00000E+00
         0.00000E+00
         0.00000E+00
         0.00000E+00
         0.00000E+00
         0.00000E+00
         0.00000E+00
         0.00000E+00
         0.00000E+00
         0.00000E+00
         0.00000E+00
         0.00000E+00
         0.00000E+00
         0.00000E+00
         0.00000E+00
         0.00000E+00
         0.00000E+00
         0.00000E+00
         0.00000E+00
         0.00000E+00
         0.00000E+00
         0.00000E+00
         0.00000E+00
         0.00000E+00
         0.00000E+00
         0.00000E+00
         0.00000E+00
         0.00000E+00
         0.00000E+00
         0.00000E+00
         0.00000E+00
         0.00000E+00
         0.00000E+00
         0.00000E+00
         0.00000E+00
         0.00000E+00
         0.00000E+00
         0.00000E+00
         0.00000E+00
         0.00000E+00
         0.00000E+00
         0.00000E+00
         0.00000E+00
         0.00000E+00
         0.00000E+00
         0.00000E+00
         0.00000E+00
         0.00000E+00
         0.00000E+00
         0.00000E+00
         0.00000E+00
         0.00000E+00
         0.00000E+00
         0.00000E+00
         0.00000E+00
         0.00000E+00
         0.00000E+00
         0.00000E+00
         0.00000E+00
         0.00000E+00
         0.00000E+00
         0.00000E+00
         0.00000E+00
         0.00000E+00
         0.00000E+00
         0.00000E+00
         0.00000E+00
         0.00000E+00
         0.00000E+00
         0.00000E+00
         0.00000E+00
         0.00000E+00
         0.00000E+00
         0.00000E+00
         0.00000E+00
         0.00000E+00
         0.00000E+00
         0.00000E+00
         0.00000E+00
         0.00000E+00
         0.00000E+00
         0.00000E+00
         0.00000E+00
         0.00000E+00
         0.00000E+00
         0.00000E+00
         0.00000E+00
         0.00000E+00
         0.00000E+00
         0.00000E+00
         0.00000E+00
         0.00000E+00
         0.00000E+00
         0.00000E+00
         0.00000E+00
         0.00000E+00
         0.00000E+00
         0.00000E+00
         0.00000E+00
         0.00000E+00
         0.00000E+00
         0.00000E+00
         0.00000E+00
         0.00000E+00
         0.00000E+00
         0.00000E+00
         0.00000E+00
         0.00000E+00
         0.00000E+00
         0.00000E+00
         0.00000E+00
         0.00000E+00
         0.00000E+00
         0.00000E+00
         0.00000E+00
         0.00000E+00
         0.00000E+00
         0.00000E+00
         0.00000E+00
         0.00000E+00
         0.00000E+00
         0.00000E+00
         0.00000E+00
         0.00000E+00
         0.00000E+00
         0.00000E+00
         0.00000E+00
         0.00000E+00
         0.00000E+00
         0.00000E+00
         0.00000E+00
         0.00000E+00
         0.00000E+00
         0.00000E+00
         0.00000E+00
         0.00000E+00
         0.00000E+00
         0.00000E+00
         0.00000E+00
         0.00000E+00
         0.00000E+00
         0.00000E+00
         0.00000E+00
         0.00000E+00
         0.00000E+00
         0.00000E+00
         0.00000E+00
         0.00000E+00
         0.00000E+00
         0.00000E+00
         0.00000E+00
         0.00000E+00
         0.00000E+00
         0.00000E+00
         0.00000E+00
         0.00000E+00
         0.00000E+00
         0.00000E+00
         0.00000E+00
         0.00000E+00
         0.00000E+00
         0.00000E+00
         0.00000E+00
         0.00000E+00
         0.00000E+00
         0.00000E+00
         0.00000E+00
         0.00000E+00
         0.00000E+00
         0.00000E+00
         0.00000E+00
         0.00000E+00
         0.00000E+00
         0.00000E+00
         0.00000E+00
         0.00000E+00
         0.00000E+00
         0.00000E+00
         0.00000E+00
         0.00000E+00
         0.00000E+00
         0.00000E+00
         0.00000E+00
         0.00000E+00
         0.00000E+00
         0.00000E+00
         0.00000E+00
         0.00000E+00
         0.00000E+00
         0.00000E+00
         0.00000E+00
         0.00000E+00
         0.00000E+00
         0.00000E+00
         0.00000E+00
         0.00000E+00
         0.00000E+00
         0.00000E+00
         0.00000E+00
         0.00000E+00
         0.00000E+00
         0.00000E+00
         0.00000E+00
         0.00000E+00
         0.00000E+00
         0.00000E+00
         0.00000E+00
         0.00000E+00
         0.00000E+00
         0.00000E+00
         0.00000E+00
         0.00000E+00
         0.00000E+00
         0.00000E+00
         0.00000E+00
         0.00000E+00
         0.00000E+00
         0.00000E+00
         0.00000E+00
         0.00000E+00
         0.00000E+00
         0.00000E+00
         0.00000E+00
         0.00000E+00
         0.00000E+00
         0.00000E+00
         0.00000E+00
         0.00000E+00
         0.00000E+00
         0.00000E+00
         0.00000E+00
         0.00000E+00
         0.00000E+00
         0.00000E+00
         0.00000E+00
         0.00000E+00
         0.00000E+00
         0.00000E+00
         0.00000E+00
         0.00000E+00
         0.00000E+00
         0.00000E+00
         0.00000E+00
         0.00000E+00
         0.00000E+00
         0.00000E+00
         0.00000E+00
         0.00000E+00
         0.00000E+00
         0.00000E+00
         0.00000E+00
         0.00000E+00
         0.00000E+00
         0.00000E+00
         0.00000E+00
         0.00000E+00
         0.00000E+00
         0.00000E+00
         0.00000E+00
         0.00000E+00
         0.00000E+00
         0.00000E+00
         0.00000E+00
         0.00000E+00
         0.00000E+00
         0.00000E+00
         0.00000E+00
         0.00000E+00
         0.00000E+00
         0.00000E+00
         0.00000E+00
         0.00000E+00
         0.00000E+00
         0.00000E+00
         0.00000E+00
         0.00000E+00
         0.00000E+00
         0.00000E+00
         0.00000E+00
         0.00000E+00
         0.00000E+00
         0.00000E+00
         0.00000E+00
         0.00000E+00
         0.00000E+00
         0.00000E+00
         0.00000E+00
         0.00000E+00
         0.00000E+00
         0.00000E+00
         0.00000E+00
         0.00000E+00
         0.00000E+00
         0.00000E+00
         0.00000E+00
         0.00000E+00
         0.00000E+00
         0.00000E+00
         0.00000E+00
         0.00000E+00
         0.00000E+00
         0.00000E+00
         0.00000E+00
         0.00000E+00
         0.00000E+00
         0.00000E+00
         0.00000E+00
         0.00000E+00
         0.00000E+00
         0.00000E+00
         0.00000E+00
         0.00000E+00
         0.00000E+00
         0.00000E+00
         0.00000E+00
         0.00000E+00
         0.00000E+00
         0.00000E+00
         0.00000E+00
         0.00000E+00
         0.00000E+00
         0.00000E+00
         0.00000E+00
         0.00000E+00
         0.00000E+00
         0.00000E+00
         0.00000E+00
         0.00000E+00
         0.00000E+00
         0.00000E+00
         0.00000E+00
         0.00000E+00
         0.00000E+00
         0.00000E+00
         0.00000E+00
         0.00000E+00
         0.00000E+00
         0.00000E+00
         0.00000E+00
         0.00000E+00
         0.00000E+00
         0.00000E+00
         0.00000E+00
         0.00000E+00
         0.00000E+00
         0.00000E+00
         0.00000E+00
         0.00000E+00
         0.00000E+00
         0.00000E+00
         0.00000E+00
         0.00000E+00
         0.00000E+00
         0.00000E+00
         0.00000E+00
         0.00000E+00
         0.00000E+00
         0.00000E+00
         0.00000E+00
         0.00000E+00
         0.00000E+00
         0.00000E+00
         0.00000E+00
         0.00000E+00
         0.00000E+00
         0.00000E+00
         0.00000E+00
         0.00000E+00
         0.00000E+00
         0.00000E+00
         0.00000E+00
         0.00000E+00
         0.00000E+00
         0.00000E+00
         0.00000E+00
         0.00000E+00
         0.00000E+00
         0.00000E+00
         0.00000E+00
         0.00000E+00
         0.00000E+00
         0.00000E+00
         0.00000E+00
         0.00000E+00
         0.00000E+00
         0.00000E+00
         0.00000E+00
         0.00000E+00
         0.00000E+00
         0.00000E+00
         0.00000E+00
         0.00000E+00
         0.00000E+00
         0.00000E+00
         0.00000E+00
         0.00000E+00
         0.00000E+00
         0.00000E+00
         0.00000E+00
         0.00000E+00
         0.00000E+00
         0.00000E+00
         0.00000E+00
         0.00000E+00
         0.00000E+00
         0.00000E+00
         0.00000E+00
         0.00000E+00
         0.00000E+00
         0.00000E+00
         0.00000E+00
         0.00000E+00
         0.00000E+00
         0.00000E+00
         0.00000E+00
         0.00000E+00
         0.00000E+00
         0.00000E+00
         0.00000E+00
         0.00000E+00
         0.00000E+00
         0.00000E+00
         0.00000E+00
         0.00000E+00
         0.00000E+00
         0.00000E+00
         0.00000E+00
         0.00000E+00
         0.00000E+00
         0.00000E+00
         0.00000E+00
         0.00000E+00
         0.00000E+00
         0.00000E+00
         0.00000E+00
         0.00000E+00
         0.00000E+00
         0.00000E+00
         0.00000E+00
         0.00000E+00
         0.00000E+00
         0.00000E+00
         0.00000E+00
         0.00000E+00
         0.00000E+00
         0.00000E+00
         0.00000E+00
         0.00000E+00
         0.00000E+00
         0.00000E+00
         0.00000E+00
         0.00000E+00
         0.00000E+00
         0.00000E+00
         0.00000E+00
         0.00000E+00
         0.00000E+00
         0.00000E+00
         0.00000E+00
         0.00000E+00
         0.00000E+00
         0.00000E+00
         0.00000E+00
         0.00000E+00
         0.00000E+00
         0.00000E+00
         0.00000E+00
         0.00000E+00
         0.00000E+00
         0.00000E+00
         0.00000E+00
         0.00000E+00
         0.00000E+00
         0.00000E+00
         0.00000E+00
         0.00000E+00
         0.00000E+00
         0.00000E+00
         0.00000E+00
         0.00000E+00
         0.00000E+00
         0.00000E+00
         0.00000E+00
         0.00000E+00
         0.00000E+00
         0.00000E+00
         0.00000E+00
         0.00000E+00
         0.00000E+00
         0.00000E+00
         0.00000E+00
         0.00000E+00
         0.00000E+00
         0.00000E+00
         0.00000E+00
         0.00000E+00
         0.00000E+00
         0.00000E+00
         0.00000E+00
         0.00000E+00
         0.00000E+00
         0.00000E+00
         0.00000E+00
         0.00000E+00
         0.00000E+00
         0.00000E+00
         0.00000E+00
         0.00000E+00
         0.00000E+00
         0.00000E+00
         0.00000E+00
         0.00000E+00
         0.00000E+00
         0.00000E+00
         0.00000E+00
         0.00000E+00
         0.00000E+00
         0.00000E+00
         0.00000E+00
         0.00000E+00
         0.00000E+00
         0.00000E+00
         0.00000E+00
         0.00000E+00
         0.00000E+00
         0.00000E+00
         0.00000E+00
         0.00000E+00
         0.00000E+00
         0.00000E+00
         0.00000E+00
         0.00000E+00
         0.00000E+00
         0.00000E+00
         0.00000E+00
         0.00000E+00
         0.00000E+00
         0.00000E+00
         0.00000E+00
         0.00000E+00
         0.00000E+00
         0.00000E+00
         0.00000E+00
         0.00000E+00
         0.00000E+00
         0.00000E+00
         0.00000E+00
         0.00000E+00
         0.00000E+00
         0.00000E+00
         0.00000E+00
         0.00000E+00
         0.00000E+00
         0.00000E+00
         0.00000E+00
         0.00000E+00
         0.00000E+00
         0.00000E+00
         0.00000E+00
         0.00000E+00
         0.00000E+00
         0.00000E+00
         0.00000E+00
         0.00000E+00
         0.00000E+00
         0.00000E+00
         0.00000E+00
         0.00000E+00
         0.00000E+00
         0.00000E+00
         0.00000E+00
         0.00000E+00
         0.00000E+00
         0.00000E+00
         0.00000E+00
         0.00000E+00
         0.00000E+00
         0.00000E+00
         0.00000E+00
         0.00000E+00
         0.00000E+00
         0.00000E+00
         0.00000E+00
         0.00000E+00
         0.00000E+00
         0.00000E+00
         0.00000E+00
         0.00000E+00
         0.00000E+00
         0.00000E+00
         0.00000E+00
         0.00000E+00
         0.00000E+00
         0.00000E+00
         0.00000E+00
         0.00000E+00
         0.00000E+00
         0.00000E+00
         0.00000E+00
         0.00000E+00
         0.00000E+00
         0.00000E+00
         0.00000E+00
         0.00000E+00
         0.00000E+00
         0.00000E+00
         0.00000E+00
         0.00000E+00
         0.00000E+00
         0.00000E+00
         0.00000E+00
         0.00000E+00
         0.00000E+00
         0.00000E+00
         0.00000E+00
         0.00000E+00
         0.00000E+00
         0.00000E+00
         0.00000E+00
         0.00000E+00
         0.00000E+00
         0.00000E+00
         0.00000E+00
         0.00000E+00
         0.00000E+00
         0.00000E+00
         0.00000E+00
         0.00000E+00
         0.00000E+00
         0.00000E+00
         0.00000E+00
         0.00000E+00
         0.00000E+00
         0.00000E+00
         0.00000E+00
         0.00000E+00
         0.00000E+00
         0.00000E+00
         0.00000E+00
         0.00000E+00
         0.00000E+00
         0.00000E+00
         0.00000E+00
         0.00000E+00
         0.00000E+00
         0.00000E+00
         0.00000E+00
         0.00000E+00
         0.00000E+00
         0.00000E+00
         0.00000E+00
         0.00000E+00
         0.00000E+00
         0.00000E+00
         0.00000E+00
         0.00000E+00
         0.00000E+00
         0.00000E+00
         0.00000E+00
         0.00000E+00
         0.00000E+00
         0.00000E+00
         0.00000E+00
         0.00000E+00
         0.00000E+00
         0.00000E+00
         0.00000E+00
         0.00000E+00
         0.00000E+00
         0.00000E+00
         0.00000E+00
         0.00000E+00
         0.00000E+00
         0.00000E+00
         0.00000E+00
         0.00000E+00
         0.00000E+00
         0.00000E+00
         0.00000E+00
         0.00000E+00
         0.00000E+00
         0.00000E+00
         0.00000E+00
         0.00000E+00
         0.00000E+00
         0.00000E+00
         0.00000E+00
         0.00000E+00
         0.00000E+00
         0.00000E+00
         0.00000E+00
         0.00000E+00
         0.00000E+00
         0.00000E+00
         0.00000E+00
         0.00000E+00
         0.00000E+00
         0.00000E+00
         0.00000E+00
         0.00000E+00
         0.00000E+00
         0.00000E+00
         0.00000E+00
         0.00000E+00
         0.00000E+00
         0.00000E+00
         0.00000E+00
         0.00000E+00
         0.00000E+00
         0.00000E+00
         0.00000E+00
         0.00000E+00
         0.00000E+00
         0.00000E+00
         0.00000E+00
         0.00000E+00
         0.00000E+00
         0.00000E+00
         0.00000E+00
         0.00000E+00
         0.00000E+00
         0.00000E+00
         0.00000E+00
         0.00000E+00
         0.00000E+00
         0.00000E+00
         0.00000E+00
         0.00000E+00
         0.00000E+00
         0.00000E+00
         0.00000E+00
         0.00000E+00
         0.00000E+00
         0.00000E+00
         0.00000E+00
         0.00000E+00
         0.00000E+00
         0.00000E+00
         0.00000E+00
         0.00000E+00
         0.00000E+00
         0.00000E+00
         0.00000E+00
         0.00000E+00
         0.00000E+00
         0.00000E+00
         0.00000E+00
         0.00000E+00
         0.00000E+00
         0.00000E+00
         0.00000E+00
         0.00000E+00
         0.00000E+00
         0.00000E+00
         0.00000E+00
         0.00000E+00
         0.00000E+00
         0.00000E+00
         0.00000E+00
         0.00000E+00
         0.00000E+00
         0.00000E+00
         0.00000E+00
         0.00000E+00
         0.00000E+00
         0.00000E+00
         0.00000E+00
         0.00000E+00
         0.00000E+00
         0.00000E+00
         0.00000E+00
         0.00000E+00
         0.00000E+00
         0.00000E+00
         0.00000E+00
         0.00000E+00
         0.00000E+00
         0.00000E+00
         0.00000E+00
         0.00000E+00
         0.00000E+00
         0.00000E+00
         0.00000E+00
         0.00000E+00
         0.00000E+00
         0.00000E+00
         0.00000E+00
         0.00000E+00
         0.00000E+00
         0.00000E+00
         0.00000E+00
         0.00000E+00
         0.00000E+00
         0.00000E+00
         0.00000E+00
         0.00000E+00
         0.00000E+00
         0.00000E+00
         0.00000E+00
         0.00000E+00
         0.00000E+00
         0.00000E+00
         0.00000E+00
         0.00000E+00
         0.00000E+00
         0.00000E+00
         0.00000E+00
         0.00000E+00
         0.00000E+00
         0.00000E+00
         0.00000E+00
         0.00000E+00
         0.00000E+00
         0.00000E+00
         0.00000E+00
         0.00000E+00
         0.00000E+00
         0.00000E+00
         0.00000E+00
         0.00000E+00
         0.00000E+00
         0.00000E+00
         0.00000E+00
         0.00000E+00
         0.00000E+00
         0.00000E+00
         0.00000E+00
         0.00000E+00
         0.00000E+00
         0.00000E+00
         0.00000E+00
         0.00000E+00
         0.00000E+00
         0.00000E+00
         0.00000E+00
         0.00000E+00
         0.00000E+00
         0.00000E+00
         0.00000E+00
         0.00000E+00
         0.00000E+00
         0.00000E+00
         0.00000E+00
         0.00000E+00
         0.00000E+00
         0.00000E+00
         0.00000E+00
         0.00000E+00
         0.00000E+00
         0.00000E+00
         0.00000E+00
         0.00000E+00
         0.00000E+00
         0.00000E+00
         0.00000E+00
         0.00000E+00
         0.00000E+00
         0.00000E+00
         0.00000E+00
         0.00000E+00
         0.00000E+00
         0.00000E+00
         0.00000E+00
         0.00000E+00
         0.00000E+00
         0.00000E+00
         0.00000E+00
         0.00000E+00
         0.00000E+00
         0.00000E+00
         0.00000E+00
         0.00000E+00
         0.00000E+00
         0.00000E+00
         0.00000E+00
         0.00000E+00
         0.00000E+00
         0.00000E+00
         0.00000E+00
         0.00000E+00
         0.00000E+00
         0.00000E+00
         0.00000E+00
         0.00000E+00
         0.00000E+00
         0.00000E+00
         0.00000E+00
         0.00000E+00
         0.00000E+00
         0.00000E+00
         0.00000E+00
         0.00000E+00
         0.00000E+00
         0.00000E+00
         0.00000E+00
         0.00000E+00
         0.00000E+00
         0.00000E+00
         0.00000E+00
         0.00000E+00
         0.00000E+00
         0.00000E+00
         0.00000E+00
         0.00000E+00
         0.00000E+00
         0.00000E+00
         0.00000E+00
         0.00000E+00
         0.00000E+00
         0.00000E+00
         0.00000E+00
         0.00000E+00
         0.00000E+00
         0.00000E+00
         0.00000E+00
         0.00000E+00
         0.00000E+00
         0.00000E+00
         0.00000E+00
         0.00000E+00
         0.00000E+00
         0.00000E+00
         0.00000E+00
         0.00000E+00
         0.00000E+00
         0.00000E+00
         0.00000E+00
         0.00000E+00
         0.00000E+00
         0.00000E+00
         0.00000E+00
         0.00000E+00
         0.00000E+00
         0.00000E+00
         0.00000E+00
         0.00000E+00
         0.00000E+00
         0.00000E+00
         0.00000E+00
         0.00000E+00
         0.00000E+00
         0.00000E+00
         0.00000E+00
         0.00000E+00
         0.00000E+00
         0.00000E+00
         0.00000E+00
         0.00000E+00
         0.00000E+00
         0.00000E+00
         0.00000E+00
         0.00000E+00
         0.00000E+00
         0.00000E+00
         0.00000E+00
         0.00000E+00
         0.00000E+00
         0.00000E+00
         0.00000E+00
         0.00000E+00
         0.00000E+00
         0.00000E+00
         0.00000E+00
         0.00000E+00
         0.00000E+00
         0.00000E+00
         0.00000E+00
         0.00000E+00
         0.00000E+00
         0.00000E+00
         0.00000E+00
         0.00000E+00
         0.00000E+00
         0.00000E+00
         0.00000E+00
         0.00000E+00
         0.00000E+00
         0.00000E+00
         0.00000E+00
         0.00000E+00
         0.00000E+00
         0.00000E+00
         0.00000E+00
         0.00000E+00
         0.00000E+00
         0.00000E+00
         0.00000E+00
         0.00000E+00
         0.00000E+00
         0.00000E+00
         0.00000E+00
         0.00000E+00
         0.00000E+00
         0.00000E+00
         0.00000E+00
         0.00000E+00
         0.00000E+00
         0.00000E+00
         0.00000E+00
         0.00000E+00
         0.00000E+00
         0.00000E+00
         0.00000E+00
         0.00000E+00
         0.00000E+00
         0.00000E+00
         0.00000E+00
         0.00000E+00
         0.00000E+00
         0.00000E+00
         0.00000E+00
         0.00000E+00
         0.00000E+00
         0.00000E+00
         0.00000E+00
         0.00000E+00
         0.00000E+00
         0.00000E+00
         0.00000E+00
         0.00000E+00
         0.00000E+00
         0.00000E+00
         0.00000E+00
         0.00000E+00
         0.00000E+00
         0.00000E+00
         0.00000E+00
         0.00000E+00
         0.00000E+00
         0.00000E+00
         0.00000E+00
         0.00000E+00
         0.00000E+00
         0.00000E+00
         0.00000E+00
         0.00000E+00
         0.00000E+00
         0.00000E+00
         0.00000E+00
         0.00000E+00
         0.00000E+00
         0.00000E+00
         0.00000E+00
         0.00000E+00
         0.00000E+00
         0.00000E+00
         0.00000E+00
         0.00000E+00
         0.00000E+00
         0.00000E+00
         0.00000E+00
         0.00000E+00
         0.00000E+00
         0.00000E+00
         0.00000E+00
         0.00000E+00
         0.00000E+00
         0.00000E+00
         0.00000E+00
         0.00000E+00
         0.00000E+00
         0.00000E+00
         0.00000E+00
         0.00000E+00
         0.00000E+00
         0.00000E+00
         0.00000E+00
         0.00000E+00
         0.00000E+00
         0.00000E+00
         0.00000E+00
         0.00000E+00
         0.00000E+00
         0.00000E+00
         0.00000E+00
         0.00000E+00
         0.00000E+00
         0.00000E+00
         0.00000E+00
         0.00000E+00
         0.00000E+00
         0.00000E+00
         0.00000E+00
         0.00000E+00
         0.00000E+00
         0.00000E+00
         0.00000E+00
         0.00000E+00
         0.00000E+00
         0.00000E+00
         0.00000E+00
         0.00000E+00
         0.00000E+00
         0.00000E+00
         0.00000E+00
         0.00000E+00
         0.00000E+00
         0.00000E+00
         0.00000E+00
         0.00000E+00
         0.00000E+00
         0.00000E+00
         0.00000E+00
         0.00000E+00
         0.00000E+00
         0.00000E+00
         0.00000E+00
         0.00000E+00
         0.00000E+00
         0.00000E+00
         0.00000E+00
         0.00000E+00
         0.00000E+00
         0.00000E+00
         0.00000E+00
         0.00000E+00
         0.00000E+00
         0.00000E+00
         0.00000E+00
         0.00000E+00
         0.00000E+00
         0.00000E+00
         0.00000E+00
         0.00000E+00
         0.00000E+00
         0.00000E+00
         0.00000E+00
         0.00000E+00
         0.00000E+00
         0.00000E+00
         0.00000E+00
         0.00000E+00
         0.00000E+00
         0.00000E+00
         0.00000E+00
         0.00000E+00
         0.00000E+00
         0.00000E+00
         0.00000E+00
         0.00000E+00
         0.00000E+00
         0.00000E+00
         0.00000E+00
         0.00000E+00
         0.00000E+00
         0.00000E+00
         0.00000E+00
         0.00000E+00
         0.00000E+00
         0.00000E+00
         0.00000E+00
         0.00000E+00
         0.00000E+00
         0.00000E+00
         0.00000E+00
         0.00000E+00
         0.00000E+00
         0.00000E+00
         0.00000E+00
         0.00000E+00
         0.00000E+00
         0.00000E+00
         0.00000E+00
         0.00000E+00
         0.00000E+00
         0.00000E+00
         0.00000E+00
         0.00000E+00
         0.00000E+00
         0.00000E+00
         0.00000E+00
         0.00000E+00
         0.00000E+00
         0.00000E+00
         0.00000E+00
         0.00000E+00
         0.00000E+00
         0.00000E+00
         0.00000E+00
         0.00000E+00
         0.00000E+00
         0.00000E+00
         0.00000E+00
         0.00000E+00
         0.00000E+00
         0.00000E+00
         0.00000E+00
         0.00000E+00
         0.00000E+00
         0.00000E+00
         0.00000E+00
         0.00000E+00
         0.00000E+00
         0.00000E+00
         0.00000E+00
         0.00000E+00
         0.00000E+00
         0.00000E+00
         0.00000E+00
         0.00000E+00
         0.00000E+00
         0.00000E+00
         0.00000E+00
         0.00000E+00
         0.00000E+00
         0.00000E+00
         0.00000E+00
         0.00000E+00
         0.00000E+00
         0.00000E+00
         0.00000E+00
         0.00000E+00
         0.00000E+00
         0.00000E+00
         0.00000E+00
         0.00000E+00
         0.00000E+00
         0.00000E+00
         0.00000E+00
         0.00000E+00
         0.00000E+00
         0.00000E+00
         0.00000E+00
         0.00000E+00
         0.00000E+00
         0.00000E+00
         0.00000E+00
         0.00000E+00
         0.00000E+00
         0.00000E+00
         0.00000E+00
         0.00000E+00
         0.00000E+00
         0.00000E+00
         0.00000E+00
         0.00000E+00
         0.00000E+00
         0.00000E+00
         0.00000E+00
         0.00000E+00
         0.00000E+00
         0.00000E+00
         0.00000E+00
         0.00000E+00
         0.00000E+00
         0.00000E+00
         0.00000E+00
         0.00000E+00
         0.00000E+00
         0.00000E+00
         0.00000E+00
         0.00000E+00
         0.00000E+00
         0.00000E+00
         0.00000E+00
         0.00000E+00
         0.00000E+00
         0.00000E+00
         0.00000E+00
         0.00000E+00
         0.00000E+00
         0.00000E+00
         0.00000E+00
         0.00000E+00
         0.00000E+00
         0.00000E+00
         0.00000E+00
         0.00000E+00
         0.00000E+00
         0.00000E+00
         0.00000E+00
         0.00000E+00
         0.00000E+00
         0.00000E+00
         0.00000E+00
         0.00000E+00
         0.00000E+00
         0.00000E+00
         0.00000E+00
         0.00000E+00
         0.00000E+00
         0.00000E+00
         0.00000E+00
         0.00000E+00
         0.00000E+00
         0.00000E+00
         0.00000E+00
         0.00000E+00
         0.00000E+00
         0.00000E+00
         0.00000E+00
         0.00000E+00
         0.00000E+00
         0.00000E+00
         0.00000E+00
         0.00000E+00
         0.00000E+00
         0.00000E+00
         0.00000E+00
         0.00000E+00
         0.00000E+00
         0.00000E+00
         0.00000E+00
         0.00000E+00
         0.00000E+00
         0.00000E+00
         0.00000E+00
         0.00000E+00
         0.00000E+00
         0.00000E+00
         0.00000E+00
         0.00000E+00
         0.00000E+00
         0.00000E+00
         0.00000E+00
         0.00000E+00
         0.00000E+00
         0.00000E+00
         0.00000E+00
         0.00000E+00
         0.00000E+00
         0.00000E+00
         0.00000E+00
         0.00000E+00
         0.00000E+00
         0.00000E+00
         0.00000E+00
         0.00000E+00
         0.00000E+00
         0.00000E+00
         0.00000E+00
         0.00000E+00
         0.00000E+00
         0.00000E+00
         0.00000E+00
         0.00000E+00
         0.00000E+00
         0.00000E+00
         0.00000E+00
         0.00000E+00
         0.00000E+00
         0.00000E+00
         0.00000E+00
         0.00000E+00
         0.00000E+00
         0.00000E+00
         0.00000E+00
         0.00000E+00
         0.00000E+00
         0.00000E+00
         0.00000E+00
         0.00000E+00
         0.00000E+00
         0.00000E+00
         0.00000E+00
         0.00000E+00
         0.00000E+00
         0.00000E+00
         0.00000E+00
         0.00000E+00
         0.00000E+00
         0.00000E+00
         0.00000E+00
         0.00000E+00
         0.00000E+00
         0.00000E+00
         0.00000E+00
         0.00000E+00
         0.00000E+00
         0.00000E+00
         0.00000E+00
         0.00000E+00
         0.00000E+00
         0.00000E+00
         0.00000E+00
         0.00000E+00
         0.00000E+00
         0.00000E+00
         0.00000E+00
         0.00000E+00
         0.00000E+00
         0.00000E+00
         0.00000E+00
         0.00000E+00
         0.00000E+00
         0.00000E+00
         0.00000E+00
         0.00000E+00
         0.00000E+00
         0.00000E+00
         0.00000E+00
         0.00000E+00
         0.00000E+00
         0.00000E+00
         0.00000E+00
         0.00000E+00
         0.00000E+00
         0.00000E+00
         0.00000E+00
         0.00000E+00
         0.00000E+00
         0.00000E+00
         0.00000E+00
         0.00000E+00
         0.00000E+00
         0.00000E+00
         0.00000E+00
         0.00000E+00
         0.00000E+00
         0.00000E+00
         0.00000E+00
         0.00000E+00
         0.00000E+00
         0.00000E+00
         0.00000E+00
         0.00000E+00
         0.00000E+00
         0.00000E+00
         0.00000E+00
         0.00000E+00
         0.00000E+00
         0.00000E+00
         0.00000E+00
         0.00000E+00
         0.00000E+00
         0.00000E+00
         0.00000E+00
         0.00000E+00
         0.00000E+00
         0.00000E+00
         0.00000E+00
         0.00000E+00
         0.00000E+00
         0.00000E+00
         0.00000E+00
         0.00000E+00
         0.00000E+00
         0.00000E+00
         0.00000E+00
         0.00000E+00
         0.00000E+00
         0.00000E+00
         0.00000E+00
         0.00000E+00
         0.00000E+00
         0.00000E+00
         0.00000E+00
         0.00000E+00
         0.00000E+00
         0.00000E+00
         0.00000E+00
         0.00000E+00
         0.00000E+00
         0.00000E+00
         0.00000E+00
         0.00000E+00
         0.00000E+00
         0.00000E+00
         0.00000E+00
         0.00000E+00
         0.00000E+00
         0.00000E+00
         0.00000E+00
         0.00000E+00
         0.00000E+00
         0.00000E+00
         0.00000E+00
         0.00000E+00
         0.00000E+00
         0.00000E+00
         0.00000E+00
         0.00000E+00
         0.00000E+00
         0.00000E+00
         0.00000E+00
         0.00000E+00
         0.00000E+00
         0.00000E+00
         0.00000E+00
         0.00000E+00
         0.00000E+00
         0.00000E+00
         0.00000E+00
         0.00000E+00
         0.00000E+00
         0.00000E+00
         0.00000E+00
         0.00000E+00
         0.00000E+00
         0.00000E+00
         0.00000E+00
         0.00000E+00
         0.00000E+00
         0.00000E+00
         0.00000E+00
         0.00000E+00
         0.00000E+00
         0.00000E+00
         0.00000E+00
         0.00000E+00
         0.00000E+00
         0.00000E+00
         0.00000E+00
         0.00000E+00
         0.00000E+00
         0.00000E+00
         0.00000E+00
         0.00000E+00
         0.00000E+00
         0.00000E+00
         0.00000E+00
         0.00000E+00
         0.00000E+00
         0.00000E+00
         0.00000E+00
         0.00000E+00
         0.00000E+00
         0.00000E+00
         0.00000E+00
         0.00000E+00
         0.00000E+00
         0.00000E+00
         0.00000E+00
         0.00000E+00
         0.00000E+00
         0.00000E+00
         0.00000E+00
         0.00000E+00
         0.00000E+00
         0.00000E+00
         0.00000E+00
         0.00000E+00
         0.00000E+00
         0.00000E+00
         0.00000E+00
         0.00000E+00
         0.00000E+00
         0.00000E+00
         0.00000E+00
         0.00000E+00
         0.00000E+00
         0.00000E+00
         0.00000E+00
         0.00000E+00
         0.00000E+00
         0.00000E+00
         0.00000E+00
         0.00000E+00
         0.00000E+00
         0.00000E+00
         0.00000E+00
         0.00000E+00
         0.00000E+00
         0.00000E+00
         0.00000E+00
         0.00000E+00
         0.00000E+00
         0.00000E+00
         0.00000E+00
         0.00000E+00
         0.00000E+00
         0.00000E+00
         0.00000E+00
         0.00000E+00
         0.00000E+00
         0.00000E+00
         0.00000E+00
         0.00000E+00
         0.00000E+00
         0.00000E+00
         0.00000E+00
         0.00000E+00
         0.00000E+00
         0.00000E+00
         0.00000E+00
         0.00000E+00
         0.00000E+00
         0.00000E+00
         0.00000E+00
         0.00000E+00
         0.00000E+00
         0.00000E+00
         0.00000E+00
         0.00000E+00
         0.00000E+00
         0.00000E+00
         0.00000E+00
         0.00000E+00
         0.00000E+00
         0.00000E+00
         0.00000E+00
         0.00000E+00
         0.00000E+00
         0.00000E+00
         0.00000E+00
         0.00000E+00
         0.00000E+00
         0.00000E+00
         0.00000E+00
         0.00000E+00
         0.00000E+00
         0.00000E+00
         0.00000E+00
         0.00000E+00
         0.00000E+00
         0.00000E+00
         0.00000E+00
         0.00000E+00
         0.00000E+00
         0.00000E+00
         0.00000E+00
         0.00000E+00
         0.00000E+00
         0.00000E+00
         0.00000E+00
         0.00000E+00
         0.00000E+00
         0.00000E+00
         0.00000E+00
         0.00000E+00
         0.00000E+00
         0.00000E+00
         0.00000E+00
         0.00000E+00
         0.00000E+00
         0.00000E+00
         0.00000E+00
         0.00000E+00
         0.00000E+00
         0.00000E+00
         0.00000E+00
         0.00000E+00
         0.00000E+00
         0.00000E+00
         0.00000E+00
         0.00000E+00
         0.00000E+00
         0.00000E+00
         0.00000E+00
         0.00000E+00
         0.00000E+00
         0.00000E+00
         0.00000E+00
         0.00000E+00
         0.00000E+00
         0.00000E+00
         0.00000E+00
         0.00000E+00
         0.00000E+00
         0.00000E+00
         0.00000E+00
         0.00000E+00
         0.00000E+00
         0.00000E+00
         0.00000E+00
         0.00000E+00
         0.00000E+00
         0.00000E+00
         0.00000E+00
         0.00000E+00
         0.00000E+00
         0.00000E+00
         0.00000E+00
         0.00000E+00
         0.00000E+00
         0.00000E+00
         0.00000E+00
         0.00000E+00
         0.00000E+00
         0.00000E+00
         0.00000E+00
         0.00000E+00
         0.00000E+00
         0.00000E+00
         0.00000E+00
         0.00000E+00
         0.00000E+00
         0.00000E+00
         0.00000E+00
         0.00000E+00
         0.00000E+00
         0.00000E+00
         0.00000E+00
         0.00000E+00
         0.00000E+00
         0.00000E+00
         0.00000E+00
         0.00000E+00
         0.00000E+00
         0.00000E+00
         0.00000E+00
         0.00000E+00
         0.00000E+00
         0.00000E+00
         0.00000E+00
         0.00000E+00
         0.00000E+00
         0.00000E+00
         0.00000E+00
         0.00000E+00
         0.00000E+00
         0.00000E+00
         0.00000E+00
         0.00000E+00
         0.00000E+00
         0.00000E+00
         0.00000E+00
         0.00000E+00
         0.00000E+00
         0.00000E+00
         0.00000E+00
         0.00000E+00
         0.00000E+00
         0.00000E+00
         0.00000E+00
         0.00000E+00
         0.00000E+00
         0.00000E+00
         0.00000E+00
         0.00000E+00
         0.00000E+00
         0.00000E+00
         0.00000E+00
         0.00000E+00
         0.00000E+00
         0.00000E+00
         0.00000E+00
         0.00000E+00
         0.00000E+00
         0.00000E+00
         0.00000E+00
         0.00000E+00
         0.00000E+00
         0.00000E+00
         0.00000E+00
         0.00000E+00
         0.00000E+00
         0.00000E+00
         0.00000E+00
         0.00000E+00
         0.00000E+00
         0.00000E+00
         0.00000E+00
         0.00000E+00
         0.00000E+00
         0.00000E+00
         0.00000E+00
         0.00000E+00
         0.00000E+00
         0.00000E+00
         0.00000E+00
         0.00000E+00
         0.00000E+00
         0.00000E+00
         0.00000E+00
         0.00000E+00
         0.00000E+00
         0.00000E+00
         0.00000E+00
         0.00000E+00
         0.00000E+00
         0.00000E+00
         0.00000E+00
         0.00000E+00
         0.00000E+00
         0.00000E+00
         0.00000E+00
         0.00000E+00
         0.00000E+00
         0.00000E+00
         0.00000E+00
         0.00000E+00
         0.00000E+00
         0.00000E+00
         0.00000E+00
         0.00000E+00
         0.00000E+00
         0.00000E+00
         0.00000E+00
         0.00000E+00
         0.00000E+00
         0.00000E+00
  
SCALARS                         fint_y  double 1
LOOKUP_TABLE default
         0.00000E+00
         0.00000E+00
         0.00000E+00
         0.00000E+00
         0.00000E+00
         0.00000E+00
         0.00000E+00
         0.00000E+00
         0.00000E+00
         0.00000E+00
         0.00000E+00
         0.00000E+00
         0.00000E+00
         0.00000E+00
         0.00000E+00
         0.00000E+00
         0.00000E+00
         0.00000E+00
         0.00000E+00
         0.00000E+00
         0.00000E+00
         0.00000E+00
         0.00000E+00
         0.00000E+00
         0.00000E+00
         0.00000E+00
         0.00000E+00
         0.00000E+00
         0.00000E+00
         0.00000E+00
         0.00000E+00
         0.00000E+00
         0.00000E+00
         0.00000E+00
         0.00000E+00
         0.00000E+00
         0.00000E+00
         0.00000E+00
         0.00000E+00
         0.00000E+00
         0.00000E+00
         0.00000E+00
         0.00000E+00
         0.00000E+00
         0.00000E+00
         0.00000E+00
         0.00000E+00
         0.00000E+00
         0.00000E+00
         0.00000E+00
         0.00000E+00
         0.00000E+00
         0.00000E+00
         0.00000E+00
         0.00000E+00
         0.00000E+00
         0.00000E+00
         0.00000E+00
         0.00000E+00
         0.00000E+00
         0.00000E+00
         0.00000E+00
         0.00000E+00
         0.00000E+00
         0.00000E+00
         0.00000E+00
         0.00000E+00
         0.00000E+00
         0.00000E+00
         0.00000E+00
         0.00000E+00
         0.00000E+00
         0.00000E+00
         0.00000E+00
         0.00000E+00
         0.00000E+00
         0.00000E+00
         0.00000E+00
         0.00000E+00
         0.00000E+00
         0.00000E+00
         0.00000E+00
         0.00000E+00
         0.00000E+00
         0.00000E+00
         0.00000E+00
         0.00000E+00
         0.00000E+00
         0.00000E+00
         0.00000E+00
         0.00000E+00
         0.00000E+00
         0.00000E+00
         0.00000E+00
         0.00000E+00
         0.00000E+00
         0.00000E+00
         0.00000E+00
         0.00000E+00
         0.00000E+00
         0.00000E+00
         0.00000E+00
         0.00000E+00
         0.00000E+00
         0.00000E+00
         0.00000E+00
         0.00000E+00
         0.00000E+00
         0.00000E+00
         0.00000E+00
         0.00000E+00
         0.00000E+00
         0.00000E+00
         0.00000E+00
         0.00000E+00
         0.00000E+00
         0.00000E+00
         0.00000E+00
         0.00000E+00
         0.00000E+00
         0.00000E+00
         0.00000E+00
         0.00000E+00
         0.00000E+00
         0.00000E+00
         0.00000E+00
         0.00000E+00
         0.00000E+00
         0.00000E+00
         0.00000E+00
         0.00000E+00
         0.00000E+00
         0.00000E+00
         0.00000E+00
         0.00000E+00
         0.00000E+00
         0.00000E+00
         0.00000E+00
         0.00000E+00
         0.00000E+00
         0.00000E+00
         0.00000E+00
         0.00000E+00
         0.00000E+00
         0.00000E+00
         0.00000E+00
         0.00000E+00
         0.00000E+00
         0.00000E+00
         0.00000E+00
         0.00000E+00
         0.00000E+00
         0.00000E+00
         0.00000E+00
         0.00000E+00
         0.00000E+00
         0.00000E+00
         0.00000E+00
         0.00000E+00
         0.00000E+00
         0.00000E+00
         0.00000E+00
         0.00000E+00
         0.00000E+00
         0.00000E+00
         0.00000E+00
         0.00000E+00
         0.00000E+00
         0.00000E+00
         0.00000E+00
         0.00000E+00
         0.00000E+00
         0.00000E+00
         0.00000E+00
         0.00000E+00
         0.00000E+00
         0.00000E+00
         0.00000E+00
         0.00000E+00
         0.00000E+00
         0.00000E+00
         0.00000E+00
         0.00000E+00
         0.00000E+00
         0.00000E+00
         0.00000E+00
         0.00000E+00
         0.00000E+00
         0.00000E+00
         0.00000E+00
         0.00000E+00
         0.00000E+00
         0.00000E+00
         0.00000E+00
         0.00000E+00
         0.00000E+00
         0.00000E+00
         0.00000E+00
         0.00000E+00
         0.00000E+00
         0.00000E+00
         0.00000E+00
         0.00000E+00
         0.00000E+00
         0.00000E+00
         0.00000E+00
         0.00000E+00
         0.00000E+00
         0.00000E+00
         0.00000E+00
         0.00000E+00
         0.00000E+00
         0.00000E+00
         0.00000E+00
         0.00000E+00
         0.00000E+00
         0.00000E+00
         0.00000E+00
         0.00000E+00
         0.00000E+00
         0.00000E+00
         0.00000E+00
         0.00000E+00
         0.00000E+00
         0.00000E+00
         0.00000E+00
         0.00000E+00
         0.00000E+00
         0.00000E+00
         0.00000E+00
         0.00000E+00
         0.00000E+00
         0.00000E+00
         0.00000E+00
         0.00000E+00
         0.00000E+00
         0.00000E+00
         0.00000E+00
         0.00000E+00
         0.00000E+00
         0.00000E+00
         0.00000E+00
         0.00000E+00
         0.00000E+00
         0.00000E+00
         0.00000E+00
         0.00000E+00
         0.00000E+00
         0.00000E+00
         0.00000E+00
         0.00000E+00
         0.00000E+00
         0.00000E+00
         0.00000E+00
         0.00000E+00
         0.00000E+00
         0.00000E+00
         0.00000E+00
         0.00000E+00
         0.00000E+00
         0.00000E+00
         0.00000E+00
         0.00000E+00
         0.00000E+00
         0.00000E+00
         0.00000E+00
         0.00000E+00
         0.00000E+00
         0.00000E+00
         0.00000E+00
         0.00000E+00
         0.00000E+00
         0.00000E+00
         0.00000E+00
         0.00000E+00
         0.00000E+00
         0.00000E+00
         0.00000E+00
         0.00000E+00
         0.00000E+00
         0.00000E+00
         0.00000E+00
         0.00000E+00
         0.00000E+00
         0.00000E+00
         0.00000E+00
         0.00000E+00
         0.00000E+00
         0.00000E+00
         0.00000E+00
         0.00000E+00
         0.00000E+00
         0.00000E+00
         0.00000E+00
         0.00000E+00
         0.00000E+00
         0.00000E+00
         0.00000E+00
         0.00000E+00
         0.00000E+00
         0.00000E+00
         0.00000E+00
         0.00000E+00
         0.00000E+00
         0.00000E+00
         0.00000E+00
         0.00000E+00
         0.00000E+00
         0.00000E+00
         0.00000E+00
         0.00000E+00
         0.00000E+00
         0.00000E+00
         0.00000E+00
         0.00000E+00
         0.00000E+00
         0.00000E+00
         0.00000E+00
         0.00000E+00
         0.00000E+00
         0.00000E+00
         0.00000E+00
         0.00000E+00
         0.00000E+00
         0.00000E+00
         0.00000E+00
         0.00000E+00
         0.00000E+00
         0.00000E+00
         0.00000E+00
         0.00000E+00
         0.00000E+00
         0.00000E+00
         0.00000E+00
         0.00000E+00
         0.00000E+00
         0.00000E+00
         0.00000E+00
         0.00000E+00
         0.00000E+00
         0.00000E+00
         0.00000E+00
         0.00000E+00
         0.00000E+00
         0.00000E+00
         0.00000E+00
         0.00000E+00
         0.00000E+00
         0.00000E+00
         0.00000E+00
         0.00000E+00
         0.00000E+00
         0.00000E+00
         0.00000E+00
         0.00000E+00
         0.00000E+00
         0.00000E+00
         0.00000E+00
         0.00000E+00
         0.00000E+00
         0.00000E+00
         0.00000E+00
         0.00000E+00
         0.00000E+00
         0.00000E+00
         0.00000E+00
         0.00000E+00
         0.00000E+00
         0.00000E+00
         0.00000E+00
         0.00000E+00
         0.00000E+00
         0.00000E+00
         0.00000E+00
         0.00000E+00
         0.00000E+00
         0.00000E+00
         0.00000E+00
         0.00000E+00
         0.00000E+00
         0.00000E+00
         0.00000E+00
         0.00000E+00
         0.00000E+00
         0.00000E+00
         0.00000E+00
         0.00000E+00
         0.00000E+00
         0.00000E+00
         0.00000E+00
         0.00000E+00
         0.00000E+00
         0.00000E+00
         0.00000E+00
         0.00000E+00
         0.00000E+00
         0.00000E+00
         0.00000E+00
         0.00000E+00
         0.00000E+00
         0.00000E+00
         0.00000E+00
         0.00000E+00
         0.00000E+00
         0.00000E+00
         0.00000E+00
         0.00000E+00
         0.00000E+00
         0.00000E+00
         0.00000E+00
         0.00000E+00
         0.00000E+00
         0.00000E+00
         0.00000E+00
         0.00000E+00
         0.00000E+00
         0.00000E+00
         0.00000E+00
         0.00000E+00
         0.00000E+00
         0.00000E+00
         0.00000E+00
         0.00000E+00
         0.00000E+00
         0.00000E+00
         0.00000E+00
         0.00000E+00
         0.00000E+00
         0.00000E+00
         0.00000E+00
         0.00000E+00
         0.00000E+00
         0.00000E+00
         0.00000E+00
         0.00000E+00
         0.00000E+00
         0.00000E+00
         0.00000E+00
         0.00000E+00
         0.00000E+00
         0.00000E+00
         0.00000E+00
         0.00000E+00
         0.00000E+00
         0.00000E+00
         0.00000E+00
         0.00000E+00
         0.00000E+00
         0.00000E+00
         0.00000E+00
         0.00000E+00
         0.00000E+00
         0.00000E+00
         0.00000E+00
         0.00000E+00
         0.00000E+00
         0.00000E+00
         0.00000E+00
         0.00000E+00
         0.00000E+00
         0.00000E+00
         0.00000E+00
         0.00000E+00
         0.00000E+00
         0.00000E+00
         0.00000E+00
         0.00000E+00
         0.00000E+00
         0.00000E+00
         0.00000E+00
         0.00000E+00
         0.00000E+00
         0.00000E+00
         0.00000E+00
         0.00000E+00
         0.00000E+00
         0.00000E+00
         0.00000E+00
         0.00000E+00
         0.00000E+00
         0.00000E+00
         0.00000E+00
         0.00000E+00
         0.00000E+00
         0.00000E+00
         0.00000E+00
         0.00000E+00
         0.00000E+00
         0.00000E+00
         0.00000E+00
         0.00000E+00
         0.00000E+00
         0.00000E+00
         0.00000E+00
         0.00000E+00
         0.00000E+00
         0.00000E+00
         0.00000E+00
         0.00000E+00
         0.00000E+00
         0.00000E+00
         0.00000E+00
         0.00000E+00
         0.00000E+00
         0.00000E+00
         0.00000E+00
         0.00000E+00
         0.00000E+00
         0.00000E+00
         0.00000E+00
         0.00000E+00
         0.00000E+00
         0.00000E+00
         0.00000E+00
         0.00000E+00
         0.00000E+00
         0.00000E+00
         0.00000E+00
         0.00000E+00
         0.00000E+00
         0.00000E+00
         0.00000E+00
         0.00000E+00
         0.00000E+00
         0.00000E+00
         0.00000E+00
         0.00000E+00
         0.00000E+00
         0.00000E+00
         0.00000E+00
         0.00000E+00
         0.00000E+00
         0.00000E+00
         0.00000E+00
         0.00000E+00
         0.00000E+00
         0.00000E+00
         0.00000E+00
         0.00000E+00
         0.00000E+00
         0.00000E+00
         0.00000E+00
         0.00000E+00
         0.00000E+00
         0.00000E+00
         0.00000E+00
         0.00000E+00
         0.00000E+00
         0.00000E+00
         0.00000E+00
         0.00000E+00
         0.00000E+00
         0.00000E+00
         0.00000E+00
         0.00000E+00
         0.00000E+00
         0.00000E+00
         0.00000E+00
         0.00000E+00
         0.00000E+00
         0.00000E+00
         0.00000E+00
         0.00000E+00
         0.00000E+00
         0.00000E+00
         0.00000E+00
         0.00000E+00
         0.00000E+00
         0.00000E+00
         0.00000E+00
         0.00000E+00
         0.00000E+00
         0.00000E+00
         0.00000E+00
         0.00000E+00
         0.00000E+00
         0.00000E+00
         0.00000E+00
         0.00000E+00
         0.00000E+00
         0.00000E+00
         0.00000E+00
         0.00000E+00
         0.00000E+00
         0.00000E+00
         0.00000E+00
         0.00000E+00
         0.00000E+00
         0.00000E+00
         0.00000E+00
         0.00000E+00
         0.00000E+00
         0.00000E+00
         0.00000E+00
         0.00000E+00
         0.00000E+00
         0.00000E+00
         0.00000E+00
         0.00000E+00
         0.00000E+00
         0.00000E+00
         0.00000E+00
         0.00000E+00
         0.00000E+00
         0.00000E+00
         0.00000E+00
         0.00000E+00
         0.00000E+00
         0.00000E+00
         0.00000E+00
         0.00000E+00
         0.00000E+00
         0.00000E+00
         0.00000E+00
         0.00000E+00
         0.00000E+00
         0.00000E+00
         0.00000E+00
         0.00000E+00
         0.00000E+00
         0.00000E+00
         0.00000E+00
         0.00000E+00
         0.00000E+00
         0.00000E+00
         0.00000E+00
         0.00000E+00
         0.00000E+00
         0.00000E+00
         0.00000E+00
         0.00000E+00
         0.00000E+00
         0.00000E+00
         0.00000E+00
         0.00000E+00
         0.00000E+00
         0.00000E+00
         0.00000E+00
         0.00000E+00
         0.00000E+00
         0.00000E+00
         0.00000E+00
         0.00000E+00
         0.00000E+00
         0.00000E+00
         0.00000E+00
         0.00000E+00
         0.00000E+00
         0.00000E+00
         0.00000E+00
         0.00000E+00
         0.00000E+00
         0.00000E+00
         0.00000E+00
         0.00000E+00
         0.00000E+00
         0.00000E+00
         0.00000E+00
         0.00000E+00
         0.00000E+00
         0.00000E+00
         0.00000E+00
         0.00000E+00
         0.00000E+00
         0.00000E+00
         0.00000E+00
         0.00000E+00
         0.00000E+00
         0.00000E+00
         0.00000E+00
         0.00000E+00
         0.00000E+00
         0.00000E+00
         0.00000E+00
         0.00000E+00
         0.00000E+00
         0.00000E+00
         0.00000E+00
         0.00000E+00
         0.00000E+00
         0.00000E+00
         0.00000E+00
         0.00000E+00
         0.00000E+00
         0.00000E+00
         0.00000E+00
         0.00000E+00
         0.00000E+00
         0.00000E+00
         0.00000E+00
         0.00000E+00
         0.00000E+00
         0.00000E+00
         0.00000E+00
         0.00000E+00
         0.00000E+00
         0.00000E+00
         0.00000E+00
         0.00000E+00
         0.00000E+00
         0.00000E+00
         0.00000E+00
         0.00000E+00
         0.00000E+00
         0.00000E+00
         0.00000E+00
         0.00000E+00
         0.00000E+00
         0.00000E+00
         0.00000E+00
         0.00000E+00
         0.00000E+00
         0.00000E+00
         0.00000E+00
         0.00000E+00
         0.00000E+00
         0.00000E+00
         0.00000E+00
         0.00000E+00
         0.00000E+00
         0.00000E+00
         0.00000E+00
         0.00000E+00
         0.00000E+00
         0.00000E+00
         0.00000E+00
         0.00000E+00
         0.00000E+00
         0.00000E+00
         0.00000E+00
         0.00000E+00
         0.00000E+00
         0.00000E+00
         0.00000E+00
         0.00000E+00
         0.00000E+00
         0.00000E+00
         0.00000E+00
         0.00000E+00
         0.00000E+00
         0.00000E+00
         0.00000E+00
         0.00000E+00
         0.00000E+00
         0.00000E+00
         0.00000E+00
         0.00000E+00
         0.00000E+00
         0.00000E+00
         0.00000E+00
         0.00000E+00
         0.00000E+00
         0.00000E+00
         0.00000E+00
         0.00000E+00
         0.00000E+00
         0.00000E+00
         0.00000E+00
         0.00000E+00
         0.00000E+00
         0.00000E+00
         0.00000E+00
         0.00000E+00
         0.00000E+00
         0.00000E+00
         0.00000E+00
         0.00000E+00
         0.00000E+00
         0.00000E+00
         0.00000E+00
         0.00000E+00
         0.00000E+00
         0.00000E+00
         0.00000E+00
         0.00000E+00
         0.00000E+00
         0.00000E+00
         0.00000E+00
         0.00000E+00
         0.00000E+00
         0.00000E+00
         0.00000E+00
         0.00000E+00
         0.00000E+00
         0.00000E+00
         0.00000E+00
         0.00000E+00
         0.00000E+00
         0.00000E+00
         0.00000E+00
         0.00000E+00
         0.00000E+00
         0.00000E+00
         0.00000E+00
         0.00000E+00
         0.00000E+00
         0.00000E+00
         0.00000E+00
         0.00000E+00
         0.00000E+00
         0.00000E+00
         0.00000E+00
         0.00000E+00
         0.00000E+00
         0.00000E+00
         0.00000E+00
         0.00000E+00
         0.00000E+00
         0.00000E+00
         0.00000E+00
         0.00000E+00
         0.00000E+00
         0.00000E+00
         0.00000E+00
         0.00000E+00
         0.00000E+00
         0.00000E+00
         0.00000E+00
         0.00000E+00
         0.00000E+00
         0.00000E+00
         0.00000E+00
         0.00000E+00
         0.00000E+00
         0.00000E+00
         0.00000E+00
         0.00000E+00
         0.00000E+00
         0.00000E+00
         0.00000E+00
         0.00000E+00
         0.00000E+00
         0.00000E+00
         0.00000E+00
         0.00000E+00
         0.00000E+00
         0.00000E+00
         0.00000E+00
         0.00000E+00
         0.00000E+00
         0.00000E+00
         0.00000E+00
         0.00000E+00
         0.00000E+00
         0.00000E+00
         0.00000E+00
         0.00000E+00
         0.00000E+00
         0.00000E+00
         0.00000E+00
         0.00000E+00
         0.00000E+00
         0.00000E+00
         0.00000E+00
         0.00000E+00
         0.00000E+00
         0.00000E+00
         0.00000E+00
         0.00000E+00
         0.00000E+00
         0.00000E+00
         0.00000E+00
         0.00000E+00
         0.00000E+00
         0.00000E+00
         0.00000E+00
         0.00000E+00
         0.00000E+00
         0.00000E+00
         0.00000E+00
         0.00000E+00
         0.00000E+00
         0.00000E+00
         0.00000E+00
         0.00000E+00
         0.00000E+00
         0.00000E+00
         0.00000E+00
         0.00000E+00
         0.00000E+00
         0.00000E+00
         0.00000E+00
         0.00000E+00
         0.00000E+00
         0.00000E+00
         0.00000E+00
         0.00000E+00
         0.00000E+00
         0.00000E+00
         0.00000E+00
         0.00000E+00
         0.00000E+00
         0.00000E+00
         0.00000E+00
         0.00000E+00
         0.00000E+00
         0.00000E+00
         0.00000E+00
         0.00000E+00
         0.00000E+00
         0.00000E+00
         0.00000E+00
         0.00000E+00
         0.00000E+00
         0.00000E+00
         0.00000E+00
         0.00000E+00
         0.00000E+00
         0.00000E+00
         0.00000E+00
         0.00000E+00
         0.00000E+00
         0.00000E+00
         0.00000E+00
         0.00000E+00
         0.00000E+00
         0.00000E+00
         0.00000E+00
         0.00000E+00
         0.00000E+00
         0.00000E+00
         0.00000E+00
         0.00000E+00
         0.00000E+00
         0.00000E+00
         0.00000E+00
         0.00000E+00
         0.00000E+00
         0.00000E+00
         0.00000E+00
         0.00000E+00
         0.00000E+00
         0.00000E+00
         0.00000E+00
         0.00000E+00
         0.00000E+00
         0.00000E+00
         0.00000E+00
         0.00000E+00
         0.00000E+00
         0.00000E+00
         0.00000E+00
         0.00000E+00
         0.00000E+00
         0.00000E+00
         0.00000E+00
         0.00000E+00
         0.00000E+00
         0.00000E+00
         0.00000E+00
         0.00000E+00
         0.00000E+00
         0.00000E+00
         0.00000E+00
         0.00000E+00
         0.00000E+00
         0.00000E+00
         0.00000E+00
         0.00000E+00
         0.00000E+00
         0.00000E+00
         0.00000E+00
         0.00000E+00
         0.00000E+00
         0.00000E+00
         0.00000E+00
         0.00000E+00
         0.00000E+00
         0.00000E+00
         0.00000E+00
         0.00000E+00
         0.00000E+00
         0.00000E+00
         0.00000E+00
         0.00000E+00
         0.00000E+00
         0.00000E+00
         0.00000E+00
         0.00000E+00
         0.00000E+00
         0.00000E+00
         0.00000E+00
         0.00000E+00
         0.00000E+00
         0.00000E+00
         0.00000E+00
         0.00000E+00
         0.00000E+00
         0.00000E+00
         0.00000E+00
         0.00000E+00
         0.00000E+00
         0.00000E+00
         0.00000E+00
         0.00000E+00
         0.00000E+00
         0.00000E+00
         0.00000E+00
         0.00000E+00
         0.00000E+00
         0.00000E+00
         0.00000E+00
         0.00000E+00
         0.00000E+00
         0.00000E+00
         0.00000E+00
         0.00000E+00
         0.00000E+00
         0.00000E+00
         0.00000E+00
         0.00000E+00
         0.00000E+00
         0.00000E+00
         0.00000E+00
         0.00000E+00
         0.00000E+00
         0.00000E+00
         0.00000E+00
         0.00000E+00
         0.00000E+00
         0.00000E+00
         0.00000E+00
         0.00000E+00
         0.00000E+00
         0.00000E+00
         0.00000E+00
         0.00000E+00
         0.00000E+00
         0.00000E+00
         0.00000E+00
         0.00000E+00
         0.00000E+00
         0.00000E+00
         0.00000E+00
         0.00000E+00
         0.00000E+00
         0.00000E+00
         0.00000E+00
         0.00000E+00
         0.00000E+00
         0.00000E+00
         0.00000E+00
         0.00000E+00
         0.00000E+00
         0.00000E+00
         0.00000E+00
         0.00000E+00
         0.00000E+00
         0.00000E+00
         0.00000E+00
         0.00000E+00
         0.00000E+00
         0.00000E+00
         0.00000E+00
         0.00000E+00
         0.00000E+00
         0.00000E+00
         0.00000E+00
         0.00000E+00
         0.00000E+00
         0.00000E+00
         0.00000E+00
         0.00000E+00
         0.00000E+00
         0.00000E+00
         0.00000E+00
         0.00000E+00
         0.00000E+00
         0.00000E+00
         0.00000E+00
         0.00000E+00
         0.00000E+00
         0.00000E+00
         0.00000E+00
         0.00000E+00
         0.00000E+00
         0.00000E+00
         0.00000E+00
         0.00000E+00
         0.00000E+00
         0.00000E+00
         0.00000E+00
         0.00000E+00
         0.00000E+00
         0.00000E+00
         0.00000E+00
         0.00000E+00
         0.00000E+00
         0.00000E+00
         0.00000E+00
         0.00000E+00
         0.00000E+00
         0.00000E+00
         0.00000E+00
         0.00000E+00
         0.00000E+00
         0.00000E+00
         0.00000E+00
         0.00000E+00
         0.00000E+00
         0.00000E+00
         0.00000E+00
         0.00000E+00
         0.00000E+00
         0.00000E+00
         0.00000E+00
         0.00000E+00
         0.00000E+00
         0.00000E+00
         0.00000E+00
         0.00000E+00
         0.00000E+00
         0.00000E+00
         0.00000E+00
         0.00000E+00
         0.00000E+00
         0.00000E+00
         0.00000E+00
         0.00000E+00
         0.00000E+00
         0.00000E+00
         0.00000E+00
         0.00000E+00
         0.00000E+00
         0.00000E+00
         0.00000E+00
         0.00000E+00
         0.00000E+00
         0.00000E+00
         0.00000E+00
         0.00000E+00
         0.00000E+00
         0.00000E+00
         0.00000E+00
         0.00000E+00
         0.00000E+00
         0.00000E+00
         0.00000E+00
         0.00000E+00
         0.00000E+00
         0.00000E+00
         0.00000E+00
         0.00000E+00
         0.00000E+00
         0.00000E+00
         0.00000E+00
         0.00000E+00
         0.00000E+00
         0.00000E+00
         0.00000E+00
         0.00000E+00
         0.00000E+00
         0.00000E+00
         0.00000E+00
         0.00000E+00
         0.00000E+00
         0.00000E+00
         0.00000E+00
         0.00000E+00
         0.00000E+00
         0.00000E+00
         0.00000E+00
         0.00000E+00
         0.00000E+00
         0.00000E+00
         0.00000E+00
         0.00000E+00
         0.00000E+00
         0.00000E+00
         0.00000E+00
         0.00000E+00
         0.00000E+00
         0.00000E+00
         0.00000E+00
         0.00000E+00
         0.00000E+00
         0.00000E+00
         0.00000E+00
         0.00000E+00
         0.00000E+00
         0.00000E+00
         0.00000E+00
         0.00000E+00
         0.00000E+00
         0.00000E+00
         0.00000E+00
         0.00000E+00
         0.00000E+00
         0.00000E+00
         0.00000E+00
         0.00000E+00
         0.00000E+00
         0.00000E+00
         0.00000E+00
         0.00000E+00
         0.00000E+00
         0.00000E+00
         0.00000E+00
         0.00000E+00
         0.00000E+00
         0.00000E+00
         0.00000E+00
         0.00000E+00
         0.00000E+00
         0.00000E+00
         0.00000E+00
         0.00000E+00
         0.00000E+00
         0.00000E+00
         0.00000E+00
         0.00000E+00
         0.00000E+00
         0.00000E+00
         0.00000E+00
         0.00000E+00
         0.00000E+00
         0.00000E+00
         0.00000E+00
         0.00000E+00
         0.00000E+00
         0.00000E+00
         0.00000E+00
         0.00000E+00
         0.00000E+00
         0.00000E+00
         0.00000E+00
         0.00000E+00
         0.00000E+00
         0.00000E+00
         0.00000E+00
         0.00000E+00
         0.00000E+00
         0.00000E+00
         0.00000E+00
         0.00000E+00
         0.00000E+00
         0.00000E+00
         0.00000E+00
         0.00000E+00
         0.00000E+00
         0.00000E+00
         0.00000E+00
         0.00000E+00
         0.00000E+00
         0.00000E+00
         0.00000E+00
         0.00000E+00
         0.00000E+00
         0.00000E+00
         0.00000E+00
         0.00000E+00
         0.00000E+00
         0.00000E+00
         0.00000E+00
         0.00000E+00
         0.00000E+00
         0.00000E+00
         0.00000E+00
         0.00000E+00
         0.00000E+00
         0.00000E+00
         0.00000E+00
         0.00000E+00
         0.00000E+00
         0.00000E+00
         0.00000E+00
         0.00000E+00
         0.00000E+00
         0.00000E+00
         0.00000E+00
         0.00000E+00
         0.00000E+00
         0.00000E+00
         0.00000E+00
         0.00000E+00
         0.00000E+00
         0.00000E+00
         0.00000E+00
         0.00000E+00
         0.00000E+00
         0.00000E+00
         0.00000E+00
         0.00000E+00
         0.00000E+00
         0.00000E+00
         0.00000E+00
         0.00000E+00
         0.00000E+00
         0.00000E+00
         0.00000E+00
         0.00000E+00
         0.00000E+00
         0.00000E+00
         0.00000E+00
         0.00000E+00
         0.00000E+00
         0.00000E+00
         0.00000E+00
         0.00000E+00
         0.00000E+00
         0.00000E+00
         0.00000E+00
         0.00000E+00
         0.00000E+00
         0.00000E+00
         0.00000E+00
         0.00000E+00
         0.00000E+00
         0.00000E+00
         0.00000E+00
         0.00000E+00
         0.00000E+00
         0.00000E+00
         0.00000E+00
         0.00000E+00
         0.00000E+00
         0.00000E+00
         0.00000E+00
         0.00000E+00
         0.00000E+00
         0.00000E+00
         0.00000E+00
         0.00000E+00
         0.00000E+00
         0.00000E+00
         0.00000E+00
         0.00000E+00
         0.00000E+00
         0.00000E+00
         0.00000E+00
         0.00000E+00
         0.00000E+00
         0.00000E+00
         0.00000E+00
         0.00000E+00
         0.00000E+00
         0.00000E+00
         0.00000E+00
         0.00000E+00
         0.00000E+00
         0.00000E+00
         0.00000E+00
         0.00000E+00
         0.00000E+00
         0.00000E+00
         0.00000E+00
         0.00000E+00
         0.00000E+00
         0.00000E+00
         0.00000E+00
         0.00000E+00
         0.00000E+00
         0.00000E+00
         0.00000E+00
         0.00000E+00
         0.00000E+00
         0.00000E+00
         0.00000E+00
         0.00000E+00
         0.00000E+00
         0.00000E+00
         0.00000E+00
         0.00000E+00
         0.00000E+00
         0.00000E+00
         0.00000E+00
         0.00000E+00
         0.00000E+00
         0.00000E+00
         0.00000E+00
         0.00000E+00
         0.00000E+00
         0.00000E+00
         0.00000E+00
         0.00000E+00
         0.00000E+00
         0.00000E+00
         0.00000E+00
         0.00000E+00
         0.00000E+00
         0.00000E+00
         0.00000E+00
         0.00000E+00
         0.00000E+00
         0.00000E+00
         0.00000E+00
         0.00000E+00
         0.00000E+00
         0.00000E+00
         0.00000E+00
         0.00000E+00
         0.00000E+00
         0.00000E+00
         0.00000E+00
         0.00000E+00
         0.00000E+00
         0.00000E+00
         0.00000E+00
         0.00000E+00
         0.00000E+00
         0.00000E+00
         0.00000E+00
         0.00000E+00
         0.00000E+00
         0.00000E+00
         0.00000E+00
         0.00000E+00
         0.00000E+00
         0.00000E+00
         0.00000E+00
         0.00000E+00
         0.00000E+00
         0.00000E+00
         0.00000E+00
         0.00000E+00
         0.00000E+00
         0.00000E+00
         0.00000E+00
         0.00000E+00
         0.00000E+00
         0.00000E+00
         0.00000E+00
         0.00000E+00
         0.00000E+00
         0.00000E+00
         0.00000E+00
         0.00000E+00
         0.00000E+00
         0.00000E+00
         0.00000E+00
         0.00000E+00
         0.00000E+00
         0.00000E+00
         0.00000E+00
         0.00000E+00
         0.00000E+00
         0.00000E+00
         0.00000E+00
         0.00000E+00
         0.00000E+00
         0.00000E+00
         0.00000E+00
         0.00000E+00
         0.00000E+00
         0.00000E+00
         0.00000E+00
         0.00000E+00
         0.00000E+00
         0.00000E+00
         0.00000E+00
         0.00000E+00
         0.00000E+00
         0.00000E+00
         0.00000E+00
         0.00000E+00
         0.00000E+00
         0.00000E+00
         0.00000E+00
         0.00000E+00
         0.00000E+00
         0.00000E+00
         0.00000E+00
         0.00000E+00
         0.00000E+00
         0.00000E+00
         0.00000E+00
         0.00000E+00
         0.00000E+00
         0.00000E+00
         0.00000E+00
         0.00000E+00
         0.00000E+00
         0.00000E+00
         0.00000E+00
         0.00000E+00
         0.00000E+00
         0.00000E+00
         0.00000E+00
         0.00000E+00
         0.00000E+00
         0.00000E+00
         0.00000E+00
         0.00000E+00
         0.00000E+00
         0.00000E+00
         0.00000E+00
         0.00000E+00
         0.00000E+00
         0.00000E+00
         0.00000E+00
         0.00000E+00
         0.00000E+00
         0.00000E+00
         0.00000E+00
         0.00000E+00
         0.00000E+00
         0.00000E+00
         0.00000E+00
         0.00000E+00
         0.00000E+00
         0.00000E+00
         0.00000E+00
         0.00000E+00
         0.00000E+00
         0.00000E+00
         0.00000E+00
         0.00000E+00
         0.00000E+00
         0.00000E+00
         0.00000E+00
         0.00000E+00
         0.00000E+00
         0.00000E+00
         0.00000E+00
         0.00000E+00
         0.00000E+00
         0.00000E+00
         0.00000E+00
         0.00000E+00
         0.00000E+00
         0.00000E+00
         0.00000E+00
         0.00000E+00
         0.00000E+00
         0.00000E+00
         0.00000E+00
         0.00000E+00
         0.00000E+00
         0.00000E+00
         0.00000E+00
         0.00000E+00
         0.00000E+00
         0.00000E+00
         0.00000E+00
         0.00000E+00
         0.00000E+00
         0.00000E+00
         0.00000E+00
         0.00000E+00
         0.00000E+00
         0.00000E+00
         0.00000E+00
         0.00000E+00
         0.00000E+00
         0.00000E+00
         0.00000E+00
         0.00000E+00
         0.00000E+00
         0.00000E+00
         0.00000E+00
         0.00000E+00
         0.00000E+00
         0.00000E+00
         0.00000E+00
         0.00000E+00
         0.00000E+00
         0.00000E+00
         0.00000E+00
         0.00000E+00
         0.00000E+00
         0.00000E+00
         0.00000E+00
         0.00000E+00
         0.00000E+00
         0.00000E+00
         0.00000E+00
         0.00000E+00
         0.00000E+00
         0.00000E+00
         0.00000E+00
         0.00000E+00
         0.00000E+00
         0.00000E+00
         0.00000E+00
         0.00000E+00
         0.00000E+00
         0.00000E+00
         0.00000E+00
         0.00000E+00
         0.00000E+00
         0.00000E+00
         0.00000E+00
         0.00000E+00
         0.00000E+00
         0.00000E+00
         0.00000E+00
         0.00000E+00
         0.00000E+00
         0.00000E+00
         0.00000E+00
         0.00000E+00
         0.00000E+00
         0.00000E+00
         0.00000E+00
         0.00000E+00
         0.00000E+00
         0.00000E+00
         0.00000E+00
         0.00000E+00
         0.00000E+00
         0.00000E+00
         0.00000E+00
         0.00000E+00
         0.00000E+00
         0.00000E+00
         0.00000E+00
         0.00000E+00
         0.00000E+00
         0.00000E+00
         0.00000E+00
         0.00000E+00
         0.00000E+00
         0.00000E+00
         0.00000E+00
         0.00000E+00
         0.00000E+00
         0.00000E+00
         0.00000E+00
         0.00000E+00
         0.00000E+00
         0.00000E+00
         0.00000E+00
         0.00000E+00
         0.00000E+00
         0.00000E+00
         0.00000E+00
         0.00000E+00
         0.00000E+00
         0.00000E+00
         0.00000E+00
         0.00000E+00
         0.00000E+00
         0.00000E+00
         0.00000E+00
         0.00000E+00
         0.00000E+00
         0.00000E+00
         0.00000E+00
         0.00000E+00
         0.00000E+00
         0.00000E+00
         0.00000E+00
         0.00000E+00
         0.00000E+00
         0.00000E+00
         0.00000E+00
         0.00000E+00
         0.00000E+00
         0.00000E+00
         0.00000E+00
         0.00000E+00
         0.00000E+00
         0.00000E+00
         0.00000E+00
         0.00000E+00
         0.00000E+00
         0.00000E+00
         0.00000E+00
         0.00000E+00
         0.00000E+00
         0.00000E+00
         0.00000E+00
         0.00000E+00
         0.00000E+00
         0.00000E+00
         0.00000E+00
         0.00000E+00
         0.00000E+00
         0.00000E+00
         0.00000E+00
         0.00000E+00
         0.00000E+00
         0.00000E+00
         0.00000E+00
         0.00000E+00
         0.00000E+00
         0.00000E+00
         0.00000E+00
         0.00000E+00
         0.00000E+00
         0.00000E+00
         0.00000E+00
         0.00000E+00
         0.00000E+00
         0.00000E+00
         0.00000E+00
         0.00000E+00
         0.00000E+00
         0.00000E+00
         0.00000E+00
         0.00000E+00
         0.00000E+00
         0.00000E+00
         0.00000E+00
         0.00000E+00
         0.00000E+00
         0.00000E+00
         0.00000E+00
         0.00000E+00
         0.00000E+00
         0.00000E+00
         0.00000E+00
         0.00000E+00
         0.00000E+00
         0.00000E+00
         0.00000E+00
         0.00000E+00
         0.00000E+00
         0.00000E+00
         0.00000E+00
         0.00000E+00
         0.00000E+00
         0.00000E+00
         0.00000E+00
         0.00000E+00
         0.00000E+00
         0.00000E+00
         0.00000E+00
         0.00000E+00
         0.00000E+00
         0.00000E+00
         0.00000E+00
         0.00000E+00
         0.00000E+00
         0.00000E+00
         0.00000E+00
         0.00000E+00
         0.00000E+00
         0.00000E+00
         0.00000E+00
         0.00000E+00
         0.00000E+00
         0.00000E+00
         0.00000E+00
         0.00000E+00
         0.00000E+00
         0.00000E+00
         0.00000E+00
         0.00000E+00
         0.00000E+00
         0.00000E+00
         0.00000E+00
         0.00000E+00
         0.00000E+00
         0.00000E+00
         0.00000E+00
         0.00000E+00
         0.00000E+00
         0.00000E+00
         0.00000E+00
         0.00000E+00
         0.00000E+00
         0.00000E+00
         0.00000E+00
         0.00000E+00
         0.00000E+00
         0.00000E+00
         0.00000E+00
         0.00000E+00
         0.00000E+00
         0.00000E+00
         0.00000E+00
         0.00000E+00
         0.00000E+00
         0.00000E+00
         0.00000E+00
         0.00000E+00
         0.00000E+00
         0.00000E+00
         0.00000E+00
         0.00000E+00
         0.00000E+00
         0.00000E+00
         0.00000E+00
         0.00000E+00
         0.00000E+00
         0.00000E+00
         0.00000E+00
         0.00000E+00
         0.00000E+00
         0.00000E+00
         0.00000E+00
         0.00000E+00
         0.00000E+00
         0.00000E+00
         0.00000E+00
         0.00000E+00
         0.00000E+00
         0.00000E+00
         0.00000E+00
         0.00000E+00
         0.00000E+00
         0.00000E+00
         0.00000E+00
         0.00000E+00
         0.00000E+00
         0.00000E+00
         0.00000E+00
         0.00000E+00
         0.00000E+00
         0.00000E+00
         0.00000E+00
         0.00000E+00
         0.00000E+00
         0.00000E+00
         0.00000E+00
         0.00000E+00
         0.00000E+00
         0.00000E+00
         0.00000E+00
         0.00000E+00
         0.00000E+00
         0.00000E+00
         0.00000E+00
         0.00000E+00
         0.00000E+00
         0.00000E+00
         0.00000E+00
         0.00000E+00
         0.00000E+00
         0.00000E+00
         0.00000E+00
         0.00000E+00
         0.00000E+00
         0.00000E+00
         0.00000E+00
         0.00000E+00
         0.00000E+00
         0.00000E+00
         0.00000E+00
         0.00000E+00
         0.00000E+00
         0.00000E+00
         0.00000E+00
         0.00000E+00
         0.00000E+00
         0.00000E+00
         0.00000E+00
         0.00000E+00
         0.00000E+00
         0.00000E+00
         0.00000E+00
         0.00000E+00
         0.00000E+00
         0.00000E+00
         0.00000E+00
         0.00000E+00
         0.00000E+00
         0.00000E+00
         0.00000E+00
         0.00000E+00
         0.00000E+00
         0.00000E+00
         0.00000E+00
         0.00000E+00
         0.00000E+00
         0.00000E+00
         0.00000E+00
         0.00000E+00
         0.00000E+00
         0.00000E+00
         0.00000E+00
         0.00000E+00
         0.00000E+00
         0.00000E+00
         0.00000E+00
         0.00000E+00
         0.00000E+00
         0.00000E+00
         0.00000E+00
         0.00000E+00
         0.00000E+00
         0.00000E+00
         0.00000E+00
         0.00000E+00
         0.00000E+00
         0.00000E+00
         0.00000E+00
         0.00000E+00
         0.00000E+00
         0.00000E+00
         0.00000E+00
         0.00000E+00
         0.00000E+00
         0.00000E+00
         0.00000E+00
         0.00000E+00
         0.00000E+00
         0.00000E+00
         0.00000E+00
         0.00000E+00
         0.00000E+00
         0.00000E+00
         0.00000E+00
         0.00000E+00
         0.00000E+00
         0.00000E+00
         0.00000E+00
         0.00000E+00
         0.00000E+00
         0.00000E+00
         0.00000E+00
         0.00000E+00
         0.00000E+00
         0.00000E+00
         0.00000E+00
         0.00000E+00
         0.00000E+00
         0.00000E+00
         0.00000E+00
         0.00000E+00
         0.00000E+00
         0.00000E+00
         0.00000E+00
         0.00000E+00
         0.00000E+00
         0.00000E+00
         0.00000E+00
         0.00000E+00
         0.00000E+00
         0.00000E+00
         0.00000E+00
         0.00000E+00
         0.00000E+00
         0.00000E+00
         0.00000E+00
         0.00000E+00
         0.00000E+00
         0.00000E+00
         0.00000E+00
         0.00000E+00
         0.00000E+00
         0.00000E+00
         0.00000E+00
         0.00000E+00
         0.00000E+00
         0.00000E+00
         0.00000E+00
         0.00000E+00
         0.00000E+00
         0.00000E+00
         0.00000E+00
         0.00000E+00
         0.00000E+00
         0.00000E+00
         0.00000E+00
         0.00000E+00
         0.00000E+00
         0.00000E+00
         0.00000E+00
  
SCALARS                         fint_z  double 1
LOOKUP_TABLE default
         0.00000E+00
         0.00000E+00
         0.00000E+00
         0.00000E+00
         0.00000E+00
         0.00000E+00
         0.00000E+00
         0.00000E+00
         0.00000E+00
         0.00000E+00
         0.00000E+00
         0.00000E+00
         0.00000E+00
         0.00000E+00
         0.00000E+00
         0.00000E+00
         0.00000E+00
         0.00000E+00
         0.00000E+00
         0.00000E+00
         0.00000E+00
         0.00000E+00
         0.00000E+00
         0.00000E+00
         0.00000E+00
         0.00000E+00
         0.00000E+00
         0.00000E+00
         0.00000E+00
         0.00000E+00
         0.00000E+00
         0.00000E+00
         0.00000E+00
         0.00000E+00
         0.00000E+00
         0.00000E+00
         0.00000E+00
         0.00000E+00
         0.00000E+00
         0.00000E+00
         0.00000E+00
         0.00000E+00
         0.00000E+00
         0.00000E+00
         0.00000E+00
         0.00000E+00
         0.00000E+00
         0.00000E+00
         0.00000E+00
         0.00000E+00
         0.00000E+00
         0.00000E+00
         0.00000E+00
         0.00000E+00
         0.00000E+00
         0.00000E+00
         0.00000E+00
         0.00000E+00
         0.00000E+00
         0.00000E+00
         0.00000E+00
         0.00000E+00
         0.00000E+00
         0.00000E+00
         0.00000E+00
         0.00000E+00
         0.00000E+00
         0.00000E+00
         0.00000E+00
         0.00000E+00
         0.00000E+00
         0.00000E+00
         0.00000E+00
         0.00000E+00
         0.00000E+00
         0.00000E+00
         0.00000E+00
         0.00000E+00
         0.00000E+00
         0.00000E+00
         0.00000E+00
         0.00000E+00
         0.00000E+00
         0.00000E+00
         0.00000E+00
         0.00000E+00
         0.00000E+00
         0.00000E+00
         0.00000E+00
         0.00000E+00
         0.00000E+00
         0.00000E+00
         0.00000E+00
         0.00000E+00
         0.00000E+00
         0.00000E+00
         0.00000E+00
         0.00000E+00
         0.00000E+00
         0.00000E+00
         0.00000E+00
         0.00000E+00
         0.00000E+00
         0.00000E+00
         0.00000E+00
         0.00000E+00
         0.00000E+00
         0.00000E+00
         0.00000E+00
         0.00000E+00
         0.00000E+00
         0.00000E+00
         0.00000E+00
         0.00000E+00
         0.00000E+00
         0.00000E+00
         0.00000E+00
         0.00000E+00
         0.00000E+00
         0.00000E+00
         0.00000E+00
         0.00000E+00
         0.00000E+00
         0.00000E+00
         0.00000E+00
         0.00000E+00
         0.00000E+00
         0.00000E+00
         0.00000E+00
         0.00000E+00
         0.00000E+00
         0.00000E+00
         0.00000E+00
         0.00000E+00
         0.00000E+00
         0.00000E+00
         0.00000E+00
         0.00000E+00
         0.00000E+00
         0.00000E+00
         0.00000E+00
         0.00000E+00
         0.00000E+00
         0.00000E+00
         0.00000E+00
         0.00000E+00
         0.00000E+00
         0.00000E+00
         0.00000E+00
         0.00000E+00
         0.00000E+00
         0.00000E+00
         0.00000E+00
         0.00000E+00
         0.00000E+00
         0.00000E+00
         0.00000E+00
         0.00000E+00
         0.00000E+00
         0.00000E+00
         0.00000E+00
         0.00000E+00
         0.00000E+00
         0.00000E+00
         0.00000E+00
         0.00000E+00
         0.00000E+00
         0.00000E+00
         0.00000E+00
         0.00000E+00
         0.00000E+00
         0.00000E+00
         0.00000E+00
         0.00000E+00
         0.00000E+00
         0.00000E+00
         0.00000E+00
         0.00000E+00
         0.00000E+00
         0.00000E+00
         0.00000E+00
         0.00000E+00
         0.00000E+00
         0.00000E+00
         0.00000E+00
         0.00000E+00
         0.00000E+00
         0.00000E+00
         0.00000E+00
         0.00000E+00
         0.00000E+00
         0.00000E+00
         0.00000E+00
         0.00000E+00
         0.00000E+00
         0.00000E+00
         0.00000E+00
         0.00000E+00
         0.00000E+00
         0.00000E+00
         0.00000E+00
         0.00000E+00
         0.00000E+00
         0.00000E+00
         0.00000E+00
         0.00000E+00
         0.00000E+00
         0.00000E+00
         0.00000E+00
         0.00000E+00
         0.00000E+00
         0.00000E+00
         0.00000E+00
         0.00000E+00
         0.00000E+00
         0.00000E+00
         0.00000E+00
         0.00000E+00
         0.00000E+00
         0.00000E+00
         0.00000E+00
         0.00000E+00
         0.00000E+00
         0.00000E+00
         0.00000E+00
         0.00000E+00
         0.00000E+00
         0.00000E+00
         0.00000E+00
         0.00000E+00
         0.00000E+00
         0.00000E+00
         0.00000E+00
         0.00000E+00
         0.00000E+00
         0.00000E+00
         0.00000E+00
         0.00000E+00
         0.00000E+00
         0.00000E+00
         0.00000E+00
         0.00000E+00
         0.00000E+00
         0.00000E+00
         0.00000E+00
         0.00000E+00
         0.00000E+00
         0.00000E+00
         0.00000E+00
         0.00000E+00
         0.00000E+00
         0.00000E+00
         0.00000E+00
         0.00000E+00
         0.00000E+00
         0.00000E+00
         0.00000E+00
         0.00000E+00
         0.00000E+00
         0.00000E+00
         0.00000E+00
         0.00000E+00
         0.00000E+00
         0.00000E+00
         0.00000E+00
         0.00000E+00
         0.00000E+00
         0.00000E+00
         0.00000E+00
         0.00000E+00
         0.00000E+00
         0.00000E+00
         0.00000E+00
         0.00000E+00
         0.00000E+00
         0.00000E+00
         0.00000E+00
         0.00000E+00
         0.00000E+00
         0.00000E+00
         0.00000E+00
         0.00000E+00
         0.00000E+00
         0.00000E+00
         0.00000E+00
         0.00000E+00
         0.00000E+00
         0.00000E+00
         0.00000E+00
         0.00000E+00
         0.00000E+00
         0.00000E+00
         0.00000E+00
         0.00000E+00
         0.00000E+00
         0.00000E+00
         0.00000E+00
         0.00000E+00
         0.00000E+00
         0.00000E+00
         0.00000E+00
         0.00000E+00
         0.00000E+00
         0.00000E+00
         0.00000E+00
         0.00000E+00
         0.00000E+00
         0.00000E+00
         0.00000E+00
         0.00000E+00
         0.00000E+00
         0.00000E+00
         0.00000E+00
         0.00000E+00
         0.00000E+00
         0.00000E+00
         0.00000E+00
         0.00000E+00
         0.00000E+00
         0.00000E+00
         0.00000E+00
         0.00000E+00
         0.00000E+00
         0.00000E+00
         0.00000E+00
         0.00000E+00
         0.00000E+00
         0.00000E+00
         0.00000E+00
         0.00000E+00
         0.00000E+00
         0.00000E+00
         0.00000E+00
         0.00000E+00
         0.00000E+00
         0.00000E+00
         0.00000E+00
         0.00000E+00
         0.00000E+00
         0.00000E+00
         0.00000E+00
         0.00000E+00
         0.00000E+00
         0.00000E+00
         0.00000E+00
         0.00000E+00
         0.00000E+00
         0.00000E+00
         0.00000E+00
         0.00000E+00
         0.00000E+00
         0.00000E+00
         0.00000E+00
         0.00000E+00
         0.00000E+00
         0.00000E+00
         0.00000E+00
         0.00000E+00
         0.00000E+00
         0.00000E+00
         0.00000E+00
         0.00000E+00
         0.00000E+00
         0.00000E+00
         0.00000E+00
         0.00000E+00
         0.00000E+00
         0.00000E+00
         0.00000E+00
         0.00000E+00
         0.00000E+00
         0.00000E+00
         0.00000E+00
         0.00000E+00
         0.00000E+00
         0.00000E+00
         0.00000E+00
         0.00000E+00
         0.00000E+00
         0.00000E+00
         0.00000E+00
         0.00000E+00
         0.00000E+00
         0.00000E+00
         0.00000E+00
         0.00000E+00
         0.00000E+00
         0.00000E+00
         0.00000E+00
         0.00000E+00
         0.00000E+00
         0.00000E+00
         0.00000E+00
         0.00000E+00
         0.00000E+00
         0.00000E+00
         0.00000E+00
         0.00000E+00
         0.00000E+00
         0.00000E+00
         0.00000E+00
         0.00000E+00
         0.00000E+00
         0.00000E+00
         0.00000E+00
         0.00000E+00
         0.00000E+00
         0.00000E+00
         0.00000E+00
         0.00000E+00
         0.00000E+00
         0.00000E+00
         0.00000E+00
         0.00000E+00
         0.00000E+00
         0.00000E+00
         0.00000E+00
         0.00000E+00
         0.00000E+00
         0.00000E+00
         0.00000E+00
         0.00000E+00
         0.00000E+00
         0.00000E+00
         0.00000E+00
         0.00000E+00
         0.00000E+00
         0.00000E+00
         0.00000E+00
         0.00000E+00
         0.00000E+00
         0.00000E+00
         0.00000E+00
         0.00000E+00
         0.00000E+00
         0.00000E+00
         0.00000E+00
         0.00000E+00
         0.00000E+00
         0.00000E+00
         0.00000E+00
         0.00000E+00
         0.00000E+00
         0.00000E+00
         0.00000E+00
         0.00000E+00
         0.00000E+00
         0.00000E+00
         0.00000E+00
         0.00000E+00
         0.00000E+00
         0.00000E+00
         0.00000E+00
         0.00000E+00
         0.00000E+00
         0.00000E+00
         0.00000E+00
         0.00000E+00
         0.00000E+00
         0.00000E+00
         0.00000E+00
         0.00000E+00
         0.00000E+00
         0.00000E+00
         0.00000E+00
         0.00000E+00
         0.00000E+00
         0.00000E+00
         0.00000E+00
         0.00000E+00
         0.00000E+00
         0.00000E+00
         0.00000E+00
         0.00000E+00
         0.00000E+00
         0.00000E+00
         0.00000E+00
         0.00000E+00
         0.00000E+00
         0.00000E+00
         0.00000E+00
         0.00000E+00
         0.00000E+00
         0.00000E+00
         0.00000E+00
         0.00000E+00
         0.00000E+00
         0.00000E+00
         0.00000E+00
         0.00000E+00
         0.00000E+00
         0.00000E+00
         0.00000E+00
         0.00000E+00
         0.00000E+00
         0.00000E+00
         0.00000E+00
         0.00000E+00
         0.00000E+00
         0.00000E+00
         0.00000E+00
         0.00000E+00
         0.00000E+00
         0.00000E+00
         0.00000E+00
         0.00000E+00
         0.00000E+00
         0.00000E+00
         0.00000E+00
         0.00000E+00
         0.00000E+00
         0.00000E+00
         0.00000E+00
         0.00000E+00
         0.00000E+00
         0.00000E+00
         0.00000E+00
         0.00000E+00
         0.00000E+00
         0.00000E+00
         0.00000E+00
         0.00000E+00
         0.00000E+00
         0.00000E+00
         0.00000E+00
         0.00000E+00
         0.00000E+00
         0.00000E+00
         0.00000E+00
         0.00000E+00
         0.00000E+00
         0.00000E+00
         0.00000E+00
         0.00000E+00
         0.00000E+00
         0.00000E+00
         0.00000E+00
         0.00000E+00
         0.00000E+00
         0.00000E+00
         0.00000E+00
         0.00000E+00
         0.00000E+00
         0.00000E+00
         0.00000E+00
         0.00000E+00
         0.00000E+00
         0.00000E+00
         0.00000E+00
         0.00000E+00
         0.00000E+00
         0.00000E+00
         0.00000E+00
         0.00000E+00
         0.00000E+00
         0.00000E+00
         0.00000E+00
         0.00000E+00
         0.00000E+00
         0.00000E+00
         0.00000E+00
         0.00000E+00
         0.00000E+00
         0.00000E+00
         0.00000E+00
         0.00000E+00
         0.00000E+00
         0.00000E+00
         0.00000E+00
         0.00000E+00
         0.00000E+00
         0.00000E+00
         0.00000E+00
         0.00000E+00
         0.00000E+00
         0.00000E+00
         0.00000E+00
         0.00000E+00
         0.00000E+00
         0.00000E+00
         0.00000E+00
         0.00000E+00
         0.00000E+00
         0.00000E+00
         0.00000E+00
         0.00000E+00
         0.00000E+00
         0.00000E+00
         0.00000E+00
         0.00000E+00
         0.00000E+00
         0.00000E+00
         0.00000E+00
         0.00000E+00
         0.00000E+00
         0.00000E+00
         0.00000E+00
         0.00000E+00
         0.00000E+00
         0.00000E+00
         0.00000E+00
         0.00000E+00
         0.00000E+00
         0.00000E+00
         0.00000E+00
         0.00000E+00
         0.00000E+00
         0.00000E+00
         0.00000E+00
         0.00000E+00
         0.00000E+00
         0.00000E+00
         0.00000E+00
         0.00000E+00
         0.00000E+00
         0.00000E+00
         0.00000E+00
         0.00000E+00
         0.00000E+00
         0.00000E+00
         0.00000E+00
         0.00000E+00
         0.00000E+00
         0.00000E+00
         0.00000E+00
         0.00000E+00
         0.00000E+00
         0.00000E+00
         0.00000E+00
         0.00000E+00
         0.00000E+00
         0.00000E+00
         0.00000E+00
         0.00000E+00
         0.00000E+00
         0.00000E+00
         0.00000E+00
         0.00000E+00
         0.00000E+00
         0.00000E+00
         0.00000E+00
         0.00000E+00
         0.00000E+00
         0.00000E+00
         0.00000E+00
         0.00000E+00
         0.00000E+00
         0.00000E+00
         0.00000E+00
         0.00000E+00
         0.00000E+00
         0.00000E+00
         0.00000E+00
         0.00000E+00
         0.00000E+00
         0.00000E+00
         0.00000E+00
         0.00000E+00
         0.00000E+00
         0.00000E+00
         0.00000E+00
         0.00000E+00
         0.00000E+00
         0.00000E+00
         0.00000E+00
         0.00000E+00
         0.00000E+00
         0.00000E+00
         0.00000E+00
         0.00000E+00
         0.00000E+00
         0.00000E+00
         0.00000E+00
         0.00000E+00
         0.00000E+00
         0.00000E+00
         0.00000E+00
         0.00000E+00
         0.00000E+00
         0.00000E+00
         0.00000E+00
         0.00000E+00
         0.00000E+00
         0.00000E+00
         0.00000E+00
         0.00000E+00
         0.00000E+00
         0.00000E+00
         0.00000E+00
         0.00000E+00
         0.00000E+00
         0.00000E+00
         0.00000E+00
         0.00000E+00
         0.00000E+00
         0.00000E+00
         0.00000E+00
         0.00000E+00
         0.00000E+00
         0.00000E+00
         0.00000E+00
         0.00000E+00
         0.00000E+00
         0.00000E+00
         0.00000E+00
         0.00000E+00
         0.00000E+00
         0.00000E+00
         0.00000E+00
         0.00000E+00
         0.00000E+00
         0.00000E+00
         0.00000E+00
         0.00000E+00
         0.00000E+00
         0.00000E+00
         0.00000E+00
         0.00000E+00
         0.00000E+00
         0.00000E+00
         0.00000E+00
         0.00000E+00
         0.00000E+00
         0.00000E+00
         0.00000E+00
         0.00000E+00
         0.00000E+00
         0.00000E+00
         0.00000E+00
         0.00000E+00
         0.00000E+00
         0.00000E+00
         0.00000E+00
         0.00000E+00
         0.00000E+00
         0.00000E+00
         0.00000E+00
         0.00000E+00
         0.00000E+00
         0.00000E+00
         0.00000E+00
         0.00000E+00
         0.00000E+00
         0.00000E+00
         0.00000E+00
         0.00000E+00
         0.00000E+00
         0.00000E+00
         0.00000E+00
         0.00000E+00
         0.00000E+00
         0.00000E+00
         0.00000E+00
         0.00000E+00
         0.00000E+00
         0.00000E+00
         0.00000E+00
         0.00000E+00
         0.00000E+00
         0.00000E+00
         0.00000E+00
         0.00000E+00
         0.00000E+00
         0.00000E+00
         0.00000E+00
         0.00000E+00
         0.00000E+00
         0.00000E+00
         0.00000E+00
         0.00000E+00
         0.00000E+00
         0.00000E+00
         0.00000E+00
         0.00000E+00
         0.00000E+00
         0.00000E+00
         0.00000E+00
         0.00000E+00
         0.00000E+00
         0.00000E+00
         0.00000E+00
         0.00000E+00
         0.00000E+00
         0.00000E+00
         0.00000E+00
         0.00000E+00
         0.00000E+00
         0.00000E+00
         0.00000E+00
         0.00000E+00
         0.00000E+00
         0.00000E+00
         0.00000E+00
         0.00000E+00
         0.00000E+00
         0.00000E+00
         0.00000E+00
         0.00000E+00
         0.00000E+00
         0.00000E+00
         0.00000E+00
         0.00000E+00
         0.00000E+00
         0.00000E+00
         0.00000E+00
         0.00000E+00
         0.00000E+00
         0.00000E+00
         0.00000E+00
         0.00000E+00
         0.00000E+00
         0.00000E+00
         0.00000E+00
         0.00000E+00
         0.00000E+00
         0.00000E+00
         0.00000E+00
         0.00000E+00
         0.00000E+00
         0.00000E+00
         0.00000E+00
         0.00000E+00
         0.00000E+00
         0.00000E+00
         0.00000E+00
         0.00000E+00
         0.00000E+00
         0.00000E+00
         0.00000E+00
         0.00000E+00
         0.00000E+00
         0.00000E+00
         0.00000E+00
         0.00000E+00
         0.00000E+00
         0.00000E+00
         0.00000E+00
         0.00000E+00
         0.00000E+00
         0.00000E+00
         0.00000E+00
         0.00000E+00
         0.00000E+00
         0.00000E+00
         0.00000E+00
         0.00000E+00
         0.00000E+00
         0.00000E+00
         0.00000E+00
         0.00000E+00
         0.00000E+00
         0.00000E+00
         0.00000E+00
         0.00000E+00
         0.00000E+00
         0.00000E+00
         0.00000E+00
         0.00000E+00
         0.00000E+00
         0.00000E+00
         0.00000E+00
         0.00000E+00
         0.00000E+00
         0.00000E+00
         0.00000E+00
         0.00000E+00
         0.00000E+00
         0.00000E+00
         0.00000E+00
         0.00000E+00
         0.00000E+00
         0.00000E+00
         0.00000E+00
         0.00000E+00
         0.00000E+00
         0.00000E+00
         0.00000E+00
         0.00000E+00
         0.00000E+00
         0.00000E+00
         0.00000E+00
         0.00000E+00
         0.00000E+00
         0.00000E+00
         0.00000E+00
         0.00000E+00
         0.00000E+00
         0.00000E+00
         0.00000E+00
         0.00000E+00
         0.00000E+00
         0.00000E+00
         0.00000E+00
         0.00000E+00
         0.00000E+00
         0.00000E+00
         0.00000E+00
         0.00000E+00
         0.00000E+00
         0.00000E+00
         0.00000E+00
         0.00000E+00
         0.00000E+00
         0.00000E+00
         0.00000E+00
         0.00000E+00
         0.00000E+00
         0.00000E+00
         0.00000E+00
         0.00000E+00
         0.00000E+00
         0.00000E+00
         0.00000E+00
         0.00000E+00
         0.00000E+00
         0.00000E+00
         0.00000E+00
         0.00000E+00
         0.00000E+00
         0.00000E+00
         0.00000E+00
         0.00000E+00
         0.00000E+00
         0.00000E+00
         0.00000E+00
         0.00000E+00
         0.00000E+00
         0.00000E+00
         0.00000E+00
         0.00000E+00
         0.00000E+00
         0.00000E+00
         0.00000E+00
         0.00000E+00
         0.00000E+00
         0.00000E+00
         0.00000E+00
         0.00000E+00
         0.00000E+00
         0.00000E+00
         0.00000E+00
         0.00000E+00
         0.00000E+00
         0.00000E+00
         0.00000E+00
         0.00000E+00
         0.00000E+00
         0.00000E+00
         0.00000E+00
         0.00000E+00
         0.00000E+00
         0.00000E+00
         0.00000E+00
         0.00000E+00
         0.00000E+00
         0.00000E+00
         0.00000E+00
         0.00000E+00
         0.00000E+00
         0.00000E+00
         0.00000E+00
         0.00000E+00
         0.00000E+00
         0.00000E+00
         0.00000E+00
         0.00000E+00
         0.00000E+00
         0.00000E+00
         0.00000E+00
         0.00000E+00
         0.00000E+00
         0.00000E+00
         0.00000E+00
         0.00000E+00
         0.00000E+00
         0.00000E+00
         0.00000E+00
         0.00000E+00
         0.00000E+00
         0.00000E+00
         0.00000E+00
         0.00000E+00
         0.00000E+00
         0.00000E+00
         0.00000E+00
         0.00000E+00
         0.00000E+00
         0.00000E+00
         0.00000E+00
         0.00000E+00
         0.00000E+00
         0.00000E+00
         0.00000E+00
         0.00000E+00
         0.00000E+00
         0.00000E+00
         0.00000E+00
         0.00000E+00
         0.00000E+00
         0.00000E+00
         0.00000E+00
         0.00000E+00
         0.00000E+00
         0.00000E+00
         0.00000E+00
         0.00000E+00
         0.00000E+00
         0.00000E+00
         0.00000E+00
         0.00000E+00
         0.00000E+00
         0.00000E+00
         0.00000E+00
         0.00000E+00
         0.00000E+00
         0.00000E+00
         0.00000E+00
         0.00000E+00
         0.00000E+00
         0.00000E+00
         0.00000E+00
         0.00000E+00
         0.00000E+00
         0.00000E+00
         0.00000E+00
         0.00000E+00
         0.00000E+00
         0.00000E+00
         0.00000E+00
         0.00000E+00
         0.00000E+00
         0.00000E+00
         0.00000E+00
         0.00000E+00
         0.00000E+00
         0.00000E+00
         0.00000E+00
         0.00000E+00
         0.00000E+00
         0.00000E+00
         0.00000E+00
         0.00000E+00
         0.00000E+00
         0.00000E+00
         0.00000E+00
         0.00000E+00
         0.00000E+00
         0.00000E+00
         0.00000E+00
         0.00000E+00
         0.00000E+00
         0.00000E+00
         0.00000E+00
         0.00000E+00
         0.00000E+00
         0.00000E+00
         0.00000E+00
         0.00000E+00
         0.00000E+00
         0.00000E+00
         0.00000E+00
         0.00000E+00
         0.00000E+00
         0.00000E+00
         0.00000E+00
         0.00000E+00
         0.00000E+00
         0.00000E+00
         0.00000E+00
         0.00000E+00
         0.00000E+00
         0.00000E+00
         0.00000E+00
         0.00000E+00
         0.00000E+00
         0.00000E+00
         0.00000E+00
         0.00000E+00
         0.00000E+00
         0.00000E+00
         0.00000E+00
         0.00000E+00
         0.00000E+00
         0.00000E+00
         0.00000E+00
         0.00000E+00
         0.00000E+00
         0.00000E+00
         0.00000E+00
         0.00000E+00
         0.00000E+00
         0.00000E+00
         0.00000E+00
         0.00000E+00
         0.00000E+00
         0.00000E+00
         0.00000E+00
         0.00000E+00
         0.00000E+00
         0.00000E+00
         0.00000E+00
         0.00000E+00
         0.00000E+00
         0.00000E+00
         0.00000E+00
         0.00000E+00
         0.00000E+00
         0.00000E+00
         0.00000E+00
         0.00000E+00
         0.00000E+00
         0.00000E+00
         0.00000E+00
         0.00000E+00
         0.00000E+00
         0.00000E+00
         0.00000E+00
         0.00000E+00
         0.00000E+00
         0.00000E+00
         0.00000E+00
         0.00000E+00
         0.00000E+00
         0.00000E+00
         0.00000E+00
         0.00000E+00
         0.00000E+00
         0.00000E+00
         0.00000E+00
         0.00000E+00
         0.00000E+00
         0.00000E+00
         0.00000E+00
         0.00000E+00
         0.00000E+00
         0.00000E+00
         0.00000E+00
         0.00000E+00
         0.00000E+00
         0.00000E+00
         0.00000E+00
         0.00000E+00
         0.00000E+00
         0.00000E+00
         0.00000E+00
         0.00000E+00
         0.00000E+00
         0.00000E+00
         0.00000E+00
         0.00000E+00
         0.00000E+00
         0.00000E+00
         0.00000E+00
         0.00000E+00
         0.00000E+00
         0.00000E+00
         0.00000E+00
         0.00000E+00
         0.00000E+00
         0.00000E+00
         0.00000E+00
         0.00000E+00
         0.00000E+00
         0.00000E+00
         0.00000E+00
         0.00000E+00
         0.00000E+00
         0.00000E+00
         0.00000E+00
         0.00000E+00
         0.00000E+00
         0.00000E+00
         0.00000E+00
         0.00000E+00
         0.00000E+00
         0.00000E+00
         0.00000E+00
         0.00000E+00
         0.00000E+00
         0.00000E+00
         0.00000E+00
         0.00000E+00
         0.00000E+00
         0.00000E+00
         0.00000E+00
         0.00000E+00
         0.00000E+00
         0.00000E+00
         0.00000E+00
         0.00000E+00
         0.00000E+00
         0.00000E+00
         0.00000E+00
         0.00000E+00
         0.00000E+00
         0.00000E+00
         0.00000E+00
         0.00000E+00
         0.00000E+00
         0.00000E+00
         0.00000E+00
         0.00000E+00
         0.00000E+00
         0.00000E+00
         0.00000E+00
         0.00000E+00
         0.00000E+00
         0.00000E+00
         0.00000E+00
         0.00000E+00
         0.00000E+00
         0.00000E+00
         0.00000E+00
         0.00000E+00
         0.00000E+00
         0.00000E+00
         0.00000E+00
         0.00000E+00
         0.00000E+00
         0.00000E+00
         0.00000E+00
         0.00000E+00
         0.00000E+00
         0.00000E+00
         0.00000E+00
         0.00000E+00
         0.00000E+00
         0.00000E+00
         0.00000E+00
         0.00000E+00
         0.00000E+00
         0.00000E+00
         0.00000E+00
         0.00000E+00
         0.00000E+00
         0.00000E+00
         0.00000E+00
         0.00000E+00
         0.00000E+00
         0.00000E+00
         0.00000E+00
         0.00000E+00
         0.00000E+00
         0.00000E+00
         0.00000E+00
         0.00000E+00
         0.00000E+00
         0.00000E+00
         0.00000E+00
         0.00000E+00
         0.00000E+00
         0.00000E+00
         0.00000E+00
         0.00000E+00
         0.00000E+00
         0.00000E+00
         0.00000E+00
         0.00000E+00
         0.00000E+00
         0.00000E+00
         0.00000E+00
         0.00000E+00
         0.00000E+00
         0.00000E+00
         0.00000E+00
         0.00000E+00
         0.00000E+00
         0.00000E+00
         0.00000E+00
         0.00000E+00
         0.00000E+00
         0.00000E+00
         0.00000E+00
         0.00000E+00
         0.00000E+00
         0.00000E+00
         0.00000E+00
         0.00000E+00
         0.00000E+00
         0.00000E+00
         0.00000E+00
         0.00000E+00
         0.00000E+00
         0.00000E+00
         0.00000E+00
         0.00000E+00
         0.00000E+00
         0.00000E+00
         0.00000E+00
         0.00000E+00
         0.00000E+00
         0.00000E+00
         0.00000E+00
         0.00000E+00
         0.00000E+00
         0.00000E+00
         0.00000E+00
         0.00000E+00
         0.00000E+00
         0.00000E+00
         0.00000E+00
         0.00000E+00
         0.00000E+00
         0.00000E+00
         0.00000E+00
         0.00000E+00
         0.00000E+00
         0.00000E+00
         0.00000E+00
         0.00000E+00
         0.00000E+00
         0.00000E+00
         0.00000E+00
         0.00000E+00
         0.00000E+00
         0.00000E+00
         0.00000E+00
         0.00000E+00
         0.00000E+00
         0.00000E+00
         0.00000E+00
         0.00000E+00
         0.00000E+00
         0.00000E+00
         0.00000E+00
         0.00000E+00
         0.00000E+00
         0.00000E+00
         0.00000E+00
         0.00000E+00
         0.00000E+00
         0.00000E+00
         0.00000E+00
         0.00000E+00
         0.00000E+00
         0.00000E+00
         0.00000E+00
         0.00000E+00
         0.00000E+00
         0.00000E+00
         0.00000E+00
         0.00000E+00
         0.00000E+00
         0.00000E+00
         0.00000E+00
         0.00000E+00
         0.00000E+00
         0.00000E+00
         0.00000E+00
         0.00000E+00
         0.00000E+00
         0.00000E+00
         0.00000E+00
         0.00000E+00
         0.00000E+00
         0.00000E+00
         0.00000E+00
         0.00000E+00
         0.00000E+00
         0.00000E+00
         0.00000E+00
         0.00000E+00
         0.00000E+00
         0.00000E+00
         0.00000E+00
         0.00000E+00
         0.00000E+00
         0.00000E+00
         0.00000E+00
         0.00000E+00
         0.00000E+00
         0.00000E+00
         0.00000E+00
         0.00000E+00
         0.00000E+00
         0.00000E+00
         0.00000E+00
         0.00000E+00
         0.00000E+00
         0.00000E+00
         0.00000E+00
         0.00000E+00
         0.00000E+00
         0.00000E+00
         0.00000E+00
         0.00000E+00
         0.00000E+00
         0.00000E+00
         0.00000E+00
         0.00000E+00
         0.00000E+00
         0.00000E+00
         0.00000E+00
         0.00000E+00
         0.00000E+00
         0.00000E+00
         0.00000E+00
         0.00000E+00
         0.00000E+00
         0.00000E+00
         0.00000E+00
         0.00000E+00
         0.00000E+00
         0.00000E+00
         0.00000E+00
         0.00000E+00
         0.00000E+00
         0.00000E+00
         0.00000E+00
         0.00000E+00
         0.00000E+00
         0.00000E+00
         0.00000E+00
         0.00000E+00
         0.00000E+00
         0.00000E+00
         0.00000E+00
         0.00000E+00
         0.00000E+00
         0.00000E+00
         0.00000E+00
         0.00000E+00
         0.00000E+00
         0.00000E+00
         0.00000E+00
         0.00000E+00
         0.00000E+00
         0.00000E+00
         0.00000E+00
         0.00000E+00
         0.00000E+00
         0.00000E+00
         0.00000E+00
         0.00000E+00
         0.00000E+00
         0.00000E+00
         0.00000E+00
         0.00000E+00
         0.00000E+00
         0.00000E+00
         0.00000E+00
         0.00000E+00
         0.00000E+00
         0.00000E+00
         0.00000E+00
         0.00000E+00
         0.00000E+00
         0.00000E+00
         0.00000E+00
         0.00000E+00
         0.00000E+00
         0.00000E+00
         0.00000E+00
         0.00000E+00
         0.00000E+00
         0.00000E+00
         0.00000E+00
         0.00000E+00
         0.00000E+00
         0.00000E+00
         0.00000E+00
         0.00000E+00
         0.00000E+00
         0.00000E+00
         0.00000E+00
         0.00000E+00
         0.00000E+00
         0.00000E+00
         0.00000E+00
         0.00000E+00
         0.00000E+00
         0.00000E+00
         0.00000E+00
         0.00000E+00
         0.00000E+00
         0.00000E+00
         0.00000E+00
         0.00000E+00
         0.00000E+00
         0.00000E+00
         0.00000E+00
         0.00000E+00
         0.00000E+00
         0.00000E+00
         0.00000E+00
         0.00000E+00
         0.00000E+00
         0.00000E+00
         0.00000E+00
         0.00000E+00
         0.00000E+00
         0.00000E+00
         0.00000E+00
         0.00000E+00
         0.00000E+00
         0.00000E+00
         0.00000E+00
         0.00000E+00
         0.00000E+00
         0.00000E+00
         0.00000E+00
         0.00000E+00
         0.00000E+00
         0.00000E+00
         0.00000E+00
         0.00000E+00
         0.00000E+00
         0.00000E+00
         0.00000E+00
         0.00000E+00
         0.00000E+00
         0.00000E+00
         0.00000E+00
         0.00000E+00
         0.00000E+00
         0.00000E+00
         0.00000E+00
         0.00000E+00
         0.00000E+00
         0.00000E+00
         0.00000E+00
         0.00000E+00
         0.00000E+00
         0.00000E+00
         0.00000E+00
         0.00000E+00
         0.00000E+00
         0.00000E+00
         0.00000E+00
         0.00000E+00
         0.00000E+00
         0.00000E+00
         0.00000E+00
         0.00000E+00
         0.00000E+00
         0.00000E+00
         0.00000E+00
         0.00000E+00
         0.00000E+00
         0.00000E+00
         0.00000E+00
         0.00000E+00
         0.00000E+00
         0.00000E+00
         0.00000E+00
         0.00000E+00
         0.00000E+00
         0.00000E+00
         0.00000E+00
         0.00000E+00
         0.00000E+00
         0.00000E+00
         0.00000E+00
         0.00000E+00
         0.00000E+00
         0.00000E+00
         0.00000E+00
         0.00000E+00
         0.00000E+00
         0.00000E+00
         0.00000E+00
         0.00000E+00
         0.00000E+00
         0.00000E+00
         0.00000E+00
         0.00000E+00
         0.00000E+00
         0.00000E+00
         0.00000E+00
         0.00000E+00
         0.00000E+00
         0.00000E+00
         0.00000E+00
         0.00000E+00
         0.00000E+00
         0.00000E+00
         0.00000E+00
         0.00000E+00
         0.00000E+00
         0.00000E+00
         0.00000E+00
         0.00000E+00
         0.00000E+00
         0.00000E+00
         0.00000E+00
         0.00000E+00
         0.00000E+00
         0.00000E+00
         0.00000E+00
         0.00000E+00
         0.00000E+00
         0.00000E+00
         0.00000E+00
         0.00000E+00
         0.00000E+00
         0.00000E+00
         0.00000E+00
         0.00000E+00
         0.00000E+00
         0.00000E+00
         0.00000E+00
         0.00000E+00
         0.00000E+00
         0.00000E+00
         0.00000E+00
         0.00000E+00
         0.00000E+00
         0.00000E+00
         0.00000E+00
         0.00000E+00
         0.00000E+00
         0.00000E+00
         0.00000E+00
         0.00000E+00
         0.00000E+00
         0.00000E+00
         0.00000E+00
         0.00000E+00
         0.00000E+00
         0.00000E+00
         0.00000E+00
         0.00000E+00
         0.00000E+00
         0.00000E+00
         0.00000E+00
         0.00000E+00
         0.00000E+00
         0.00000E+00
         0.00000E+00
         0.00000E+00
         0.00000E+00
         0.00000E+00
         0.00000E+00
         0.00000E+00
         0.00000E+00
         0.00000E+00
         0.00000E+00
         0.00000E+00
         0.00000E+00
         0.00000E+00
         0.00000E+00
         0.00000E+00
         0.00000E+00
         0.00000E+00
         0.00000E+00
         0.00000E+00
         0.00000E+00
         0.00000E+00
         0.00000E+00
         0.00000E+00
         0.00000E+00
         0.00000E+00
         0.00000E+00
         0.00000E+00
         0.00000E+00
         0.00000E+00
         0.00000E+00
         0.00000E+00
         0.00000E+00
         0.00000E+00
         0.00000E+00
         0.00000E+00
         0.00000E+00
         0.00000E+00
         0.00000E+00
         0.00000E+00
         0.00000E+00
         0.00000E+00
         0.00000E+00
         0.00000E+00
         0.00000E+00
         0.00000E+00
         0.00000E+00
         0.00000E+00
         0.00000E+00
         0.00000E+00
         0.00000E+00
         0.00000E+00
         0.00000E+00
         0.00000E+00
         0.00000E+00
         0.00000E+00
         0.00000E+00
         0.00000E+00
         0.00000E+00
         0.00000E+00
         0.00000E+00
         0.00000E+00
         0.00000E+00
         0.00000E+00
         0.00000E+00
         0.00000E+00
         0.00000E+00
         0.00000E+00
         0.00000E+00
         0.00000E+00
         0.00000E+00
         0.00000E+00
         0.00000E+00
         0.00000E+00
         0.00000E+00
         0.00000E+00
         0.00000E+00
         0.00000E+00
         0.00000E+00
         0.00000E+00
         0.00000E+00
         0.00000E+00
         0.00000E+00
         0.00000E+00
         0.00000E+00
         0.00000E+00
         0.00000E+00
         0.00000E+00
         0.00000E+00
         0.00000E+00
         0.00000E+00
         0.00000E+00
         0.00000E+00
         0.00000E+00
         0.00000E+00
         0.00000E+00
         0.00000E+00
         0.00000E+00
         0.00000E+00
         0.00000E+00
         0.00000E+00
         0.00000E+00
         0.00000E+00
         0.00000E+00
         0.00000E+00
         0.00000E+00
         0.00000E+00
         0.00000E+00
         0.00000E+00
         0.00000E+00
         0.00000E+00
         0.00000E+00
         0.00000E+00
         0.00000E+00
         0.00000E+00
         0.00000E+00
         0.00000E+00
         0.00000E+00
         0.00000E+00
         0.00000E+00
         0.00000E+00
         0.00000E+00
         0.00000E+00
         0.00000E+00
         0.00000E+00
         0.00000E+00
         0.00000E+00
         0.00000E+00
         0.00000E+00
         0.00000E+00
         0.00000E+00
         0.00000E+00
         0.00000E+00
         0.00000E+00
         0.00000E+00
         0.00000E+00
         0.00000E+00
         0.00000E+00
         0.00000E+00
         0.00000E+00
         0.00000E+00
         0.00000E+00
         0.00000E+00
         0.00000E+00
         0.00000E+00
         0.00000E+00
         0.00000E+00
         0.00000E+00
         0.00000E+00
         0.00000E+00
         0.00000E+00
         0.00000E+00
         0.00000E+00
         0.00000E+00
         0.00000E+00
         0.00000E+00
         0.00000E+00
         0.00000E+00
         0.00000E+00
         0.00000E+00
         0.00000E+00
         0.00000E+00
         0.00000E+00
         0.00000E+00
         0.00000E+00
         0.00000E+00
         0.00000E+00
         0.00000E+00
         0.00000E+00
         0.00000E+00
         0.00000E+00
         0.00000E+00
         0.00000E+00
         0.00000E+00
         0.00000E+00
         0.00000E+00
         0.00000E+00
         0.00000E+00
         0.00000E+00
         0.00000E+00
         0.00000E+00
         0.00000E+00
         0.00000E+00
         0.00000E+00
         0.00000E+00
         0.00000E+00
         0.00000E+00
         0.00000E+00
         0.00000E+00
         0.00000E+00
         0.00000E+00
         0.00000E+00
         0.00000E+00
         0.00000E+00
         0.00000E+00
         0.00000E+00
         0.00000E+00
         0.00000E+00
         0.00000E+00
         0.00000E+00
         0.00000E+00
         0.00000E+00
         0.00000E+00
         0.00000E+00
         0.00000E+00
         0.00000E+00
         0.00000E+00
         0.00000E+00
         0.00000E+00
         0.00000E+00
         0.00000E+00
         0.00000E+00
         0.00000E+00
         0.00000E+00
         0.00000E+00
         0.00000E+00
         0.00000E+00
         0.00000E+00
         0.00000E+00
         0.00000E+00
         0.00000E+00
         0.00000E+00
         0.00000E+00
         0.00000E+00
         0.00000E+00
         0.00000E+00
         0.00000E+00
         0.00000E+00
         0.00000E+00
         0.00000E+00
         0.00000E+00
         0.00000E+00
         0.00000E+00
         0.00000E+00
         0.00000E+00
         0.00000E+00
         0.00000E+00
         0.00000E+00
         0.00000E+00
         0.00000E+00
         0.00000E+00
         0.00000E+00
         0.00000E+00
         0.00000E+00
         0.00000E+00
         0.00000E+00
         0.00000E+00
         0.00000E+00
         0.00000E+00
         0.00000E+00
         0.00000E+00
         0.00000E+00
         0.00000E+00
         0.00000E+00
         0.00000E+00
         0.00000E+00
         0.00000E+00
         0.00000E+00
         0.00000E+00
         0.00000E+00
         0.00000E+00
         0.00000E+00
         0.00000E+00
         0.00000E+00
         0.00000E+00
         0.00000E+00
         0.00000E+00
         0.00000E+00
         0.00000E+00
         0.00000E+00
         0.00000E+00
         0.00000E+00
         0.00000E+00
         0.00000E+00
         0.00000E+00
         0.00000E+00
         0.00000E+00
         0.00000E+00
         0.00000E+00
         0.00000E+00
         0.00000E+00
         0.00000E+00
         0.00000E+00
         0.00000E+00
         0.00000E+00
         0.00000E+00
         0.00000E+00
         0.00000E+00
         0.00000E+00
         0.00000E+00
         0.00000E+00
         0.00000E+00
         0.00000E+00
         0.00000E+00
         0.00000E+00
         0.00000E+00
         0.00000E+00
         0.00000E+00
         0.00000E+00
         0.00000E+00
         0.00000E+00
         0.00000E+00
         0.00000E+00
         0.00000E+00
         0.00000E+00
         0.00000E+00
         0.00000E+00
         0.00000E+00
         0.00000E+00
         0.00000E+00
         0.00000E+00
         0.00000E+00
         0.00000E+00
         0.00000E+00
         0.00000E+00
         0.00000E+00
         0.00000E+00
         0.00000E+00
         0.00000E+00
         0.00000E+00
         0.00000E+00
         0.00000E+00
         0.00000E+00
         0.00000E+00
  
SCALARS        characteristic_distance  double 1
LOOKUP_TABLE default
         0.00000E+00
         0.00000E+00
         0.00000E+00
         0.00000E+00
         0.00000E+00
         0.00000E+00
         0.00000E+00
         0.00000E+00
         0.00000E+00
         0.00000E+00
         0.00000E+00
         0.00000E+00
         0.00000E+00
         0.00000E+00
         0.00000E+00
         0.00000E+00
         0.00000E+00
         0.00000E+00
         0.00000E+00
         0.00000E+00
         0.00000E+00
         0.00000E+00
         0.00000E+00
         0.00000E+00
         0.00000E+00
         0.00000E+00
         0.00000E+00
         0.00000E+00
         0.00000E+00
         0.00000E+00
         0.00000E+00
         0.00000E+00
         0.00000E+00
         0.00000E+00
         0.00000E+00
         0.00000E+00
         0.00000E+00
         0.00000E+00
         0.00000E+00
         0.00000E+00
         0.00000E+00
         0.00000E+00
         0.00000E+00
         0.00000E+00
         0.00000E+00
         0.00000E+00
         0.00000E+00
         0.00000E+00
         0.00000E+00
         0.00000E+00
         0.00000E+00
         0.00000E+00
         0.00000E+00
         0.00000E+00
         0.00000E+00
         0.00000E+00
         0.00000E+00
         0.00000E+00
         0.00000E+00
         0.00000E+00
         0.00000E+00
         0.00000E+00
         0.00000E+00
         0.00000E+00
         0.00000E+00
         0.00000E+00
         0.00000E+00
         0.00000E+00
         0.00000E+00
         0.00000E+00
         0.00000E+00
         0.00000E+00
         0.00000E+00
         0.00000E+00
         0.00000E+00
         0.00000E+00
         0.00000E+00
         0.00000E+00
         0.00000E+00
         0.00000E+00
         0.00000E+00
         0.00000E+00
         0.00000E+00
         0.00000E+00
         0.00000E+00
         0.00000E+00
         0.00000E+00
         0.00000E+00
         0.00000E+00
         0.00000E+00
         0.00000E+00
         0.00000E+00
         0.00000E+00
         0.00000E+00
         0.00000E+00
         0.00000E+00
         0.00000E+00
         0.00000E+00
         0.00000E+00
         0.00000E+00
         0.00000E+00
         0.00000E+00
         0.00000E+00
         0.00000E+00
         0.00000E+00
         0.00000E+00
         0.00000E+00
         0.00000E+00
         0.00000E+00
         0.00000E+00
         0.00000E+00
         0.00000E+00
         0.00000E+00
         0.00000E+00
         0.00000E+00
         0.00000E+00
         0.00000E+00
         0.00000E+00
         0.00000E+00
         0.00000E+00
         0.00000E+00
         0.00000E+00
         0.00000E+00
         0.00000E+00
         0.00000E+00
         0.00000E+00
         0.00000E+00
         0.00000E+00
         0.00000E+00
         0.00000E+00
         0.00000E+00
         0.00000E+00
         0.00000E+00
         0.00000E+00
         0.00000E+00
         0.00000E+00
         0.00000E+00
         0.00000E+00
         0.00000E+00
         0.00000E+00
         0.00000E+00
         0.00000E+00
         0.00000E+00
         0.00000E+00
         0.00000E+00
         0.00000E+00
         0.00000E+00
         0.00000E+00
         0.00000E+00
         0.00000E+00
         0.00000E+00
         0.00000E+00
         0.00000E+00
         0.00000E+00
         0.00000E+00
         0.00000E+00
         0.00000E+00
         0.00000E+00
         0.00000E+00
         0.00000E+00
         0.00000E+00
         0.00000E+00
         0.00000E+00
         0.00000E+00
         0.00000E+00
         0.00000E+00
         0.00000E+00
         0.00000E+00
         0.00000E+00
         0.00000E+00
         0.00000E+00
         0.00000E+00
         0.00000E+00
         0.00000E+00
         0.00000E+00
         0.00000E+00
         0.00000E+00
         0.00000E+00
         0.00000E+00
         0.00000E+00
         0.00000E+00
         0.00000E+00
         0.00000E+00
         0.00000E+00
         0.00000E+00
         0.00000E+00
         0.00000E+00
         0.00000E+00
         0.00000E+00
         0.00000E+00
         0.00000E+00
         0.00000E+00
         0.00000E+00
         0.00000E+00
         0.00000E+00
         0.00000E+00
         0.00000E+00
         0.00000E+00
         0.00000E+00
         0.00000E+00
         0.00000E+00
         0.00000E+00
         0.00000E+00
         0.00000E+00
         0.00000E+00
         0.00000E+00
         0.00000E+00
         0.00000E+00
         0.00000E+00
         0.00000E+00
         0.00000E+00
         0.00000E+00
         0.00000E+00
         0.00000E+00
         0.00000E+00
         0.00000E+00
         0.00000E+00
         0.00000E+00
         0.00000E+00
         0.00000E+00
         0.00000E+00
         0.00000E+00
         0.00000E+00
         0.00000E+00
         0.00000E+00
         0.00000E+00
         0.00000E+00
         0.00000E+00
         0.00000E+00
         0.00000E+00
         0.00000E+00
         0.00000E+00
         0.00000E+00
         0.00000E+00
         0.00000E+00
         0.00000E+00
         0.00000E+00
         0.00000E+00
         0.00000E+00
         0.00000E+00
         0.00000E+00
         0.00000E+00
         0.00000E+00
         0.00000E+00
         0.00000E+00
         0.00000E+00
         0.00000E+00
         0.00000E+00
         0.00000E+00
         0.00000E+00
         0.00000E+00
         0.00000E+00
         0.00000E+00
         0.00000E+00
         0.00000E+00
         0.00000E+00
         0.00000E+00
         0.00000E+00
         0.00000E+00
         0.00000E+00
         0.00000E+00
         0.00000E+00
         0.00000E+00
         0.00000E+00
         0.00000E+00
         0.00000E+00
         0.00000E+00
         0.00000E+00
         0.00000E+00
         0.00000E+00
         0.00000E+00
         0.00000E+00
         0.00000E+00
         0.00000E+00
         0.00000E+00
         0.00000E+00
         0.00000E+00
         0.00000E+00
         0.00000E+00
         0.00000E+00
         0.00000E+00
         0.00000E+00
         0.00000E+00
         0.00000E+00
         0.00000E+00
         0.00000E+00
         0.00000E+00
         0.00000E+00
         0.00000E+00
         0.00000E+00
         0.00000E+00
         0.00000E+00
         0.00000E+00
         0.00000E+00
         0.00000E+00
         0.00000E+00
         0.00000E+00
         0.00000E+00
         0.00000E+00
         0.00000E+00
         0.00000E+00
         0.00000E+00
         0.00000E+00
         0.00000E+00
         0.00000E+00
         0.00000E+00
         0.00000E+00
         0.00000E+00
         0.00000E+00
         0.00000E+00
         0.00000E+00
         0.00000E+00
         0.00000E+00
         0.00000E+00
         0.00000E+00
         0.00000E+00
         0.00000E+00
         0.00000E+00
         0.00000E+00
         0.00000E+00
         0.00000E+00
         0.00000E+00
         0.00000E+00
         0.00000E+00
         0.00000E+00
         0.00000E+00
         0.00000E+00
         0.00000E+00
         0.00000E+00
         0.00000E+00
         0.00000E+00
         0.00000E+00
         0.00000E+00
         0.00000E+00
         0.00000E+00
         0.00000E+00
         0.00000E+00
         0.00000E+00
         0.00000E+00
         0.00000E+00
         0.00000E+00
         0.00000E+00
         0.00000E+00
         0.00000E+00
         0.00000E+00
         0.00000E+00
         0.00000E+00
         0.00000E+00
         0.00000E+00
         0.00000E+00
         0.00000E+00
         0.00000E+00
         0.00000E+00
         0.00000E+00
         0.00000E+00
         0.00000E+00
         0.00000E+00
         0.00000E+00
         0.00000E+00
         0.00000E+00
         0.00000E+00
         0.00000E+00
         0.00000E+00
         0.00000E+00
         0.00000E+00
         0.00000E+00
         0.00000E+00
         0.00000E+00
         0.00000E+00
         0.00000E+00
         0.00000E+00
         0.00000E+00
         0.00000E+00
         0.00000E+00
         0.00000E+00
         0.00000E+00
         0.00000E+00
         0.00000E+00
         0.00000E+00
         0.00000E+00
         0.00000E+00
         0.00000E+00
         0.00000E+00
         0.00000E+00
         0.00000E+00
         0.00000E+00
         0.00000E+00
         0.00000E+00
         0.00000E+00
         0.00000E+00
         0.00000E+00
         0.00000E+00
         0.00000E+00
         0.00000E+00
         0.00000E+00
         0.00000E+00
         0.00000E+00
         0.00000E+00
         0.00000E+00
         0.00000E+00
         0.00000E+00
         0.00000E+00
         0.00000E+00
         0.00000E+00
         0.00000E+00
         0.00000E+00
         0.00000E+00
         0.00000E+00
         0.00000E+00
         0.00000E+00
         0.00000E+00
         0.00000E+00
         0.00000E+00
         0.00000E+00
         0.00000E+00
         0.00000E+00
         0.00000E+00
         0.00000E+00
         0.00000E+00
         0.00000E+00
         0.00000E+00
         0.00000E+00
         0.00000E+00
         0.00000E+00
         0.00000E+00
         0.00000E+00
         0.00000E+00
         0.00000E+00
         0.00000E+00
         0.00000E+00
         0.00000E+00
         0.00000E+00
         0.00000E+00
         0.00000E+00
         0.00000E+00
         0.00000E+00
         0.00000E+00
         0.00000E+00
         0.00000E+00
         0.00000E+00
         0.00000E+00
         0.00000E+00
         0.00000E+00
         0.00000E+00
         0.00000E+00
         0.00000E+00
         0.00000E+00
         0.00000E+00
         0.00000E+00
         0.00000E+00
         0.00000E+00
         0.00000E+00
         0.00000E+00
         0.00000E+00
         0.00000E+00
         0.00000E+00
         0.00000E+00
         0.00000E+00
         0.00000E+00
         0.00000E+00
         0.00000E+00
         0.00000E+00
         0.00000E+00
         0.00000E+00
         0.00000E+00
         0.00000E+00
         0.00000E+00
         0.00000E+00
         0.00000E+00
         0.00000E+00
         0.00000E+00
         0.00000E+00
         0.00000E+00
         0.00000E+00
         0.00000E+00
         0.00000E+00
         0.00000E+00
         0.00000E+00
         0.00000E+00
         0.00000E+00
         0.00000E+00
         0.00000E+00
         0.00000E+00
         0.00000E+00
         0.00000E+00
         0.00000E+00
         0.00000E+00
         0.00000E+00
         0.00000E+00
         0.00000E+00
         0.00000E+00
         0.00000E+00
         0.00000E+00
         0.00000E+00
         0.00000E+00
         0.00000E+00
         0.00000E+00
         0.00000E+00
         0.00000E+00
         0.00000E+00
         0.00000E+00
         0.00000E+00
         0.00000E+00
         0.00000E+00
         0.00000E+00
         0.00000E+00
         0.00000E+00
         0.00000E+00
         0.00000E+00
         0.00000E+00
         0.00000E+00
         0.00000E+00
         0.00000E+00
         0.00000E+00
         0.00000E+00
         0.00000E+00
         0.00000E+00
         0.00000E+00
         0.00000E+00
         0.00000E+00
         0.00000E+00
         0.00000E+00
         0.00000E+00
         0.00000E+00
         0.00000E+00
         0.00000E+00
         0.00000E+00
         0.00000E+00
         0.00000E+00
         0.00000E+00
         0.00000E+00
         0.00000E+00
         0.00000E+00
         0.00000E+00
         0.00000E+00
         0.00000E+00
         0.00000E+00
         0.00000E+00
         0.00000E+00
         0.00000E+00
         0.00000E+00
         0.00000E+00
         0.00000E+00
         0.00000E+00
         0.00000E+00
         0.00000E+00
         0.00000E+00
         0.00000E+00
         0.00000E+00
         0.00000E+00
         0.00000E+00
         0.00000E+00
         0.00000E+00
         0.00000E+00
         0.00000E+00
         0.00000E+00
         0.00000E+00
         0.00000E+00
         0.00000E+00
         0.00000E+00
         0.00000E+00
         0.00000E+00
         0.00000E+00
         0.00000E+00
         0.00000E+00
         0.00000E+00
         0.00000E+00
         0.00000E+00
         0.00000E+00
         0.00000E+00
         0.00000E+00
         0.00000E+00
         0.00000E+00
         0.00000E+00
         0.00000E+00
         0.00000E+00
         0.00000E+00
         0.00000E+00
         0.00000E+00
         0.00000E+00
         0.00000E+00
         0.00000E+00
         0.00000E+00
         0.00000E+00
         0.00000E+00
         0.00000E+00
         0.00000E+00
         0.00000E+00
         0.00000E+00
         0.00000E+00
         0.00000E+00
         0.00000E+00
         0.00000E+00
         0.00000E+00
         0.00000E+00
         0.00000E+00
         0.00000E+00
         0.00000E+00
         0.00000E+00
         0.00000E+00
         0.00000E+00
         0.00000E+00
         0.00000E+00
         0.00000E+00
         0.00000E+00
         0.00000E+00
         0.00000E+00
         0.00000E+00
         0.00000E+00
         0.00000E+00
         0.00000E+00
         0.00000E+00
         0.00000E+00
         0.00000E+00
         0.00000E+00
         0.00000E+00
         0.00000E+00
         0.00000E+00
         0.00000E+00
         0.00000E+00
         0.00000E+00
         0.00000E+00
         0.00000E+00
         0.00000E+00
         0.00000E+00
         0.00000E+00
         0.00000E+00
         0.00000E+00
         0.00000E+00
         0.00000E+00
         0.00000E+00
         0.00000E+00
         0.00000E+00
         0.00000E+00
         0.00000E+00
         0.00000E+00
         0.00000E+00
         0.00000E+00
         0.00000E+00
         0.00000E+00
         0.00000E+00
         0.00000E+00
         0.00000E+00
         0.00000E+00
         0.00000E+00
         0.00000E+00
         0.00000E+00
         0.00000E+00
         0.00000E+00
         0.00000E+00
         0.00000E+00
         0.00000E+00
         0.00000E+00
         0.00000E+00
         0.00000E+00
         0.00000E+00
         0.00000E+00
         0.00000E+00
         0.00000E+00
         0.00000E+00
         0.00000E+00
         0.00000E+00
         0.00000E+00
         0.00000E+00
         0.00000E+00
         0.00000E+00
         0.00000E+00
         0.00000E+00
         0.00000E+00
         0.00000E+00
         0.00000E+00
         0.00000E+00
         0.00000E+00
         0.00000E+00
         0.00000E+00
         0.00000E+00
         0.00000E+00
         0.00000E+00
         0.00000E+00
         0.00000E+00
         0.00000E+00
         0.00000E+00
         0.00000E+00
         0.00000E+00
         0.00000E+00
         0.00000E+00
         0.00000E+00
         0.00000E+00
         0.00000E+00
         0.00000E+00
         0.00000E+00
         0.00000E+00
         0.00000E+00
         0.00000E+00
         0.00000E+00
         0.00000E+00
         0.00000E+00
         0.00000E+00
         0.00000E+00
         0.00000E+00
         0.00000E+00
         0.00000E+00
         0.00000E+00
         0.00000E+00
         0.00000E+00
         0.00000E+00
         0.00000E+00
         0.00000E+00
         0.00000E+00
         0.00000E+00
         0.00000E+00
         0.00000E+00
         0.00000E+00
         0.00000E+00
         0.00000E+00
         0.00000E+00
         0.00000E+00
         0.00000E+00
         0.00000E+00
         0.00000E+00
         0.00000E+00
         0.00000E+00
         0.00000E+00
         0.00000E+00
         0.00000E+00
         0.00000E+00
         0.00000E+00
         0.00000E+00
         0.00000E+00
         0.00000E+00
         0.00000E+00
         0.00000E+00
         0.00000E+00
         0.00000E+00
         0.00000E+00
         0.00000E+00
         0.00000E+00
         0.00000E+00
         0.00000E+00
         0.00000E+00
         0.00000E+00
         0.00000E+00
         0.00000E+00
         0.00000E+00
         0.00000E+00
         0.00000E+00
         0.00000E+00
         0.00000E+00
         0.00000E+00
         0.00000E+00
         0.00000E+00
         0.00000E+00
         0.00000E+00
         0.00000E+00
         0.00000E+00
         0.00000E+00
         0.00000E+00
         0.00000E+00
         0.00000E+00
         0.00000E+00
         0.00000E+00
         0.00000E+00
         0.00000E+00
         0.00000E+00
         0.00000E+00
         0.00000E+00
         0.00000E+00
         0.00000E+00
         0.00000E+00
         0.00000E+00
         0.00000E+00
         0.00000E+00
         0.00000E+00
         0.00000E+00
         0.00000E+00
         0.00000E+00
         0.00000E+00
         0.00000E+00
         0.00000E+00
         0.00000E+00
         0.00000E+00
         0.00000E+00
         0.00000E+00
         0.00000E+00
         0.00000E+00
         0.00000E+00
         0.00000E+00
         0.00000E+00
         0.00000E+00
         0.00000E+00
         0.00000E+00
         0.00000E+00
         0.00000E+00
         0.00000E+00
         0.00000E+00
         0.00000E+00
         0.00000E+00
         0.00000E+00
         0.00000E+00
         0.00000E+00
         0.00000E+00
         0.00000E+00
         0.00000E+00
         0.00000E+00
         0.00000E+00
         0.00000E+00
         0.00000E+00
         0.00000E+00
         0.00000E+00
         0.00000E+00
         0.00000E+00
         0.00000E+00
         0.00000E+00
         0.00000E+00
         0.00000E+00
         0.00000E+00
         0.00000E+00
         0.00000E+00
         0.00000E+00
         0.00000E+00
         0.00000E+00
         0.00000E+00
         0.00000E+00
         0.00000E+00
         0.00000E+00
         0.00000E+00
         0.00000E+00
         0.00000E+00
         0.00000E+00
         0.00000E+00
         0.00000E+00
         0.00000E+00
         0.00000E+00
         0.00000E+00
         0.00000E+00
         0.00000E+00
         0.00000E+00
         0.00000E+00
         0.00000E+00
         0.00000E+00
         0.00000E+00
         0.00000E+00
         0.00000E+00
         0.00000E+00
         0.00000E+00
         0.00000E+00
         0.00000E+00
         0.00000E+00
         0.00000E+00
         0.00000E+00
         0.00000E+00
         0.00000E+00
         0.00000E+00
         0.00000E+00
         0.00000E+00
         0.00000E+00
         0.00000E+00
         0.00000E+00
         0.00000E+00
         0.00000E+00
         0.00000E+00
         0.00000E+00
         0.00000E+00
         0.00000E+00
         0.00000E+00
         0.00000E+00
         0.00000E+00
         0.00000E+00
         0.00000E+00
         0.00000E+00
         0.00000E+00
         0.00000E+00
         0.00000E+00
         0.00000E+00
         0.00000E+00
         0.00000E+00
         0.00000E+00
         0.00000E+00
         0.00000E+00
         0.00000E+00
         0.00000E+00
         0.00000E+00
         0.00000E+00
         0.00000E+00
         0.00000E+00
         0.00000E+00
         0.00000E+00
         0.00000E+00
         0.00000E+00
         0.00000E+00
         0.00000E+00
         0.00000E+00
         0.00000E+00
         0.00000E+00
         0.00000E+00
         0.00000E+00
         0.00000E+00
         0.00000E+00
         0.00000E+00
         0.00000E+00
         0.00000E+00
         0.00000E+00
         0.00000E+00
         0.00000E+00
         0.00000E+00
         0.00000E+00
         0.00000E+00
         0.00000E+00
         0.00000E+00
         0.00000E+00
         0.00000E+00
         0.00000E+00
         0.00000E+00
         0.00000E+00
         0.00000E+00
         0.00000E+00
         0.00000E+00
         0.00000E+00
         0.00000E+00
         0.00000E+00
         0.00000E+00
         0.00000E+00
         0.00000E+00
         0.00000E+00
         0.00000E+00
         0.00000E+00
         0.00000E+00
         0.00000E+00
         0.00000E+00
         0.00000E+00
         0.00000E+00
         0.00000E+00
         0.00000E+00
         0.00000E+00
         0.00000E+00
         0.00000E+00
         0.00000E+00
         0.00000E+00
         0.00000E+00
         0.00000E+00
         0.00000E+00
         0.00000E+00
         0.00000E+00
         0.00000E+00
         0.00000E+00
         0.00000E+00
         0.00000E+00
         0.00000E+00
         0.00000E+00
         0.00000E+00
         0.00000E+00
         0.00000E+00
         0.00000E+00
         0.00000E+00
         0.00000E+00
         0.00000E+00
         0.00000E+00
         0.00000E+00
         0.00000E+00
         0.00000E+00
         0.00000E+00
         0.00000E+00
         0.00000E+00
         0.00000E+00
         0.00000E+00
         0.00000E+00
         0.00000E+00
         0.00000E+00
         0.00000E+00
         0.00000E+00
         0.00000E+00
         0.00000E+00
         0.00000E+00
         0.00000E+00
         0.00000E+00
         0.00000E+00
         0.00000E+00
         0.00000E+00
         0.00000E+00
         0.00000E+00
         0.00000E+00
         0.00000E+00
         0.00000E+00
         0.00000E+00
         0.00000E+00
         0.00000E+00
         0.00000E+00
         0.00000E+00
         0.00000E+00
         0.00000E+00
         0.00000E+00
         0.00000E+00
         0.00000E+00
         0.00000E+00
         0.00000E+00
         0.00000E+00
         0.00000E+00
         0.00000E+00
         0.00000E+00
         0.00000E+00
         0.00000E+00
         0.00000E+00
         0.00000E+00
         0.00000E+00
         0.00000E+00
         0.00000E+00
         0.00000E+00
         0.00000E+00
         0.00000E+00
         0.00000E+00
         0.00000E+00
         0.00000E+00
         0.00000E+00
         0.00000E+00
         0.00000E+00
         0.00000E+00
         0.00000E+00
         0.00000E+00
         0.00000E+00
         0.00000E+00
         0.00000E+00
         0.00000E+00
         0.00000E+00
         0.00000E+00
         0.00000E+00
         0.00000E+00
         0.00000E+00
         0.00000E+00
         0.00000E+00
         0.00000E+00
         0.00000E+00
         0.00000E+00
         0.00000E+00
         0.00000E+00
         0.00000E+00
         0.00000E+00
         0.00000E+00
         0.00000E+00
         0.00000E+00
         0.00000E+00
         0.00000E+00
         0.00000E+00
         0.00000E+00
         0.00000E+00
         0.00000E+00
         0.00000E+00
         0.00000E+00
         0.00000E+00
         0.00000E+00
         0.00000E+00
         0.00000E+00
         0.00000E+00
         0.00000E+00
         0.00000E+00
         0.00000E+00
         0.00000E+00
         0.00000E+00
         0.00000E+00
         0.00000E+00
         0.00000E+00
         0.00000E+00
         0.00000E+00
         0.00000E+00
         0.00000E+00
         0.00000E+00
         0.00000E+00
         0.00000E+00
         0.00000E+00
         0.00000E+00
         0.00000E+00
         0.00000E+00
         0.00000E+00
         0.00000E+00
         0.00000E+00
         0.00000E+00
         0.00000E+00
         0.00000E+00
         0.00000E+00
         0.00000E+00
         0.00000E+00
         0.00000E+00
         0.00000E+00
         0.00000E+00
         0.00000E+00
         0.00000E+00
         0.00000E+00
         0.00000E+00
         0.00000E+00
         0.00000E+00
         0.00000E+00
         0.00000E+00
         0.00000E+00
         0.00000E+00
         0.00000E+00
         0.00000E+00
         0.00000E+00
         0.00000E+00
         0.00000E+00
         0.00000E+00
         0.00000E+00
         0.00000E+00
         0.00000E+00
         0.00000E+00
         0.00000E+00
         0.00000E+00
         0.00000E+00
         0.00000E+00
         0.00000E+00
         0.00000E+00
         0.00000E+00
         0.00000E+00
         0.00000E+00
         0.00000E+00
         0.00000E+00
         0.00000E+00
         0.00000E+00
         0.00000E+00
         0.00000E+00
         0.00000E+00
         0.00000E+00
         0.00000E+00
         0.00000E+00
         0.00000E+00
         0.00000E+00
         0.00000E+00
         0.00000E+00
         0.00000E+00
         0.00000E+00
         0.00000E+00
         0.00000E+00
         0.00000E+00
         0.00000E+00
         0.00000E+00
         0.00000E+00
         0.00000E+00
         0.00000E+00
         0.00000E+00
         0.00000E+00
         0.00000E+00
         0.00000E+00
         0.00000E+00
         0.00000E+00
         0.00000E+00
         0.00000E+00
         0.00000E+00
         0.00000E+00
         0.00000E+00
         0.00000E+00
         0.00000E+00
         0.00000E+00
         0.00000E+00
         0.00000E+00
         0.00000E+00
         0.00000E+00
         0.00000E+00
         0.00000E+00
         0.00000E+00
         0.00000E+00
         0.00000E+00
         0.00000E+00
         0.00000E+00
         0.00000E+00
         0.00000E+00
         0.00000E+00
         0.00000E+00
         0.00000E+00
         0.00000E+00
         0.00000E+00
         0.00000E+00
         0.00000E+00
         0.00000E+00
         0.00000E+00
         0.00000E+00
         0.00000E+00
         0.00000E+00
         0.00000E+00
         0.00000E+00
         0.00000E+00
         0.00000E+00
         0.00000E+00
         0.00000E+00
         0.00000E+00
         0.00000E+00
         0.00000E+00
         0.00000E+00
         0.00000E+00
         0.00000E+00
         0.00000E+00
         0.00000E+00
         0.00000E+00
         0.00000E+00
         0.00000E+00
         0.00000E+00
         0.00000E+00
         0.00000E+00
         0.00000E+00
         0.00000E+00
         0.00000E+00
         0.00000E+00
         0.00000E+00
         0.00000E+00
         0.00000E+00
         0.00000E+00
         0.00000E+00
         0.00000E+00
         0.00000E+00
         0.00000E+00
         0.00000E+00
         0.00000E+00
         0.00000E+00
         0.00000E+00
         0.00000E+00
         0.00000E+00
         0.00000E+00
         0.00000E+00
         0.00000E+00
         0.00000E+00
         0.00000E+00
         0.00000E+00
         0.00000E+00
         0.00000E+00
         0.00000E+00
         0.00000E+00
         0.00000E+00
         0.00000E+00
         0.00000E+00
         0.00000E+00
         0.00000E+00
         0.00000E+00
         0.00000E+00
         0.00000E+00
         0.00000E+00
         0.00000E+00
         0.00000E+00
         0.00000E+00
         0.00000E+00
         0.00000E+00
         0.00000E+00
         0.00000E+00
         0.00000E+00
         0.00000E+00
         0.00000E+00
         0.00000E+00
         0.00000E+00
         0.00000E+00
         0.00000E+00
         0.00000E+00
         0.00000E+00
         0.00000E+00
         0.00000E+00
         0.00000E+00
         0.00000E+00
         0.00000E+00
         0.00000E+00
         0.00000E+00
         0.00000E+00
         0.00000E+00
         0.00000E+00
         0.00000E+00
         0.00000E+00
         0.00000E+00
         0.00000E+00
         0.00000E+00
         0.00000E+00
         0.00000E+00
         0.00000E+00
         0.00000E+00
         0.00000E+00
         0.00000E+00
         0.00000E+00
         0.00000E+00
         0.00000E+00
         0.00000E+00
         0.00000E+00
         0.00000E+00
         0.00000E+00
         0.00000E+00
         0.00000E+00
         0.00000E+00
         0.00000E+00
         0.00000E+00
         0.00000E+00
         0.00000E+00
         0.00000E+00
         0.00000E+00
         0.00000E+00
         0.00000E+00
         0.00000E+00
         0.00000E+00
         0.00000E+00
         0.00000E+00
         0.00000E+00
         0.00000E+00
         0.00000E+00
         0.00000E+00
         0.00000E+00
         0.00000E+00
         0.00000E+00
         0.00000E+00
         0.00000E+00
         0.00000E+00
         0.00000E+00
         0.00000E+00
         0.00000E+00
         0.00000E+00
         0.00000E+00
         0.00000E+00
         0.00000E+00
         0.00000E+00
         0.00000E+00
         0.00000E+00
         0.00000E+00
         0.00000E+00
         0.00000E+00
         0.00000E+00
         0.00000E+00
         0.00000E+00
         0.00000E+00
         0.00000E+00
         0.00000E+00
         0.00000E+00
         0.00000E+00
         0.00000E+00
         0.00000E+00
         0.00000E+00
         0.00000E+00
         0.00000E+00
         0.00000E+00
         0.00000E+00
         0.00000E+00
         0.00000E+00
         0.00000E+00
         0.00000E+00
         0.00000E+00
         0.00000E+00
         0.00000E+00
         0.00000E+00
         0.00000E+00
         0.00000E+00
         0.00000E+00
         0.00000E+00
         0.00000E+00
         0.00000E+00
         0.00000E+00
         0.00000E+00
         0.00000E+00
         0.00000E+00
         0.00000E+00
         0.00000E+00
         0.00000E+00
         0.00000E+00
         0.00000E+00
         0.00000E+00
         0.00000E+00
         0.00000E+00
         0.00000E+00
         0.00000E+00
         0.00000E+00
         0.00000E+00
         0.00000E+00
         0.00000E+00
         0.00000E+00
         0.00000E+00
         0.00000E+00
         0.00000E+00
         0.00000E+00
         0.00000E+00
         0.00000E+00
         0.00000E+00
         0.00000E+00
         0.00000E+00
         0.00000E+00
         0.00000E+00
         0.00000E+00
         0.00000E+00
         0.00000E+00
         0.00000E+00
         0.00000E+00
         0.00000E+00
         0.00000E+00
         0.00000E+00
         0.00000E+00
         0.00000E+00
         0.00000E+00
         0.00000E+00
         0.00000E+00
         0.00000E+00
         0.00000E+00
         0.00000E+00
         0.00000E+00
         0.00000E+00
         0.00000E+00
         0.00000E+00
         0.00000E+00
         0.00000E+00
         0.00000E+00
         0.00000E+00
         0.00000E+00
         0.00000E+00
         0.00000E+00
         0.00000E+00
         0.00000E+00
         0.00000E+00
         0.00000E+00
         0.00000E+00
         0.00000E+00
         0.00000E+00
         0.00000E+00
         0.00000E+00
         0.00000E+00
         0.00000E+00
         0.00000E+00
         0.00000E+00
         0.00000E+00
         0.00000E+00
         0.00000E+00
         0.00000E+00
         0.00000E+00
         0.00000E+00
         0.00000E+00
         0.00000E+00
         0.00000E+00
         0.00000E+00
         0.00000E+00
         0.00000E+00
         0.00000E+00
         0.00000E+00
         0.00000E+00
         0.00000E+00
         0.00000E+00
         0.00000E+00
         0.00000E+00
         0.00000E+00
         0.00000E+00
         0.00000E+00
         0.00000E+00
         0.00000E+00
         0.00000E+00
         0.00000E+00
         0.00000E+00
         0.00000E+00
         0.00000E+00
         0.00000E+00
         0.00000E+00
         0.00000E+00
         0.00000E+00
         0.00000E+00
         0.00000E+00
         0.00000E+00
         0.00000E+00
         0.00000E+00
         0.00000E+00
         0.00000E+00
         0.00000E+00
         0.00000E+00
         0.00000E+00
         0.00000E+00
         0.00000E+00
         0.00000E+00
         0.00000E+00
         0.00000E+00
         0.00000E+00
         0.00000E+00
         0.00000E+00
         0.00000E+00
         0.00000E+00
         0.00000E+00
         0.00000E+00
         0.00000E+00
         0.00000E+00
         0.00000E+00
         0.00000E+00
         0.00000E+00
         0.00000E+00
         0.00000E+00
         0.00000E+00
         0.00000E+00
         0.00000E+00
         0.00000E+00
         0.00000E+00
         0.00000E+00
         0.00000E+00
         0.00000E+00
         0.00000E+00
         0.00000E+00
         0.00000E+00
         0.00000E+00
         0.00000E+00
         0.00000E+00
         0.00000E+00
         0.00000E+00
         0.00000E+00
         0.00000E+00
         0.00000E+00
         0.00000E+00
         0.00000E+00
         0.00000E+00
         0.00000E+00
         0.00000E+00
         0.00000E+00
         0.00000E+00
         0.00000E+00
         0.00000E+00
         0.00000E+00
         0.00000E+00
         0.00000E+00
         0.00000E+00
         0.00000E+00
         0.00000E+00
         0.00000E+00
         0.00000E+00
         0.00000E+00
         0.00000E+00
         0.00000E+00
         0.00000E+00
         0.00000E+00
         0.00000E+00
         0.00000E+00
         0.00000E+00
         0.00000E+00
         0.00000E+00
         0.00000E+00
         0.00000E+00
         0.00000E+00
         0.00000E+00
         0.00000E+00
         0.00000E+00
         0.00000E+00
         0.00000E+00
         0.00000E+00
         0.00000E+00
         0.00000E+00
         0.00000E+00
         0.00000E+00
         0.00000E+00
         0.00000E+00
         0.00000E+00
         0.00000E+00
         0.00000E+00
         0.00000E+00
         0.00000E+00
         0.00000E+00
         0.00000E+00
         0.00000E+00
         0.00000E+00
         0.00000E+00
         0.00000E+00
         0.00000E+00
         0.00000E+00
         0.00000E+00
         0.00000E+00
         0.00000E+00
         0.00000E+00
         0.00000E+00
         0.00000E+00
         0.00000E+00
         0.00000E+00
         0.00000E+00
         0.00000E+00
         0.00000E+00
         0.00000E+00
         0.00000E+00
         0.00000E+00
         0.00000E+00
         0.00000E+00
         0.00000E+00
         0.00000E+00
         0.00000E+00
         0.00000E+00
         0.00000E+00
         0.00000E+00
         0.00000E+00
         0.00000E+00
         0.00000E+00
         0.00000E+00
         0.00000E+00
         0.00000E+00
         0.00000E+00
         0.00000E+00
         0.00000E+00
         0.00000E+00
         0.00000E+00
         0.00000E+00
         0.00000E+00
         0.00000E+00
         0.00000E+00
         0.00000E+00
         0.00000E+00
         0.00000E+00
         0.00000E+00
         0.00000E+00
         0.00000E+00
         0.00000E+00
         0.00000E+00
         0.00000E+00
         0.00000E+00
         0.00000E+00
         0.00000E+00
         0.00000E+00
         0.00000E+00
         0.00000E+00
         0.00000E+00
         0.00000E+00
         0.00000E+00
         0.00000E+00
         0.00000E+00
         0.00000E+00
         0.00000E+00
         0.00000E+00
         0.00000E+00
         0.00000E+00
         0.00000E+00
         0.00000E+00
         0.00000E+00
         0.00000E+00
         0.00000E+00
         0.00000E+00
         0.00000E+00
         0.00000E+00
         0.00000E+00
         0.00000E+00
         0.00000E+00
         0.00000E+00
         0.00000E+00
         0.00000E+00
         0.00000E+00
         0.00000E+00
         0.00000E+00
         0.00000E+00
         0.00000E+00
         0.00000E+00
         0.00000E+00
         0.00000E+00
         0.00000E+00
         0.00000E+00
         0.00000E+00
         0.00000E+00
         0.00000E+00
         0.00000E+00
         0.00000E+00
         0.00000E+00
         0.00000E+00
         0.00000E+00
         0.00000E+00
         0.00000E+00
         0.00000E+00
         0.00000E+00
         0.00000E+00
         0.00000E+00
         0.00000E+00
         0.00000E+00
         0.00000E+00
         0.00000E+00
         0.00000E+00
         0.00000E+00
         0.00000E+00
         0.00000E+00
         0.00000E+00
         0.00000E+00
         0.00000E+00
         0.00000E+00
         0.00000E+00
         0.00000E+00
         0.00000E+00
         0.00000E+00
         0.00000E+00
         0.00000E+00
         0.00000E+00
         0.00000E+00
         0.00000E+00
         0.00000E+00
         0.00000E+00
         0.00000E+00
         0.00000E+00
         0.00000E+00
         0.00000E+00
         0.00000E+00
         0.00000E+00
         0.00000E+00
         0.00000E+00
         0.00000E+00
         0.00000E+00
         0.00000E+00
         0.00000E+00
         0.00000E+00
         0.00000E+00
         0.00000E+00
         0.00000E+00
         0.00000E+00
         0.00000E+00
         0.00000E+00
         0.00000E+00
         0.00000E+00
         0.00000E+00
         0.00000E+00
         0.00000E+00
         0.00000E+00
         0.00000E+00
         0.00000E+00
         0.00000E+00
         0.00000E+00
         0.00000E+00
         0.00000E+00
         0.00000E+00
         0.00000E+00
         0.00000E+00
         0.00000E+00
         0.00000E+00
         0.00000E+00
         0.00000E+00
         0.00000E+00
         0.00000E+00
         0.00000E+00
         0.00000E+00
         0.00000E+00
         0.00000E+00
         0.00000E+00
         0.00000E+00
         0.00000E+00
         0.00000E+00
         0.00000E+00
         0.00000E+00
         0.00000E+00
         0.00000E+00
         0.00000E+00
         0.00000E+00
         0.00000E+00
         0.00000E+00
         0.00000E+00
         0.00000E+00
         0.00000E+00
         0.00000E+00
         0.00000E+00
         0.00000E+00
         0.00000E+00
         0.00000E+00
         0.00000E+00
         0.00000E+00
         0.00000E+00
         0.00000E+00
         0.00000E+00
         0.00000E+00
         0.00000E+00
         0.00000E+00
         0.00000E+00
         0.00000E+00
         0.00000E+00
         0.00000E+00
         0.00000E+00
         0.00000E+00
         0.00000E+00
         0.00000E+00
         0.00000E+00
         0.00000E+00
         0.00000E+00
         0.00000E+00
         0.00000E+00
         0.00000E+00
         0.00000E+00
         0.00000E+00
         0.00000E+00
         0.00000E+00
         0.00000E+00
         0.00000E+00
         0.00000E+00
         0.00000E+00
         0.00000E+00
         0.00000E+00
         0.00000E+00
         0.00000E+00
         0.00000E+00
         0.00000E+00
         0.00000E+00
         0.00000E+00
         0.00000E+00
         0.00000E+00
         0.00000E+00
         0.00000E+00
         0.00000E+00
         0.00000E+00
         0.00000E+00
         0.00000E+00
         0.00000E+00
         0.00000E+00
         0.00000E+00
         0.00000E+00
         0.00000E+00
         0.00000E+00
         0.00000E+00
         0.00000E+00
         0.00000E+00
         0.00000E+00
         0.00000E+00
         0.00000E+00
         0.00000E+00
         0.00000E+00
         0.00000E+00
         0.00000E+00
         0.00000E+00
         0.00000E+00
         0.00000E+00
         0.00000E+00
         0.00000E+00
         0.00000E+00
         0.00000E+00
         0.00000E+00
         0.00000E+00
         0.00000E+00
         0.00000E+00
         0.00000E+00
         0.00000E+00
         0.00000E+00
         0.00000E+00
         0.00000E+00
         0.00000E+00
         0.00000E+00
         0.00000E+00
         0.00000E+00
         0.00000E+00
         0.00000E+00
         0.00000E+00
         0.00000E+00
         0.00000E+00
         0.00000E+00
         0.00000E+00
         0.00000E+00
         0.00000E+00
         0.00000E+00
         0.00000E+00
         0.00000E+00
         0.00000E+00
         0.00000E+00
         0.00000E+00
         0.00000E+00
         0.00000E+00
         0.00000E+00
         0.00000E+00
         0.00000E+00
         0.00000E+00
         0.00000E+00
         0.00000E+00
         0.00000E+00
         0.00000E+00
         0.00000E+00
         0.00000E+00
         0.00000E+00
         0.00000E+00
         0.00000E+00
         0.00000E+00
         0.00000E+00
         0.00000E+00
         0.00000E+00
         0.00000E+00
         0.00000E+00
         0.00000E+00
         0.00000E+00
         0.00000E+00
         0.00000E+00
         0.00000E+00
         0.00000E+00
         0.00000E+00
         0.00000E+00
         0.00000E+00
         0.00000E+00
         0.00000E+00
         0.00000E+00
         0.00000E+00
         0.00000E+00
         0.00000E+00
         0.00000E+00
         0.00000E+00
         0.00000E+00
         0.00000E+00
         0.00000E+00
         0.00000E+00
         0.00000E+00
         0.00000E+00
         0.00000E+00
         0.00000E+00
         0.00000E+00
         0.00000E+00
         0.00000E+00
         0.00000E+00
         0.00000E+00
         0.00000E+00
         0.00000E+00
         0.00000E+00
         0.00000E+00
         0.00000E+00
         0.00000E+00
         0.00000E+00
         0.00000E+00
         0.00000E+00
         0.00000E+00
         0.00000E+00
         0.00000E+00
         0.00000E+00
         0.00000E+00
         0.00000E+00
         0.00000E+00
         0.00000E+00
         0.00000E+00
         0.00000E+00
         0.00000E+00
         0.00000E+00
         0.00000E+00
         0.00000E+00
         0.00000E+00
         0.00000E+00
         0.00000E+00
         0.00000E+00
         0.00000E+00
         0.00000E+00
         0.00000E+00
         0.00000E+00
         0.00000E+00
         0.00000E+00
         0.00000E+00
         0.00000E+00
         0.00000E+00
         0.00000E+00
         0.00000E+00
         0.00000E+00
         0.00000E+00
         0.00000E+00
         0.00000E+00
         0.00000E+00
         0.00000E+00
         0.00000E+00
         0.00000E+00
         0.00000E+00
         0.00000E+00
         0.00000E+00
         0.00000E+00
         0.00000E+00
         0.00000E+00
         0.00000E+00
         0.00000E+00
         0.00000E+00
         0.00000E+00
         0.00000E+00
         0.00000E+00
         0.00000E+00
         0.00000E+00
         0.00000E+00
         0.00000E+00
         0.00000E+00
         0.00000E+00
         0.00000E+00
         0.00000E+00
  
SCALARS                   max_wave_vel  double 1
LOOKUP_TABLE default
         0.00000E+00
         0.00000E+00
         0.00000E+00
         0.00000E+00
         0.00000E+00
         0.00000E+00
         0.00000E+00
         0.00000E+00
         0.00000E+00
         0.00000E+00
         0.00000E+00
         0.00000E+00
         0.00000E+00
         0.00000E+00
         0.00000E+00
         0.00000E+00
         0.00000E+00
         0.00000E+00
         0.00000E+00
         0.00000E+00
         0.00000E+00
         0.00000E+00
         0.00000E+00
         0.00000E+00
         0.00000E+00
         0.00000E+00
         0.00000E+00
         0.00000E+00
         0.00000E+00
         0.00000E+00
         0.00000E+00
         0.00000E+00
         0.00000E+00
         0.00000E+00
         0.00000E+00
         0.00000E+00
         0.00000E+00
         0.00000E+00
         0.00000E+00
         0.00000E+00
         0.00000E+00
         0.00000E+00
         0.00000E+00
         0.00000E+00
         0.00000E+00
         0.00000E+00
         0.00000E+00
         0.00000E+00
         0.00000E+00
         0.00000E+00
         0.00000E+00
         0.00000E+00
         0.00000E+00
         0.00000E+00
         0.00000E+00
         0.00000E+00
         0.00000E+00
         0.00000E+00
         0.00000E+00
         0.00000E+00
         0.00000E+00
         0.00000E+00
         0.00000E+00
         0.00000E+00
         0.00000E+00
         0.00000E+00
         0.00000E+00
         0.00000E+00
         0.00000E+00
         0.00000E+00
         0.00000E+00
         0.00000E+00
         0.00000E+00
         0.00000E+00
         0.00000E+00
         0.00000E+00
         0.00000E+00
         0.00000E+00
         0.00000E+00
         0.00000E+00
         0.00000E+00
         0.00000E+00
         0.00000E+00
         0.00000E+00
         0.00000E+00
         0.00000E+00
         0.00000E+00
         0.00000E+00
         0.00000E+00
         0.00000E+00
         0.00000E+00
         0.00000E+00
         0.00000E+00
         0.00000E+00
         0.00000E+00
         0.00000E+00
         0.00000E+00
         0.00000E+00
         0.00000E+00
         0.00000E+00
         0.00000E+00
         0.00000E+00
         0.00000E+00
         0.00000E+00
         0.00000E+00
         0.00000E+00
         0.00000E+00
         0.00000E+00
         0.00000E+00
         0.00000E+00
         0.00000E+00
         0.00000E+00
         0.00000E+00
         0.00000E+00
         0.00000E+00
         0.00000E+00
         0.00000E+00
         0.00000E+00
         0.00000E+00
         0.00000E+00
         0.00000E+00
         0.00000E+00
         0.00000E+00
         0.00000E+00
         0.00000E+00
         0.00000E+00
         0.00000E+00
         0.00000E+00
         0.00000E+00
         0.00000E+00
         0.00000E+00
         0.00000E+00
         0.00000E+00
         0.00000E+00
         0.00000E+00
         0.00000E+00
         0.00000E+00
         0.00000E+00
         0.00000E+00
         0.00000E+00
         0.00000E+00
         0.00000E+00
         0.00000E+00
         0.00000E+00
         0.00000E+00
         0.00000E+00
         0.00000E+00
         0.00000E+00
         0.00000E+00
         0.00000E+00
         0.00000E+00
         0.00000E+00
         0.00000E+00
         0.00000E+00
         0.00000E+00
         0.00000E+00
         0.00000E+00
         0.00000E+00
         0.00000E+00
         0.00000E+00
         0.00000E+00
         0.00000E+00
         0.00000E+00
         0.00000E+00
         0.00000E+00
         0.00000E+00
         0.00000E+00
         0.00000E+00
         0.00000E+00
         0.00000E+00
         0.00000E+00
         0.00000E+00
         0.00000E+00
         0.00000E+00
         0.00000E+00
         0.00000E+00
         0.00000E+00
         0.00000E+00
         0.00000E+00
         0.00000E+00
         0.00000E+00
         0.00000E+00
         0.00000E+00
         0.00000E+00
         0.00000E+00
         0.00000E+00
         0.00000E+00
         0.00000E+00
         0.00000E+00
         0.00000E+00
         0.00000E+00
         0.00000E+00
         0.00000E+00
         0.00000E+00
         0.00000E+00
         0.00000E+00
         0.00000E+00
         0.00000E+00
         0.00000E+00
         0.00000E+00
         0.00000E+00
         0.00000E+00
         0.00000E+00
         0.00000E+00
         0.00000E+00
         0.00000E+00
         0.00000E+00
         0.00000E+00
         0.00000E+00
         0.00000E+00
         0.00000E+00
         0.00000E+00
         0.00000E+00
         0.00000E+00
         0.00000E+00
         0.00000E+00
         0.00000E+00
         0.00000E+00
         0.00000E+00
         0.00000E+00
         0.00000E+00
         0.00000E+00
         0.00000E+00
         0.00000E+00
         0.00000E+00
         0.00000E+00
         0.00000E+00
         0.00000E+00
         0.00000E+00
         0.00000E+00
         0.00000E+00
         0.00000E+00
         0.00000E+00
         0.00000E+00
         0.00000E+00
         0.00000E+00
         0.00000E+00
         0.00000E+00
         0.00000E+00
         0.00000E+00
         0.00000E+00
         0.00000E+00
         0.00000E+00
         0.00000E+00
         0.00000E+00
         0.00000E+00
         0.00000E+00
         0.00000E+00
         0.00000E+00
         0.00000E+00
         0.00000E+00
         0.00000E+00
         0.00000E+00
         0.00000E+00
         0.00000E+00
         0.00000E+00
         0.00000E+00
         0.00000E+00
         0.00000E+00
         0.00000E+00
         0.00000E+00
         0.00000E+00
         0.00000E+00
         0.00000E+00
         0.00000E+00
         0.00000E+00
         0.00000E+00
         0.00000E+00
         0.00000E+00
         0.00000E+00
         0.00000E+00
         0.00000E+00
         0.00000E+00
         0.00000E+00
         0.00000E+00
         0.00000E+00
         0.00000E+00
         0.00000E+00
         0.00000E+00
         0.00000E+00
         0.00000E+00
         0.00000E+00
         0.00000E+00
         0.00000E+00
         0.00000E+00
         0.00000E+00
         0.00000E+00
         0.00000E+00
         0.00000E+00
         0.00000E+00
         0.00000E+00
         0.00000E+00
         0.00000E+00
         0.00000E+00
         0.00000E+00
         0.00000E+00
         0.00000E+00
         0.00000E+00
         0.00000E+00
         0.00000E+00
         0.00000E+00
         0.00000E+00
         0.00000E+00
         0.00000E+00
         0.00000E+00
         0.00000E+00
         0.00000E+00
         0.00000E+00
         0.00000E+00
         0.00000E+00
         0.00000E+00
         0.00000E+00
         0.00000E+00
         0.00000E+00
         0.00000E+00
         0.00000E+00
         0.00000E+00
         0.00000E+00
         0.00000E+00
         0.00000E+00
         0.00000E+00
         0.00000E+00
         0.00000E+00
         0.00000E+00
         0.00000E+00
         0.00000E+00
         0.00000E+00
         0.00000E+00
         0.00000E+00
         0.00000E+00
         0.00000E+00
         0.00000E+00
         0.00000E+00
         0.00000E+00
         0.00000E+00
         0.00000E+00
         0.00000E+00
         0.00000E+00
         0.00000E+00
         0.00000E+00
         0.00000E+00
         0.00000E+00
         0.00000E+00
         0.00000E+00
         0.00000E+00
         0.00000E+00
         0.00000E+00
         0.00000E+00
         0.00000E+00
         0.00000E+00
         0.00000E+00
         0.00000E+00
         0.00000E+00
         0.00000E+00
         0.00000E+00
         0.00000E+00
         0.00000E+00
         0.00000E+00
         0.00000E+00
         0.00000E+00
         0.00000E+00
         0.00000E+00
         0.00000E+00
         0.00000E+00
         0.00000E+00
         0.00000E+00
         0.00000E+00
         0.00000E+00
         0.00000E+00
         0.00000E+00
         0.00000E+00
         0.00000E+00
         0.00000E+00
         0.00000E+00
         0.00000E+00
         0.00000E+00
         0.00000E+00
         0.00000E+00
         0.00000E+00
         0.00000E+00
         0.00000E+00
         0.00000E+00
         0.00000E+00
         0.00000E+00
         0.00000E+00
         0.00000E+00
         0.00000E+00
         0.00000E+00
         0.00000E+00
         0.00000E+00
         0.00000E+00
         0.00000E+00
         0.00000E+00
         0.00000E+00
         0.00000E+00
         0.00000E+00
         0.00000E+00
         0.00000E+00
         0.00000E+00
         0.00000E+00
         0.00000E+00
         0.00000E+00
         0.00000E+00
         0.00000E+00
         0.00000E+00
         0.00000E+00
         0.00000E+00
         0.00000E+00
         0.00000E+00
         0.00000E+00
         0.00000E+00
         0.00000E+00
         0.00000E+00
         0.00000E+00
         0.00000E+00
         0.00000E+00
         0.00000E+00
         0.00000E+00
         0.00000E+00
         0.00000E+00
         0.00000E+00
         0.00000E+00
         0.00000E+00
         0.00000E+00
         0.00000E+00
         0.00000E+00
         0.00000E+00
         0.00000E+00
         0.00000E+00
         0.00000E+00
         0.00000E+00
         0.00000E+00
         0.00000E+00
         0.00000E+00
         0.00000E+00
         0.00000E+00
         0.00000E+00
         0.00000E+00
         0.00000E+00
         0.00000E+00
         0.00000E+00
         0.00000E+00
         0.00000E+00
         0.00000E+00
         0.00000E+00
         0.00000E+00
         0.00000E+00
         0.00000E+00
         0.00000E+00
         0.00000E+00
         0.00000E+00
         0.00000E+00
         0.00000E+00
         0.00000E+00
         0.00000E+00
         0.00000E+00
         0.00000E+00
         0.00000E+00
         0.00000E+00
         0.00000E+00
         0.00000E+00
         0.00000E+00
         0.00000E+00
         0.00000E+00
         0.00000E+00
         0.00000E+00
         0.00000E+00
         0.00000E+00
         0.00000E+00
         0.00000E+00
         0.00000E+00
         0.00000E+00
         0.00000E+00
         0.00000E+00
         0.00000E+00
         0.00000E+00
         0.00000E+00
         0.00000E+00
         0.00000E+00
         0.00000E+00
         0.00000E+00
         0.00000E+00
         0.00000E+00
         0.00000E+00
         0.00000E+00
         0.00000E+00
         0.00000E+00
         0.00000E+00
         0.00000E+00
         0.00000E+00
         0.00000E+00
         0.00000E+00
         0.00000E+00
         0.00000E+00
         0.00000E+00
         0.00000E+00
         0.00000E+00
         0.00000E+00
         0.00000E+00
         0.00000E+00
         0.00000E+00
         0.00000E+00
         0.00000E+00
         0.00000E+00
         0.00000E+00
         0.00000E+00
         0.00000E+00
         0.00000E+00
         0.00000E+00
         0.00000E+00
         0.00000E+00
         0.00000E+00
         0.00000E+00
         0.00000E+00
         0.00000E+00
         0.00000E+00
         0.00000E+00
         0.00000E+00
         0.00000E+00
         0.00000E+00
         0.00000E+00
         0.00000E+00
         0.00000E+00
         0.00000E+00
         0.00000E+00
         0.00000E+00
         0.00000E+00
         0.00000E+00
         0.00000E+00
         0.00000E+00
         0.00000E+00
         0.00000E+00
         0.00000E+00
         0.00000E+00
         0.00000E+00
         0.00000E+00
         0.00000E+00
         0.00000E+00
         0.00000E+00
         0.00000E+00
         0.00000E+00
         0.00000E+00
         0.00000E+00
         0.00000E+00
         0.00000E+00
         0.00000E+00
         0.00000E+00
         0.00000E+00
         0.00000E+00
         0.00000E+00
         0.00000E+00
         0.00000E+00
         0.00000E+00
         0.00000E+00
         0.00000E+00
         0.00000E+00
         0.00000E+00
         0.00000E+00
         0.00000E+00
         0.00000E+00
         0.00000E+00
         0.00000E+00
         0.00000E+00
         0.00000E+00
         0.00000E+00
         0.00000E+00
         0.00000E+00
         0.00000E+00
         0.00000E+00
         0.00000E+00
         0.00000E+00
         0.00000E+00
         0.00000E+00
         0.00000E+00
         0.00000E+00
         0.00000E+00
         0.00000E+00
         0.00000E+00
         0.00000E+00
         0.00000E+00
         0.00000E+00
         0.00000E+00
         0.00000E+00
         0.00000E+00
         0.00000E+00
         0.00000E+00
         0.00000E+00
         0.00000E+00
         0.00000E+00
         0.00000E+00
         0.00000E+00
         0.00000E+00
         0.00000E+00
         0.00000E+00
         0.00000E+00
         0.00000E+00
         0.00000E+00
         0.00000E+00
         0.00000E+00
         0.00000E+00
         0.00000E+00
         0.00000E+00
         0.00000E+00
         0.00000E+00
         0.00000E+00
         0.00000E+00
         0.00000E+00
         0.00000E+00
         0.00000E+00
         0.00000E+00
         0.00000E+00
         0.00000E+00
         0.00000E+00
         0.00000E+00
         0.00000E+00
         0.00000E+00
         0.00000E+00
         0.00000E+00
         0.00000E+00
         0.00000E+00
         0.00000E+00
         0.00000E+00
         0.00000E+00
         0.00000E+00
         0.00000E+00
         0.00000E+00
         0.00000E+00
         0.00000E+00
         0.00000E+00
         0.00000E+00
         0.00000E+00
         0.00000E+00
         0.00000E+00
         0.00000E+00
         0.00000E+00
         0.00000E+00
         0.00000E+00
         0.00000E+00
         0.00000E+00
         0.00000E+00
         0.00000E+00
         0.00000E+00
         0.00000E+00
         0.00000E+00
         0.00000E+00
         0.00000E+00
         0.00000E+00
         0.00000E+00
         0.00000E+00
         0.00000E+00
         0.00000E+00
         0.00000E+00
         0.00000E+00
         0.00000E+00
         0.00000E+00
         0.00000E+00
         0.00000E+00
         0.00000E+00
         0.00000E+00
         0.00000E+00
         0.00000E+00
         0.00000E+00
         0.00000E+00
         0.00000E+00
         0.00000E+00
         0.00000E+00
         0.00000E+00
         0.00000E+00
         0.00000E+00
         0.00000E+00
         0.00000E+00
         0.00000E+00
         0.00000E+00
         0.00000E+00
         0.00000E+00
         0.00000E+00
         0.00000E+00
         0.00000E+00
         0.00000E+00
         0.00000E+00
         0.00000E+00
         0.00000E+00
         0.00000E+00
         0.00000E+00
         0.00000E+00
         0.00000E+00
         0.00000E+00
         0.00000E+00
         0.00000E+00
         0.00000E+00
         0.00000E+00
         0.00000E+00
         0.00000E+00
         0.00000E+00
         0.00000E+00
         0.00000E+00
         0.00000E+00
         0.00000E+00
         0.00000E+00
         0.00000E+00
         0.00000E+00
         0.00000E+00
         0.00000E+00
         0.00000E+00
         0.00000E+00
         0.00000E+00
         0.00000E+00
         0.00000E+00
         0.00000E+00
         0.00000E+00
         0.00000E+00
         0.00000E+00
         0.00000E+00
         0.00000E+00
         0.00000E+00
         0.00000E+00
         0.00000E+00
         0.00000E+00
         0.00000E+00
         0.00000E+00
         0.00000E+00
         0.00000E+00
         0.00000E+00
         0.00000E+00
         0.00000E+00
         0.00000E+00
         0.00000E+00
         0.00000E+00
         0.00000E+00
         0.00000E+00
         0.00000E+00
         0.00000E+00
         0.00000E+00
         0.00000E+00
         0.00000E+00
         0.00000E+00
         0.00000E+00
         0.00000E+00
         0.00000E+00
         0.00000E+00
         0.00000E+00
         0.00000E+00
         0.00000E+00
         0.00000E+00
         0.00000E+00
         0.00000E+00
         0.00000E+00
         0.00000E+00
         0.00000E+00
         0.00000E+00
         0.00000E+00
         0.00000E+00
         0.00000E+00
         0.00000E+00
         0.00000E+00
         0.00000E+00
         0.00000E+00
         0.00000E+00
         0.00000E+00
         0.00000E+00
         0.00000E+00
         0.00000E+00
         0.00000E+00
         0.00000E+00
         0.00000E+00
         0.00000E+00
         0.00000E+00
         0.00000E+00
         0.00000E+00
         0.00000E+00
         0.00000E+00
         0.00000E+00
         0.00000E+00
         0.00000E+00
         0.00000E+00
         0.00000E+00
         0.00000E+00
         0.00000E+00
         0.00000E+00
         0.00000E+00
         0.00000E+00
         0.00000E+00
         0.00000E+00
         0.00000E+00
         0.00000E+00
         0.00000E+00
         0.00000E+00
         0.00000E+00
         0.00000E+00
         0.00000E+00
         0.00000E+00
         0.00000E+00
         0.00000E+00
         0.00000E+00
         0.00000E+00
         0.00000E+00
         0.00000E+00
         0.00000E+00
         0.00000E+00
         0.00000E+00
         0.00000E+00
         0.00000E+00
         0.00000E+00
         0.00000E+00
         0.00000E+00
         0.00000E+00
         0.00000E+00
         0.00000E+00
         0.00000E+00
         0.00000E+00
         0.00000E+00
         0.00000E+00
         0.00000E+00
         0.00000E+00
         0.00000E+00
         0.00000E+00
         0.00000E+00
         0.00000E+00
         0.00000E+00
         0.00000E+00
         0.00000E+00
         0.00000E+00
         0.00000E+00
         0.00000E+00
         0.00000E+00
         0.00000E+00
         0.00000E+00
         0.00000E+00
         0.00000E+00
         0.00000E+00
         0.00000E+00
         0.00000E+00
         0.00000E+00
         0.00000E+00
         0.00000E+00
         0.00000E+00
         0.00000E+00
         0.00000E+00
         0.00000E+00
         0.00000E+00
         0.00000E+00
         0.00000E+00
         0.00000E+00
         0.00000E+00
         0.00000E+00
         0.00000E+00
         0.00000E+00
         0.00000E+00
         0.00000E+00
         0.00000E+00
         0.00000E+00
         0.00000E+00
         0.00000E+00
         0.00000E+00
         0.00000E+00
         0.00000E+00
         0.00000E+00
         0.00000E+00
         0.00000E+00
         0.00000E+00
         0.00000E+00
         0.00000E+00
         0.00000E+00
         0.00000E+00
         0.00000E+00
         0.00000E+00
         0.00000E+00
         0.00000E+00
         0.00000E+00
         0.00000E+00
         0.00000E+00
         0.00000E+00
         0.00000E+00
         0.00000E+00
         0.00000E+00
         0.00000E+00
         0.00000E+00
         0.00000E+00
         0.00000E+00
         0.00000E+00
         0.00000E+00
         0.00000E+00
         0.00000E+00
         0.00000E+00
         0.00000E+00
         0.00000E+00
         0.00000E+00
         0.00000E+00
         0.00000E+00
         0.00000E+00
         0.00000E+00
         0.00000E+00
         0.00000E+00
         0.00000E+00
         0.00000E+00
         0.00000E+00
         0.00000E+00
         0.00000E+00
         0.00000E+00
         0.00000E+00
         0.00000E+00
         0.00000E+00
         0.00000E+00
         0.00000E+00
         0.00000E+00
         0.00000E+00
         0.00000E+00
         0.00000E+00
         0.00000E+00
         0.00000E+00
         0.00000E+00
         0.00000E+00
         0.00000E+00
         0.00000E+00
         0.00000E+00
         0.00000E+00
         0.00000E+00
         0.00000E+00
         0.00000E+00
         0.00000E+00
         0.00000E+00
         0.00000E+00
         0.00000E+00
         0.00000E+00
         0.00000E+00
         0.00000E+00
         0.00000E+00
         0.00000E+00
         0.00000E+00
         0.00000E+00
         0.00000E+00
         0.00000E+00
         0.00000E+00
         0.00000E+00
         0.00000E+00
         0.00000E+00
         0.00000E+00
         0.00000E+00
         0.00000E+00
         0.00000E+00
         0.00000E+00
         0.00000E+00
         0.00000E+00
         0.00000E+00
         0.00000E+00
         0.00000E+00
         0.00000E+00
         0.00000E+00
         0.00000E+00
         0.00000E+00
         0.00000E+00
         0.00000E+00
         0.00000E+00
         0.00000E+00
         0.00000E+00
         0.00000E+00
         0.00000E+00
         0.00000E+00
         0.00000E+00
         0.00000E+00
         0.00000E+00
         0.00000E+00
         0.00000E+00
         0.00000E+00
         0.00000E+00
         0.00000E+00
         0.00000E+00
         0.00000E+00
         0.00000E+00
         0.00000E+00
         0.00000E+00
         0.00000E+00
         0.00000E+00
         0.00000E+00
         0.00000E+00
         0.00000E+00
         0.00000E+00
         0.00000E+00
         0.00000E+00
         0.00000E+00
         0.00000E+00
         0.00000E+00
         0.00000E+00
         0.00000E+00
         0.00000E+00
         0.00000E+00
         0.00000E+00
         0.00000E+00
         0.00000E+00
         0.00000E+00
         0.00000E+00
         0.00000E+00
         0.00000E+00
         0.00000E+00
         0.00000E+00
         0.00000E+00
         0.00000E+00
         0.00000E+00
         0.00000E+00
         0.00000E+00
         0.00000E+00
         0.00000E+00
         0.00000E+00
         0.00000E+00
         0.00000E+00
         0.00000E+00
         0.00000E+00
         0.00000E+00
         0.00000E+00
         0.00000E+00
         0.00000E+00
         0.00000E+00
         0.00000E+00
         0.00000E+00
         0.00000E+00
         0.00000E+00
         0.00000E+00
         0.00000E+00
         0.00000E+00
         0.00000E+00
         0.00000E+00
         0.00000E+00
         0.00000E+00
         0.00000E+00
         0.00000E+00
         0.00000E+00
         0.00000E+00
         0.00000E+00
         0.00000E+00
         0.00000E+00
         0.00000E+00
         0.00000E+00
         0.00000E+00
         0.00000E+00
         0.00000E+00
         0.00000E+00
         0.00000E+00
         0.00000E+00
         0.00000E+00
         0.00000E+00
         0.00000E+00
         0.00000E+00
         0.00000E+00
         0.00000E+00
         0.00000E+00
         0.00000E+00
         0.00000E+00
         0.00000E+00
         0.00000E+00
         0.00000E+00
         0.00000E+00
         0.00000E+00
         0.00000E+00
         0.00000E+00
         0.00000E+00
         0.00000E+00
         0.00000E+00
         0.00000E+00
         0.00000E+00
         0.00000E+00
         0.00000E+00
         0.00000E+00
         0.00000E+00
         0.00000E+00
         0.00000E+00
         0.00000E+00
         0.00000E+00
         0.00000E+00
         0.00000E+00
         0.00000E+00
         0.00000E+00
         0.00000E+00
         0.00000E+00
         0.00000E+00
         0.00000E+00
         0.00000E+00
         0.00000E+00
         0.00000E+00
         0.00000E+00
         0.00000E+00
         0.00000E+00
         0.00000E+00
         0.00000E+00
         0.00000E+00
         0.00000E+00
         0.00000E+00
         0.00000E+00
         0.00000E+00
         0.00000E+00
         0.00000E+00
         0.00000E+00
         0.00000E+00
         0.00000E+00
         0.00000E+00
         0.00000E+00
         0.00000E+00
         0.00000E+00
         0.00000E+00
         0.00000E+00
         0.00000E+00
         0.00000E+00
         0.00000E+00
         0.00000E+00
         0.00000E+00
         0.00000E+00
         0.00000E+00
         0.00000E+00
         0.00000E+00
         0.00000E+00
         0.00000E+00
         0.00000E+00
         0.00000E+00
         0.00000E+00
         0.00000E+00
         0.00000E+00
         0.00000E+00
         0.00000E+00
         0.00000E+00
         0.00000E+00
         0.00000E+00
         0.00000E+00
         0.00000E+00
         0.00000E+00
         0.00000E+00
         0.00000E+00
         0.00000E+00
         0.00000E+00
         0.00000E+00
         0.00000E+00
         0.00000E+00
         0.00000E+00
         0.00000E+00
         0.00000E+00
         0.00000E+00
         0.00000E+00
         0.00000E+00
         0.00000E+00
         0.00000E+00
         0.00000E+00
         0.00000E+00
         0.00000E+00
         0.00000E+00
         0.00000E+00
         0.00000E+00
         0.00000E+00
         0.00000E+00
         0.00000E+00
         0.00000E+00
         0.00000E+00
         0.00000E+00
         0.00000E+00
         0.00000E+00
         0.00000E+00
         0.00000E+00
         0.00000E+00
         0.00000E+00
         0.00000E+00
         0.00000E+00
         0.00000E+00
         0.00000E+00
         0.00000E+00
         0.00000E+00
         0.00000E+00
         0.00000E+00
         0.00000E+00
         0.00000E+00
         0.00000E+00
         0.00000E+00
         0.00000E+00
         0.00000E+00
         0.00000E+00
         0.00000E+00
         0.00000E+00
         0.00000E+00
         0.00000E+00
         0.00000E+00
         0.00000E+00
         0.00000E+00
         0.00000E+00
         0.00000E+00
         0.00000E+00
         0.00000E+00
         0.00000E+00
         0.00000E+00
         0.00000E+00
         0.00000E+00
         0.00000E+00
         0.00000E+00
         0.00000E+00
         0.00000E+00
         0.00000E+00
         0.00000E+00
         0.00000E+00
         0.00000E+00
         0.00000E+00
         0.00000E+00
         0.00000E+00
         0.00000E+00
         0.00000E+00
         0.00000E+00
         0.00000E+00
         0.00000E+00
         0.00000E+00
         0.00000E+00
         0.00000E+00
         0.00000E+00
         0.00000E+00
         0.00000E+00
         0.00000E+00
         0.00000E+00
         0.00000E+00
         0.00000E+00
         0.00000E+00
         0.00000E+00
         0.00000E+00
         0.00000E+00
         0.00000E+00
         0.00000E+00
         0.00000E+00
         0.00000E+00
         0.00000E+00
         0.00000E+00
         0.00000E+00
         0.00000E+00
         0.00000E+00
         0.00000E+00
         0.00000E+00
         0.00000E+00
         0.00000E+00
         0.00000E+00
         0.00000E+00
         0.00000E+00
         0.00000E+00
         0.00000E+00
         0.00000E+00
         0.00000E+00
         0.00000E+00
         0.00000E+00
         0.00000E+00
         0.00000E+00
         0.00000E+00
         0.00000E+00
         0.00000E+00
         0.00000E+00
         0.00000E+00
         0.00000E+00
         0.00000E+00
         0.00000E+00
         0.00000E+00
         0.00000E+00
         0.00000E+00
         0.00000E+00
         0.00000E+00
         0.00000E+00
         0.00000E+00
         0.00000E+00
         0.00000E+00
         0.00000E+00
         0.00000E+00
         0.00000E+00
         0.00000E+00
         0.00000E+00
         0.00000E+00
         0.00000E+00
         0.00000E+00
         0.00000E+00
         0.00000E+00
         0.00000E+00
         0.00000E+00
         0.00000E+00
         0.00000E+00
         0.00000E+00
         0.00000E+00
         0.00000E+00
         0.00000E+00
         0.00000E+00
         0.00000E+00
         0.00000E+00
         0.00000E+00
         0.00000E+00
         0.00000E+00
         0.00000E+00
         0.00000E+00
         0.00000E+00
         0.00000E+00
         0.00000E+00
         0.00000E+00
         0.00000E+00
         0.00000E+00
         0.00000E+00
         0.00000E+00
         0.00000E+00
         0.00000E+00
         0.00000E+00
         0.00000E+00
         0.00000E+00
         0.00000E+00
         0.00000E+00
         0.00000E+00
         0.00000E+00
         0.00000E+00
         0.00000E+00
         0.00000E+00
         0.00000E+00
         0.00000E+00
         0.00000E+00
         0.00000E+00
         0.00000E+00
         0.00000E+00
         0.00000E+00
         0.00000E+00
         0.00000E+00
         0.00000E+00
         0.00000E+00
         0.00000E+00
         0.00000E+00
         0.00000E+00
         0.00000E+00
         0.00000E+00
         0.00000E+00
         0.00000E+00
         0.00000E+00
         0.00000E+00
         0.00000E+00
         0.00000E+00
         0.00000E+00
         0.00000E+00
         0.00000E+00
         0.00000E+00
         0.00000E+00
         0.00000E+00
         0.00000E+00
         0.00000E+00
         0.00000E+00
         0.00000E+00
         0.00000E+00
         0.00000E+00
         0.00000E+00
         0.00000E+00
         0.00000E+00
         0.00000E+00
         0.00000E+00
         0.00000E+00
         0.00000E+00
         0.00000E+00
         0.00000E+00
         0.00000E+00
         0.00000E+00
         0.00000E+00
         0.00000E+00
         0.00000E+00
         0.00000E+00
         0.00000E+00
         0.00000E+00
         0.00000E+00
         0.00000E+00
         0.00000E+00
         0.00000E+00
         0.00000E+00
         0.00000E+00
         0.00000E+00
         0.00000E+00
         0.00000E+00
         0.00000E+00
         0.00000E+00
         0.00000E+00
         0.00000E+00
         0.00000E+00
         0.00000E+00
         0.00000E+00
         0.00000E+00
         0.00000E+00
         0.00000E+00
         0.00000E+00
         0.00000E+00
         0.00000E+00
         0.00000E+00
         0.00000E+00
         0.00000E+00
         0.00000E+00
         0.00000E+00
         0.00000E+00
         0.00000E+00
         0.00000E+00
         0.00000E+00
         0.00000E+00
         0.00000E+00
         0.00000E+00
         0.00000E+00
         0.00000E+00
         0.00000E+00
         0.00000E+00
         0.00000E+00
         0.00000E+00
         0.00000E+00
         0.00000E+00
         0.00000E+00
         0.00000E+00
         0.00000E+00
         0.00000E+00
         0.00000E+00
         0.00000E+00
         0.00000E+00
         0.00000E+00
         0.00000E+00
         0.00000E+00
         0.00000E+00
         0.00000E+00
         0.00000E+00
         0.00000E+00
         0.00000E+00
         0.00000E+00
         0.00000E+00
         0.00000E+00
         0.00000E+00
         0.00000E+00
         0.00000E+00
         0.00000E+00
         0.00000E+00
         0.00000E+00
         0.00000E+00
         0.00000E+00
         0.00000E+00
         0.00000E+00
         0.00000E+00
         0.00000E+00
         0.00000E+00
         0.00000E+00
         0.00000E+00
         0.00000E+00
         0.00000E+00
         0.00000E+00
         0.00000E+00
         0.00000E+00
         0.00000E+00
         0.00000E+00
         0.00000E+00
         0.00000E+00
         0.00000E+00
         0.00000E+00
         0.00000E+00
         0.00000E+00
         0.00000E+00
         0.00000E+00
         0.00000E+00
         0.00000E+00
         0.00000E+00
         0.00000E+00
         0.00000E+00
         0.00000E+00
         0.00000E+00
         0.00000E+00
         0.00000E+00
         0.00000E+00
         0.00000E+00
         0.00000E+00
         0.00000E+00
         0.00000E+00
         0.00000E+00
         0.00000E+00
         0.00000E+00
         0.00000E+00
         0.00000E+00
         0.00000E+00
         0.00000E+00
         0.00000E+00
         0.00000E+00
         0.00000E+00
         0.00000E+00
         0.00000E+00
         0.00000E+00
         0.00000E+00
         0.00000E+00
         0.00000E+00
         0.00000E+00
         0.00000E+00
         0.00000E+00
         0.00000E+00
         0.00000E+00
         0.00000E+00
         0.00000E+00
         0.00000E+00
         0.00000E+00
         0.00000E+00
         0.00000E+00
         0.00000E+00
         0.00000E+00
         0.00000E+00
         0.00000E+00
         0.00000E+00
         0.00000E+00
         0.00000E+00
         0.00000E+00
         0.00000E+00
         0.00000E+00
         0.00000E+00
         0.00000E+00
         0.00000E+00
         0.00000E+00
         0.00000E+00
         0.00000E+00
         0.00000E+00
         0.00000E+00
         0.00000E+00
         0.00000E+00
         0.00000E+00
         0.00000E+00
         0.00000E+00
         0.00000E+00
         0.00000E+00
         0.00000E+00
         0.00000E+00
         0.00000E+00
         0.00000E+00
         0.00000E+00
         0.00000E+00
         0.00000E+00
         0.00000E+00
         0.00000E+00
         0.00000E+00
         0.00000E+00
         0.00000E+00
         0.00000E+00
         0.00000E+00
         0.00000E+00
         0.00000E+00
         0.00000E+00
         0.00000E+00
         0.00000E+00
         0.00000E+00
         0.00000E+00
         0.00000E+00
         0.00000E+00
         0.00000E+00
         0.00000E+00
         0.00000E+00
         0.00000E+00
         0.00000E+00
         0.00000E+00
         0.00000E+00
         0.00000E+00
         0.00000E+00
         0.00000E+00
         0.00000E+00
         0.00000E+00
         0.00000E+00
         0.00000E+00
         0.00000E+00
         0.00000E+00
         0.00000E+00
         0.00000E+00
         0.00000E+00
         0.00000E+00
         0.00000E+00
         0.00000E+00
         0.00000E+00
         0.00000E+00
         0.00000E+00
         0.00000E+00
         0.00000E+00
         0.00000E+00
         0.00000E+00
         0.00000E+00
         0.00000E+00
         0.00000E+00
         0.00000E+00
         0.00000E+00
         0.00000E+00
         0.00000E+00
         0.00000E+00
         0.00000E+00
         0.00000E+00
         0.00000E+00
         0.00000E+00
         0.00000E+00
         0.00000E+00
         0.00000E+00
         0.00000E+00
         0.00000E+00
         0.00000E+00
         0.00000E+00
         0.00000E+00
         0.00000E+00
         0.00000E+00
         0.00000E+00
         0.00000E+00
         0.00000E+00
         0.00000E+00
         0.00000E+00
         0.00000E+00
         0.00000E+00
         0.00000E+00
         0.00000E+00
         0.00000E+00
         0.00000E+00
         0.00000E+00
         0.00000E+00
         0.00000E+00
         0.00000E+00
         0.00000E+00
         0.00000E+00
         0.00000E+00
         0.00000E+00
         0.00000E+00
         0.00000E+00
         0.00000E+00
         0.00000E+00
         0.00000E+00
         0.00000E+00
         0.00000E+00
         0.00000E+00
         0.00000E+00
         0.00000E+00
         0.00000E+00
         0.00000E+00
         0.00000E+00
         0.00000E+00
         0.00000E+00
         0.00000E+00
         0.00000E+00
         0.00000E+00
         0.00000E+00
         0.00000E+00
         0.00000E+00
         0.00000E+00
         0.00000E+00
         0.00000E+00
         0.00000E+00
         0.00000E+00
         0.00000E+00
         0.00000E+00
         0.00000E+00
         0.00000E+00
         0.00000E+00
         0.00000E+00
         0.00000E+00
         0.00000E+00
         0.00000E+00
         0.00000E+00
         0.00000E+00
         0.00000E+00
         0.00000E+00
         0.00000E+00
         0.00000E+00
         0.00000E+00
         0.00000E+00
         0.00000E+00
         0.00000E+00
         0.00000E+00
         0.00000E+00
         0.00000E+00
         0.00000E+00
         0.00000E+00
         0.00000E+00
         0.00000E+00
         0.00000E+00
         0.00000E+00
         0.00000E+00
         0.00000E+00
         0.00000E+00
         0.00000E+00
         0.00000E+00
         0.00000E+00
         0.00000E+00
         0.00000E+00
         0.00000E+00
         0.00000E+00
         0.00000E+00
         0.00000E+00
         0.00000E+00
         0.00000E+00
         0.00000E+00
         0.00000E+00
         0.00000E+00
         0.00000E+00
         0.00000E+00
         0.00000E+00
         0.00000E+00
         0.00000E+00
         0.00000E+00
         0.00000E+00
         0.00000E+00
         0.00000E+00
         0.00000E+00
         0.00000E+00
         0.00000E+00
         0.00000E+00
         0.00000E+00
         0.00000E+00
         0.00000E+00
         0.00000E+00
         0.00000E+00
         0.00000E+00
         0.00000E+00
         0.00000E+00
         0.00000E+00
         0.00000E+00
         0.00000E+00
         0.00000E+00
         0.00000E+00
         0.00000E+00
         0.00000E+00
         0.00000E+00
         0.00000E+00
         0.00000E+00
         0.00000E+00
         0.00000E+00
         0.00000E+00
         0.00000E+00
         0.00000E+00
         0.00000E+00
         0.00000E+00
         0.00000E+00
         0.00000E+00
         0.00000E+00
         0.00000E+00
         0.00000E+00
         0.00000E+00
         0.00000E+00
         0.00000E+00
         0.00000E+00
         0.00000E+00
         0.00000E+00
         0.00000E+00
         0.00000E+00
         0.00000E+00
         0.00000E+00
         0.00000E+00
         0.00000E+00
         0.00000E+00
         0.00000E+00
         0.00000E+00
         0.00000E+00
         0.00000E+00
         0.00000E+00
         0.00000E+00
         0.00000E+00
         0.00000E+00
         0.00000E+00
         0.00000E+00
         0.00000E+00
         0.00000E+00
         0.00000E+00
         0.00000E+00
         0.00000E+00
         0.00000E+00
         0.00000E+00
         0.00000E+00
         0.00000E+00
         0.00000E+00
         0.00000E+00
         0.00000E+00
         0.00000E+00
         0.00000E+00
         0.00000E+00
         0.00000E+00
         0.00000E+00
         0.00000E+00
         0.00000E+00
         0.00000E+00
         0.00000E+00
         0.00000E+00
         0.00000E+00
         0.00000E+00
         0.00000E+00
         0.00000E+00
         0.00000E+00
         0.00000E+00
         0.00000E+00
         0.00000E+00
         0.00000E+00
         0.00000E+00
         0.00000E+00
         0.00000E+00
         0.00000E+00
         0.00000E+00
         0.00000E+00
         0.00000E+00
         0.00000E+00
         0.00000E+00
         0.00000E+00
         0.00000E+00
         0.00000E+00
         0.00000E+00
         0.00000E+00
         0.00000E+00
         0.00000E+00
         0.00000E+00
         0.00000E+00
         0.00000E+00
         0.00000E+00
         0.00000E+00
         0.00000E+00
         0.00000E+00
         0.00000E+00
         0.00000E+00
         0.00000E+00
         0.00000E+00
         0.00000E+00
         0.00000E+00
         0.00000E+00
         0.00000E+00
         0.00000E+00
         0.00000E+00
         0.00000E+00
         0.00000E+00
         0.00000E+00
         0.00000E+00
         0.00000E+00
         0.00000E+00
         0.00000E+00
         0.00000E+00
         0.00000E+00
         0.00000E+00
         0.00000E+00
         0.00000E+00
         0.00000E+00
         0.00000E+00
         0.00000E+00
         0.00000E+00
         0.00000E+00
         0.00000E+00
         0.00000E+00
         0.00000E+00
         0.00000E+00
         0.00000E+00
         0.00000E+00
         0.00000E+00
         0.00000E+00
         0.00000E+00
         0.00000E+00
         0.00000E+00
         0.00000E+00
         0.00000E+00
         0.00000E+00
         0.00000E+00
         0.00000E+00
         0.00000E+00
         0.00000E+00
         0.00000E+00
         0.00000E+00
         0.00000E+00
         0.00000E+00
         0.00000E+00
         0.00000E+00
         0.00000E+00
         0.00000E+00
         0.00000E+00
         0.00000E+00
         0.00000E+00
         0.00000E+00
         0.00000E+00
         0.00000E+00
         0.00000E+00
         0.00000E+00
         0.00000E+00
         0.00000E+00
         0.00000E+00
         0.00000E+00
         0.00000E+00
         0.00000E+00
         0.00000E+00
         0.00000E+00
         0.00000E+00
         0.00000E+00
         0.00000E+00
         0.00000E+00
         0.00000E+00
         0.00000E+00
         0.00000E+00
         0.00000E+00
         0.00000E+00
         0.00000E+00
         0.00000E+00
         0.00000E+00
         0.00000E+00
         0.00000E+00
         0.00000E+00
         0.00000E+00
         0.00000E+00
         0.00000E+00
         0.00000E+00
         0.00000E+00
         0.00000E+00
         0.00000E+00
         0.00000E+00
         0.00000E+00
         0.00000E+00
         0.00000E+00
         0.00000E+00
         0.00000E+00
         0.00000E+00
         0.00000E+00
         0.00000E+00
         0.00000E+00
         0.00000E+00
         0.00000E+00
         0.00000E+00
         0.00000E+00
         0.00000E+00
         0.00000E+00
         0.00000E+00
         0.00000E+00
         0.00000E+00
         0.00000E+00
         0.00000E+00
         0.00000E+00
         0.00000E+00
         0.00000E+00
         0.00000E+00
         0.00000E+00
         0.00000E+00
         0.00000E+00
         0.00000E+00
         0.00000E+00
         0.00000E+00
         0.00000E+00
         0.00000E+00
         0.00000E+00
         0.00000E+00
         0.00000E+00
         0.00000E+00
         0.00000E+00
         0.00000E+00
         0.00000E+00
         0.00000E+00
         0.00000E+00
         0.00000E+00
         0.00000E+00
         0.00000E+00
         0.00000E+00
         0.00000E+00
         0.00000E+00
         0.00000E+00
         0.00000E+00
         0.00000E+00
         0.00000E+00
         0.00000E+00
         0.00000E+00
         0.00000E+00
         0.00000E+00
         0.00000E+00
         0.00000E+00
         0.00000E+00
         0.00000E+00
         0.00000E+00
         0.00000E+00
         0.00000E+00
         0.00000E+00
         0.00000E+00
  
SCALARS                      eps_shear  double 1
LOOKUP_TABLE default
         0.00000E+00
         0.00000E+00
         0.00000E+00
         0.00000E+00
         0.00000E+00
         0.00000E+00
         0.00000E+00
         0.00000E+00
         0.00000E+00
         0.00000E+00
         0.00000E+00
         0.00000E+00
         0.00000E+00
         0.00000E+00
         0.00000E+00
         0.00000E+00
         0.00000E+00
         0.00000E+00
         0.00000E+00
         0.00000E+00
         0.00000E+00
         0.00000E+00
         0.00000E+00
         0.00000E+00
         0.00000E+00
         0.00000E+00
         0.00000E+00
         0.00000E+00
         0.00000E+00
         0.00000E+00
         0.00000E+00
         0.00000E+00
         0.00000E+00
         0.00000E+00
         0.00000E+00
         0.00000E+00
         0.00000E+00
         0.00000E+00
         0.00000E+00
         0.00000E+00
         0.00000E+00
         0.00000E+00
         0.00000E+00
         0.00000E+00
         0.00000E+00
         0.00000E+00
         0.00000E+00
         0.00000E+00
         0.00000E+00
         0.00000E+00
         0.00000E+00
         0.00000E+00
         0.00000E+00
         0.00000E+00
         0.00000E+00
         0.00000E+00
         0.00000E+00
         0.00000E+00
         0.00000E+00
         0.00000E+00
         0.00000E+00
         0.00000E+00
         0.00000E+00
         0.00000E+00
         0.00000E+00
         0.00000E+00
         0.00000E+00
         0.00000E+00
         0.00000E+00
         0.00000E+00
         0.00000E+00
         0.00000E+00
         0.00000E+00
         0.00000E+00
         0.00000E+00
         0.00000E+00
         0.00000E+00
         0.00000E+00
         0.00000E+00
         0.00000E+00
         0.00000E+00
         0.00000E+00
         0.00000E+00
         0.00000E+00
         0.00000E+00
         0.00000E+00
         0.00000E+00
         0.00000E+00
         0.00000E+00
         0.00000E+00
         0.00000E+00
         0.00000E+00
         0.00000E+00
         0.00000E+00
         0.00000E+00
         0.00000E+00
         0.00000E+00
         0.00000E+00
         0.00000E+00
         0.00000E+00
         0.00000E+00
         0.00000E+00
         0.00000E+00
         0.00000E+00
         0.00000E+00
         0.00000E+00
         0.00000E+00
         0.00000E+00
         0.00000E+00
         0.00000E+00
         0.00000E+00
         0.00000E+00
         0.00000E+00
         0.00000E+00
         0.00000E+00
         0.00000E+00
         0.00000E+00
         0.00000E+00
         0.00000E+00
         0.00000E+00
         0.00000E+00
         0.00000E+00
         0.00000E+00
         0.00000E+00
         0.00000E+00
         0.00000E+00
         0.00000E+00
         0.00000E+00
         0.00000E+00
         0.00000E+00
         0.00000E+00
         0.00000E+00
         0.00000E+00
         0.00000E+00
         0.00000E+00
         0.00000E+00
         0.00000E+00
         0.00000E+00
         0.00000E+00
         0.00000E+00
         0.00000E+00
         0.00000E+00
         0.00000E+00
         0.00000E+00
         0.00000E+00
         0.00000E+00
         0.00000E+00
         0.00000E+00
         0.00000E+00
         0.00000E+00
         0.00000E+00
         0.00000E+00
         0.00000E+00
         0.00000E+00
         0.00000E+00
         0.00000E+00
         0.00000E+00
         0.00000E+00
         0.00000E+00
         0.00000E+00
         0.00000E+00
         0.00000E+00
         0.00000E+00
         0.00000E+00
         0.00000E+00
         0.00000E+00
         0.00000E+00
         0.00000E+00
         0.00000E+00
         0.00000E+00
         0.00000E+00
         0.00000E+00
         0.00000E+00
         0.00000E+00
         0.00000E+00
         0.00000E+00
         0.00000E+00
         0.00000E+00
         0.00000E+00
         0.00000E+00
         0.00000E+00
         0.00000E+00
         0.00000E+00
         0.00000E+00
         0.00000E+00
         0.00000E+00
         0.00000E+00
         0.00000E+00
         0.00000E+00
         0.00000E+00
         0.00000E+00
         0.00000E+00
         0.00000E+00
         0.00000E+00
         0.00000E+00
         0.00000E+00
         0.00000E+00
         0.00000E+00
         0.00000E+00
         0.00000E+00
         0.00000E+00
         0.00000E+00
         0.00000E+00
         0.00000E+00
         0.00000E+00
         0.00000E+00
         0.00000E+00
         0.00000E+00
         0.00000E+00
         0.00000E+00
         0.00000E+00
         0.00000E+00
         0.00000E+00
         0.00000E+00
         0.00000E+00
         0.00000E+00
         0.00000E+00
         0.00000E+00
         0.00000E+00
         0.00000E+00
         0.00000E+00
         0.00000E+00
         0.00000E+00
         0.00000E+00
         0.00000E+00
         0.00000E+00
         0.00000E+00
         0.00000E+00
         0.00000E+00
         0.00000E+00
         0.00000E+00
         0.00000E+00
         0.00000E+00
         0.00000E+00
         0.00000E+00
         0.00000E+00
         0.00000E+00
         0.00000E+00
         0.00000E+00
         0.00000E+00
         0.00000E+00
         0.00000E+00
         0.00000E+00
         0.00000E+00
         0.00000E+00
         0.00000E+00
         0.00000E+00
         0.00000E+00
         0.00000E+00
         0.00000E+00
         0.00000E+00
         0.00000E+00
         0.00000E+00
         0.00000E+00
         0.00000E+00
         0.00000E+00
         0.00000E+00
         0.00000E+00
         0.00000E+00
         0.00000E+00
         0.00000E+00
         0.00000E+00
         0.00000E+00
         0.00000E+00
         0.00000E+00
         0.00000E+00
         0.00000E+00
         0.00000E+00
         0.00000E+00
         0.00000E+00
         0.00000E+00
         0.00000E+00
         0.00000E+00
         0.00000E+00
         0.00000E+00
         0.00000E+00
         0.00000E+00
         0.00000E+00
         0.00000E+00
         0.00000E+00
         0.00000E+00
         0.00000E+00
         0.00000E+00
         0.00000E+00
         0.00000E+00
         0.00000E+00
         0.00000E+00
         0.00000E+00
         0.00000E+00
         0.00000E+00
         0.00000E+00
         0.00000E+00
         0.00000E+00
         0.00000E+00
         0.00000E+00
         0.00000E+00
         0.00000E+00
         0.00000E+00
         0.00000E+00
         0.00000E+00
         0.00000E+00
         0.00000E+00
         0.00000E+00
         0.00000E+00
         0.00000E+00
         0.00000E+00
         0.00000E+00
         0.00000E+00
         0.00000E+00
         0.00000E+00
         0.00000E+00
         0.00000E+00
         0.00000E+00
         0.00000E+00
         0.00000E+00
         0.00000E+00
         0.00000E+00
         0.00000E+00
         0.00000E+00
         0.00000E+00
         0.00000E+00
         0.00000E+00
         0.00000E+00
         0.00000E+00
         0.00000E+00
         0.00000E+00
         0.00000E+00
         0.00000E+00
         0.00000E+00
         0.00000E+00
         0.00000E+00
         0.00000E+00
         0.00000E+00
         0.00000E+00
         0.00000E+00
         0.00000E+00
         0.00000E+00
         0.00000E+00
         0.00000E+00
         0.00000E+00
         0.00000E+00
         0.00000E+00
         0.00000E+00
         0.00000E+00
         0.00000E+00
         0.00000E+00
         0.00000E+00
         0.00000E+00
         0.00000E+00
         0.00000E+00
         0.00000E+00
         0.00000E+00
         0.00000E+00
         0.00000E+00
         0.00000E+00
         0.00000E+00
         0.00000E+00
         0.00000E+00
         0.00000E+00
         0.00000E+00
         0.00000E+00
         0.00000E+00
         0.00000E+00
         0.00000E+00
         0.00000E+00
         0.00000E+00
         0.00000E+00
         0.00000E+00
         0.00000E+00
         0.00000E+00
         0.00000E+00
         0.00000E+00
         0.00000E+00
         0.00000E+00
         0.00000E+00
         0.00000E+00
         0.00000E+00
         0.00000E+00
         0.00000E+00
         0.00000E+00
         0.00000E+00
         0.00000E+00
         0.00000E+00
         0.00000E+00
         0.00000E+00
         0.00000E+00
         0.00000E+00
         0.00000E+00
         0.00000E+00
         0.00000E+00
         0.00000E+00
         0.00000E+00
         0.00000E+00
         0.00000E+00
         0.00000E+00
         0.00000E+00
         0.00000E+00
         0.00000E+00
         0.00000E+00
         0.00000E+00
         0.00000E+00
         0.00000E+00
         0.00000E+00
         0.00000E+00
         0.00000E+00
         0.00000E+00
         0.00000E+00
         0.00000E+00
         0.00000E+00
         0.00000E+00
         0.00000E+00
         0.00000E+00
         0.00000E+00
         0.00000E+00
         0.00000E+00
         0.00000E+00
         0.00000E+00
         0.00000E+00
         0.00000E+00
         0.00000E+00
         0.00000E+00
         0.00000E+00
         0.00000E+00
         0.00000E+00
         0.00000E+00
         0.00000E+00
         0.00000E+00
         0.00000E+00
         0.00000E+00
         0.00000E+00
         0.00000E+00
         0.00000E+00
         0.00000E+00
         0.00000E+00
         0.00000E+00
         0.00000E+00
         0.00000E+00
         0.00000E+00
         0.00000E+00
         0.00000E+00
         0.00000E+00
         0.00000E+00
         0.00000E+00
         0.00000E+00
         0.00000E+00
         0.00000E+00
         0.00000E+00
         0.00000E+00
         0.00000E+00
         0.00000E+00
         0.00000E+00
         0.00000E+00
         0.00000E+00
         0.00000E+00
         0.00000E+00
         0.00000E+00
         0.00000E+00
         0.00000E+00
         0.00000E+00
         0.00000E+00
         0.00000E+00
         0.00000E+00
         0.00000E+00
         0.00000E+00
         0.00000E+00
         0.00000E+00
         0.00000E+00
         0.00000E+00
         0.00000E+00
         0.00000E+00
         0.00000E+00
         0.00000E+00
         0.00000E+00
         0.00000E+00
         0.00000E+00
         0.00000E+00
         0.00000E+00
         0.00000E+00
         0.00000E+00
         0.00000E+00
         0.00000E+00
         0.00000E+00
         0.00000E+00
         0.00000E+00
         0.00000E+00
         0.00000E+00
         0.00000E+00
         0.00000E+00
         0.00000E+00
         0.00000E+00
         0.00000E+00
         0.00000E+00
         0.00000E+00
         0.00000E+00
         0.00000E+00
         0.00000E+00
         0.00000E+00
         0.00000E+00
         0.00000E+00
         0.00000E+00
         0.00000E+00
         0.00000E+00
         0.00000E+00
         0.00000E+00
         0.00000E+00
         0.00000E+00
         0.00000E+00
         0.00000E+00
         0.00000E+00
         0.00000E+00
         0.00000E+00
         0.00000E+00
         0.00000E+00
         0.00000E+00
         0.00000E+00
         0.00000E+00
         0.00000E+00
         0.00000E+00
         0.00000E+00
         0.00000E+00
         0.00000E+00
         0.00000E+00
         0.00000E+00
         0.00000E+00
         0.00000E+00
         0.00000E+00
         0.00000E+00
         0.00000E+00
         0.00000E+00
         0.00000E+00
         0.00000E+00
         0.00000E+00
         0.00000E+00
         0.00000E+00
         0.00000E+00
         0.00000E+00
         0.00000E+00
         0.00000E+00
         0.00000E+00
         0.00000E+00
         0.00000E+00
         0.00000E+00
         0.00000E+00
         0.00000E+00
         0.00000E+00
         0.00000E+00
         0.00000E+00
         0.00000E+00
         0.00000E+00
         0.00000E+00
         0.00000E+00
         0.00000E+00
         0.00000E+00
         0.00000E+00
         0.00000E+00
         0.00000E+00
         0.00000E+00
         0.00000E+00
         0.00000E+00
         0.00000E+00
         0.00000E+00
         0.00000E+00
         0.00000E+00
         0.00000E+00
         0.00000E+00
         0.00000E+00
         0.00000E+00
         0.00000E+00
         0.00000E+00
         0.00000E+00
         0.00000E+00
         0.00000E+00
         0.00000E+00
         0.00000E+00
         0.00000E+00
         0.00000E+00
         0.00000E+00
         0.00000E+00
         0.00000E+00
         0.00000E+00
         0.00000E+00
         0.00000E+00
         0.00000E+00
         0.00000E+00
         0.00000E+00
         0.00000E+00
         0.00000E+00
         0.00000E+00
         0.00000E+00
         0.00000E+00
         0.00000E+00
         0.00000E+00
         0.00000E+00
         0.00000E+00
         0.00000E+00
         0.00000E+00
         0.00000E+00
         0.00000E+00
         0.00000E+00
         0.00000E+00
         0.00000E+00
         0.00000E+00
         0.00000E+00
         0.00000E+00
         0.00000E+00
         0.00000E+00
         0.00000E+00
         0.00000E+00
         0.00000E+00
         0.00000E+00
         0.00000E+00
         0.00000E+00
         0.00000E+00
         0.00000E+00
         0.00000E+00
         0.00000E+00
         0.00000E+00
         0.00000E+00
         0.00000E+00
         0.00000E+00
         0.00000E+00
         0.00000E+00
         0.00000E+00
         0.00000E+00
         0.00000E+00
         0.00000E+00
         0.00000E+00
         0.00000E+00
         0.00000E+00
         0.00000E+00
         0.00000E+00
         0.00000E+00
         0.00000E+00
         0.00000E+00
         0.00000E+00
         0.00000E+00
         0.00000E+00
         0.00000E+00
         0.00000E+00
         0.00000E+00
         0.00000E+00
         0.00000E+00
         0.00000E+00
         0.00000E+00
         0.00000E+00
         0.00000E+00
         0.00000E+00
         0.00000E+00
         0.00000E+00
         0.00000E+00
         0.00000E+00
         0.00000E+00
         0.00000E+00
         0.00000E+00
         0.00000E+00
         0.00000E+00
         0.00000E+00
         0.00000E+00
         0.00000E+00
         0.00000E+00
         0.00000E+00
         0.00000E+00
         0.00000E+00
         0.00000E+00
         0.00000E+00
         0.00000E+00
         0.00000E+00
         0.00000E+00
         0.00000E+00
         0.00000E+00
         0.00000E+00
         0.00000E+00
         0.00000E+00
         0.00000E+00
         0.00000E+00
         0.00000E+00
         0.00000E+00
         0.00000E+00
         0.00000E+00
         0.00000E+00
         0.00000E+00
         0.00000E+00
         0.00000E+00
         0.00000E+00
         0.00000E+00
         0.00000E+00
         0.00000E+00
         0.00000E+00
         0.00000E+00
         0.00000E+00
         0.00000E+00
         0.00000E+00
         0.00000E+00
         0.00000E+00
         0.00000E+00
         0.00000E+00
         0.00000E+00
         0.00000E+00
         0.00000E+00
         0.00000E+00
         0.00000E+00
         0.00000E+00
         0.00000E+00
         0.00000E+00
         0.00000E+00
         0.00000E+00
         0.00000E+00
         0.00000E+00
         0.00000E+00
         0.00000E+00
         0.00000E+00
         0.00000E+00
         0.00000E+00
         0.00000E+00
         0.00000E+00
         0.00000E+00
         0.00000E+00
         0.00000E+00
         0.00000E+00
         0.00000E+00
         0.00000E+00
         0.00000E+00
         0.00000E+00
         0.00000E+00
         0.00000E+00
         0.00000E+00
         0.00000E+00
         0.00000E+00
         0.00000E+00
         0.00000E+00
         0.00000E+00
         0.00000E+00
         0.00000E+00
         0.00000E+00
         0.00000E+00
         0.00000E+00
         0.00000E+00
         0.00000E+00
         0.00000E+00
         0.00000E+00
         0.00000E+00
         0.00000E+00
         0.00000E+00
         0.00000E+00
         0.00000E+00
         0.00000E+00
         0.00000E+00
         0.00000E+00
         0.00000E+00
         0.00000E+00
         0.00000E+00
         0.00000E+00
         0.00000E+00
         0.00000E+00
         0.00000E+00
         0.00000E+00
         0.00000E+00
         0.00000E+00
         0.00000E+00
         0.00000E+00
         0.00000E+00
         0.00000E+00
         0.00000E+00
         0.00000E+00
         0.00000E+00
         0.00000E+00
         0.00000E+00
         0.00000E+00
         0.00000E+00
         0.00000E+00
         0.00000E+00
         0.00000E+00
         0.00000E+00
         0.00000E+00
         0.00000E+00
         0.00000E+00
         0.00000E+00
         0.00000E+00
         0.00000E+00
         0.00000E+00
         0.00000E+00
         0.00000E+00
         0.00000E+00
         0.00000E+00
         0.00000E+00
         0.00000E+00
         0.00000E+00
         0.00000E+00
         0.00000E+00
         0.00000E+00
         0.00000E+00
         0.00000E+00
         0.00000E+00
         0.00000E+00
         0.00000E+00
         0.00000E+00
         0.00000E+00
         0.00000E+00
         0.00000E+00
         0.00000E+00
         0.00000E+00
         0.00000E+00
         0.00000E+00
         0.00000E+00
         0.00000E+00
         0.00000E+00
         0.00000E+00
         0.00000E+00
         0.00000E+00
         0.00000E+00
         0.00000E+00
         0.00000E+00
         0.00000E+00
         0.00000E+00
         0.00000E+00
         0.00000E+00
         0.00000E+00
         0.00000E+00
         0.00000E+00
         0.00000E+00
         0.00000E+00
         0.00000E+00
         0.00000E+00
         0.00000E+00
         0.00000E+00
         0.00000E+00
         0.00000E+00
         0.00000E+00
         0.00000E+00
         0.00000E+00
         0.00000E+00
         0.00000E+00
         0.00000E+00
         0.00000E+00
         0.00000E+00
         0.00000E+00
         0.00000E+00
         0.00000E+00
         0.00000E+00
         0.00000E+00
         0.00000E+00
         0.00000E+00
         0.00000E+00
         0.00000E+00
         0.00000E+00
         0.00000E+00
         0.00000E+00
         0.00000E+00
         0.00000E+00
         0.00000E+00
         0.00000E+00
         0.00000E+00
         0.00000E+00
         0.00000E+00
         0.00000E+00
         0.00000E+00
         0.00000E+00
         0.00000E+00
         0.00000E+00
         0.00000E+00
         0.00000E+00
         0.00000E+00
         0.00000E+00
         0.00000E+00
         0.00000E+00
         0.00000E+00
         0.00000E+00
         0.00000E+00
         0.00000E+00
         0.00000E+00
         0.00000E+00
         0.00000E+00
         0.00000E+00
         0.00000E+00
         0.00000E+00
         0.00000E+00
         0.00000E+00
         0.00000E+00
         0.00000E+00
         0.00000E+00
         0.00000E+00
         0.00000E+00
         0.00000E+00
         0.00000E+00
         0.00000E+00
         0.00000E+00
         0.00000E+00
         0.00000E+00
         0.00000E+00
         0.00000E+00
         0.00000E+00
         0.00000E+00
         0.00000E+00
         0.00000E+00
         0.00000E+00
         0.00000E+00
         0.00000E+00
         0.00000E+00
         0.00000E+00
         0.00000E+00
         0.00000E+00
         0.00000E+00
         0.00000E+00
         0.00000E+00
         0.00000E+00
         0.00000E+00
         0.00000E+00
         0.00000E+00
         0.00000E+00
         0.00000E+00
         0.00000E+00
         0.00000E+00
         0.00000E+00
         0.00000E+00
         0.00000E+00
         0.00000E+00
         0.00000E+00
         0.00000E+00
         0.00000E+00
         0.00000E+00
         0.00000E+00
         0.00000E+00
         0.00000E+00
         0.00000E+00
         0.00000E+00
         0.00000E+00
         0.00000E+00
         0.00000E+00
         0.00000E+00
         0.00000E+00
         0.00000E+00
         0.00000E+00
         0.00000E+00
         0.00000E+00
         0.00000E+00
         0.00000E+00
         0.00000E+00
         0.00000E+00
         0.00000E+00
         0.00000E+00
         0.00000E+00
         0.00000E+00
         0.00000E+00
         0.00000E+00
         0.00000E+00
         0.00000E+00
         0.00000E+00
         0.00000E+00
         0.00000E+00
         0.00000E+00
         0.00000E+00
         0.00000E+00
         0.00000E+00
         0.00000E+00
         0.00000E+00
         0.00000E+00
         0.00000E+00
         0.00000E+00
         0.00000E+00
         0.00000E+00
         0.00000E+00
         0.00000E+00
         0.00000E+00
         0.00000E+00
         0.00000E+00
         0.00000E+00
         0.00000E+00
         0.00000E+00
         0.00000E+00
         0.00000E+00
         0.00000E+00
         0.00000E+00
         0.00000E+00
         0.00000E+00
         0.00000E+00
         0.00000E+00
         0.00000E+00
         0.00000E+00
         0.00000E+00
         0.00000E+00
         0.00000E+00
         0.00000E+00
         0.00000E+00
         0.00000E+00
         0.00000E+00
         0.00000E+00
         0.00000E+00
         0.00000E+00
         0.00000E+00
         0.00000E+00
         0.00000E+00
         0.00000E+00
         0.00000E+00
         0.00000E+00
         0.00000E+00
         0.00000E+00
         0.00000E+00
         0.00000E+00
         0.00000E+00
         0.00000E+00
         0.00000E+00
         0.00000E+00
         0.00000E+00
         0.00000E+00
         0.00000E+00
         0.00000E+00
         0.00000E+00
         0.00000E+00
         0.00000E+00
         0.00000E+00
         0.00000E+00
         0.00000E+00
         0.00000E+00
         0.00000E+00
         0.00000E+00
         0.00000E+00
         0.00000E+00
         0.00000E+00
         0.00000E+00
         0.00000E+00
         0.00000E+00
         0.00000E+00
         0.00000E+00
         0.00000E+00
         0.00000E+00
         0.00000E+00
         0.00000E+00
         0.00000E+00
         0.00000E+00
         0.00000E+00
         0.00000E+00
         0.00000E+00
         0.00000E+00
         0.00000E+00
         0.00000E+00
         0.00000E+00
         0.00000E+00
         0.00000E+00
         0.00000E+00
         0.00000E+00
         0.00000E+00
         0.00000E+00
         0.00000E+00
         0.00000E+00
         0.00000E+00
         0.00000E+00
         0.00000E+00
         0.00000E+00
         0.00000E+00
         0.00000E+00
         0.00000E+00
         0.00000E+00
         0.00000E+00
         0.00000E+00
         0.00000E+00
         0.00000E+00
         0.00000E+00
         0.00000E+00
         0.00000E+00
         0.00000E+00
         0.00000E+00
         0.00000E+00
         0.00000E+00
         0.00000E+00
         0.00000E+00
         0.00000E+00
         0.00000E+00
         0.00000E+00
         0.00000E+00
         0.00000E+00
         0.00000E+00
         0.00000E+00
         0.00000E+00
         0.00000E+00
         0.00000E+00
         0.00000E+00
         0.00000E+00
         0.00000E+00
         0.00000E+00
         0.00000E+00
         0.00000E+00
         0.00000E+00
         0.00000E+00
         0.00000E+00
         0.00000E+00
         0.00000E+00
         0.00000E+00
         0.00000E+00
         0.00000E+00
         0.00000E+00
         0.00000E+00
         0.00000E+00
         0.00000E+00
         0.00000E+00
         0.00000E+00
         0.00000E+00
         0.00000E+00
         0.00000E+00
         0.00000E+00
         0.00000E+00
         0.00000E+00
         0.00000E+00
         0.00000E+00
         0.00000E+00
         0.00000E+00
         0.00000E+00
         0.00000E+00
         0.00000E+00
         0.00000E+00
         0.00000E+00
         0.00000E+00
         0.00000E+00
         0.00000E+00
         0.00000E+00
         0.00000E+00
         0.00000E+00
         0.00000E+00
         0.00000E+00
         0.00000E+00
         0.00000E+00
         0.00000E+00
         0.00000E+00
         0.00000E+00
         0.00000E+00
         0.00000E+00
         0.00000E+00
         0.00000E+00
         0.00000E+00
         0.00000E+00
         0.00000E+00
         0.00000E+00
         0.00000E+00
         0.00000E+00
         0.00000E+00
         0.00000E+00
         0.00000E+00
         0.00000E+00
         0.00000E+00
         0.00000E+00
         0.00000E+00
         0.00000E+00
         0.00000E+00
         0.00000E+00
         0.00000E+00
         0.00000E+00
         0.00000E+00
         0.00000E+00
         0.00000E+00
         0.00000E+00
         0.00000E+00
         0.00000E+00
         0.00000E+00
         0.00000E+00
         0.00000E+00
         0.00000E+00
         0.00000E+00
         0.00000E+00
         0.00000E+00
         0.00000E+00
         0.00000E+00
         0.00000E+00
         0.00000E+00
         0.00000E+00
         0.00000E+00
         0.00000E+00
         0.00000E+00
         0.00000E+00
         0.00000E+00
         0.00000E+00
         0.00000E+00
         0.00000E+00
         0.00000E+00
         0.00000E+00
         0.00000E+00
         0.00000E+00
         0.00000E+00
         0.00000E+00
         0.00000E+00
         0.00000E+00
         0.00000E+00
         0.00000E+00
         0.00000E+00
         0.00000E+00
         0.00000E+00
         0.00000E+00
         0.00000E+00
         0.00000E+00
         0.00000E+00
         0.00000E+00
         0.00000E+00
         0.00000E+00
         0.00000E+00
         0.00000E+00
         0.00000E+00
         0.00000E+00
         0.00000E+00
         0.00000E+00
         0.00000E+00
         0.00000E+00
         0.00000E+00
         0.00000E+00
         0.00000E+00
         0.00000E+00
         0.00000E+00
         0.00000E+00
         0.00000E+00
         0.00000E+00
         0.00000E+00
         0.00000E+00
         0.00000E+00
         0.00000E+00
         0.00000E+00
         0.00000E+00
         0.00000E+00
         0.00000E+00
         0.00000E+00
         0.00000E+00
         0.00000E+00
         0.00000E+00
         0.00000E+00
         0.00000E+00
         0.00000E+00
         0.00000E+00
         0.00000E+00
         0.00000E+00
         0.00000E+00
         0.00000E+00
         0.00000E+00
         0.00000E+00
         0.00000E+00
         0.00000E+00
         0.00000E+00
         0.00000E+00
         0.00000E+00
         0.00000E+00
         0.00000E+00
         0.00000E+00
         0.00000E+00
         0.00000E+00
         0.00000E+00
         0.00000E+00
         0.00000E+00
         0.00000E+00
         0.00000E+00
         0.00000E+00
         0.00000E+00
         0.00000E+00
         0.00000E+00
         0.00000E+00
         0.00000E+00
         0.00000E+00
         0.00000E+00
         0.00000E+00
         0.00000E+00
         0.00000E+00
         0.00000E+00
         0.00000E+00
         0.00000E+00
         0.00000E+00
         0.00000E+00
         0.00000E+00
         0.00000E+00
         0.00000E+00
         0.00000E+00
         0.00000E+00
         0.00000E+00
         0.00000E+00
         0.00000E+00
         0.00000E+00
         0.00000E+00
         0.00000E+00
         0.00000E+00
         0.00000E+00
         0.00000E+00
         0.00000E+00
         0.00000E+00
         0.00000E+00
         0.00000E+00
         0.00000E+00
         0.00000E+00
         0.00000E+00
         0.00000E+00
         0.00000E+00
         0.00000E+00
         0.00000E+00
         0.00000E+00
         0.00000E+00
         0.00000E+00
         0.00000E+00
         0.00000E+00
         0.00000E+00
         0.00000E+00
         0.00000E+00
         0.00000E+00
         0.00000E+00
         0.00000E+00
         0.00000E+00
         0.00000E+00
         0.00000E+00
         0.00000E+00
         0.00000E+00
         0.00000E+00
         0.00000E+00
         0.00000E+00
         0.00000E+00
         0.00000E+00
         0.00000E+00
         0.00000E+00
         0.00000E+00
         0.00000E+00
         0.00000E+00
         0.00000E+00
         0.00000E+00
         0.00000E+00
         0.00000E+00
         0.00000E+00
         0.00000E+00
         0.00000E+00
         0.00000E+00
         0.00000E+00
         0.00000E+00
         0.00000E+00
         0.00000E+00
         0.00000E+00
         0.00000E+00
         0.00000E+00
         0.00000E+00
         0.00000E+00
         0.00000E+00
         0.00000E+00
         0.00000E+00
         0.00000E+00
         0.00000E+00
         0.00000E+00
         0.00000E+00
         0.00000E+00
         0.00000E+00
         0.00000E+00
         0.00000E+00
         0.00000E+00
         0.00000E+00
         0.00000E+00
         0.00000E+00
         0.00000E+00
         0.00000E+00
         0.00000E+00
         0.00000E+00
         0.00000E+00
         0.00000E+00
         0.00000E+00
         0.00000E+00
         0.00000E+00
         0.00000E+00
         0.00000E+00
         0.00000E+00
         0.00000E+00
         0.00000E+00
         0.00000E+00
         0.00000E+00
         0.00000E+00
         0.00000E+00
         0.00000E+00
         0.00000E+00
         0.00000E+00
         0.00000E+00
         0.00000E+00
         0.00000E+00
         0.00000E+00
         0.00000E+00
         0.00000E+00
         0.00000E+00
         0.00000E+00
         0.00000E+00
         0.00000E+00
         0.00000E+00
         0.00000E+00
         0.00000E+00
         0.00000E+00
         0.00000E+00
         0.00000E+00
         0.00000E+00
         0.00000E+00
         0.00000E+00
         0.00000E+00
         0.00000E+00
         0.00000E+00
         0.00000E+00
         0.00000E+00
         0.00000E+00
         0.00000E+00
         0.00000E+00
         0.00000E+00
         0.00000E+00
         0.00000E+00
         0.00000E+00
         0.00000E+00
         0.00000E+00
         0.00000E+00
         0.00000E+00
         0.00000E+00
         0.00000E+00
         0.00000E+00
         0.00000E+00
         0.00000E+00
         0.00000E+00
         0.00000E+00
         0.00000E+00
         0.00000E+00
         0.00000E+00
         0.00000E+00
         0.00000E+00
         0.00000E+00
         0.00000E+00
         0.00000E+00
         0.00000E+00
         0.00000E+00
         0.00000E+00
         0.00000E+00
         0.00000E+00
         0.00000E+00
         0.00000E+00
         0.00000E+00
         0.00000E+00
         0.00000E+00
         0.00000E+00
         0.00000E+00
         0.00000E+00
         0.00000E+00
         0.00000E+00
         0.00000E+00
         0.00000E+00
         0.00000E+00
         0.00000E+00
         0.00000E+00
         0.00000E+00
         0.00000E+00
         0.00000E+00
         0.00000E+00
         0.00000E+00
         0.00000E+00
         0.00000E+00
         0.00000E+00
         0.00000E+00
         0.00000E+00
         0.00000E+00
         0.00000E+00
         0.00000E+00
         0.00000E+00
         0.00000E+00
         0.00000E+00
         0.00000E+00
         0.00000E+00
         0.00000E+00
         0.00000E+00
         0.00000E+00
         0.00000E+00
         0.00000E+00
         0.00000E+00
         0.00000E+00
         0.00000E+00
         0.00000E+00
         0.00000E+00
         0.00000E+00
         0.00000E+00
         0.00000E+00
         0.00000E+00
         0.00000E+00
         0.00000E+00
         0.00000E+00
         0.00000E+00
         0.00000E+00
         0.00000E+00
         0.00000E+00
         0.00000E+00
         0.00000E+00
         0.00000E+00
         0.00000E+00
         0.00000E+00
         0.00000E+00
         0.00000E+00
         0.00000E+00
         0.00000E+00
         0.00000E+00
         0.00000E+00
         0.00000E+00
         0.00000E+00
         0.00000E+00
         0.00000E+00
         0.00000E+00
         0.00000E+00
         0.00000E+00
         0.00000E+00
         0.00000E+00
         0.00000E+00
         0.00000E+00
         0.00000E+00
         0.00000E+00
         0.00000E+00
         0.00000E+00
         0.00000E+00
         0.00000E+00
         0.00000E+00
         0.00000E+00
         0.00000E+00
         0.00000E+00
         0.00000E+00
         0.00000E+00
         0.00000E+00
         0.00000E+00
         0.00000E+00
         0.00000E+00
         0.00000E+00
         0.00000E+00
         0.00000E+00
         0.00000E+00
         0.00000E+00
         0.00000E+00
         0.00000E+00
         0.00000E+00
         0.00000E+00
         0.00000E+00
         0.00000E+00
         0.00000E+00
         0.00000E+00
         0.00000E+00
         0.00000E+00
         0.00000E+00
         0.00000E+00
         0.00000E+00
         0.00000E+00
         0.00000E+00
         0.00000E+00
         0.00000E+00
         0.00000E+00
         0.00000E+00
         0.00000E+00
         0.00000E+00
         0.00000E+00
         0.00000E+00
         0.00000E+00
         0.00000E+00
         0.00000E+00
         0.00000E+00
         0.00000E+00
         0.00000E+00
         0.00000E+00
         0.00000E+00
         0.00000E+00
         0.00000E+00
         0.00000E+00
         0.00000E+00
         0.00000E+00
         0.00000E+00
         0.00000E+00
         0.00000E+00
         0.00000E+00
         0.00000E+00
         0.00000E+00
         0.00000E+00
         0.00000E+00
         0.00000E+00
         0.00000E+00
         0.00000E+00
         0.00000E+00
         0.00000E+00
         0.00000E+00
         0.00000E+00
         0.00000E+00
         0.00000E+00
         0.00000E+00
         0.00000E+00
         0.00000E+00
         0.00000E+00
         0.00000E+00
         0.00000E+00
         0.00000E+00
         0.00000E+00
         0.00000E+00
         0.00000E+00
         0.00000E+00
         0.00000E+00
         0.00000E+00
         0.00000E+00
         0.00000E+00
         0.00000E+00
         0.00000E+00
         0.00000E+00
         0.00000E+00
         0.00000E+00
         0.00000E+00
         0.00000E+00
         0.00000E+00
         0.00000E+00
         0.00000E+00
         0.00000E+00
         0.00000E+00
         0.00000E+00
         0.00000E+00
         0.00000E+00
         0.00000E+00
         0.00000E+00
         0.00000E+00
         0.00000E+00
         0.00000E+00
         0.00000E+00
         0.00000E+00
         0.00000E+00
         0.00000E+00
         0.00000E+00
         0.00000E+00
         0.00000E+00
         0.00000E+00
         0.00000E+00
         0.00000E+00
         0.00000E+00
         0.00000E+00
         0.00000E+00
         0.00000E+00
         0.00000E+00
         0.00000E+00
         0.00000E+00
         0.00000E+00
         0.00000E+00
         0.00000E+00
         0.00000E+00
         0.00000E+00
         0.00000E+00
         0.00000E+00
         0.00000E+00
         0.00000E+00
         0.00000E+00
         0.00000E+00
         0.00000E+00
         0.00000E+00
         0.00000E+00
         0.00000E+00
         0.00000E+00
         0.00000E+00
         0.00000E+00
         0.00000E+00
         0.00000E+00
         0.00000E+00
         0.00000E+00
         0.00000E+00
         0.00000E+00
         0.00000E+00
         0.00000E+00
         0.00000E+00
         0.00000E+00
         0.00000E+00
         0.00000E+00
         0.00000E+00
         0.00000E+00
         0.00000E+00
         0.00000E+00
         0.00000E+00
         0.00000E+00
         0.00000E+00
         0.00000E+00
         0.00000E+00
         0.00000E+00
         0.00000E+00
         0.00000E+00
         0.00000E+00
         0.00000E+00
         0.00000E+00
         0.00000E+00
         0.00000E+00
         0.00000E+00
         0.00000E+00
         0.00000E+00
         0.00000E+00
         0.00000E+00
         0.00000E+00
         0.00000E+00
         0.00000E+00
         0.00000E+00
         0.00000E+00
         0.00000E+00
         0.00000E+00
         0.00000E+00
         0.00000E+00
         0.00000E+00
         0.00000E+00
         0.00000E+00
         0.00000E+00
         0.00000E+00
         0.00000E+00
         0.00000E+00
         0.00000E+00
         0.00000E+00
         0.00000E+00
         0.00000E+00
         0.00000E+00
         0.00000E+00
         0.00000E+00
         0.00000E+00
         0.00000E+00
         0.00000E+00
         0.00000E+00
         0.00000E+00
         0.00000E+00
         0.00000E+00
         0.00000E+00
         0.00000E+00
         0.00000E+00
         0.00000E+00
         0.00000E+00
         0.00000E+00
         0.00000E+00
         0.00000E+00
         0.00000E+00
         0.00000E+00
         0.00000E+00
         0.00000E+00
         0.00000E+00
         0.00000E+00
         0.00000E+00
         0.00000E+00
         0.00000E+00
         0.00000E+00
         0.00000E+00
         0.00000E+00
         0.00000E+00
         0.00000E+00
         0.00000E+00
         0.00000E+00
         0.00000E+00
         0.00000E+00
         0.00000E+00
         0.00000E+00
         0.00000E+00
         0.00000E+00
         0.00000E+00
         0.00000E+00
         0.00000E+00
         0.00000E+00
         0.00000E+00
         0.00000E+00
         0.00000E+00
         0.00000E+00
         0.00000E+00
         0.00000E+00
         0.00000E+00
         0.00000E+00
         0.00000E+00
         0.00000E+00
         0.00000E+00
         0.00000E+00
         0.00000E+00
         0.00000E+00
         0.00000E+00
         0.00000E+00
         0.00000E+00
         0.00000E+00
         0.00000E+00
         0.00000E+00
         0.00000E+00
         0.00000E+00
         0.00000E+00
         0.00000E+00
         0.00000E+00
         0.00000E+00
         0.00000E+00
         0.00000E+00
         0.00000E+00
         0.00000E+00
         0.00000E+00
         0.00000E+00
         0.00000E+00
         0.00000E+00
         0.00000E+00
         0.00000E+00
         0.00000E+00
         0.00000E+00
         0.00000E+00
         0.00000E+00
         0.00000E+00
         0.00000E+00
         0.00000E+00
         0.00000E+00
         0.00000E+00
         0.00000E+00
         0.00000E+00
         0.00000E+00
         0.00000E+00
         0.00000E+00
         0.00000E+00
         0.00000E+00
         0.00000E+00
         0.00000E+00
         0.00000E+00
         0.00000E+00
         0.00000E+00
         0.00000E+00
         0.00000E+00
         0.00000E+00
         0.00000E+00
         0.00000E+00
         0.00000E+00
         0.00000E+00
         0.00000E+00
         0.00000E+00
         0.00000E+00
         0.00000E+00
         0.00000E+00
         0.00000E+00
         0.00000E+00
         0.00000E+00
         0.00000E+00
         0.00000E+00
         0.00000E+00
         0.00000E+00
         0.00000E+00
         0.00000E+00
         0.00000E+00
         0.00000E+00
         0.00000E+00
         0.00000E+00
         0.00000E+00
         0.00000E+00
         0.00000E+00
         0.00000E+00
         0.00000E+00
         0.00000E+00
         0.00000E+00
         0.00000E+00
         0.00000E+00
         0.00000E+00
         0.00000E+00
         0.00000E+00
         0.00000E+00
         0.00000E+00
         0.00000E+00
         0.00000E+00
         0.00000E+00
         0.00000E+00
         0.00000E+00
         0.00000E+00
         0.00000E+00
         0.00000E+00
         0.00000E+00
         0.00000E+00
         0.00000E+00
         0.00000E+00
         0.00000E+00
         0.00000E+00
         0.00000E+00
         0.00000E+00
         0.00000E+00
         0.00000E+00
         0.00000E+00
         0.00000E+00
         0.00000E+00
         0.00000E+00
         0.00000E+00
         0.00000E+00
         0.00000E+00
         0.00000E+00
         0.00000E+00
         0.00000E+00
         0.00000E+00
         0.00000E+00
         0.00000E+00
         0.00000E+00
         0.00000E+00
         0.00000E+00
         0.00000E+00
         0.00000E+00
         0.00000E+00
         0.00000E+00
         0.00000E+00
         0.00000E+00
         0.00000E+00
         0.00000E+00
         0.00000E+00
         0.00000E+00
         0.00000E+00
         0.00000E+00
         0.00000E+00
         0.00000E+00
         0.00000E+00
         0.00000E+00
         0.00000E+00
         0.00000E+00
         0.00000E+00
         0.00000E+00
         0.00000E+00
         0.00000E+00
         0.00000E+00
         0.00000E+00
         0.00000E+00
         0.00000E+00
         0.00000E+00
         0.00000E+00
         0.00000E+00
         0.00000E+00
         0.00000E+00
         0.00000E+00
         0.00000E+00
         0.00000E+00
         0.00000E+00
         0.00000E+00
         0.00000E+00
         0.00000E+00
         0.00000E+00
         0.00000E+00
         0.00000E+00
         0.00000E+00
         0.00000E+00
         0.00000E+00
         0.00000E+00
         0.00000E+00
         0.00000E+00
         0.00000E+00
         0.00000E+00
         0.00000E+00
         0.00000E+00
         0.00000E+00
         0.00000E+00
         0.00000E+00
         0.00000E+00
         0.00000E+00
         0.00000E+00
         0.00000E+00
         0.00000E+00
         0.00000E+00
         0.00000E+00
         0.00000E+00
         0.00000E+00
         0.00000E+00
         0.00000E+00
         0.00000E+00
         0.00000E+00
         0.00000E+00
         0.00000E+00
         0.00000E+00
         0.00000E+00
         0.00000E+00
         0.00000E+00
         0.00000E+00
         0.00000E+00
         0.00000E+00
         0.00000E+00
         0.00000E+00
         0.00000E+00
         0.00000E+00
         0.00000E+00
         0.00000E+00
         0.00000E+00
  
SCALARS                        eps_vol  double 1
LOOKUP_TABLE default
         0.00000E+00
         0.00000E+00
         0.00000E+00
         0.00000E+00
         0.00000E+00
         0.00000E+00
         0.00000E+00
         0.00000E+00
         0.00000E+00
         0.00000E+00
         0.00000E+00
         0.00000E+00
         0.00000E+00
         0.00000E+00
         0.00000E+00
         0.00000E+00
         0.00000E+00
         0.00000E+00
         0.00000E+00
         0.00000E+00
         0.00000E+00
         0.00000E+00
         0.00000E+00
         0.00000E+00
         0.00000E+00
         0.00000E+00
         0.00000E+00
         0.00000E+00
         0.00000E+00
         0.00000E+00
         0.00000E+00
         0.00000E+00
         0.00000E+00
         0.00000E+00
         0.00000E+00
         0.00000E+00
         0.00000E+00
         0.00000E+00
         0.00000E+00
         0.00000E+00
         0.00000E+00
         0.00000E+00
         0.00000E+00
         0.00000E+00
         0.00000E+00
         0.00000E+00
         0.00000E+00
         0.00000E+00
         0.00000E+00
         0.00000E+00
         0.00000E+00
         0.00000E+00
         0.00000E+00
         0.00000E+00
         0.00000E+00
         0.00000E+00
         0.00000E+00
         0.00000E+00
         0.00000E+00
         0.00000E+00
         0.00000E+00
         0.00000E+00
         0.00000E+00
         0.00000E+00
         0.00000E+00
         0.00000E+00
         0.00000E+00
         0.00000E+00
         0.00000E+00
         0.00000E+00
         0.00000E+00
         0.00000E+00
         0.00000E+00
         0.00000E+00
         0.00000E+00
         0.00000E+00
         0.00000E+00
         0.00000E+00
         0.00000E+00
         0.00000E+00
         0.00000E+00
         0.00000E+00
         0.00000E+00
         0.00000E+00
         0.00000E+00
         0.00000E+00
         0.00000E+00
         0.00000E+00
         0.00000E+00
         0.00000E+00
         0.00000E+00
         0.00000E+00
         0.00000E+00
         0.00000E+00
         0.00000E+00
         0.00000E+00
         0.00000E+00
         0.00000E+00
         0.00000E+00
         0.00000E+00
         0.00000E+00
         0.00000E+00
         0.00000E+00
         0.00000E+00
         0.00000E+00
         0.00000E+00
         0.00000E+00
         0.00000E+00
         0.00000E+00
         0.00000E+00
         0.00000E+00
         0.00000E+00
         0.00000E+00
         0.00000E+00
         0.00000E+00
         0.00000E+00
         0.00000E+00
         0.00000E+00
         0.00000E+00
         0.00000E+00
         0.00000E+00
         0.00000E+00
         0.00000E+00
         0.00000E+00
         0.00000E+00
         0.00000E+00
         0.00000E+00
         0.00000E+00
         0.00000E+00
         0.00000E+00
         0.00000E+00
         0.00000E+00
         0.00000E+00
         0.00000E+00
         0.00000E+00
         0.00000E+00
         0.00000E+00
         0.00000E+00
         0.00000E+00
         0.00000E+00
         0.00000E+00
         0.00000E+00
         0.00000E+00
         0.00000E+00
         0.00000E+00
         0.00000E+00
         0.00000E+00
         0.00000E+00
         0.00000E+00
         0.00000E+00
         0.00000E+00
         0.00000E+00
         0.00000E+00
         0.00000E+00
         0.00000E+00
         0.00000E+00
         0.00000E+00
         0.00000E+00
         0.00000E+00
         0.00000E+00
         0.00000E+00
         0.00000E+00
         0.00000E+00
         0.00000E+00
         0.00000E+00
         0.00000E+00
         0.00000E+00
         0.00000E+00
         0.00000E+00
         0.00000E+00
         0.00000E+00
         0.00000E+00
         0.00000E+00
         0.00000E+00
         0.00000E+00
         0.00000E+00
         0.00000E+00
         0.00000E+00
         0.00000E+00
         0.00000E+00
         0.00000E+00
         0.00000E+00
         0.00000E+00
         0.00000E+00
         0.00000E+00
         0.00000E+00
         0.00000E+00
         0.00000E+00
         0.00000E+00
         0.00000E+00
         0.00000E+00
         0.00000E+00
         0.00000E+00
         0.00000E+00
         0.00000E+00
         0.00000E+00
         0.00000E+00
         0.00000E+00
         0.00000E+00
         0.00000E+00
         0.00000E+00
         0.00000E+00
         0.00000E+00
         0.00000E+00
         0.00000E+00
         0.00000E+00
         0.00000E+00
         0.00000E+00
         0.00000E+00
         0.00000E+00
         0.00000E+00
         0.00000E+00
         0.00000E+00
         0.00000E+00
         0.00000E+00
         0.00000E+00
         0.00000E+00
         0.00000E+00
         0.00000E+00
         0.00000E+00
         0.00000E+00
         0.00000E+00
         0.00000E+00
         0.00000E+00
         0.00000E+00
         0.00000E+00
         0.00000E+00
         0.00000E+00
         0.00000E+00
         0.00000E+00
         0.00000E+00
         0.00000E+00
         0.00000E+00
         0.00000E+00
         0.00000E+00
         0.00000E+00
         0.00000E+00
         0.00000E+00
         0.00000E+00
         0.00000E+00
         0.00000E+00
         0.00000E+00
         0.00000E+00
         0.00000E+00
         0.00000E+00
         0.00000E+00
         0.00000E+00
         0.00000E+00
         0.00000E+00
         0.00000E+00
         0.00000E+00
         0.00000E+00
         0.00000E+00
         0.00000E+00
         0.00000E+00
         0.00000E+00
         0.00000E+00
         0.00000E+00
         0.00000E+00
         0.00000E+00
         0.00000E+00
         0.00000E+00
         0.00000E+00
         0.00000E+00
         0.00000E+00
         0.00000E+00
         0.00000E+00
         0.00000E+00
         0.00000E+00
         0.00000E+00
         0.00000E+00
         0.00000E+00
         0.00000E+00
         0.00000E+00
         0.00000E+00
         0.00000E+00
         0.00000E+00
         0.00000E+00
         0.00000E+00
         0.00000E+00
         0.00000E+00
         0.00000E+00
         0.00000E+00
         0.00000E+00
         0.00000E+00
         0.00000E+00
         0.00000E+00
         0.00000E+00
         0.00000E+00
         0.00000E+00
         0.00000E+00
         0.00000E+00
         0.00000E+00
         0.00000E+00
         0.00000E+00
         0.00000E+00
         0.00000E+00
         0.00000E+00
         0.00000E+00
         0.00000E+00
         0.00000E+00
         0.00000E+00
         0.00000E+00
         0.00000E+00
         0.00000E+00
         0.00000E+00
         0.00000E+00
         0.00000E+00
         0.00000E+00
         0.00000E+00
         0.00000E+00
         0.00000E+00
         0.00000E+00
         0.00000E+00
         0.00000E+00
         0.00000E+00
         0.00000E+00
         0.00000E+00
         0.00000E+00
         0.00000E+00
         0.00000E+00
         0.00000E+00
         0.00000E+00
         0.00000E+00
         0.00000E+00
         0.00000E+00
         0.00000E+00
         0.00000E+00
         0.00000E+00
         0.00000E+00
         0.00000E+00
         0.00000E+00
         0.00000E+00
         0.00000E+00
         0.00000E+00
         0.00000E+00
         0.00000E+00
         0.00000E+00
         0.00000E+00
         0.00000E+00
         0.00000E+00
         0.00000E+00
         0.00000E+00
         0.00000E+00
         0.00000E+00
         0.00000E+00
         0.00000E+00
         0.00000E+00
         0.00000E+00
         0.00000E+00
         0.00000E+00
         0.00000E+00
         0.00000E+00
         0.00000E+00
         0.00000E+00
         0.00000E+00
         0.00000E+00
         0.00000E+00
         0.00000E+00
         0.00000E+00
         0.00000E+00
         0.00000E+00
         0.00000E+00
         0.00000E+00
         0.00000E+00
         0.00000E+00
         0.00000E+00
         0.00000E+00
         0.00000E+00
         0.00000E+00
         0.00000E+00
         0.00000E+00
         0.00000E+00
         0.00000E+00
         0.00000E+00
         0.00000E+00
         0.00000E+00
         0.00000E+00
         0.00000E+00
         0.00000E+00
         0.00000E+00
         0.00000E+00
         0.00000E+00
         0.00000E+00
         0.00000E+00
         0.00000E+00
         0.00000E+00
         0.00000E+00
         0.00000E+00
         0.00000E+00
         0.00000E+00
         0.00000E+00
         0.00000E+00
         0.00000E+00
         0.00000E+00
         0.00000E+00
         0.00000E+00
         0.00000E+00
         0.00000E+00
         0.00000E+00
         0.00000E+00
         0.00000E+00
         0.00000E+00
         0.00000E+00
         0.00000E+00
         0.00000E+00
         0.00000E+00
         0.00000E+00
         0.00000E+00
         0.00000E+00
         0.00000E+00
         0.00000E+00
         0.00000E+00
         0.00000E+00
         0.00000E+00
         0.00000E+00
         0.00000E+00
         0.00000E+00
         0.00000E+00
         0.00000E+00
         0.00000E+00
         0.00000E+00
         0.00000E+00
         0.00000E+00
         0.00000E+00
         0.00000E+00
         0.00000E+00
         0.00000E+00
         0.00000E+00
         0.00000E+00
         0.00000E+00
         0.00000E+00
         0.00000E+00
         0.00000E+00
         0.00000E+00
         0.00000E+00
         0.00000E+00
         0.00000E+00
         0.00000E+00
         0.00000E+00
         0.00000E+00
         0.00000E+00
         0.00000E+00
         0.00000E+00
         0.00000E+00
         0.00000E+00
         0.00000E+00
         0.00000E+00
         0.00000E+00
         0.00000E+00
         0.00000E+00
         0.00000E+00
         0.00000E+00
         0.00000E+00
         0.00000E+00
         0.00000E+00
         0.00000E+00
         0.00000E+00
         0.00000E+00
         0.00000E+00
         0.00000E+00
         0.00000E+00
         0.00000E+00
         0.00000E+00
         0.00000E+00
         0.00000E+00
         0.00000E+00
         0.00000E+00
         0.00000E+00
         0.00000E+00
         0.00000E+00
         0.00000E+00
         0.00000E+00
         0.00000E+00
         0.00000E+00
         0.00000E+00
         0.00000E+00
         0.00000E+00
         0.00000E+00
         0.00000E+00
         0.00000E+00
         0.00000E+00
         0.00000E+00
         0.00000E+00
         0.00000E+00
         0.00000E+00
         0.00000E+00
         0.00000E+00
         0.00000E+00
         0.00000E+00
         0.00000E+00
         0.00000E+00
         0.00000E+00
         0.00000E+00
         0.00000E+00
         0.00000E+00
         0.00000E+00
         0.00000E+00
         0.00000E+00
         0.00000E+00
         0.00000E+00
         0.00000E+00
         0.00000E+00
         0.00000E+00
         0.00000E+00
         0.00000E+00
         0.00000E+00
         0.00000E+00
         0.00000E+00
         0.00000E+00
         0.00000E+00
         0.00000E+00
         0.00000E+00
         0.00000E+00
         0.00000E+00
         0.00000E+00
         0.00000E+00
         0.00000E+00
         0.00000E+00
         0.00000E+00
         0.00000E+00
         0.00000E+00
         0.00000E+00
         0.00000E+00
         0.00000E+00
         0.00000E+00
         0.00000E+00
         0.00000E+00
         0.00000E+00
         0.00000E+00
         0.00000E+00
         0.00000E+00
         0.00000E+00
         0.00000E+00
         0.00000E+00
         0.00000E+00
         0.00000E+00
         0.00000E+00
         0.00000E+00
         0.00000E+00
         0.00000E+00
         0.00000E+00
         0.00000E+00
         0.00000E+00
         0.00000E+00
         0.00000E+00
         0.00000E+00
         0.00000E+00
         0.00000E+00
         0.00000E+00
         0.00000E+00
         0.00000E+00
         0.00000E+00
         0.00000E+00
         0.00000E+00
         0.00000E+00
         0.00000E+00
         0.00000E+00
         0.00000E+00
         0.00000E+00
         0.00000E+00
         0.00000E+00
         0.00000E+00
         0.00000E+00
         0.00000E+00
         0.00000E+00
         0.00000E+00
         0.00000E+00
         0.00000E+00
         0.00000E+00
         0.00000E+00
         0.00000E+00
         0.00000E+00
         0.00000E+00
         0.00000E+00
         0.00000E+00
         0.00000E+00
         0.00000E+00
         0.00000E+00
         0.00000E+00
         0.00000E+00
         0.00000E+00
         0.00000E+00
         0.00000E+00
         0.00000E+00
         0.00000E+00
         0.00000E+00
         0.00000E+00
         0.00000E+00
         0.00000E+00
         0.00000E+00
         0.00000E+00
         0.00000E+00
         0.00000E+00
         0.00000E+00
         0.00000E+00
         0.00000E+00
         0.00000E+00
         0.00000E+00
         0.00000E+00
         0.00000E+00
         0.00000E+00
         0.00000E+00
         0.00000E+00
         0.00000E+00
         0.00000E+00
         0.00000E+00
         0.00000E+00
         0.00000E+00
         0.00000E+00
         0.00000E+00
         0.00000E+00
         0.00000E+00
         0.00000E+00
         0.00000E+00
         0.00000E+00
         0.00000E+00
         0.00000E+00
         0.00000E+00
         0.00000E+00
         0.00000E+00
         0.00000E+00
         0.00000E+00
         0.00000E+00
         0.00000E+00
         0.00000E+00
         0.00000E+00
         0.00000E+00
         0.00000E+00
         0.00000E+00
         0.00000E+00
         0.00000E+00
         0.00000E+00
         0.00000E+00
         0.00000E+00
         0.00000E+00
         0.00000E+00
         0.00000E+00
         0.00000E+00
         0.00000E+00
         0.00000E+00
         0.00000E+00
         0.00000E+00
         0.00000E+00
         0.00000E+00
         0.00000E+00
         0.00000E+00
         0.00000E+00
         0.00000E+00
         0.00000E+00
         0.00000E+00
         0.00000E+00
         0.00000E+00
         0.00000E+00
         0.00000E+00
         0.00000E+00
         0.00000E+00
         0.00000E+00
         0.00000E+00
         0.00000E+00
         0.00000E+00
         0.00000E+00
         0.00000E+00
         0.00000E+00
         0.00000E+00
         0.00000E+00
         0.00000E+00
         0.00000E+00
         0.00000E+00
         0.00000E+00
         0.00000E+00
         0.00000E+00
         0.00000E+00
         0.00000E+00
         0.00000E+00
         0.00000E+00
         0.00000E+00
         0.00000E+00
         0.00000E+00
         0.00000E+00
         0.00000E+00
         0.00000E+00
         0.00000E+00
         0.00000E+00
         0.00000E+00
         0.00000E+00
         0.00000E+00
         0.00000E+00
         0.00000E+00
         0.00000E+00
         0.00000E+00
         0.00000E+00
         0.00000E+00
         0.00000E+00
         0.00000E+00
         0.00000E+00
         0.00000E+00
         0.00000E+00
         0.00000E+00
         0.00000E+00
         0.00000E+00
         0.00000E+00
         0.00000E+00
         0.00000E+00
         0.00000E+00
         0.00000E+00
         0.00000E+00
         0.00000E+00
         0.00000E+00
         0.00000E+00
         0.00000E+00
         0.00000E+00
         0.00000E+00
         0.00000E+00
         0.00000E+00
         0.00000E+00
         0.00000E+00
         0.00000E+00
         0.00000E+00
         0.00000E+00
         0.00000E+00
         0.00000E+00
         0.00000E+00
         0.00000E+00
         0.00000E+00
         0.00000E+00
         0.00000E+00
         0.00000E+00
         0.00000E+00
         0.00000E+00
         0.00000E+00
         0.00000E+00
         0.00000E+00
         0.00000E+00
         0.00000E+00
         0.00000E+00
         0.00000E+00
         0.00000E+00
         0.00000E+00
         0.00000E+00
         0.00000E+00
         0.00000E+00
         0.00000E+00
         0.00000E+00
         0.00000E+00
         0.00000E+00
         0.00000E+00
         0.00000E+00
         0.00000E+00
         0.00000E+00
         0.00000E+00
         0.00000E+00
         0.00000E+00
         0.00000E+00
         0.00000E+00
         0.00000E+00
         0.00000E+00
         0.00000E+00
         0.00000E+00
         0.00000E+00
         0.00000E+00
         0.00000E+00
         0.00000E+00
         0.00000E+00
         0.00000E+00
         0.00000E+00
         0.00000E+00
         0.00000E+00
         0.00000E+00
         0.00000E+00
         0.00000E+00
         0.00000E+00
         0.00000E+00
         0.00000E+00
         0.00000E+00
         0.00000E+00
         0.00000E+00
         0.00000E+00
         0.00000E+00
         0.00000E+00
         0.00000E+00
         0.00000E+00
         0.00000E+00
         0.00000E+00
         0.00000E+00
         0.00000E+00
         0.00000E+00
         0.00000E+00
         0.00000E+00
         0.00000E+00
         0.00000E+00
         0.00000E+00
         0.00000E+00
         0.00000E+00
         0.00000E+00
         0.00000E+00
         0.00000E+00
         0.00000E+00
         0.00000E+00
         0.00000E+00
         0.00000E+00
         0.00000E+00
         0.00000E+00
         0.00000E+00
         0.00000E+00
         0.00000E+00
         0.00000E+00
         0.00000E+00
         0.00000E+00
         0.00000E+00
         0.00000E+00
         0.00000E+00
         0.00000E+00
         0.00000E+00
         0.00000E+00
         0.00000E+00
         0.00000E+00
         0.00000E+00
         0.00000E+00
         0.00000E+00
         0.00000E+00
         0.00000E+00
         0.00000E+00
         0.00000E+00
         0.00000E+00
         0.00000E+00
         0.00000E+00
         0.00000E+00
         0.00000E+00
         0.00000E+00
         0.00000E+00
         0.00000E+00
         0.00000E+00
         0.00000E+00
         0.00000E+00
         0.00000E+00
         0.00000E+00
         0.00000E+00
         0.00000E+00
         0.00000E+00
         0.00000E+00
         0.00000E+00
         0.00000E+00
         0.00000E+00
         0.00000E+00
         0.00000E+00
         0.00000E+00
         0.00000E+00
         0.00000E+00
         0.00000E+00
         0.00000E+00
         0.00000E+00
         0.00000E+00
         0.00000E+00
         0.00000E+00
         0.00000E+00
         0.00000E+00
         0.00000E+00
         0.00000E+00
         0.00000E+00
         0.00000E+00
         0.00000E+00
         0.00000E+00
         0.00000E+00
         0.00000E+00
         0.00000E+00
         0.00000E+00
         0.00000E+00
         0.00000E+00
         0.00000E+00
         0.00000E+00
         0.00000E+00
         0.00000E+00
         0.00000E+00
         0.00000E+00
         0.00000E+00
         0.00000E+00
         0.00000E+00
         0.00000E+00
         0.00000E+00
         0.00000E+00
         0.00000E+00
         0.00000E+00
         0.00000E+00
         0.00000E+00
         0.00000E+00
         0.00000E+00
         0.00000E+00
         0.00000E+00
         0.00000E+00
         0.00000E+00
         0.00000E+00
         0.00000E+00
         0.00000E+00
         0.00000E+00
         0.00000E+00
         0.00000E+00
         0.00000E+00
         0.00000E+00
         0.00000E+00
         0.00000E+00
         0.00000E+00
         0.00000E+00
         0.00000E+00
         0.00000E+00
         0.00000E+00
         0.00000E+00
         0.00000E+00
         0.00000E+00
         0.00000E+00
         0.00000E+00
         0.00000E+00
         0.00000E+00
         0.00000E+00
         0.00000E+00
         0.00000E+00
         0.00000E+00
         0.00000E+00
         0.00000E+00
         0.00000E+00
         0.00000E+00
         0.00000E+00
         0.00000E+00
         0.00000E+00
         0.00000E+00
         0.00000E+00
         0.00000E+00
         0.00000E+00
         0.00000E+00
         0.00000E+00
         0.00000E+00
         0.00000E+00
         0.00000E+00
         0.00000E+00
         0.00000E+00
         0.00000E+00
         0.00000E+00
         0.00000E+00
         0.00000E+00
         0.00000E+00
         0.00000E+00
         0.00000E+00
         0.00000E+00
         0.00000E+00
         0.00000E+00
         0.00000E+00
         0.00000E+00
         0.00000E+00
         0.00000E+00
         0.00000E+00
         0.00000E+00
         0.00000E+00
         0.00000E+00
         0.00000E+00
         0.00000E+00
         0.00000E+00
         0.00000E+00
         0.00000E+00
         0.00000E+00
         0.00000E+00
         0.00000E+00
         0.00000E+00
         0.00000E+00
         0.00000E+00
         0.00000E+00
         0.00000E+00
         0.00000E+00
         0.00000E+00
         0.00000E+00
         0.00000E+00
         0.00000E+00
         0.00000E+00
         0.00000E+00
         0.00000E+00
         0.00000E+00
         0.00000E+00
         0.00000E+00
         0.00000E+00
         0.00000E+00
         0.00000E+00
         0.00000E+00
         0.00000E+00
         0.00000E+00
         0.00000E+00
         0.00000E+00
         0.00000E+00
         0.00000E+00
         0.00000E+00
         0.00000E+00
         0.00000E+00
         0.00000E+00
         0.00000E+00
         0.00000E+00
         0.00000E+00
         0.00000E+00
         0.00000E+00
         0.00000E+00
         0.00000E+00
         0.00000E+00
         0.00000E+00
         0.00000E+00
         0.00000E+00
         0.00000E+00
         0.00000E+00
         0.00000E+00
         0.00000E+00
         0.00000E+00
         0.00000E+00
         0.00000E+00
         0.00000E+00
         0.00000E+00
         0.00000E+00
         0.00000E+00
         0.00000E+00
         0.00000E+00
         0.00000E+00
         0.00000E+00
         0.00000E+00
         0.00000E+00
         0.00000E+00
         0.00000E+00
         0.00000E+00
         0.00000E+00
         0.00000E+00
         0.00000E+00
         0.00000E+00
         0.00000E+00
         0.00000E+00
         0.00000E+00
         0.00000E+00
         0.00000E+00
         0.00000E+00
         0.00000E+00
         0.00000E+00
         0.00000E+00
         0.00000E+00
         0.00000E+00
         0.00000E+00
         0.00000E+00
         0.00000E+00
         0.00000E+00
         0.00000E+00
         0.00000E+00
         0.00000E+00
         0.00000E+00
         0.00000E+00
         0.00000E+00
         0.00000E+00
         0.00000E+00
         0.00000E+00
         0.00000E+00
         0.00000E+00
         0.00000E+00
         0.00000E+00
         0.00000E+00
         0.00000E+00
         0.00000E+00
         0.00000E+00
         0.00000E+00
         0.00000E+00
         0.00000E+00
         0.00000E+00
         0.00000E+00
         0.00000E+00
         0.00000E+00
         0.00000E+00
         0.00000E+00
         0.00000E+00
         0.00000E+00
         0.00000E+00
         0.00000E+00
         0.00000E+00
         0.00000E+00
         0.00000E+00
         0.00000E+00
         0.00000E+00
         0.00000E+00
         0.00000E+00
         0.00000E+00
         0.00000E+00
         0.00000E+00
         0.00000E+00
         0.00000E+00
         0.00000E+00
         0.00000E+00
         0.00000E+00
         0.00000E+00
         0.00000E+00
         0.00000E+00
         0.00000E+00
         0.00000E+00
         0.00000E+00
         0.00000E+00
         0.00000E+00
         0.00000E+00
         0.00000E+00
         0.00000E+00
         0.00000E+00
         0.00000E+00
         0.00000E+00
         0.00000E+00
         0.00000E+00
         0.00000E+00
         0.00000E+00
         0.00000E+00
         0.00000E+00
         0.00000E+00
         0.00000E+00
         0.00000E+00
         0.00000E+00
         0.00000E+00
         0.00000E+00
         0.00000E+00
         0.00000E+00
         0.00000E+00
         0.00000E+00
         0.00000E+00
         0.00000E+00
         0.00000E+00
         0.00000E+00
         0.00000E+00
         0.00000E+00
         0.00000E+00
         0.00000E+00
         0.00000E+00
         0.00000E+00
         0.00000E+00
         0.00000E+00
         0.00000E+00
         0.00000E+00
         0.00000E+00
         0.00000E+00
         0.00000E+00
         0.00000E+00
         0.00000E+00
         0.00000E+00
         0.00000E+00
         0.00000E+00
         0.00000E+00
         0.00000E+00
         0.00000E+00
         0.00000E+00
         0.00000E+00
         0.00000E+00
         0.00000E+00
         0.00000E+00
         0.00000E+00
         0.00000E+00
         0.00000E+00
         0.00000E+00
         0.00000E+00
         0.00000E+00
         0.00000E+00
         0.00000E+00
         0.00000E+00
         0.00000E+00
         0.00000E+00
         0.00000E+00
         0.00000E+00
         0.00000E+00
         0.00000E+00
         0.00000E+00
         0.00000E+00
         0.00000E+00
         0.00000E+00
         0.00000E+00
         0.00000E+00
         0.00000E+00
         0.00000E+00
         0.00000E+00
         0.00000E+00
         0.00000E+00
         0.00000E+00
         0.00000E+00
         0.00000E+00
         0.00000E+00
         0.00000E+00
         0.00000E+00
         0.00000E+00
         0.00000E+00
         0.00000E+00
         0.00000E+00
         0.00000E+00
         0.00000E+00
         0.00000E+00
         0.00000E+00
         0.00000E+00
         0.00000E+00
         0.00000E+00
         0.00000E+00
         0.00000E+00
         0.00000E+00
         0.00000E+00
         0.00000E+00
         0.00000E+00
         0.00000E+00
         0.00000E+00
         0.00000E+00
         0.00000E+00
         0.00000E+00
         0.00000E+00
         0.00000E+00
         0.00000E+00
         0.00000E+00
         0.00000E+00
         0.00000E+00
         0.00000E+00
         0.00000E+00
         0.00000E+00
         0.00000E+00
         0.00000E+00
         0.00000E+00
         0.00000E+00
         0.00000E+00
         0.00000E+00
         0.00000E+00
         0.00000E+00
         0.00000E+00
         0.00000E+00
         0.00000E+00
         0.00000E+00
         0.00000E+00
         0.00000E+00
         0.00000E+00
         0.00000E+00
         0.00000E+00
         0.00000E+00
         0.00000E+00
         0.00000E+00
         0.00000E+00
         0.00000E+00
         0.00000E+00
         0.00000E+00
         0.00000E+00
         0.00000E+00
         0.00000E+00
         0.00000E+00
         0.00000E+00
         0.00000E+00
         0.00000E+00
         0.00000E+00
         0.00000E+00
         0.00000E+00
         0.00000E+00
         0.00000E+00
         0.00000E+00
         0.00000E+00
         0.00000E+00
         0.00000E+00
         0.00000E+00
         0.00000E+00
         0.00000E+00
         0.00000E+00
         0.00000E+00
         0.00000E+00
         0.00000E+00
         0.00000E+00
         0.00000E+00
         0.00000E+00
         0.00000E+00
         0.00000E+00
         0.00000E+00
         0.00000E+00
         0.00000E+00
         0.00000E+00
         0.00000E+00
         0.00000E+00
         0.00000E+00
         0.00000E+00
         0.00000E+00
         0.00000E+00
         0.00000E+00
         0.00000E+00
         0.00000E+00
         0.00000E+00
         0.00000E+00
         0.00000E+00
         0.00000E+00
         0.00000E+00
         0.00000E+00
         0.00000E+00
         0.00000E+00
         0.00000E+00
         0.00000E+00
         0.00000E+00
         0.00000E+00
         0.00000E+00
         0.00000E+00
         0.00000E+00
         0.00000E+00
         0.00000E+00
         0.00000E+00
         0.00000E+00
         0.00000E+00
         0.00000E+00
         0.00000E+00
         0.00000E+00
         0.00000E+00
         0.00000E+00
         0.00000E+00
         0.00000E+00
         0.00000E+00
         0.00000E+00
         0.00000E+00
         0.00000E+00
         0.00000E+00
         0.00000E+00
         0.00000E+00
         0.00000E+00
         0.00000E+00
         0.00000E+00
         0.00000E+00
         0.00000E+00
         0.00000E+00
         0.00000E+00
         0.00000E+00
         0.00000E+00
         0.00000E+00
         0.00000E+00
         0.00000E+00
         0.00000E+00
         0.00000E+00
         0.00000E+00
         0.00000E+00
         0.00000E+00
         0.00000E+00
         0.00000E+00
         0.00000E+00
         0.00000E+00
         0.00000E+00
         0.00000E+00
         0.00000E+00
         0.00000E+00
         0.00000E+00
         0.00000E+00
         0.00000E+00
         0.00000E+00
         0.00000E+00
         0.00000E+00
         0.00000E+00
         0.00000E+00
         0.00000E+00
         0.00000E+00
         0.00000E+00
         0.00000E+00
         0.00000E+00
         0.00000E+00
         0.00000E+00
         0.00000E+00
         0.00000E+00
         0.00000E+00
         0.00000E+00
         0.00000E+00
         0.00000E+00
         0.00000E+00
         0.00000E+00
         0.00000E+00
         0.00000E+00
         0.00000E+00
         0.00000E+00
         0.00000E+00
         0.00000E+00
         0.00000E+00
         0.00000E+00
         0.00000E+00
         0.00000E+00
         0.00000E+00
         0.00000E+00
         0.00000E+00
         0.00000E+00
         0.00000E+00
         0.00000E+00
         0.00000E+00
         0.00000E+00
         0.00000E+00
         0.00000E+00
         0.00000E+00
         0.00000E+00
         0.00000E+00
         0.00000E+00
         0.00000E+00
         0.00000E+00
         0.00000E+00
         0.00000E+00
         0.00000E+00
         0.00000E+00
         0.00000E+00
         0.00000E+00
         0.00000E+00
         0.00000E+00
         0.00000E+00
         0.00000E+00
         0.00000E+00
         0.00000E+00
         0.00000E+00
         0.00000E+00
         0.00000E+00
         0.00000E+00
         0.00000E+00
         0.00000E+00
         0.00000E+00
         0.00000E+00
         0.00000E+00
         0.00000E+00
         0.00000E+00
         0.00000E+00
         0.00000E+00
         0.00000E+00
         0.00000E+00
         0.00000E+00
         0.00000E+00
         0.00000E+00
         0.00000E+00
         0.00000E+00
         0.00000E+00
         0.00000E+00
         0.00000E+00
         0.00000E+00
         0.00000E+00
         0.00000E+00
         0.00000E+00
         0.00000E+00
         0.00000E+00
         0.00000E+00
         0.00000E+00
         0.00000E+00
         0.00000E+00
         0.00000E+00
         0.00000E+00
         0.00000E+00
         0.00000E+00
         0.00000E+00
         0.00000E+00
         0.00000E+00
         0.00000E+00
         0.00000E+00
         0.00000E+00
         0.00000E+00
         0.00000E+00
         0.00000E+00
         0.00000E+00
         0.00000E+00
         0.00000E+00
         0.00000E+00
         0.00000E+00
         0.00000E+00
         0.00000E+00
         0.00000E+00
         0.00000E+00
         0.00000E+00
         0.00000E+00
         0.00000E+00
         0.00000E+00
         0.00000E+00
         0.00000E+00
         0.00000E+00
         0.00000E+00
         0.00000E+00
         0.00000E+00
         0.00000E+00
         0.00000E+00
         0.00000E+00
         0.00000E+00
         0.00000E+00
         0.00000E+00
         0.00000E+00
         0.00000E+00
         0.00000E+00
         0.00000E+00
         0.00000E+00
         0.00000E+00
         0.00000E+00
         0.00000E+00
         0.00000E+00
         0.00000E+00
         0.00000E+00
         0.00000E+00
         0.00000E+00
         0.00000E+00
         0.00000E+00
         0.00000E+00
         0.00000E+00
         0.00000E+00
         0.00000E+00
         0.00000E+00
         0.00000E+00
         0.00000E+00
         0.00000E+00
         0.00000E+00
         0.00000E+00
         0.00000E+00
         0.00000E+00
         0.00000E+00
         0.00000E+00
         0.00000E+00
         0.00000E+00
         0.00000E+00
         0.00000E+00
         0.00000E+00
         0.00000E+00
         0.00000E+00
         0.00000E+00
         0.00000E+00
         0.00000E+00
         0.00000E+00
         0.00000E+00
         0.00000E+00
         0.00000E+00
         0.00000E+00
         0.00000E+00
         0.00000E+00
         0.00000E+00
         0.00000E+00
         0.00000E+00
         0.00000E+00
         0.00000E+00
         0.00000E+00
         0.00000E+00
         0.00000E+00
         0.00000E+00
         0.00000E+00
         0.00000E+00
         0.00000E+00
         0.00000E+00
         0.00000E+00
         0.00000E+00
         0.00000E+00
         0.00000E+00
         0.00000E+00
         0.00000E+00
         0.00000E+00
         0.00000E+00
         0.00000E+00
         0.00000E+00
         0.00000E+00
         0.00000E+00
         0.00000E+00
         0.00000E+00
         0.00000E+00
         0.00000E+00
         0.00000E+00
         0.00000E+00
         0.00000E+00
         0.00000E+00
         0.00000E+00
         0.00000E+00
         0.00000E+00
         0.00000E+00
         0.00000E+00
         0.00000E+00
         0.00000E+00
         0.00000E+00
         0.00000E+00
         0.00000E+00
         0.00000E+00
         0.00000E+00
         0.00000E+00
         0.00000E+00
         0.00000E+00
         0.00000E+00
         0.00000E+00
         0.00000E+00
         0.00000E+00
         0.00000E+00
         0.00000E+00
         0.00000E+00
         0.00000E+00
         0.00000E+00
         0.00000E+00
         0.00000E+00
         0.00000E+00
         0.00000E+00
         0.00000E+00
         0.00000E+00
         0.00000E+00
         0.00000E+00
         0.00000E+00
         0.00000E+00
         0.00000E+00
         0.00000E+00
         0.00000E+00
         0.00000E+00
         0.00000E+00
         0.00000E+00
         0.00000E+00
         0.00000E+00
         0.00000E+00
         0.00000E+00
         0.00000E+00
         0.00000E+00
         0.00000E+00
         0.00000E+00
         0.00000E+00
         0.00000E+00
         0.00000E+00
         0.00000E+00
         0.00000E+00
         0.00000E+00
         0.00000E+00
         0.00000E+00
         0.00000E+00
         0.00000E+00
         0.00000E+00
         0.00000E+00
         0.00000E+00
         0.00000E+00
         0.00000E+00
         0.00000E+00
         0.00000E+00
         0.00000E+00
         0.00000E+00
         0.00000E+00
         0.00000E+00
         0.00000E+00
         0.00000E+00
         0.00000E+00
         0.00000E+00
         0.00000E+00
         0.00000E+00
         0.00000E+00
         0.00000E+00
         0.00000E+00
         0.00000E+00
         0.00000E+00
         0.00000E+00
         0.00000E+00
         0.00000E+00
         0.00000E+00
         0.00000E+00
         0.00000E+00
         0.00000E+00
         0.00000E+00
         0.00000E+00
         0.00000E+00
         0.00000E+00
         0.00000E+00
         0.00000E+00
         0.00000E+00
         0.00000E+00
         0.00000E+00
         0.00000E+00
         0.00000E+00
         0.00000E+00
         0.00000E+00
         0.00000E+00
         0.00000E+00
         0.00000E+00
         0.00000E+00
         0.00000E+00
         0.00000E+00
         0.00000E+00
         0.00000E+00
         0.00000E+00
         0.00000E+00
         0.00000E+00
         0.00000E+00
         0.00000E+00
         0.00000E+00
         0.00000E+00
         0.00000E+00
         0.00000E+00
         0.00000E+00
         0.00000E+00
         0.00000E+00
         0.00000E+00
         0.00000E+00
         0.00000E+00
         0.00000E+00
         0.00000E+00
         0.00000E+00
         0.00000E+00
         0.00000E+00
         0.00000E+00
         0.00000E+00
         0.00000E+00
         0.00000E+00
         0.00000E+00
         0.00000E+00
         0.00000E+00
         0.00000E+00
         0.00000E+00
         0.00000E+00
         0.00000E+00
         0.00000E+00
         0.00000E+00
         0.00000E+00
         0.00000E+00
         0.00000E+00
         0.00000E+00
         0.00000E+00
         0.00000E+00
         0.00000E+00
         0.00000E+00
         0.00000E+00
         0.00000E+00
         0.00000E+00
         0.00000E+00
         0.00000E+00
         0.00000E+00
         0.00000E+00
         0.00000E+00
         0.00000E+00
         0.00000E+00
         0.00000E+00
         0.00000E+00
         0.00000E+00
         0.00000E+00
         0.00000E+00
         0.00000E+00
         0.00000E+00
         0.00000E+00
         0.00000E+00
         0.00000E+00
         0.00000E+00
         0.00000E+00
         0.00000E+00
         0.00000E+00
         0.00000E+00
         0.00000E+00
         0.00000E+00
         0.00000E+00
         0.00000E+00
         0.00000E+00
         0.00000E+00
         0.00000E+00
         0.00000E+00
         0.00000E+00
         0.00000E+00
         0.00000E+00
         0.00000E+00
         0.00000E+00
         0.00000E+00
         0.00000E+00
         0.00000E+00
         0.00000E+00
         0.00000E+00
         0.00000E+00
         0.00000E+00
         0.00000E+00
         0.00000E+00
         0.00000E+00
         0.00000E+00
         0.00000E+00
         0.00000E+00
         0.00000E+00
         0.00000E+00
         0.00000E+00
         0.00000E+00
         0.00000E+00
         0.00000E+00
         0.00000E+00
         0.00000E+00
         0.00000E+00
         0.00000E+00
         0.00000E+00
         0.00000E+00
         0.00000E+00
         0.00000E+00
         0.00000E+00
         0.00000E+00
         0.00000E+00
         0.00000E+00
         0.00000E+00
         0.00000E+00
         0.00000E+00
         0.00000E+00
         0.00000E+00
         0.00000E+00
         0.00000E+00
         0.00000E+00
         0.00000E+00
         0.00000E+00
         0.00000E+00
         0.00000E+00
         0.00000E+00
         0.00000E+00
         0.00000E+00
         0.00000E+00
         0.00000E+00
         0.00000E+00
         0.00000E+00
         0.00000E+00
         0.00000E+00
         0.00000E+00
         0.00000E+00
         0.00000E+00
         0.00000E+00
         0.00000E+00
         0.00000E+00
         0.00000E+00
         0.00000E+00
         0.00000E+00
         0.00000E+00
         0.00000E+00
         0.00000E+00
         0.00000E+00
         0.00000E+00
         0.00000E+00
         0.00000E+00
         0.00000E+00
         0.00000E+00
         0.00000E+00
         0.00000E+00
         0.00000E+00
         0.00000E+00
         0.00000E+00
         0.00000E+00
         0.00000E+00
         0.00000E+00
         0.00000E+00
         0.00000E+00
         0.00000E+00
         0.00000E+00
         0.00000E+00
         0.00000E+00
         0.00000E+00
         0.00000E+00
         0.00000E+00
         0.00000E+00
         0.00000E+00
         0.00000E+00
         0.00000E+00
         0.00000E+00
         0.00000E+00
         0.00000E+00
         0.00000E+00
         0.00000E+00
         0.00000E+00
         0.00000E+00
         0.00000E+00
         0.00000E+00
         0.00000E+00
         0.00000E+00
         0.00000E+00
         0.00000E+00
         0.00000E+00
         0.00000E+00
         0.00000E+00
         0.00000E+00
         0.00000E+00
         0.00000E+00
         0.00000E+00
         0.00000E+00
         0.00000E+00
         0.00000E+00
         0.00000E+00
         0.00000E+00
         0.00000E+00
         0.00000E+00
         0.00000E+00
         0.00000E+00
         0.00000E+00
         0.00000E+00
         0.00000E+00
         0.00000E+00
         0.00000E+00
         0.00000E+00
         0.00000E+00
         0.00000E+00
         0.00000E+00
         0.00000E+00
         0.00000E+00
         0.00000E+00
         0.00000E+00
         0.00000E+00
         0.00000E+00
         0.00000E+00
         0.00000E+00
         0.00000E+00
         0.00000E+00
         0.00000E+00
         0.00000E+00
         0.00000E+00
         0.00000E+00
         0.00000E+00
         0.00000E+00
         0.00000E+00
         0.00000E+00
         0.00000E+00
         0.00000E+00
         0.00000E+00
         0.00000E+00
         0.00000E+00
         0.00000E+00
         0.00000E+00
         0.00000E+00
         0.00000E+00
         0.00000E+00
         0.00000E+00
         0.00000E+00
         0.00000E+00
         0.00000E+00
         0.00000E+00
         0.00000E+00
         0.00000E+00
         0.00000E+00
         0.00000E+00
         0.00000E+00
         0.00000E+00
         0.00000E+00
         0.00000E+00
         0.00000E+00
         0.00000E+00
         0.00000E+00
         0.00000E+00
         0.00000E+00
         0.00000E+00
         0.00000E+00
         0.00000E+00
         0.00000E+00
         0.00000E+00
         0.00000E+00
         0.00000E+00
         0.00000E+00
         0.00000E+00
         0.00000E+00
         0.00000E+00
         0.00000E+00
         0.00000E+00
         0.00000E+00
         0.00000E+00
         0.00000E+00
         0.00000E+00
         0.00000E+00
         0.00000E+00
         0.00000E+00
         0.00000E+00
         0.00000E+00
         0.00000E+00
         0.00000E+00
         0.00000E+00
         0.00000E+00
         0.00000E+00
         0.00000E+00
         0.00000E+00
         0.00000E+00
         0.00000E+00
         0.00000E+00
         0.00000E+00
         0.00000E+00
         0.00000E+00
         0.00000E+00
         0.00000E+00
         0.00000E+00
         0.00000E+00
         0.00000E+00
         0.00000E+00
         0.00000E+00
         0.00000E+00
         0.00000E+00
  
SCALARS                            eps  double 1
LOOKUP_TABLE default
         0.74918E+00
         0.74068E+00
         0.74607E+00
         0.75581E+00
         0.00000E+00
         0.00000E+00
         0.00000E+00
         0.00000E+00
         0.74044E+00
         0.74328E+00
         0.00000E+00
         0.00000E+00
         0.72835E+00
         0.72790E+00
         0.00000E+00
         0.00000E+00
         0.75438E+00
         0.72857E+00
         0.00000E+00
         0.00000E+00
         0.71914E+00
         0.71187E+00
         0.72347E+00
         0.00000E+00
         0.00000E+00
         0.00000E+00
         0.71213E+00
         0.70149E+00
         0.00000E+00
         0.00000E+00
         0.75391E+00
         0.74266E+00
         0.76485E+00
         0.00000E+00
         0.00000E+00
         0.00000E+00
         0.74738E+00
         0.73310E+00
         0.00000E+00
         0.00000E+00
         0.74174E+00
         0.73073E+00
         0.00000E+00
         0.00000E+00
         0.75109E+00
         0.75525E+00
         0.00000E+00
         0.00000E+00
         0.72188E+00
         0.00000E+00
         0.75443E+00
         0.00000E+00
         0.70905E+00
         0.00000E+00
         0.70570E+00
         0.00000E+00
         0.70577E+00
         0.71766E+00
         0.00000E+00
         0.00000E+00
         0.75368E+00
         0.74934E+00
         0.00000E+00
         0.00000E+00
         0.75639E+00
         0.00000E+00
         0.75123E+00
         0.00000E+00
         0.73784E+00
         0.73643E+00
         0.00000E+00
         0.00000E+00
         0.73337E+00
         0.00000E+00
         0.69775E+00
         0.00000E+00
         0.69591E+00
         0.00000E+00
         0.69686E+00
         0.00000E+00
         0.70203E+00
         0.70733E+00
         0.00000E+00
         0.00000E+00
         0.71808E+00
         0.00000E+00
         0.75088E+00
         0.00000E+00
         0.74577E+00
         0.00000E+00
         0.74163E+00
         0.73925E+00
         0.00000E+00
         0.00000E+00
         0.74206E+00
         0.00000E+00
         0.74408E+00
         0.00000E+00
         0.74228E+00
         0.00000E+00
         0.74169E+00
         0.74349E+00
         0.00000E+00
         0.00000E+00
         0.73180E+00
         0.73673E+00
         0.00000E+00
         0.00000E+00
         0.73097E+00
         0.00000E+00
         0.73665E+00
         0.00000E+00
         0.73109E+00
         0.00000E+00
         0.71893E+00
         0.00000E+00
         0.70723E+00
         0.00000E+00
         0.70021E+00
         0.00000E+00
         0.69950E+00
         0.00000E+00
         0.69971E+00
         0.00000E+00
         0.70730E+00
         0.00000E+00
         0.72168E+00
         0.00000E+00
         0.73751E+00
         0.00000E+00
         0.74670E+00
         0.00000E+00
         0.75587E+00
         0.00000E+00
         0.76194E+00
         0.00000E+00
         0.76176E+00
         0.00000E+00
         0.74686E+00
         0.00000E+00
         0.73653E+00
         0.00000E+00
         0.73314E+00
         0.00000E+00
         0.73870E+00
         0.00000E+00
         0.74152E+00
         0.00000E+00
         0.73661E+00
         0.00000E+00
         0.73660E+00
         0.00000E+00
         0.74031E+00
         0.00000E+00
         0.74511E+00
         0.00000E+00
         0.20915E+00
         0.21225E+00
         0.21184E+00
         0.20778E+00
         0.21523E+00
         0.21150E+00
         0.21607E+00
         0.21370E+00
         0.20843E+00
         0.21174E+00
         0.21857E+00
         0.21939E+00
         0.21735E+00
         0.21716E+00
         0.21855E+00
         0.20798E+00
         0.20874E+00
         0.20659E+00
         0.21259E+00
         0.21151E+00
         0.21309E+00
         0.21208E+00
         0.21394E+00
         0.21342E+00
         0.21161E+00
         0.21173E+00
         0.21481E+00
         0.21453E+00
         0.21678E+00
         0.21338E+00
         0.20835E+00
         0.21229E+00
         0.20838E+00
         0.21098E+00
         0.21990E+00
         0.21709E+00
         0.21575E+00
         0.21736E+00
         0.21755E+00
         0.22008E+00
         0.22194E+00
         0.21745E+00
         0.21304E+00
         0.21363E+00
         0.21589E+00
         0.21981E+00
         0.21646E+00
         0.21281E+00
         0.21306E+00
         0.21589E+00
         0.21875E+00
         0.21490E+00
         0.22677E+00
         0.22364E+00
         0.22423E+00
         0.22352E+00
         0.22380E+00
         0.22567E+00
         0.22739E+00
         0.22780E+00
         0.22752E+00
         0.22775E+00
         0.22844E+00
         0.22390E+00
         0.22197E+00
         0.22122E+00
         0.22012E+00
         0.21928E+00
         0.21938E+00
         0.22095E+00
         0.22578E+00
         0.22471E+00
         0.22295E+00
         0.22291E+00
         0.22321E+00
         0.22477E+00
         0.22245E+00
         0.22159E+00
         0.36979E-03
         0.00000E+00
         0.00000E+00
         0.00000E+00
         0.50317E-03
         0.00000E+00
         0.00000E+00
         0.31270E-03
         0.00000E+00
         0.11615E-03
         0.00000E+00
         0.36688E-02
         0.20327E-02
         0.00000E+00
         0.39914E-02
         0.00000E+00
         0.00000E+00
         0.00000E+00
         0.00000E+00
         0.00000E+00
         0.22162E-02
         0.18864E-02
         0.17556E-02
         0.00000E+00
         0.00000E+00
         0.00000E+00
         0.00000E+00
         0.00000E+00
         0.00000E+00
         0.00000E+00
         0.00000E+00
         0.00000E+00
         0.00000E+00
         0.00000E+00
         0.15588E-02
         0.00000E+00
         0.50790E-03
         0.26763E-02
         0.13392E-02
         0.10313E-02
         0.27741E-02
         0.22226E-02
         0.22581E-02
         0.10451E-02
         0.60160E-03
         0.19662E-02
         0.22001E-03
         0.00000E+00
         0.00000E+00
         0.00000E+00
         0.13950E-02
         0.00000E+00
         0.16870E-01
         0.17353E-01
         0.18290E-01
         0.18133E-01
         0.19550E-01
         0.21238E-01
         0.20244E-01
         0.17630E-01
         0.17096E-01
         0.18530E-01
         0.18094E-01
         0.17803E-01
         0.14143E-01
         0.13283E-01
         0.14916E-01
         0.16212E-01
         0.16949E-01
         0.18816E-01
         0.17972E-01
         0.18549E-01
         0.16371E-01
         0.15377E-01
         0.16619E-01
         0.16172E-01
         0.16738E-01
         0.16569E-01
         0.37240E-03
         0.00000E+00
         0.00000E+00
         0.00000E+00
         0.50156E-03
         0.00000E+00
         0.00000E+00
         0.31598E-03
         0.00000E+00
         0.12559E-03
         0.00000E+00
         0.36685E-02
         0.20348E-02
         0.00000E+00
         0.39988E-02
         0.00000E+00
         0.00000E+00
         0.00000E+00
         0.00000E+00
         0.00000E+00
         0.22166E-02
         0.18860E-02
         0.17553E-02
         0.00000E+00
         0.00000E+00
         0.00000E+00
         0.00000E+00
         0.00000E+00
         0.00000E+00
         0.00000E+00
         0.00000E+00
         0.00000E+00
         0.00000E+00
         0.00000E+00
         0.15609E-02
         0.00000E+00
         0.50708E-03
         0.26853E-02
         0.13491E-02
         0.10370E-02
         0.27780E-02
         0.22253E-02
         0.22588E-02
         0.10451E-02
         0.60085E-03
         0.19660E-02
         0.22006E-03
         0.00000E+00
         0.00000E+00
         0.00000E+00
         0.13925E-02
         0.00000E+00
         0.16862E-01
         0.17348E-01
         0.18289E-01
         0.18133E-01
         0.19546E-01
         0.21230E-01
         0.20234E-01
         0.17625E-01
         0.17091E-01
         0.18524E-01
         0.18091E-01
         0.17803E-01
         0.14142E-01
         0.13282E-01
         0.14918E-01
         0.16217E-01
         0.16954E-01
         0.18821E-01
         0.17971E-01
         0.18548E-01
         0.16369E-01
         0.15376E-01
         0.16612E-01
         0.16159E-01
         0.16727E-01
         0.16558E-01
         0.37504E-03
         0.00000E+00
         0.00000E+00
         0.00000E+00
         0.49989E-03
         0.00000E+00
         0.00000E+00
         0.31927E-03
         0.00000E+00
         0.13496E-03
         0.00000E+00
         0.36683E-02
         0.20368E-02
         0.00000E+00
         0.40061E-02
         0.00000E+00
         0.00000E+00
         0.00000E+00
         0.00000E+00
         0.00000E+00
         0.22172E-02
         0.18857E-02
         0.17550E-02
         0.00000E+00
         0.00000E+00
         0.00000E+00
         0.00000E+00
         0.00000E+00
         0.00000E+00
         0.00000E+00
         0.00000E+00
         0.00000E+00
         0.00000E+00
         0.00000E+00
         0.15630E-02
         0.00000E+00
         0.50621E-03
         0.26944E-02
         0.13592E-02
         0.10428E-02
         0.27820E-02
         0.22282E-02
         0.22595E-02
         0.10452E-02
         0.60026E-03
         0.19658E-02
         0.22010E-03
         0.00000E+00
         0.00000E+00
         0.00000E+00
         0.13900E-02
         0.00000E+00
         0.16855E-01
         0.17343E-01
         0.18289E-01
         0.18133E-01
         0.19542E-01
         0.21221E-01
         0.20224E-01
         0.17619E-01
         0.17085E-01
         0.18517E-01
         0.18087E-01
         0.17804E-01
         0.14140E-01
         0.13282E-01
         0.14921E-01
         0.16222E-01
         0.16960E-01
         0.18826E-01
         0.17970E-01
         0.18547E-01
         0.16367E-01
         0.15375E-01
         0.16605E-01
         0.16147E-01
         0.16715E-01
         0.16548E-01
         0.37767E-03
         0.00000E+00
         0.00000E+00
         0.00000E+00
         0.49824E-03
         0.00000E+00
         0.00000E+00
         0.32252E-03
         0.00000E+00
         0.14415E-03
         0.00000E+00
         0.36681E-02
         0.20389E-02
         0.00000E+00
         0.40135E-02
         0.00000E+00
         0.00000E+00
         0.00000E+00
         0.00000E+00
         0.00000E+00
         0.22178E-02
         0.18855E-02
         0.17551E-02
         0.00000E+00
         0.00000E+00
         0.00000E+00
         0.00000E+00
         0.00000E+00
         0.00000E+00
         0.00000E+00
         0.00000E+00
         0.00000E+00
         0.00000E+00
         0.00000E+00
         0.15650E-02
         0.00000E+00
         0.50536E-03
         0.27034E-02
         0.13694E-02
         0.10489E-02
         0.27863E-02
         0.22311E-02
         0.22605E-02
         0.10456E-02
         0.59983E-03
         0.19658E-02
         0.22035E-03
         0.00000E+00
         0.00000E+00
         0.00000E+00
         0.13875E-02
         0.00000E+00
         0.16848E-01
         0.17338E-01
         0.18289E-01
         0.18133E-01
         0.19539E-01
         0.21213E-01
         0.20214E-01
         0.17613E-01
         0.17080E-01
         0.18511E-01
         0.18083E-01
         0.17805E-01
         0.14139E-01
         0.13281E-01
         0.14923E-01
         0.16227E-01
         0.16966E-01
         0.18831E-01
         0.17969E-01
         0.18545E-01
         0.16365E-01
         0.15373E-01
         0.16598E-01
         0.16134E-01
         0.16704E-01
         0.16537E-01
         0.38026E-03
         0.00000E+00
         0.00000E+00
         0.00000E+00
         0.49665E-03
         0.00000E+00
         0.00000E+00
         0.32574E-03
         0.00000E+00
         0.15312E-03
         0.00000E+00
         0.36679E-02
         0.20409E-02
         0.00000E+00
         0.40209E-02
         0.00000E+00
         0.00000E+00
         0.00000E+00
         0.00000E+00
         0.00000E+00
         0.22187E-02
         0.18854E-02
         0.17554E-02
         0.00000E+00
         0.00000E+00
         0.00000E+00
         0.00000E+00
         0.00000E+00
         0.00000E+00
         0.00000E+00
         0.00000E+00
         0.00000E+00
         0.00000E+00
         0.00000E+00
         0.15671E-02
         0.00000E+00
         0.50456E-03
         0.27125E-02
         0.13797E-02
         0.10552E-02
         0.27908E-02
         0.22342E-02
         0.22617E-02
         0.10465E-02
         0.59967E-03
         0.19660E-02
         0.22075E-03
         0.00000E+00
         0.00000E+00
         0.00000E+00
         0.13850E-02
         0.00000E+00
         0.16840E-01
         0.17333E-01
         0.18289E-01
         0.18133E-01
         0.19535E-01
         0.21205E-01
         0.20204E-01
         0.17608E-01
         0.17075E-01
         0.18504E-01
         0.18080E-01
         0.17807E-01
         0.14138E-01
         0.13281E-01
         0.14926E-01
         0.16233E-01
         0.16973E-01
         0.18836E-01
         0.17968E-01
         0.18544E-01
         0.16363E-01
         0.15372E-01
         0.16592E-01
         0.16121E-01
         0.16693E-01
         0.16527E-01
         0.38273E-03
         0.00000E+00
         0.00000E+00
         0.00000E+00
         0.49502E-03
         0.00000E+00
         0.00000E+00
         0.32874E-03
         0.00000E+00
         0.16184E-03
         0.00000E+00
         0.36678E-02
         0.20430E-02
         0.00000E+00
         0.40283E-02
         0.00000E+00
         0.00000E+00
         0.00000E+00
         0.00000E+00
         0.00000E+00
         0.22196E-02
         0.18853E-02
         0.17559E-02
         0.00000E+00
         0.00000E+00
         0.00000E+00
         0.00000E+00
         0.00000E+00
         0.00000E+00
         0.00000E+00
         0.00000E+00
         0.00000E+00
         0.00000E+00
         0.00000E+00
         0.15693E-02
         0.00000E+00
         0.50385E-03
         0.27217E-02
         0.13902E-02
         0.10618E-02
         0.27954E-02
         0.22374E-02
         0.22631E-02
         0.10475E-02
         0.59978E-03
         0.19665E-02
         0.22122E-03
         0.00000E+00
         0.00000E+00
         0.00000E+00
         0.13826E-02
         0.00000E+00
         0.16833E-01
         0.17328E-01
         0.18289E-01
         0.18133E-01
         0.19531E-01
         0.21196E-01
         0.20194E-01
         0.17602E-01
         0.17070E-01
         0.18497E-01
         0.18077E-01
         0.17808E-01
         0.14138E-01
         0.13280E-01
         0.14928E-01
         0.16240E-01
         0.16980E-01
         0.18842E-01
         0.17966E-01
         0.18543E-01
         0.16361E-01
         0.15371E-01
         0.16585E-01
         0.16108E-01
         0.16682E-01
         0.16516E-01
         0.38500E-03
         0.00000E+00
         0.00000E+00
         0.00000E+00
         0.49346E-03
         0.00000E+00
         0.00000E+00
         0.33130E-03
         0.00000E+00
         0.17019E-03
         0.00000E+00
         0.36678E-02
         0.20453E-02
         0.00000E+00
         0.40358E-02
         0.00000E+00
         0.00000E+00
         0.00000E+00
         0.00000E+00
         0.00000E+00
         0.22205E-02
         0.18854E-02
         0.17564E-02
         0.00000E+00
         0.00000E+00
         0.00000E+00
         0.00000E+00
         0.00000E+00
         0.00000E+00
         0.00000E+00
         0.00000E+00
         0.00000E+00
         0.00000E+00
         0.00000E+00
         0.15714E-02
         0.00000E+00
         0.50323E-03
         0.27310E-02
         0.14008E-02
         0.10684E-02
         0.28001E-02
         0.22406E-02
         0.22644E-02
         0.10486E-02
         0.60003E-03
         0.19671E-02
         0.22194E-03
         0.00000E+00
         0.00000E+00
         0.00000E+00
         0.13804E-02
         0.00000E+00
         0.16826E-01
         0.17323E-01
         0.18289E-01
         0.18133E-01
         0.19527E-01
         0.21188E-01
         0.20184E-01
         0.17597E-01
         0.17065E-01
         0.18491E-01
         0.18073E-01
         0.17809E-01
         0.14137E-01
         0.13280E-01
         0.14931E-01
         0.16246E-01
         0.16987E-01
         0.18847E-01
         0.17965E-01
         0.18541E-01
         0.16359E-01
         0.15370E-01
         0.16578E-01
         0.16096E-01
         0.16671E-01
         0.16506E-01
         0.38719E-03
         0.00000E+00
         0.00000E+00
         0.00000E+00
         0.49198E-03
         0.00000E+00
         0.00000E+00
         0.33363E-03
         0.00000E+00
         0.17837E-03
         0.00000E+00
         0.36678E-02
         0.20476E-02
         0.00000E+00
         0.40432E-02
         0.00000E+00
         0.00000E+00
         0.00000E+00
         0.00000E+00
         0.00000E+00
         0.22214E-02
         0.18854E-02
         0.17569E-02
         0.00000E+00
         0.00000E+00
         0.00000E+00
         0.00000E+00
         0.00000E+00
         0.00000E+00
         0.00000E+00
         0.00000E+00
         0.00000E+00
         0.00000E+00
         0.00000E+00
         0.15737E-02
         0.00000E+00
         0.50276E-03
         0.27403E-02
         0.14114E-02
         0.10750E-02
         0.28048E-02
         0.22439E-02
         0.22659E-02
         0.10497E-02
         0.60037E-03
         0.19679E-02
         0.22276E-03
         0.00000E+00
         0.00000E+00
         0.00000E+00
         0.13782E-02
         0.00000E+00
         0.16819E-01
         0.17318E-01
         0.18289E-01
         0.18134E-01
         0.19523E-01
         0.21180E-01
         0.20175E-01
         0.17591E-01
         0.17060E-01
         0.18484E-01
         0.18070E-01
         0.17811E-01
         0.14136E-01
         0.13280E-01
         0.14934E-01
         0.16253E-01
         0.16994E-01
         0.18852E-01
         0.17964E-01
         0.18540E-01
         0.16357E-01
         0.15369E-01
         0.16571E-01
         0.16083E-01
         0.16659E-01
         0.16495E-01
         0.38935E-03
         0.00000E+00
         0.00000E+00
         0.00000E+00
         0.49044E-03
         0.00000E+00
         0.00000E+00
         0.33599E-03
         0.00000E+00
         0.18654E-03
         0.00000E+00
         0.36679E-02
         0.20500E-02
         0.00000E+00
         0.40508E-02
         0.00000E+00
         0.00000E+00
         0.00000E+00
         0.00000E+00
         0.00000E+00
         0.22223E-02
         0.18854E-02
         0.17575E-02
         0.00000E+00
         0.00000E+00
         0.00000E+00
         0.00000E+00
         0.00000E+00
         0.00000E+00
         0.00000E+00
         0.00000E+00
         0.00000E+00
         0.00000E+00
         0.00000E+00
         0.15761E-02
         0.00000E+00
         0.50225E-03
         0.27496E-02
         0.14221E-02
         0.10815E-02
         0.28095E-02
         0.22472E-02
         0.22673E-02
         0.10510E-02
         0.60079E-03
         0.19688E-02
         0.22352E-03
         0.00000E+00
         0.00000E+00
         0.00000E+00
         0.13762E-02
         0.00000E+00
         0.16811E-01
         0.17313E-01
         0.18288E-01
         0.18134E-01
         0.19520E-01
         0.21171E-01
         0.20165E-01
         0.17585E-01
         0.17055E-01
         0.18477E-01
         0.18066E-01
         0.17812E-01
         0.14136E-01
         0.13279E-01
         0.14937E-01
         0.16260E-01
         0.17001E-01
         0.18857E-01
         0.17962E-01
         0.18539E-01
         0.16355E-01
         0.15369E-01
         0.16564E-01
         0.16070E-01
         0.16648E-01
         0.16485E-01
         0.39149E-03
         0.00000E+00
         0.00000E+00
         0.00000E+00
         0.48890E-03
         0.00000E+00
         0.00000E+00
         0.33834E-03
         0.00000E+00
         0.19470E-03
         0.00000E+00
         0.36679E-02
         0.20524E-02
         0.00000E+00
         0.40583E-02
         0.00000E+00
         0.00000E+00
         0.00000E+00
         0.00000E+00
         0.00000E+00
         0.22233E-02
         0.18854E-02
         0.17579E-02
         0.00000E+00
         0.00000E+00
         0.00000E+00
         0.00000E+00
         0.00000E+00
         0.00000E+00
         0.00000E+00
         0.00000E+00
         0.00000E+00
         0.00000E+00
         0.00000E+00
         0.15783E-02
         0.00000E+00
         0.50178E-03
         0.27590E-02
         0.14328E-02
         0.10881E-02
         0.28142E-02
         0.22504E-02
         0.22686E-02
         0.10521E-02
         0.60115E-03
         0.19696E-02
         0.22435E-03
         0.00000E+00
         0.00000E+00
         0.00000E+00
         0.13740E-02
         0.00000E+00
         0.16804E-01
         0.17308E-01
         0.18288E-01
         0.18134E-01
         0.19516E-01
         0.21163E-01
         0.20154E-01
         0.17580E-01
         0.17050E-01
         0.18471E-01
         0.18063E-01
         0.17814E-01
         0.14135E-01
         0.13279E-01
         0.14939E-01
         0.16266E-01
         0.17008E-01
         0.18862E-01
         0.17961E-01
         0.18537E-01
         0.16353E-01
         0.15368E-01
         0.16557E-01
         0.16058E-01
         0.16637E-01
         0.16474E-01
         0.39363E-03
         0.00000E+00
         0.00000E+00
         0.00000E+00
         0.48742E-03
         0.00000E+00
         0.00000E+00
         0.34066E-03
         0.00000E+00
         0.20286E-03
         0.00000E+00
         0.36679E-02
         0.20547E-02
         0.00000E+00
         0.40658E-02
         0.00000E+00
         0.00000E+00
         0.00000E+00
         0.00000E+00
         0.00000E+00
         0.22241E-02
         0.18854E-02
         0.17585E-02
         0.00000E+00
         0.00000E+00
         0.00000E+00
         0.00000E+00
         0.00000E+00
         0.00000E+00
         0.00000E+00
         0.00000E+00
         0.00000E+00
         0.00000E+00
         0.00000E+00
         0.15806E-02
         0.00000E+00
         0.50131E-03
         0.27683E-02
         0.14434E-02
         0.10946E-02
         0.28189E-02
         0.22537E-02
         0.22700E-02
         0.10532E-02
         0.60151E-03
         0.19704E-02
         0.22518E-03
         0.00000E+00
         0.00000E+00
         0.00000E+00
         0.13719E-02
         0.00000E+00
         0.16796E-01
         0.17304E-01
         0.18288E-01
         0.18134E-01
         0.19512E-01
         0.21155E-01
         0.20144E-01
         0.17574E-01
         0.17044E-01
         0.18464E-01
         0.18059E-01
         0.17815E-01
         0.14134E-01
         0.13279E-01
         0.14942E-01
         0.16273E-01
         0.17015E-01
         0.18868E-01
         0.17959E-01
         0.18536E-01
         0.16352E-01
         0.15367E-01
         0.16550E-01
         0.16045E-01
         0.16626E-01
         0.16464E-01
         0.39577E-03
         0.00000E+00
         0.00000E+00
         0.00000E+00
         0.48589E-03
         0.00000E+00
         0.00000E+00
         0.34300E-03
         0.00000E+00
         0.21100E-03
         0.00000E+00
         0.36680E-02
         0.20570E-02
         0.00000E+00
         0.40733E-02
         0.00000E+00
         0.00000E+00
         0.00000E+00
         0.00000E+00
         0.00000E+00
         0.22250E-02
         0.18853E-02
         0.17590E-02
         0.00000E+00
         0.00000E+00
         0.00000E+00
         0.00000E+00
         0.00000E+00
         0.00000E+00
         0.00000E+00
         0.00000E+00
         0.00000E+00
         0.00000E+00
         0.00000E+00
         0.15830E-02
         0.00000E+00
         0.50079E-03
         0.27777E-02
         0.14541E-02
         0.11012E-02
         0.28236E-02
         0.22569E-02
         0.22714E-02
         0.10544E-02
         0.60189E-03
         0.19713E-02
         0.22595E-03
         0.00000E+00
         0.00000E+00
         0.00000E+00
         0.13698E-02
         0.00000E+00
         0.16789E-01
         0.17299E-01
         0.18287E-01
         0.18134E-01
         0.19508E-01
         0.21146E-01
         0.20134E-01
         0.17568E-01
         0.17039E-01
         0.18457E-01
         0.18056E-01
         0.17816E-01
         0.14134E-01
         0.13278E-01
         0.14945E-01
         0.16279E-01
         0.17022E-01
         0.18873E-01
         0.17958E-01
         0.18535E-01
         0.16350E-01
         0.15366E-01
         0.16543E-01
         0.16032E-01
         0.16615E-01
         0.16453E-01
         0.39791E-03
         0.00000E+00
         0.00000E+00
         0.00000E+00
         0.48437E-03
         0.00000E+00
         0.00000E+00
         0.34533E-03
         0.00000E+00
         0.21912E-03
         0.00000E+00
         0.36680E-02
         0.20594E-02
         0.00000E+00
         0.40809E-02
         0.00000E+00
         0.00000E+00
         0.00000E+00
         0.00000E+00
         0.00000E+00
         0.22260E-02
         0.18854E-02
         0.17595E-02
         0.00000E+00
         0.00000E+00
         0.00000E+00
         0.00000E+00
         0.00000E+00
         0.00000E+00
         0.00000E+00
         0.00000E+00
         0.00000E+00
         0.00000E+00
         0.00000E+00
         0.15852E-02
         0.00000E+00
         0.50033E-03
         0.27870E-02
         0.14648E-02
         0.11078E-02
         0.28284E-02
         0.22601E-02
         0.22728E-02
         0.10556E-02
         0.60233E-03
         0.19719E-02
         0.22680E-03
         0.00000E+00
         0.00000E+00
         0.00000E+00
         0.13676E-02
         0.00000E+00
         0.16782E-01
         0.17294E-01
         0.18287E-01
         0.18134E-01
         0.19505E-01
         0.21138E-01
         0.20124E-01
         0.17563E-01
         0.17034E-01
         0.18450E-01
         0.18052E-01
         0.17818E-01
         0.14133E-01
         0.13278E-01
         0.14948E-01
         0.16286E-01
         0.17029E-01
         0.18878E-01
         0.17957E-01
         0.18533E-01
         0.16348E-01
         0.15365E-01
         0.16537E-01
         0.16020E-01
         0.16604E-01
         0.16443E-01
         0.40004E-03
         0.00000E+00
         0.00000E+00
         0.00000E+00
         0.48291E-03
         0.00000E+00
         0.00000E+00
         0.34765E-03
         0.00000E+00
         0.22725E-03
         0.00000E+00
         0.36680E-02
         0.20617E-02
         0.00000E+00
         0.40884E-02
         0.00000E+00
         0.00000E+00
         0.00000E+00
         0.00000E+00
         0.00000E+00
         0.22269E-02
         0.18853E-02
         0.17601E-02
         0.00000E+00
         0.00000E+00
         0.00000E+00
         0.00000E+00
         0.00000E+00
         0.00000E+00
         0.00000E+00
         0.00000E+00
         0.00000E+00
         0.00000E+00
         0.00000E+00
         0.15876E-02
         0.00000E+00
         0.49983E-03
         0.27964E-02
         0.14756E-02
         0.11143E-02
         0.28331E-02
         0.22633E-02
         0.22742E-02
         0.10568E-02
         0.60270E-03
         0.19728E-02
         0.22764E-03
         0.00000E+00
         0.00000E+00
         0.00000E+00
         0.13655E-02
         0.00000E+00
         0.16774E-01
         0.17289E-01
         0.18287E-01
         0.18134E-01
         0.19501E-01
         0.21130E-01
         0.20114E-01
         0.17557E-01
         0.17029E-01
         0.18443E-01
         0.18049E-01
         0.17819E-01
         0.14132E-01
         0.13278E-01
         0.14951E-01
         0.16292E-01
         0.17036E-01
         0.18883E-01
         0.17955E-01
         0.18532E-01
         0.16346E-01
         0.15364E-01
         0.16530E-01
         0.16007E-01
         0.16593E-01
         0.16432E-01
         0.40217E-03
         0.00000E+00
         0.00000E+00
         0.00000E+00
         0.48138E-03
         0.00000E+00
         0.00000E+00
         0.34998E-03
         0.00000E+00
         0.23537E-03
         0.00000E+00
         0.36681E-02
         0.20640E-02
         0.00000E+00
         0.40959E-02
         0.00000E+00
         0.00000E+00
         0.00000E+00
         0.00000E+00
         0.00000E+00
         0.22278E-02
         0.18853E-02
         0.17605E-02
         0.00000E+00
         0.00000E+00
         0.00000E+00
         0.00000E+00
         0.00000E+00
         0.00000E+00
         0.00000E+00
         0.00000E+00
         0.00000E+00
         0.00000E+00
         0.00000E+00
         0.15898E-02
         0.00000E+00
         0.49936E-03
         0.28057E-02
         0.14863E-02
         0.11208E-02
         0.28378E-02
         0.22666E-02
         0.22756E-02
         0.10580E-02
         0.60307E-03
         0.19736E-02
         0.22840E-03
         0.00000E+00
         0.00000E+00
         0.00000E+00
         0.13634E-02
         0.00000E+00
         0.16767E-01
         0.17284E-01
         0.18286E-01
         0.18134E-01
         0.19497E-01
         0.21121E-01
         0.20104E-01
         0.17551E-01
         0.17024E-01
         0.18436E-01
         0.18045E-01
         0.17821E-01
         0.14132E-01
         0.13278E-01
         0.14953E-01
         0.16299E-01
         0.17043E-01
         0.18888E-01
         0.17954E-01
         0.18531E-01
         0.16345E-01
         0.15363E-01
         0.16523E-01
         0.15994E-01
         0.16582E-01
         0.16422E-01
         0.40428E-03
         0.00000E+00
         0.00000E+00
         0.00000E+00
         0.47986E-03
         0.00000E+00
         0.00000E+00
         0.35231E-03
         0.00000E+00
         0.24349E-03
         0.00000E+00
         0.36682E-02
         0.20664E-02
         0.00000E+00
         0.41034E-02
         0.00000E+00
         0.00000E+00
         0.00000E+00
         0.00000E+00
         0.00000E+00
         0.22287E-02
         0.18853E-02
         0.17611E-02
         0.00000E+00
         0.00000E+00
         0.00000E+00
         0.00000E+00
         0.00000E+00
         0.00000E+00
         0.00000E+00
         0.00000E+00
         0.00000E+00
         0.00000E+00
         0.00000E+00
         0.15922E-02
         0.00000E+00
         0.49888E-03
         0.28151E-02
         0.14970E-02
         0.11272E-02
         0.28425E-02
         0.22698E-02
         0.22770E-02
         0.10590E-02
         0.60351E-03
         0.19744E-02
         0.22924E-03
         0.00000E+00
         0.00000E+00
         0.00000E+00
         0.13612E-02
         0.00000E+00
         0.16760E-01
         0.17279E-01
         0.18286E-01
         0.18134E-01
         0.19493E-01
         0.21113E-01
         0.20094E-01
         0.17546E-01
         0.17019E-01
         0.18429E-01
         0.18042E-01
         0.17822E-01
         0.14131E-01
         0.13277E-01
         0.14956E-01
         0.16305E-01
         0.17050E-01
         0.18893E-01
         0.17952E-01
         0.18529E-01
         0.16343E-01
         0.15363E-01
         0.16516E-01
         0.15982E-01
         0.16571E-01
         0.16411E-01
         0.40639E-03
         0.00000E+00
         0.00000E+00
         0.00000E+00
         0.47840E-03
         0.00000E+00
         0.00000E+00
         0.35463E-03
         0.00000E+00
         0.25158E-03
         0.00000E+00
         0.36682E-02
         0.20688E-02
         0.00000E+00
         0.41110E-02
         0.00000E+00
         0.00000E+00
         0.00000E+00
         0.00000E+00
         0.00000E+00
         0.22296E-02
         0.18853E-02
         0.17616E-02
         0.00000E+00
         0.00000E+00
         0.00000E+00
         0.00000E+00
         0.00000E+00
         0.00000E+00
         0.00000E+00
         0.00000E+00
         0.00000E+00
         0.00000E+00
         0.00000E+00
         0.15946E-02
         0.00000E+00
         0.49836E-03
         0.28245E-02
         0.15077E-02
         0.11337E-02
         0.28471E-02
         0.22730E-02
         0.22783E-02
         0.10603E-02
         0.60389E-03
         0.19753E-02
         0.23009E-03
         0.00000E+00
         0.00000E+00
         0.00000E+00
         0.13591E-02
         0.00000E+00
         0.16752E-01
         0.17274E-01
         0.18286E-01
         0.18134E-01
         0.19490E-01
         0.21104E-01
         0.20084E-01
         0.17540E-01
         0.17014E-01
         0.18422E-01
         0.18038E-01
         0.17824E-01
         0.14130E-01
         0.13277E-01
         0.14959E-01
         0.16311E-01
         0.17057E-01
         0.18898E-01
         0.17951E-01
         0.18528E-01
         0.16341E-01
         0.15362E-01
         0.16509E-01
         0.15969E-01
         0.16559E-01
         0.16400E-01
         0.40850E-03
         0.00000E+00
         0.00000E+00
         0.00000E+00
         0.47689E-03
         0.00000E+00
         0.00000E+00
         0.35691E-03
         0.00000E+00
         0.25961E-03
         0.00000E+00
         0.36683E-02
         0.20711E-02
         0.00000E+00
         0.41184E-02
         0.00000E+00
         0.00000E+00
         0.00000E+00
         0.00000E+00
         0.00000E+00
         0.22305E-02
         0.18852E-02
         0.17622E-02
         0.00000E+00
         0.00000E+00
         0.00000E+00
         0.00000E+00
         0.00000E+00
         0.00000E+00
         0.00000E+00
         0.00000E+00
         0.00000E+00
         0.00000E+00
         0.00000E+00
         0.15968E-02
         0.00000E+00
         0.49791E-03
         0.28340E-02
         0.15184E-02
         0.11399E-02
         0.28515E-02
         0.22759E-02
         0.22796E-02
         0.10615E-02
         0.60429E-03
         0.19761E-02
         0.23087E-03
         0.00000E+00
         0.00000E+00
         0.00000E+00
         0.13571E-02
         0.00000E+00
         0.16745E-01
         0.17270E-01
         0.18285E-01
         0.18134E-01
         0.19486E-01
         0.21096E-01
         0.20073E-01
         0.17534E-01
         0.17009E-01
         0.18415E-01
         0.18035E-01
         0.17826E-01
         0.14130E-01
         0.13277E-01
         0.14962E-01
         0.16318E-01
         0.17064E-01
         0.18903E-01
         0.17950E-01
         0.18526E-01
         0.16339E-01
         0.15361E-01
         0.16502E-01
         0.15956E-01
         0.16548E-01
         0.16390E-01
         0.41061E-03
         0.00000E+00
         0.00000E+00
         0.00000E+00
         0.47537E-03
         0.00000E+00
         0.00000E+00
         0.35920E-03
         0.00000E+00
         0.26758E-03
         0.00000E+00
         0.36683E-02
         0.20735E-02
         0.00000E+00
         0.41260E-02
         0.00000E+00
         0.00000E+00
         0.00000E+00
         0.00000E+00
         0.00000E+00
         0.22315E-02
         0.18851E-02
         0.17627E-02
         0.00000E+00
         0.00000E+00
         0.00000E+00
         0.00000E+00
         0.00000E+00
         0.00000E+00
         0.00000E+00
         0.00000E+00
         0.00000E+00
         0.00000E+00
         0.00000E+00
         0.15992E-02
         0.00000E+00
         0.49743E-03
         0.28435E-02
         0.15291E-02
         0.11459E-02
         0.28556E-02
         0.22785E-02
         0.22807E-02
         0.10626E-02
         0.60474E-03
         0.19770E-02
         0.23172E-03
         0.00000E+00
         0.00000E+00
         0.00000E+00
         0.13549E-02
         0.00000E+00
         0.16738E-01
         0.17265E-01
         0.18285E-01
         0.18134E-01
         0.19482E-01
         0.21087E-01
         0.20063E-01
         0.17528E-01
         0.17004E-01
         0.18407E-01
         0.18032E-01
         0.17828E-01
         0.14130E-01
         0.13276E-01
         0.14964E-01
         0.16324E-01
         0.17071E-01
         0.18908E-01
         0.17948E-01
         0.18525E-01
         0.16338E-01
         0.15360E-01
         0.16495E-01
         0.15944E-01
         0.16537E-01
         0.16380E-01
         0.41274E-03
         0.00000E+00
         0.00000E+00
         0.00000E+00
         0.47395E-03
         0.00000E+00
         0.00000E+00
         0.36149E-03
         0.00000E+00
         0.27553E-03
         0.00000E+00
         0.36684E-02
         0.20758E-02
         0.00000E+00
         0.41334E-02
         0.00000E+00
         0.00000E+00
         0.00000E+00
         0.00000E+00
         0.00000E+00
         0.22324E-02
         0.18850E-02
         0.17632E-02
         0.00000E+00
         0.00000E+00
         0.00000E+00
         0.00000E+00
         0.00000E+00
         0.00000E+00
         0.00000E+00
         0.00000E+00
         0.00000E+00
         0.00000E+00
         0.00000E+00
         0.16016E-02
         0.00000E+00
         0.49690E-03
         0.28529E-02
         0.15397E-02
         0.11518E-02
         0.28595E-02
         0.22810E-02
         0.22817E-02
         0.10638E-02
         0.60509E-03
         0.19778E-02
         0.23255E-03
         0.00000E+00
         0.00000E+00
         0.00000E+00
         0.13528E-02
         0.00000E+00
         0.16730E-01
         0.17260E-01
         0.18285E-01
         0.18135E-01
         0.19478E-01
         0.21079E-01
         0.20053E-01
         0.17523E-01
         0.16999E-01
         0.18399E-01
         0.18028E-01
         0.17831E-01
         0.14130E-01
         0.13276E-01
         0.14967E-01
         0.16331E-01
         0.17078E-01
         0.18914E-01
         0.17947E-01
         0.18524E-01
         0.16336E-01
         0.15359E-01
         0.16488E-01
         0.15931E-01
         0.16526E-01
         0.16369E-01
         0.57058E-03
         0.00000E+00
         0.00000E+00
         0.00000E+00
         0.68455E-03
         0.00000E+00
         0.00000E+00
         0.56175E-03
         0.00000E+00
         0.48560E-03
         0.00000E+00
         0.38498E-02
         0.22609E-02
         0.00000E+00
         0.43225E-02
         0.00000E+00
         0.00000E+00
         0.00000E+00
         0.00000E+00
         0.00000E+00
         0.23868E-02
         0.20496E-02
         0.19158E-02
         0.00000E+00
         0.00000E+00
         0.00000E+00
         0.00000E+00
         0.00000E+00
         0.00000E+00
         0.00000E+00
         0.00000E+00
         0.00000E+00
         0.00000E+00
         0.00000E+00
         0.18084E-02
         0.00000E+00
         0.70545E-03
         0.30524E-02
         0.17656E-02
         0.13832E-02
         0.30468E-02
         0.24624E-02
         0.24456E-02
         0.12273E-02
         0.79857E-03
         0.21719E-02
         0.46108E-03
         0.00000E+00
         0.00000E+00
         0.00000E+00
         0.15480E-02
         0.12550E-03
         0.16930E-01
         0.17454E-01
         0.18484E-01
         0.18327E-01
         0.19672E-01
         0.21279E-01
         0.20256E-01
         0.17736E-01
         0.17216E-01
         0.18618E-01
         0.18242E-01
         0.18033E-01
         0.14310E-01
         0.13444E-01
         0.15134E-01
         0.16501E-01
         0.17249E-01
         0.19100E-01
         0.18150E-01
         0.18727E-01
         0.16521E-01
         0.15538E-01
         0.16667E-01
         0.16105E-01
         0.16698E-01
         0.16541E-01
         0.89974E-02
         0.87246E-02
         0.85282E-02
         0.74023E-02
         0.10491E-01
         0.92701E-02
         0.93282E-02
         0.10324E-01
         0.80679E-02
         0.10269E-01
         0.10570E-01
         0.14736E-01
         0.12469E-01
         0.11205E-01
         0.15562E-01
         0.80438E-02
         0.82999E-02
         0.68080E-02
         0.87483E-02
         0.91266E-02
         0.11607E-01
         0.11631E-01
         0.10851E-01
         0.82032E-02
         0.98712E-02
         0.77145E-02
         0.11161E-01
         0.10485E-01
         0.10612E-01
         0.10313E-01
         0.79683E-02
         0.81283E-02
         0.74681E-02
         0.78870E-02
         0.12161E-01
         0.10165E-01
         0.10611E-01
         0.14296E-01
         0.13124E-01
         0.12739E-01
         0.14056E-01
         0.13034E-01
         0.12388E-01
         0.10146E-01
         0.10281E-01
         0.12370E-01
         0.10502E-01
         0.95811E-02
         0.91252E-02
         0.96911E-02
         0.11532E-01
         0.98622E-02
         0.29760E-01
         0.29889E-01
         0.31168E-01
         0.30677E-01
         0.32362E-01
         0.34668E-01
         0.34112E-01
         0.31764E-01
         0.31324E-01
         0.32885E-01
         0.32128E-01
         0.31058E-01
         0.26240E-01
         0.24784E-01
         0.26266E-01
         0.27557E-01
         0.28352E-01
         0.30995E-01
         0.30888E-01
         0.31526E-01
         0.28607E-01
         0.27351E-01
         0.28778E-01
         0.28205E-01
         0.28592E-01
         0.28333E-01
  
SCALARS                            dam  double 1
LOOKUP_TABLE default
         0.00000E+00
         0.00000E+00
         0.00000E+00
         0.00000E+00
         0.00000E+00
         0.00000E+00
         0.00000E+00
         0.00000E+00
         0.00000E+00
         0.00000E+00
         0.00000E+00
         0.00000E+00
         0.00000E+00
         0.00000E+00
         0.00000E+00
         0.00000E+00
         0.00000E+00
         0.00000E+00
         0.00000E+00
         0.00000E+00
         0.00000E+00
         0.00000E+00
         0.00000E+00
         0.00000E+00
         0.00000E+00
         0.00000E+00
         0.00000E+00
         0.00000E+00
         0.00000E+00
         0.00000E+00
         0.00000E+00
         0.00000E+00
         0.00000E+00
         0.00000E+00
         0.00000E+00
         0.00000E+00
         0.00000E+00
         0.00000E+00
         0.00000E+00
         0.00000E+00
         0.00000E+00
         0.00000E+00
         0.00000E+00
         0.00000E+00
         0.00000E+00
         0.00000E+00
         0.00000E+00
         0.00000E+00
         0.00000E+00
         0.00000E+00
         0.00000E+00
         0.00000E+00
         0.00000E+00
         0.00000E+00
         0.00000E+00
         0.00000E+00
         0.00000E+00
         0.00000E+00
         0.00000E+00
         0.00000E+00
         0.00000E+00
         0.00000E+00
         0.00000E+00
         0.00000E+00
         0.00000E+00
         0.00000E+00
         0.00000E+00
         0.00000E+00
         0.00000E+00
         0.00000E+00
         0.00000E+00
         0.00000E+00
         0.00000E+00
         0.00000E+00
         0.00000E+00
         0.00000E+00
         0.00000E+00
         0.00000E+00
         0.00000E+00
         0.00000E+00
         0.00000E+00
         0.00000E+00
         0.00000E+00
         0.00000E+00
         0.00000E+00
         0.00000E+00
         0.00000E+00
         0.00000E+00
         0.00000E+00
         0.00000E+00
         0.00000E+00
         0.00000E+00
         0.00000E+00
         0.00000E+00
         0.00000E+00
         0.00000E+00
         0.00000E+00
         0.00000E+00
         0.00000E+00
         0.00000E+00
         0.00000E+00
         0.00000E+00
         0.00000E+00
         0.00000E+00
         0.00000E+00
         0.00000E+00
         0.00000E+00
         0.00000E+00
         0.00000E+00
         0.00000E+00
         0.00000E+00
         0.00000E+00
         0.00000E+00
         0.00000E+00
         0.00000E+00
         0.00000E+00
         0.00000E+00
         0.00000E+00
         0.00000E+00
         0.00000E+00
         0.00000E+00
         0.00000E+00
         0.00000E+00
         0.00000E+00
         0.00000E+00
         0.00000E+00
         0.00000E+00
         0.00000E+00
         0.00000E+00
         0.00000E+00
         0.00000E+00
         0.00000E+00
         0.00000E+00
         0.00000E+00
         0.00000E+00
         0.00000E+00
         0.00000E+00
         0.00000E+00
         0.00000E+00
         0.00000E+00
         0.00000E+00
         0.00000E+00
         0.00000E+00
         0.00000E+00
         0.00000E+00
         0.00000E+00
         0.00000E+00
         0.00000E+00
         0.00000E+00
         0.00000E+00
         0.00000E+00
         0.00000E+00
         0.00000E+00
         0.00000E+00
         0.00000E+00
         0.00000E+00
         0.00000E+00
         0.00000E+00
         0.00000E+00
         0.00000E+00
         0.00000E+00
         0.00000E+00
         0.00000E+00
         0.00000E+00
         0.00000E+00
         0.00000E+00
         0.00000E+00
         0.00000E+00
         0.00000E+00
         0.00000E+00
         0.00000E+00
         0.00000E+00
         0.00000E+00
         0.00000E+00
         0.00000E+00
         0.00000E+00
         0.00000E+00
         0.00000E+00
         0.00000E+00
         0.00000E+00
         0.00000E+00
         0.00000E+00
         0.00000E+00
         0.00000E+00
         0.00000E+00
         0.00000E+00
         0.00000E+00
         0.00000E+00
         0.00000E+00
         0.00000E+00
         0.00000E+00
         0.00000E+00
         0.00000E+00
         0.00000E+00
         0.00000E+00
         0.00000E+00
         0.00000E+00
         0.00000E+00
         0.00000E+00
         0.00000E+00
         0.00000E+00
         0.00000E+00
         0.00000E+00
         0.00000E+00
         0.00000E+00
         0.00000E+00
         0.00000E+00
         0.00000E+00
         0.00000E+00
         0.00000E+00
         0.00000E+00
         0.00000E+00
         0.00000E+00
         0.00000E+00
         0.00000E+00
         0.00000E+00
         0.00000E+00
         0.00000E+00
         0.00000E+00
         0.00000E+00
         0.00000E+00
         0.00000E+00
         0.00000E+00
         0.00000E+00
         0.00000E+00
         0.00000E+00
         0.00000E+00
         0.00000E+00
         0.00000E+00
         0.00000E+00
         0.00000E+00
         0.00000E+00
         0.00000E+00
         0.00000E+00
         0.00000E+00
         0.00000E+00
         0.00000E+00
         0.00000E+00
         0.00000E+00
         0.00000E+00
         0.00000E+00
         0.00000E+00
         0.00000E+00
         0.00000E+00
         0.00000E+00
         0.00000E+00
         0.00000E+00
         0.00000E+00
         0.00000E+00
         0.00000E+00
         0.00000E+00
         0.00000E+00
         0.00000E+00
         0.00000E+00
         0.00000E+00
         0.00000E+00
         0.00000E+00
         0.00000E+00
         0.00000E+00
         0.00000E+00
         0.00000E+00
         0.00000E+00
         0.00000E+00
         0.00000E+00
         0.00000E+00
         0.00000E+00
         0.00000E+00
         0.00000E+00
         0.00000E+00
         0.00000E+00
         0.00000E+00
         0.00000E+00
         0.00000E+00
         0.00000E+00
         0.00000E+00
         0.00000E+00
         0.00000E+00
         0.00000E+00
         0.00000E+00
         0.00000E+00
         0.00000E+00
         0.00000E+00
         0.00000E+00
         0.00000E+00
         0.00000E+00
         0.00000E+00
         0.00000E+00
         0.00000E+00
         0.00000E+00
         0.00000E+00
         0.00000E+00
         0.00000E+00
         0.00000E+00
         0.00000E+00
         0.00000E+00
         0.00000E+00
         0.00000E+00
         0.00000E+00
         0.00000E+00
         0.00000E+00
         0.00000E+00
         0.00000E+00
         0.00000E+00
         0.00000E+00
         0.00000E+00
         0.00000E+00
         0.00000E+00
         0.00000E+00
         0.00000E+00
         0.00000E+00
         0.00000E+00
         0.00000E+00
         0.00000E+00
         0.00000E+00
         0.00000E+00
         0.00000E+00
         0.00000E+00
         0.00000E+00
         0.00000E+00
         0.00000E+00
         0.00000E+00
         0.00000E+00
         0.00000E+00
         0.00000E+00
         0.00000E+00
         0.00000E+00
         0.00000E+00
         0.00000E+00
         0.00000E+00
         0.00000E+00
         0.00000E+00
         0.00000E+00
         0.00000E+00
         0.00000E+00
         0.00000E+00
         0.00000E+00
         0.00000E+00
         0.00000E+00
         0.00000E+00
         0.00000E+00
         0.00000E+00
         0.00000E+00
         0.00000E+00
         0.00000E+00
         0.00000E+00
         0.00000E+00
         0.00000E+00
         0.00000E+00
         0.00000E+00
         0.00000E+00
         0.00000E+00
         0.00000E+00
         0.00000E+00
         0.00000E+00
         0.00000E+00
         0.00000E+00
         0.00000E+00
         0.00000E+00
         0.00000E+00
         0.00000E+00
         0.00000E+00
         0.00000E+00
         0.00000E+00
         0.00000E+00
         0.00000E+00
         0.00000E+00
         0.00000E+00
         0.00000E+00
         0.00000E+00
         0.00000E+00
         0.00000E+00
         0.00000E+00
         0.00000E+00
         0.00000E+00
         0.00000E+00
         0.00000E+00
         0.00000E+00
         0.00000E+00
         0.00000E+00
         0.00000E+00
         0.00000E+00
         0.00000E+00
         0.00000E+00
         0.00000E+00
         0.00000E+00
         0.00000E+00
         0.00000E+00
         0.00000E+00
         0.00000E+00
         0.00000E+00
         0.00000E+00
         0.00000E+00
         0.00000E+00
         0.00000E+00
         0.00000E+00
         0.00000E+00
         0.00000E+00
         0.00000E+00
         0.00000E+00
         0.00000E+00
         0.00000E+00
         0.00000E+00
         0.00000E+00
         0.00000E+00
         0.00000E+00
         0.00000E+00
         0.00000E+00
         0.00000E+00
         0.00000E+00
         0.00000E+00
         0.00000E+00
         0.00000E+00
         0.00000E+00
         0.00000E+00
         0.00000E+00
         0.00000E+00
         0.00000E+00
         0.00000E+00
         0.00000E+00
         0.00000E+00
         0.00000E+00
         0.00000E+00
         0.00000E+00
         0.00000E+00
         0.00000E+00
         0.00000E+00
         0.00000E+00
         0.00000E+00
         0.00000E+00
         0.00000E+00
         0.00000E+00
         0.00000E+00
         0.00000E+00
         0.00000E+00
         0.00000E+00
         0.00000E+00
         0.00000E+00
         0.00000E+00
         0.00000E+00
         0.00000E+00
         0.00000E+00
         0.00000E+00
         0.00000E+00
         0.00000E+00
         0.00000E+00
         0.00000E+00
         0.00000E+00
         0.00000E+00
         0.00000E+00
         0.00000E+00
         0.00000E+00
         0.00000E+00
         0.00000E+00
         0.00000E+00
         0.00000E+00
         0.00000E+00
         0.00000E+00
         0.00000E+00
         0.00000E+00
         0.00000E+00
         0.00000E+00
         0.00000E+00
         0.00000E+00
         0.00000E+00
         0.00000E+00
         0.00000E+00
         0.00000E+00
         0.00000E+00
         0.00000E+00
         0.00000E+00
         0.00000E+00
         0.00000E+00
         0.00000E+00
         0.00000E+00
         0.00000E+00
         0.00000E+00
         0.00000E+00
         0.00000E+00
         0.00000E+00
         0.00000E+00
         0.00000E+00
         0.00000E+00
         0.00000E+00
         0.00000E+00
         0.00000E+00
         0.00000E+00
         0.00000E+00
         0.00000E+00
         0.00000E+00
         0.00000E+00
         0.00000E+00
         0.00000E+00
         0.00000E+00
         0.00000E+00
         0.00000E+00
         0.00000E+00
         0.00000E+00
         0.00000E+00
         0.00000E+00
         0.00000E+00
         0.00000E+00
         0.00000E+00
         0.00000E+00
         0.00000E+00
         0.00000E+00
         0.00000E+00
         0.00000E+00
         0.00000E+00
         0.00000E+00
         0.00000E+00
         0.00000E+00
         0.00000E+00
         0.00000E+00
         0.00000E+00
         0.00000E+00
         0.00000E+00
         0.00000E+00
         0.00000E+00
         0.00000E+00
         0.00000E+00
         0.00000E+00
         0.00000E+00
         0.00000E+00
         0.00000E+00
         0.00000E+00
         0.00000E+00
         0.00000E+00
         0.00000E+00
         0.00000E+00
         0.00000E+00
         0.00000E+00
         0.00000E+00
         0.00000E+00
         0.00000E+00
         0.00000E+00
         0.00000E+00
         0.00000E+00
         0.00000E+00
         0.00000E+00
         0.00000E+00
         0.00000E+00
         0.00000E+00
         0.00000E+00
         0.00000E+00
         0.00000E+00
         0.00000E+00
         0.00000E+00
         0.00000E+00
         0.00000E+00
         0.00000E+00
         0.00000E+00
         0.00000E+00
         0.00000E+00
         0.00000E+00
         0.00000E+00
         0.00000E+00
         0.00000E+00
         0.00000E+00
         0.00000E+00
         0.00000E+00
         0.00000E+00
         0.00000E+00
         0.00000E+00
         0.00000E+00
         0.00000E+00
         0.00000E+00
         0.00000E+00
         0.00000E+00
         0.00000E+00
         0.00000E+00
         0.00000E+00
         0.00000E+00
         0.00000E+00
         0.00000E+00
         0.00000E+00
         0.00000E+00
         0.00000E+00
         0.00000E+00
         0.00000E+00
         0.00000E+00
         0.00000E+00
         0.00000E+00
         0.00000E+00
         0.00000E+00
         0.00000E+00
         0.00000E+00
         0.00000E+00
         0.00000E+00
         0.00000E+00
         0.00000E+00
         0.00000E+00
         0.00000E+00
         0.00000E+00
         0.00000E+00
         0.00000E+00
         0.00000E+00
         0.00000E+00
         0.00000E+00
         0.00000E+00
         0.00000E+00
         0.00000E+00
         0.00000E+00
         0.00000E+00
         0.00000E+00
         0.00000E+00
         0.00000E+00
         0.00000E+00
         0.00000E+00
         0.00000E+00
         0.00000E+00
         0.00000E+00
         0.00000E+00
         0.00000E+00
         0.00000E+00
         0.00000E+00
         0.00000E+00
         0.00000E+00
         0.00000E+00
         0.00000E+00
         0.00000E+00
         0.00000E+00
         0.00000E+00
         0.00000E+00
         0.00000E+00
         0.00000E+00
         0.00000E+00
         0.00000E+00
         0.00000E+00
         0.00000E+00
         0.00000E+00
         0.00000E+00
         0.00000E+00
         0.00000E+00
         0.00000E+00
         0.00000E+00
         0.00000E+00
         0.00000E+00
         0.00000E+00
         0.00000E+00
         0.00000E+00
         0.00000E+00
         0.00000E+00
         0.00000E+00
         0.00000E+00
         0.00000E+00
         0.00000E+00
         0.00000E+00
         0.00000E+00
         0.00000E+00
         0.00000E+00
         0.00000E+00
         0.00000E+00
         0.00000E+00
         0.00000E+00
         0.00000E+00
         0.00000E+00
         0.00000E+00
         0.00000E+00
         0.00000E+00
         0.00000E+00
         0.00000E+00
         0.00000E+00
         0.00000E+00
         0.00000E+00
         0.00000E+00
         0.00000E+00
         0.00000E+00
         0.00000E+00
         0.00000E+00
         0.00000E+00
         0.00000E+00
         0.00000E+00
         0.00000E+00
         0.00000E+00
         0.00000E+00
         0.00000E+00
         0.00000E+00
         0.00000E+00
         0.00000E+00
         0.00000E+00
         0.00000E+00
         0.00000E+00
         0.00000E+00
         0.00000E+00
         0.00000E+00
         0.00000E+00
         0.00000E+00
         0.00000E+00
         0.00000E+00
         0.00000E+00
         0.00000E+00
         0.00000E+00
         0.00000E+00
         0.00000E+00
         0.00000E+00
         0.00000E+00
         0.00000E+00
         0.00000E+00
         0.00000E+00
         0.00000E+00
         0.00000E+00
         0.00000E+00
         0.00000E+00
         0.00000E+00
         0.00000E+00
         0.00000E+00
         0.00000E+00
         0.00000E+00
         0.00000E+00
         0.00000E+00
         0.00000E+00
         0.00000E+00
         0.00000E+00
         0.00000E+00
         0.00000E+00
         0.00000E+00
         0.00000E+00
         0.00000E+00
         0.00000E+00
         0.00000E+00
         0.00000E+00
         0.00000E+00
         0.00000E+00
         0.00000E+00
         0.00000E+00
         0.00000E+00
         0.00000E+00
         0.00000E+00
         0.00000E+00
         0.00000E+00
         0.00000E+00
         0.00000E+00
         0.00000E+00
         0.00000E+00
         0.00000E+00
         0.00000E+00
         0.00000E+00
         0.00000E+00
         0.00000E+00
         0.00000E+00
         0.00000E+00
         0.00000E+00
         0.00000E+00
         0.00000E+00
         0.00000E+00
         0.00000E+00
         0.00000E+00
         0.00000E+00
         0.00000E+00
         0.00000E+00
         0.00000E+00
         0.00000E+00
         0.00000E+00
         0.00000E+00
         0.00000E+00
         0.00000E+00
         0.00000E+00
         0.00000E+00
         0.00000E+00
         0.00000E+00
         0.00000E+00
         0.00000E+00
         0.00000E+00
         0.00000E+00
         0.00000E+00
         0.00000E+00
         0.00000E+00
         0.00000E+00
         0.00000E+00
         0.00000E+00
         0.00000E+00
         0.00000E+00
         0.00000E+00
         0.00000E+00
         0.00000E+00
         0.00000E+00
         0.00000E+00
         0.00000E+00
         0.00000E+00
         0.00000E+00
         0.00000E+00
         0.00000E+00
         0.00000E+00
         0.00000E+00
         0.00000E+00
         0.00000E+00
         0.00000E+00
         0.00000E+00
         0.00000E+00
         0.00000E+00
         0.00000E+00
         0.00000E+00
         0.00000E+00
         0.00000E+00
         0.00000E+00
         0.00000E+00
         0.00000E+00
         0.00000E+00
         0.00000E+00
         0.00000E+00
         0.00000E+00
         0.00000E+00
         0.00000E+00
         0.00000E+00
         0.00000E+00
         0.00000E+00
         0.00000E+00
         0.00000E+00
         0.00000E+00
         0.00000E+00
         0.00000E+00
         0.00000E+00
         0.00000E+00
         0.00000E+00
         0.00000E+00
         0.00000E+00
         0.00000E+00
         0.00000E+00
         0.00000E+00
         0.00000E+00
         0.00000E+00
         0.00000E+00
         0.00000E+00
         0.00000E+00
         0.00000E+00
         0.00000E+00
         0.00000E+00
         0.00000E+00
         0.00000E+00
         0.00000E+00
         0.00000E+00
         0.00000E+00
         0.00000E+00
         0.00000E+00
         0.00000E+00
         0.00000E+00
         0.00000E+00
         0.00000E+00
         0.00000E+00
         0.00000E+00
         0.00000E+00
         0.00000E+00
         0.00000E+00
         0.00000E+00
         0.00000E+00
         0.00000E+00
         0.00000E+00
         0.00000E+00
         0.00000E+00
         0.00000E+00
         0.00000E+00
         0.00000E+00
         0.00000E+00
         0.00000E+00
         0.00000E+00
         0.00000E+00
         0.00000E+00
         0.00000E+00
         0.00000E+00
         0.00000E+00
         0.00000E+00
         0.00000E+00
         0.00000E+00
         0.00000E+00
         0.00000E+00
         0.00000E+00
         0.00000E+00
         0.00000E+00
         0.00000E+00
         0.00000E+00
         0.00000E+00
         0.00000E+00
         0.00000E+00
         0.00000E+00
         0.00000E+00
         0.00000E+00
         0.00000E+00
         0.00000E+00
         0.00000E+00
         0.00000E+00
         0.00000E+00
         0.00000E+00
         0.00000E+00
         0.00000E+00
         0.00000E+00
         0.00000E+00
         0.00000E+00
         0.00000E+00
         0.00000E+00
         0.00000E+00
         0.00000E+00
         0.00000E+00
         0.00000E+00
         0.00000E+00
         0.00000E+00
         0.00000E+00
         0.00000E+00
         0.00000E+00
         0.00000E+00
         0.00000E+00
         0.00000E+00
         0.00000E+00
         0.00000E+00
         0.00000E+00
         0.00000E+00
         0.00000E+00
         0.00000E+00
         0.00000E+00
         0.00000E+00
         0.00000E+00
         0.00000E+00
         0.00000E+00
         0.00000E+00
         0.00000E+00
         0.00000E+00
         0.00000E+00
         0.00000E+00
         0.00000E+00
         0.00000E+00
         0.00000E+00
         0.00000E+00
         0.00000E+00
         0.00000E+00
         0.00000E+00
         0.00000E+00
         0.00000E+00
         0.00000E+00
         0.00000E+00
         0.00000E+00
         0.00000E+00
         0.00000E+00
         0.00000E+00
         0.00000E+00
         0.00000E+00
         0.00000E+00
         0.00000E+00
         0.00000E+00
         0.00000E+00
         0.00000E+00
         0.00000E+00
         0.00000E+00
         0.00000E+00
         0.00000E+00
         0.00000E+00
         0.00000E+00
         0.00000E+00
         0.00000E+00
         0.00000E+00
         0.00000E+00
         0.00000E+00
         0.00000E+00
         0.00000E+00
         0.00000E+00
         0.00000E+00
         0.00000E+00
         0.00000E+00
         0.00000E+00
         0.00000E+00
         0.00000E+00
         0.00000E+00
         0.00000E+00
         0.00000E+00
         0.00000E+00
         0.00000E+00
         0.00000E+00
         0.00000E+00
         0.00000E+00
         0.00000E+00
         0.00000E+00
         0.00000E+00
         0.00000E+00
         0.00000E+00
         0.00000E+00
         0.00000E+00
         0.00000E+00
         0.00000E+00
         0.00000E+00
         0.00000E+00
         0.00000E+00
         0.00000E+00
         0.00000E+00
         0.00000E+00
         0.00000E+00
         0.00000E+00
         0.00000E+00
         0.00000E+00
         0.00000E+00
         0.00000E+00
         0.00000E+00
         0.00000E+00
         0.00000E+00
         0.00000E+00
         0.00000E+00
         0.00000E+00
         0.00000E+00
         0.00000E+00
         0.00000E+00
         0.00000E+00
         0.00000E+00
         0.00000E+00
         0.00000E+00
         0.00000E+00
         0.00000E+00
         0.00000E+00
         0.00000E+00
         0.00000E+00
         0.00000E+00
         0.00000E+00
         0.00000E+00
         0.00000E+00
         0.00000E+00
         0.00000E+00
         0.00000E+00
         0.00000E+00
         0.00000E+00
         0.00000E+00
         0.00000E+00
         0.00000E+00
         0.00000E+00
         0.00000E+00
         0.00000E+00
         0.00000E+00
         0.00000E+00
         0.00000E+00
         0.00000E+00
         0.00000E+00
         0.00000E+00
         0.00000E+00
         0.00000E+00
         0.00000E+00
         0.00000E+00
         0.00000E+00
         0.00000E+00
         0.00000E+00
         0.00000E+00
         0.00000E+00
         0.00000E+00
         0.00000E+00
         0.00000E+00
         0.00000E+00
         0.00000E+00
         0.00000E+00
         0.00000E+00
         0.00000E+00
         0.00000E+00
         0.00000E+00
         0.00000E+00
         0.00000E+00
         0.00000E+00
         0.00000E+00
         0.00000E+00
         0.00000E+00
         0.00000E+00
         0.00000E+00
         0.00000E+00
         0.00000E+00
         0.00000E+00
         0.00000E+00
         0.00000E+00
         0.00000E+00
         0.00000E+00
         0.00000E+00
         0.00000E+00
         0.00000E+00
         0.00000E+00
         0.00000E+00
         0.00000E+00
         0.00000E+00
         0.00000E+00
         0.00000E+00
         0.00000E+00
         0.00000E+00
         0.00000E+00
         0.00000E+00
         0.00000E+00
         0.00000E+00
         0.00000E+00
         0.00000E+00
         0.00000E+00
         0.00000E+00
         0.00000E+00
         0.00000E+00
         0.00000E+00
         0.00000E+00
         0.00000E+00
         0.00000E+00
         0.00000E+00
         0.00000E+00
         0.00000E+00
         0.00000E+00
         0.00000E+00
         0.00000E+00
         0.00000E+00
         0.00000E+00
         0.00000E+00
         0.00000E+00
         0.00000E+00
         0.00000E+00
         0.00000E+00
         0.00000E+00
         0.00000E+00
         0.00000E+00
         0.00000E+00
         0.00000E+00
         0.00000E+00
         0.00000E+00
         0.00000E+00
         0.00000E+00
         0.00000E+00
         0.00000E+00
         0.00000E+00
         0.00000E+00
         0.00000E+00
         0.00000E+00
         0.00000E+00
         0.00000E+00
         0.00000E+00
         0.00000E+00
         0.00000E+00
         0.00000E+00
         0.00000E+00
         0.00000E+00
         0.00000E+00
         0.00000E+00
         0.00000E+00
         0.00000E+00
         0.00000E+00
         0.00000E+00
         0.00000E+00
         0.00000E+00
         0.00000E+00
         0.00000E+00
         0.00000E+00
         0.00000E+00
         0.00000E+00
         0.00000E+00
         0.00000E+00
         0.00000E+00
         0.00000E+00
         0.00000E+00
         0.00000E+00
         0.00000E+00
         0.00000E+00
         0.00000E+00
         0.00000E+00
         0.00000E+00
         0.00000E+00
         0.00000E+00
         0.00000E+00
         0.00000E+00
         0.00000E+00
         0.00000E+00
         0.00000E+00
         0.00000E+00
         0.00000E+00
         0.00000E+00
         0.00000E+00
         0.00000E+00
         0.00000E+00
         0.00000E+00
         0.00000E+00
         0.00000E+00
         0.00000E+00
         0.00000E+00
         0.00000E+00
         0.00000E+00
         0.00000E+00
         0.00000E+00
         0.00000E+00
         0.00000E+00
         0.00000E+00
         0.00000E+00
         0.00000E+00
         0.00000E+00
         0.00000E+00
         0.00000E+00
         0.00000E+00
         0.00000E+00
         0.00000E+00
         0.00000E+00
         0.00000E+00
         0.00000E+00
         0.00000E+00
         0.00000E+00
         0.00000E+00
         0.00000E+00
         0.00000E+00
         0.00000E+00
         0.00000E+00
         0.00000E+00
         0.00000E+00
         0.00000E+00
         0.00000E+00
         0.00000E+00
         0.00000E+00
         0.00000E+00
         0.00000E+00
         0.00000E+00
         0.00000E+00
         0.00000E+00
         0.00000E+00
         0.00000E+00
         0.00000E+00
         0.00000E+00
         0.00000E+00
         0.00000E+00
         0.00000E+00
         0.00000E+00
         0.00000E+00
         0.00000E+00
         0.00000E+00
         0.00000E+00
         0.00000E+00
         0.00000E+00
         0.00000E+00
         0.00000E+00
         0.00000E+00
         0.00000E+00
         0.00000E+00
         0.00000E+00
         0.00000E+00
         0.00000E+00
         0.00000E+00
         0.00000E+00
         0.00000E+00
         0.00000E+00
         0.00000E+00
         0.00000E+00
         0.00000E+00
         0.00000E+00
         0.00000E+00
         0.00000E+00
         0.00000E+00
         0.00000E+00
         0.00000E+00
         0.00000E+00
         0.00000E+00
         0.00000E+00
         0.00000E+00
         0.00000E+00
         0.00000E+00
         0.00000E+00
         0.00000E+00
         0.00000E+00
         0.00000E+00
         0.00000E+00
         0.00000E+00
         0.00000E+00
         0.00000E+00
         0.00000E+00
         0.00000E+00
         0.00000E+00
         0.00000E+00
         0.00000E+00
         0.00000E+00
         0.00000E+00
         0.00000E+00
         0.00000E+00
         0.00000E+00
         0.00000E+00
         0.00000E+00
         0.00000E+00
         0.00000E+00
         0.00000E+00
         0.00000E+00
         0.00000E+00
         0.00000E+00
         0.00000E+00
         0.00000E+00
         0.00000E+00
         0.00000E+00
         0.00000E+00
         0.00000E+00
         0.00000E+00
         0.00000E+00
         0.00000E+00
         0.00000E+00
         0.00000E+00
         0.00000E+00
         0.00000E+00
         0.00000E+00
         0.00000E+00
         0.00000E+00
         0.00000E+00
         0.00000E+00
         0.00000E+00
         0.00000E+00
         0.00000E+00
         0.00000E+00
         0.00000E+00
         0.00000E+00
         0.00000E+00
         0.00000E+00
         0.00000E+00
         0.00000E+00
         0.00000E+00
         0.00000E+00
         0.00000E+00
         0.00000E+00
         0.00000E+00
         0.00000E+00
         0.00000E+00
         0.00000E+00
         0.00000E+00
         0.00000E+00
         0.00000E+00
         0.00000E+00
         0.00000E+00
         0.00000E+00
         0.00000E+00
         0.00000E+00
         0.00000E+00
         0.00000E+00
         0.00000E+00
         0.00000E+00
         0.00000E+00
         0.00000E+00
         0.00000E+00
         0.00000E+00
         0.00000E+00
         0.00000E+00
         0.00000E+00
         0.00000E+00
         0.00000E+00
         0.00000E+00
         0.00000E+00
         0.00000E+00
         0.00000E+00
         0.00000E+00
         0.00000E+00
         0.00000E+00
         0.00000E+00
         0.00000E+00
         0.00000E+00
         0.00000E+00
         0.00000E+00
         0.00000E+00
         0.00000E+00
         0.00000E+00
         0.00000E+00
         0.00000E+00
         0.00000E+00
         0.00000E+00
         0.00000E+00
         0.00000E+00
         0.00000E+00
         0.00000E+00
         0.00000E+00
         0.00000E+00
         0.00000E+00
         0.00000E+00
         0.00000E+00
         0.00000E+00
         0.00000E+00
         0.00000E+00
         0.00000E+00
         0.00000E+00
         0.00000E+00
         0.00000E+00
         0.00000E+00
         0.00000E+00
         0.00000E+00
         0.00000E+00
         0.00000E+00
         0.00000E+00
         0.00000E+00
         0.00000E+00
         0.00000E+00
         0.00000E+00
         0.00000E+00
         0.00000E+00
         0.00000E+00
         0.00000E+00
         0.00000E+00
         0.00000E+00
         0.00000E+00
         0.00000E+00
         0.00000E+00
         0.00000E+00
         0.00000E+00
         0.00000E+00
         0.00000E+00
         0.00000E+00
         0.00000E+00
         0.00000E+00
         0.00000E+00
         0.00000E+00
         0.00000E+00
         0.00000E+00
         0.00000E+00
         0.00000E+00
         0.00000E+00
         0.00000E+00
         0.00000E+00
         0.00000E+00
         0.00000E+00
         0.00000E+00
         0.00000E+00
         0.00000E+00
         0.00000E+00
         0.00000E+00
         0.00000E+00
         0.00000E+00
         0.00000E+00
         0.00000E+00
         0.00000E+00
         0.00000E+00
         0.00000E+00
         0.00000E+00
         0.00000E+00
         0.00000E+00
         0.00000E+00
         0.00000E+00
         0.00000E+00
         0.00000E+00
         0.00000E+00
         0.00000E+00
         0.00000E+00
         0.00000E+00
         0.00000E+00
         0.00000E+00
         0.00000E+00
         0.00000E+00
         0.00000E+00
         0.00000E+00
         0.00000E+00
         0.00000E+00
         0.00000E+00
         0.00000E+00
         0.00000E+00
         0.00000E+00
         0.00000E+00
         0.00000E+00
         0.00000E+00
         0.00000E+00
         0.00000E+00
         0.00000E+00
         0.00000E+00
         0.00000E+00
         0.00000E+00
         0.00000E+00
         0.00000E+00
         0.00000E+00
         0.00000E+00
         0.00000E+00
         0.00000E+00
         0.00000E+00
         0.00000E+00
         0.00000E+00
         0.00000E+00
         0.00000E+00
         0.00000E+00
         0.00000E+00
         0.00000E+00
         0.00000E+00
         0.00000E+00
         0.00000E+00
         0.00000E+00
         0.00000E+00
         0.00000E+00
         0.00000E+00
         0.00000E+00
         0.00000E+00
         0.00000E+00
         0.00000E+00
         0.00000E+00
         0.00000E+00
         0.00000E+00
         0.00000E+00
         0.00000E+00
         0.00000E+00
         0.00000E+00
         0.00000E+00
         0.00000E+00
         0.00000E+00
         0.00000E+00
         0.00000E+00
         0.00000E+00
         0.00000E+00
         0.00000E+00
         0.00000E+00
         0.00000E+00
         0.00000E+00
         0.00000E+00
         0.00000E+00
         0.00000E+00
         0.00000E+00
         0.00000E+00
         0.00000E+00
         0.00000E+00
         0.00000E+00
         0.00000E+00
         0.00000E+00
         0.00000E+00
         0.00000E+00
         0.00000E+00
         0.00000E+00
         0.00000E+00
         0.00000E+00
         0.00000E+00
         0.00000E+00
         0.00000E+00
         0.00000E+00
         0.00000E+00
         0.00000E+00
         0.00000E+00
         0.00000E+00
         0.00000E+00
         0.00000E+00
         0.00000E+00
         0.00000E+00
         0.00000E+00
         0.00000E+00
         0.00000E+00
         0.00000E+00
         0.00000E+00
         0.00000E+00
         0.00000E+00
         0.00000E+00
         0.00000E+00
         0.00000E+00
         0.00000E+00
         0.00000E+00
         0.00000E+00
         0.00000E+00
         0.00000E+00
         0.00000E+00
         0.00000E+00
         0.00000E+00
         0.00000E+00
         0.00000E+00
         0.00000E+00
         0.00000E+00
         0.00000E+00
         0.00000E+00
         0.00000E+00
         0.00000E+00
         0.00000E+00
         0.00000E+00
         0.00000E+00
         0.00000E+00
         0.00000E+00
         0.00000E+00
         0.00000E+00
         0.00000E+00
         0.00000E+00
         0.00000E+00
         0.00000E+00
         0.00000E+00
         0.00000E+00
         0.00000E+00
         0.00000E+00
         0.00000E+00
         0.00000E+00
         0.00000E+00
         0.00000E+00
         0.00000E+00
         0.00000E+00
         0.00000E+00
         0.00000E+00
         0.00000E+00
         0.00000E+00
         0.00000E+00
         0.00000E+00
         0.00000E+00
         0.00000E+00
         0.00000E+00
         0.00000E+00
         0.00000E+00
         0.00000E+00
         0.00000E+00
         0.00000E+00
         0.00000E+00
         0.00000E+00
         0.00000E+00
         0.00000E+00
         0.00000E+00
         0.00000E+00
         0.00000E+00
         0.00000E+00
         0.00000E+00
         0.00000E+00
         0.00000E+00
         0.00000E+00
         0.00000E+00
         0.00000E+00
         0.00000E+00
         0.00000E+00
         0.00000E+00
         0.00000E+00
         0.00000E+00
         0.00000E+00
         0.00000E+00
         0.00000E+00
         0.00000E+00
         0.00000E+00
         0.00000E+00
         0.00000E+00
         0.00000E+00
         0.00000E+00
         0.00000E+00
         0.00000E+00
         0.00000E+00
         0.00000E+00
         0.00000E+00
         0.00000E+00
         0.00000E+00
         0.00000E+00
         0.00000E+00
         0.00000E+00
         0.00000E+00
         0.00000E+00
         0.00000E+00
         0.00000E+00
         0.00000E+00
         0.00000E+00
         0.00000E+00
         0.00000E+00
         0.00000E+00
         0.00000E+00
         0.00000E+00
         0.00000E+00
         0.00000E+00
         0.00000E+00
         0.00000E+00
         0.00000E+00
         0.00000E+00
         0.00000E+00
         0.00000E+00
         0.00000E+00
         0.00000E+00
         0.00000E+00
         0.00000E+00
         0.00000E+00
         0.00000E+00
         0.00000E+00
         0.00000E+00
         0.00000E+00
         0.00000E+00
         0.00000E+00
         0.00000E+00
         0.00000E+00
         0.00000E+00
         0.00000E+00
         0.00000E+00
         0.00000E+00
         0.00000E+00
         0.00000E+00
         0.00000E+00
         0.00000E+00
         0.00000E+00
         0.00000E+00
         0.00000E+00
         0.00000E+00
         0.00000E+00
         0.00000E+00
         0.00000E+00
         0.00000E+00
         0.00000E+00
         0.00000E+00
         0.00000E+00
         0.00000E+00
         0.00000E+00
         0.00000E+00
         0.00000E+00
         0.00000E+00
         0.00000E+00
         0.00000E+00
         0.00000E+00
         0.00000E+00
         0.00000E+00
         0.00000E+00
         0.00000E+00
         0.00000E+00
         0.00000E+00
         0.00000E+00
         0.00000E+00
         0.00000E+00
         0.00000E+00
         0.00000E+00
         0.00000E+00
         0.00000E+00
         0.00000E+00
         0.00000E+00
         0.00000E+00
         0.00000E+00
         0.00000E+00
         0.00000E+00
         0.00000E+00
         0.00000E+00
         0.00000E+00
         0.00000E+00
         0.00000E+00
         0.00000E+00
         0.00000E+00
         0.00000E+00
         0.00000E+00
         0.00000E+00
         0.00000E+00
         0.00000E+00
         0.00000E+00
         0.00000E+00
         0.00000E+00
         0.00000E+00
         0.00000E+00
         0.00000E+00
         0.00000E+00
         0.00000E+00
         0.00000E+00
         0.00000E+00
         0.00000E+00
         0.00000E+00
         0.00000E+00
         0.00000E+00
         0.00000E+00
         0.00000E+00
         0.00000E+00
         0.00000E+00
         0.00000E+00
         0.00000E+00
         0.00000E+00
         0.00000E+00
         0.00000E+00
         0.00000E+00
         0.00000E+00
         0.00000E+00
         0.00000E+00
         0.00000E+00
         0.00000E+00
         0.00000E+00
         0.00000E+00
         0.00000E+00
         0.00000E+00
         0.00000E+00
         0.00000E+00
         0.00000E+00
         0.00000E+00
         0.00000E+00
         0.00000E+00
         0.00000E+00
         0.00000E+00
         0.00000E+00
         0.00000E+00
         0.00000E+00
         0.00000E+00
         0.00000E+00
         0.00000E+00
         0.00000E+00
         0.00000E+00
         0.00000E+00
         0.00000E+00
         0.00000E+00
         0.00000E+00
         0.00000E+00
         0.00000E+00
         0.00000E+00
         0.00000E+00
         0.00000E+00
         0.00000E+00
         0.00000E+00
         0.00000E+00
         0.00000E+00
         0.00000E+00
         0.00000E+00
         0.00000E+00
         0.00000E+00
         0.00000E+00
         0.00000E+00
         0.00000E+00
         0.00000E+00
         0.00000E+00
         0.00000E+00
         0.00000E+00
         0.00000E+00
         0.00000E+00
         0.00000E+00
         0.00000E+00
         0.00000E+00
         0.00000E+00
         0.00000E+00
         0.00000E+00
         0.00000E+00
         0.00000E+00
         0.00000E+00
         0.00000E+00
         0.00000E+00
         0.00000E+00
         0.00000E+00
         0.00000E+00
         0.00000E+00
         0.00000E+00
         0.00000E+00
         0.00000E+00
         0.00000E+00
         0.00000E+00
         0.00000E+00
         0.00000E+00
         0.00000E+00
         0.00000E+00
         0.00000E+00
         0.00000E+00
         0.00000E+00
         0.00000E+00
         0.00000E+00
         0.00000E+00
         0.00000E+00
         0.00000E+00
         0.00000E+00
         0.00000E+00
         0.00000E+00
         0.00000E+00
         0.00000E+00
         0.00000E+00
         0.00000E+00
         0.00000E+00
         0.00000E+00
         0.00000E+00
         0.00000E+00
         0.00000E+00
         0.00000E+00
         0.00000E+00
         0.00000E+00
         0.00000E+00
         0.00000E+00
         0.00000E+00
         0.00000E+00
         0.00000E+00
         0.00000E+00
         0.00000E+00
         0.00000E+00
         0.00000E+00
         0.00000E+00
         0.00000E+00
         0.00000E+00
         0.00000E+00
         0.00000E+00
         0.00000E+00
         0.00000E+00
         0.00000E+00
         0.00000E+00
         0.00000E+00
         0.00000E+00
         0.00000E+00
         0.00000E+00
         0.00000E+00
         0.00000E+00
         0.00000E+00
         0.00000E+00
         0.00000E+00
         0.00000E+00
         0.00000E+00
         0.00000E+00
         0.00000E+00
         0.00000E+00
         0.00000E+00
         0.00000E+00
         0.00000E+00
         0.00000E+00
         0.00000E+00
         0.00000E+00
         0.00000E+00
         0.00000E+00
         0.00000E+00
         0.00000E+00
         0.00000E+00
         0.00000E+00
         0.00000E+00
         0.00000E+00
         0.00000E+00
         0.00000E+00
         0.00000E+00
         0.00000E+00
         0.00000E+00
         0.00000E+00
         0.00000E+00
         0.00000E+00
         0.00000E+00
         0.00000E+00
         0.00000E+00
         0.00000E+00
         0.00000E+00
         0.00000E+00
         0.00000E+00
         0.00000E+00
         0.00000E+00
         0.00000E+00
         0.00000E+00
         0.00000E+00
         0.00000E+00
         0.00000E+00
         0.00000E+00
         0.00000E+00
         0.00000E+00
         0.00000E+00
         0.00000E+00
         0.00000E+00
         0.00000E+00
         0.00000E+00
         0.00000E+00
         0.00000E+00
         0.00000E+00
         0.00000E+00
         0.00000E+00
         0.00000E+00
         0.00000E+00
         0.00000E+00
         0.00000E+00
         0.00000E+00
         0.00000E+00
         0.00000E+00
         0.00000E+00
         0.00000E+00
         0.00000E+00
         0.00000E+00
         0.00000E+00
         0.00000E+00
         0.00000E+00
         0.00000E+00
         0.00000E+00
         0.00000E+00
         0.00000E+00
         0.00000E+00
         0.00000E+00
         0.00000E+00
         0.00000E+00
         0.00000E+00
         0.00000E+00
         0.00000E+00
         0.00000E+00
         0.00000E+00
         0.00000E+00
         0.00000E+00
         0.00000E+00
         0.00000E+00
         0.00000E+00
         0.00000E+00
         0.00000E+00
         0.00000E+00
         0.00000E+00
         0.00000E+00
         0.00000E+00
         0.00000E+00
         0.00000E+00
         0.00000E+00
         0.00000E+00
         0.00000E+00
         0.00000E+00
         0.00000E+00
         0.00000E+00
         0.00000E+00
  
SCALARS           initial_coordinate_x  double 1
LOOKUP_TABLE default
         0.10378E-02
         0.17452E-02
         0.23177E-02
         0.16698E-02
         0.10379E-02
         0.17453E-02
         0.23178E-02
         0.16700E-02
         0.30377E-02
         0.27791E-02
         0.30377E-02
         0.27788E-02
         0.12850E-02
         0.65139E-03
         0.12851E-02
         0.65164E-03
         0.12757E-03
        -0.12822E-03
         0.12783E-03
        -0.12804E-03
         0.94500E-03
         0.11327E-02
         0.17490E-02
         0.94533E-03
         0.11330E-02
         0.17494E-02
         0.40588E-03
         0.39779E-03
         0.40594E-03
         0.39781E-03
        -0.76303E-03
        -0.86604E-03
         0.46119E-03
        -0.76268E-03
        -0.86593E-03
         0.46164E-03
        -0.18300E-02
        -0.18440E-02
        -0.18297E-02
        -0.18441E-02
        -0.27238E-02
        -0.28028E-02
        -0.27238E-02
        -0.28031E-02
        -0.25365E-02
        -0.19287E-02
        -0.25363E-02
        -0.19283E-02
        -0.99363E-03
        -0.99377E-03
        -0.14380E-02
        -0.14377E-02
        -0.31574E-03
        -0.31594E-03
        -0.11068E-02
        -0.11071E-02
        -0.18845E-02
        -0.18713E-02
        -0.18846E-02
        -0.18714E-02
        -0.15871E-03
        -0.94089E-03
        -0.15844E-03
        -0.94029E-03
         0.78856E-03
         0.78922E-03
         0.17211E-02
         0.17211E-02
         0.32050E-02
         0.28046E-02
         0.32047E-02
         0.28047E-02
         0.23059E-02
         0.23060E-02
        -0.40614E-03
        -0.40627E-03
        -0.12092E-02
        -0.12092E-02
        -0.19448E-02
        -0.19448E-02
        -0.25029E-02
        -0.26371E-02
        -0.25029E-02
        -0.26372E-02
        -0.27671E-02
        -0.27674E-02
        -0.21123E-02
        -0.21122E-02
        -0.16087E-02
        -0.16087E-02
        -0.11939E-02
        -0.58641E-03
        -0.11937E-02
        -0.58606E-03
         0.20912E-03
         0.20952E-03
         0.10586E-02
         0.10589E-02
         0.18413E-02
         0.18413E-02
         0.24544E-02
         0.26022E-02
         0.24543E-02
         0.26021E-02
         0.37964E-02
         0.39100E-02
         0.37964E-02
         0.39100E-02
         0.34621E-02
         0.34621E-02
         0.29267E-02
         0.29267E-02
         0.22211E-02
         0.22211E-02
         0.13865E-02
         0.13865E-02
         0.47130E-03
         0.47130E-03
        -0.47130E-03
        -0.47130E-03
        -0.13865E-02
        -0.13865E-02
        -0.22211E-02
        -0.22211E-02
        -0.29267E-02
        -0.29267E-02
        -0.34621E-02
        -0.34621E-02
        -0.37964E-02
        -0.37964E-02
        -0.39100E-02
        -0.39100E-02
        -0.37964E-02
        -0.37964E-02
        -0.34621E-02
        -0.34621E-02
        -0.29267E-02
        -0.29267E-02
        -0.22211E-02
        -0.22211E-02
        -0.13865E-02
        -0.13865E-02
        -0.47130E-03
        -0.47130E-03
         0.47130E-03
         0.47130E-03
         0.13865E-02
         0.13865E-02
         0.22211E-02
         0.22211E-02
         0.29267E-02
         0.29267E-02
         0.34621E-02
         0.34621E-02
         0.37964E-02
         0.37964E-02
         0.10376E-02
         0.17450E-02
         0.23175E-02
         0.16696E-02
         0.30377E-02
         0.27795E-02
         0.12849E-02
         0.65115E-03
         0.12731E-03
        -0.12841E-03
         0.94467E-03
         0.11323E-02
         0.17487E-02
         0.40583E-03
         0.39777E-03
        -0.76338E-03
        -0.86615E-03
         0.46074E-03
        -0.18303E-02
        -0.18439E-02
        -0.27238E-02
        -0.28025E-02
        -0.25366E-02
        -0.19292E-02
        -0.99349E-03
        -0.14384E-02
        -0.31554E-03
        -0.11064E-02
        -0.18845E-02
        -0.18712E-02
        -0.15899E-03
        -0.94149E-03
         0.78790E-03
         0.17210E-02
         0.32053E-02
         0.28046E-02
         0.23058E-02
        -0.40600E-03
        -0.12092E-02
        -0.19447E-02
        -0.25028E-02
        -0.26370E-02
        -0.27668E-02
        -0.21125E-02
        -0.16088E-02
        -0.11940E-02
        -0.58676E-03
         0.20871E-03
         0.10583E-02
         0.18413E-02
         0.24545E-02
         0.26022E-02
         0.37964E-02
         0.39100E-02
         0.34621E-02
         0.29267E-02
         0.22211E-02
         0.13865E-02
         0.47130E-03
        -0.47130E-03
        -0.13865E-02
        -0.22211E-02
        -0.29267E-02
        -0.34621E-02
        -0.37964E-02
        -0.39100E-02
        -0.37964E-02
        -0.34621E-02
        -0.29267E-02
        -0.22211E-02
        -0.13865E-02
        -0.47130E-03
         0.47130E-03
         0.13865E-02
         0.22211E-02
         0.29267E-02
         0.34621E-02
         0.37964E-02
         0.10375E-02
         0.17448E-02
         0.23174E-02
         0.16694E-02
         0.30377E-02
         0.27798E-02
         0.12848E-02
         0.65090E-03
         0.12705E-03
        -0.12859E-03
         0.94434E-03
         0.11320E-02
         0.17483E-02
         0.40577E-03
         0.39776E-03
        -0.76374E-03
        -0.86626E-03
         0.46029E-03
        -0.18306E-02
        -0.18438E-02
        -0.27238E-02
        -0.28022E-02
        -0.25368E-02
        -0.19296E-02
        -0.99334E-03
        -0.14387E-02
        -0.31534E-03
        -0.11061E-02
        -0.18844E-02
        -0.18710E-02
        -0.15926E-03
        -0.94209E-03
         0.78724E-03
         0.17210E-02
         0.32056E-02
         0.28046E-02
         0.23057E-02
        -0.40586E-03
        -0.12092E-02
        -0.19447E-02
        -0.25028E-02
        -0.26369E-02
        -0.27665E-02
        -0.21126E-02
        -0.16088E-02
        -0.11941E-02
        -0.58711E-03
         0.20830E-03
         0.10580E-02
         0.18414E-02
         0.24546E-02
         0.26023E-02
         0.37964E-02
         0.39100E-02
         0.34621E-02
         0.29267E-02
         0.22211E-02
         0.13865E-02
         0.47130E-03
        -0.47130E-03
        -0.13865E-02
        -0.22211E-02
        -0.29267E-02
        -0.34621E-02
        -0.37964E-02
        -0.39100E-02
        -0.37964E-02
        -0.34621E-02
        -0.29267E-02
        -0.22211E-02
        -0.13865E-02
        -0.47130E-03
         0.47130E-03
         0.13865E-02
         0.22211E-02
         0.29267E-02
         0.34621E-02
         0.37964E-02
         0.10374E-02
         0.17446E-02
         0.23173E-02
         0.16692E-02
         0.30376E-02
         0.27801E-02
         0.12847E-02
         0.65065E-03
         0.12678E-03
        -0.12878E-03
         0.94401E-03
         0.11316E-02
         0.17479E-02
         0.40572E-03
         0.39774E-03
        -0.76409E-03
        -0.86637E-03
         0.45985E-03
        -0.18309E-02
        -0.18437E-02
        -0.27237E-02
        -0.28020E-02
        -0.25369E-02
        -0.19300E-02
        -0.99320E-03
        -0.14391E-02
        -0.31514E-03
        -0.11057E-02
        -0.18844E-02
        -0.18709E-02
        -0.15954E-03
        -0.94269E-03
         0.78658E-03
         0.17209E-02
         0.32060E-02
         0.28046E-02
         0.23056E-02
        -0.40572E-03
        -0.12092E-02
        -0.19446E-02
        -0.25028E-02
        -0.26368E-02
        -0.27662E-02
        -0.21128E-02
        -0.16088E-02
        -0.11942E-02
        -0.58746E-03
         0.20790E-03
         0.10577E-02
         0.18414E-02
         0.24548E-02
         0.26024E-02
         0.37964E-02
         0.39100E-02
         0.34621E-02
         0.29267E-02
         0.22211E-02
         0.13865E-02
         0.47130E-03
        -0.47130E-03
        -0.13865E-02
        -0.22211E-02
        -0.29267E-02
        -0.34621E-02
        -0.37964E-02
        -0.39100E-02
        -0.37964E-02
        -0.34621E-02
        -0.29267E-02
        -0.22211E-02
        -0.13865E-02
        -0.47130E-03
         0.47130E-03
         0.13865E-02
         0.22211E-02
         0.29267E-02
         0.34621E-02
         0.37964E-02
         0.10373E-02
         0.17445E-02
         0.23172E-02
         0.16689E-02
         0.30376E-02
         0.27805E-02
         0.12846E-02
         0.65041E-03
         0.12652E-03
        -0.12896E-03
         0.94367E-03
         0.11313E-02
         0.17475E-02
         0.40566E-03
         0.39772E-03
        -0.76444E-03
        -0.86648E-03
         0.45940E-03
        -0.18312E-02
        -0.18436E-02
        -0.27237E-02
        -0.28017E-02
        -0.25371E-02
        -0.19305E-02
        -0.99305E-03
        -0.14394E-02
        -0.31494E-03
        -0.11054E-02
        -0.18843E-02
        -0.18708E-02
        -0.15981E-03
        -0.94328E-03
         0.78592E-03
         0.17209E-02
         0.32063E-02
         0.28045E-02
         0.23055E-02
        -0.40558E-03
        -0.12092E-02
        -0.19446E-02
        -0.25027E-02
        -0.26367E-02
        -0.27658E-02
        -0.21129E-02
        -0.16089E-02
        -0.11943E-02
        -0.58781E-03
         0.20749E-03
         0.10574E-02
         0.18415E-02
         0.24549E-02
         0.26025E-02
         0.37964E-02
         0.39100E-02
         0.34621E-02
         0.29267E-02
         0.22211E-02
         0.13865E-02
         0.47130E-03
        -0.47130E-03
        -0.13865E-02
        -0.22211E-02
        -0.29267E-02
        -0.34621E-02
        -0.37964E-02
        -0.39100E-02
        -0.37964E-02
        -0.34621E-02
        -0.29267E-02
        -0.22211E-02
        -0.13865E-02
        -0.47130E-03
         0.47130E-03
         0.13865E-02
         0.22211E-02
         0.29267E-02
         0.34621E-02
         0.37964E-02
         0.10372E-02
         0.17443E-02
         0.23171E-02
         0.16687E-02
         0.30376E-02
         0.27808E-02
         0.12845E-02
         0.65016E-03
         0.12626E-03
        -0.12915E-03
         0.94334E-03
         0.11310E-02
         0.17471E-02
         0.40561E-03
         0.39770E-03
        -0.76480E-03
        -0.86659E-03
         0.45895E-03
        -0.18315E-02
        -0.18435E-02
        -0.27237E-02
        -0.28014E-02
        -0.25372E-02
        -0.19309E-02
        -0.99291E-03
        -0.14398E-02
        -0.31474E-03
        -0.11051E-02
        -0.18843E-02
        -0.18706E-02
        -0.16009E-03
        -0.94388E-03
         0.78526E-03
         0.17208E-02
         0.32066E-02
         0.28045E-02
         0.23053E-02
        -0.40545E-03
        -0.12092E-02
        -0.19446E-02
        -0.25027E-02
        -0.26366E-02
        -0.27655E-02
        -0.21130E-02
        -0.16089E-02
        -0.11944E-02
        -0.58816E-03
         0.20709E-03
         0.10571E-02
         0.18415E-02
         0.24550E-02
         0.26025E-02
         0.37964E-02
         0.39100E-02
         0.34621E-02
         0.29267E-02
         0.22211E-02
         0.13865E-02
         0.47130E-03
        -0.47130E-03
        -0.13865E-02
        -0.22211E-02
        -0.29267E-02
        -0.34621E-02
        -0.37964E-02
        -0.39100E-02
        -0.37964E-02
        -0.34621E-02
        -0.29267E-02
        -0.22211E-02
        -0.13865E-02
        -0.47130E-03
         0.47130E-03
         0.13865E-02
         0.22211E-02
         0.29267E-02
         0.34621E-02
         0.37964E-02
         0.10371E-02
         0.17441E-02
         0.23169E-02
         0.16685E-02
         0.30376E-02
         0.27812E-02
         0.12844E-02
         0.64992E-03
         0.12600E-03
        -0.12933E-03
         0.94301E-03
         0.11306E-02
         0.17467E-02
         0.40556E-03
         0.39769E-03
        -0.76515E-03
        -0.86670E-03
         0.45850E-03
        -0.18318E-02
        -0.18434E-02
        -0.27236E-02
        -0.28011E-02
        -0.25374E-02
        -0.19313E-02
        -0.99277E-03
        -0.14401E-02
        -0.31454E-03
        -0.11047E-02
        -0.18842E-02
        -0.18705E-02
        -0.16036E-03
        -0.94448E-03
         0.78460E-03
         0.17208E-02
         0.32070E-02
         0.28045E-02
         0.23052E-02
        -0.40531E-03
        -0.12092E-02
        -0.19445E-02
        -0.25027E-02
        -0.26366E-02
        -0.27652E-02
        -0.21132E-02
        -0.16090E-02
        -0.11946E-02
        -0.58851E-03
         0.20668E-03
         0.10567E-02
         0.18416E-02
         0.24551E-02
         0.26026E-02
         0.37964E-02
         0.39100E-02
         0.34621E-02
         0.29267E-02
         0.22211E-02
         0.13865E-02
         0.47130E-03
        -0.47130E-03
        -0.13865E-02
        -0.22211E-02
        -0.29267E-02
        -0.34621E-02
        -0.37964E-02
        -0.39100E-02
        -0.37964E-02
        -0.34621E-02
        -0.29267E-02
        -0.22211E-02
        -0.13865E-02
        -0.47130E-03
         0.47130E-03
         0.13865E-02
         0.22211E-02
         0.29267E-02
         0.34621E-02
         0.37964E-02
         0.10370E-02
         0.17439E-02
         0.23168E-02
         0.16683E-02
         0.30375E-02
         0.27815E-02
         0.12843E-02
         0.64967E-03
         0.12573E-03
        -0.12952E-03
         0.94268E-03
         0.11303E-02
         0.17463E-02
         0.40550E-03
         0.39767E-03
        -0.76551E-03
        -0.86680E-03
         0.45806E-03
        -0.18321E-02
        -0.18433E-02
        -0.27236E-02
        -0.28009E-02
        -0.25375E-02
        -0.19317E-02
        -0.99262E-03
        -0.14405E-02
        -0.31434E-03
        -0.11044E-02
        -0.18842E-02
        -0.18704E-02
        -0.16064E-03
        -0.94508E-03
         0.78394E-03
         0.17208E-02
         0.32073E-02
         0.28045E-02
         0.23051E-02
        -0.40517E-03
        -0.12092E-02
        -0.19445E-02
        -0.25026E-02
        -0.26365E-02
        -0.27649E-02
        -0.21133E-02
        -0.16090E-02
        -0.11947E-02
        -0.58886E-03
         0.20627E-03
         0.10564E-02
         0.18416E-02
         0.24553E-02
         0.26027E-02
         0.37964E-02
         0.39100E-02
         0.34621E-02
         0.29267E-02
         0.22211E-02
         0.13865E-02
         0.47130E-03
        -0.47130E-03
        -0.13865E-02
        -0.22211E-02
        -0.29267E-02
        -0.34621E-02
        -0.37964E-02
        -0.39100E-02
        -0.37964E-02
        -0.34621E-02
        -0.29267E-02
        -0.22211E-02
        -0.13865E-02
        -0.47130E-03
         0.47130E-03
         0.13865E-02
         0.22211E-02
         0.29267E-02
         0.34621E-02
         0.37964E-02
         0.10368E-02
         0.17438E-02
         0.23167E-02
         0.16681E-02
         0.30375E-02
         0.27819E-02
         0.12842E-02
         0.64943E-03
         0.12547E-03
        -0.12970E-03
         0.94235E-03
         0.11300E-02
         0.17459E-02
         0.40545E-03
         0.39766E-03
        -0.76586E-03
        -0.86691E-03
         0.45761E-03
        -0.18324E-02
        -0.18432E-02
        -0.27236E-02
        -0.28006E-02
        -0.25377E-02
        -0.19322E-02
        -0.99248E-03
        -0.14408E-02
        -0.31414E-03
        -0.11040E-02
        -0.18841E-02
        -0.18703E-02
        -0.16091E-03
        -0.94568E-03
         0.78328E-03
         0.17207E-02
         0.32076E-02
         0.28044E-02
         0.23050E-02
        -0.40503E-03
        -0.12092E-02
        -0.19445E-02
        -0.25026E-02
        -0.26364E-02
        -0.27646E-02
        -0.21134E-02
        -0.16091E-02
        -0.11948E-02
        -0.58921E-03
         0.20587E-03
         0.10561E-02
         0.18416E-02
         0.24554E-02
         0.26027E-02
         0.37964E-02
         0.39100E-02
         0.34621E-02
         0.29267E-02
         0.22211E-02
         0.13865E-02
         0.47130E-03
        -0.47130E-03
        -0.13865E-02
        -0.22211E-02
        -0.29267E-02
        -0.34621E-02
        -0.37964E-02
        -0.39100E-02
        -0.37964E-02
        -0.34621E-02
        -0.29267E-02
        -0.22211E-02
        -0.13865E-02
        -0.47130E-03
         0.47130E-03
         0.13865E-02
         0.22211E-02
         0.29267E-02
         0.34621E-02
         0.37964E-02
         0.10367E-02
         0.17436E-02
         0.23166E-02
         0.16679E-02
         0.30375E-02
         0.27822E-02
         0.12841E-02
         0.64918E-03
         0.12521E-03
        -0.12989E-03
         0.94202E-03
         0.11296E-02
         0.17455E-02
         0.40539E-03
         0.39764E-03
        -0.76621E-03
        -0.86702E-03
         0.45716E-03
        -0.18326E-02
        -0.18431E-02
        -0.27235E-02
        -0.28003E-02
        -0.25379E-02
        -0.19326E-02
        -0.99233E-03
        -0.14412E-02
        -0.31394E-03
        -0.11037E-02
        -0.18841E-02
        -0.18701E-02
        -0.16119E-03
        -0.94628E-03
         0.78262E-03
         0.17207E-02
         0.32079E-02
         0.28044E-02
         0.23049E-02
        -0.40490E-03
        -0.12093E-02
        -0.19444E-02
        -0.25026E-02
        -0.26363E-02
        -0.27643E-02
        -0.21136E-02
        -0.16091E-02
        -0.11949E-02
        -0.58956E-03
         0.20546E-03
         0.10558E-02
         0.18417E-02
         0.24555E-02
         0.26028E-02
         0.37964E-02
         0.39100E-02
         0.34621E-02
         0.29267E-02
         0.22211E-02
         0.13865E-02
         0.47130E-03
        -0.47130E-03
        -0.13865E-02
        -0.22211E-02
        -0.29267E-02
        -0.34621E-02
        -0.37964E-02
        -0.39100E-02
        -0.37964E-02
        -0.34621E-02
        -0.29267E-02
        -0.22211E-02
        -0.13865E-02
        -0.47130E-03
         0.47130E-03
         0.13865E-02
         0.22211E-02
         0.29267E-02
         0.34621E-02
         0.37964E-02
         0.10366E-02
         0.17434E-02
         0.23164E-02
         0.16677E-02
         0.30375E-02
         0.27825E-02
         0.12840E-02
         0.64894E-03
         0.12495E-03
        -0.13007E-03
         0.94169E-03
         0.11293E-02
         0.17451E-02
         0.40534E-03
         0.39762E-03
        -0.76657E-03
        -0.86713E-03
         0.45671E-03
        -0.18329E-02
        -0.18430E-02
        -0.27235E-02
        -0.28001E-02
        -0.25380E-02
        -0.19330E-02
        -0.99219E-03
        -0.14415E-02
        -0.31374E-03
        -0.11033E-02
        -0.18840E-02
        -0.18700E-02
        -0.16146E-03
        -0.94687E-03
         0.78195E-03
         0.17207E-02
         0.32083E-02
         0.28044E-02
         0.23048E-02
        -0.40476E-03
        -0.12093E-02
        -0.19444E-02
        -0.25026E-02
        -0.26362E-02
        -0.27640E-02
        -0.21137E-02
        -0.16091E-02
        -0.11950E-02
        -0.58991E-03
         0.20505E-03
         0.10555E-02
         0.18417E-02
         0.24556E-02
         0.26029E-02
         0.37964E-02
         0.39100E-02
         0.34621E-02
         0.29267E-02
         0.22211E-02
         0.13865E-02
         0.47130E-03
        -0.47130E-03
        -0.13865E-02
        -0.22211E-02
        -0.29267E-02
        -0.34621E-02
        -0.37964E-02
        -0.39100E-02
        -0.37964E-02
        -0.34621E-02
        -0.29267E-02
        -0.22211E-02
        -0.13865E-02
        -0.47130E-03
         0.47130E-03
         0.13865E-02
         0.22211E-02
         0.29267E-02
         0.34621E-02
         0.37964E-02
         0.10365E-02
         0.17432E-02
         0.23163E-02
         0.16675E-02
         0.30374E-02
         0.27829E-02
         0.12839E-02
         0.64869E-03
         0.12468E-03
        -0.13026E-03
         0.94135E-03
         0.11289E-02
         0.17447E-02
         0.40528E-03
         0.39760E-03
        -0.76692E-03
        -0.86724E-03
         0.45626E-03
        -0.18332E-02
        -0.18430E-02
        -0.27235E-02
        -0.27998E-02
        -0.25382E-02
        -0.19334E-02
        -0.99205E-03
        -0.14419E-02
        -0.31354E-03
        -0.11030E-02
        -0.18840E-02
        -0.18699E-02
        -0.16174E-03
        -0.94747E-03
         0.78129E-03
         0.17206E-02
         0.32086E-02
         0.28044E-02
         0.23047E-02
        -0.40462E-03
        -0.12093E-02
        -0.19444E-02
        -0.25025E-02
        -0.26361E-02
        -0.27637E-02
        -0.21139E-02
        -0.16092E-02
        -0.11951E-02
        -0.59025E-03
         0.20465E-03
         0.10552E-02
         0.18418E-02
         0.24558E-02
         0.26030E-02
         0.37964E-02
         0.39100E-02
         0.34621E-02
         0.29267E-02
         0.22211E-02
         0.13865E-02
         0.47130E-03
        -0.47130E-03
        -0.13865E-02
        -0.22211E-02
        -0.29267E-02
        -0.34621E-02
        -0.37964E-02
        -0.39100E-02
        -0.37964E-02
        -0.34621E-02
        -0.29267E-02
        -0.22211E-02
        -0.13865E-02
        -0.47130E-03
         0.47130E-03
         0.13865E-02
         0.22211E-02
         0.29267E-02
         0.34621E-02
         0.37964E-02
         0.10364E-02
         0.17430E-02
         0.23162E-02
         0.16672E-02
         0.30374E-02
         0.27832E-02
         0.12838E-02
         0.64845E-03
         0.12442E-03
        -0.13044E-03
         0.94102E-03
         0.11286E-02
         0.17443E-02
         0.40523E-03
         0.39759E-03
        -0.76727E-03
        -0.86735E-03
         0.45582E-03
        -0.18335E-02
        -0.18429E-02
        -0.27235E-02
        -0.27995E-02
        -0.25383E-02
        -0.19339E-02
        -0.99190E-03
        -0.14422E-02
        -0.31334E-03
        -0.11026E-02
        -0.18839E-02
        -0.18697E-02
        -0.16201E-03
        -0.94807E-03
         0.78063E-03
         0.17206E-02
         0.32089E-02
         0.28043E-02
         0.23046E-02
        -0.40448E-03
        -0.12093E-02
        -0.19443E-02
        -0.25025E-02
        -0.26360E-02
        -0.27633E-02
        -0.21140E-02
        -0.16092E-02
        -0.11953E-02
        -0.59060E-03
         0.20424E-03
         0.10549E-02
         0.18418E-02
         0.24559E-02
         0.26030E-02
         0.37964E-02
         0.39100E-02
         0.34621E-02
         0.29267E-02
         0.22211E-02
         0.13865E-02
         0.47130E-03
        -0.47130E-03
        -0.13865E-02
        -0.22211E-02
        -0.29267E-02
        -0.34621E-02
        -0.37964E-02
        -0.39100E-02
        -0.37964E-02
        -0.34621E-02
        -0.29267E-02
        -0.22211E-02
        -0.13865E-02
        -0.47130E-03
         0.47130E-03
         0.13865E-02
         0.22211E-02
         0.29267E-02
         0.34621E-02
         0.37964E-02
         0.10363E-02
         0.17429E-02
         0.23161E-02
         0.16670E-02
         0.30374E-02
         0.27836E-02
         0.12837E-02
         0.64820E-03
         0.12416E-03
        -0.13063E-03
         0.94069E-03
         0.11282E-02
         0.17439E-02
         0.40518E-03
         0.39757E-03
        -0.76763E-03
        -0.86746E-03
         0.45537E-03
        -0.18338E-02
        -0.18428E-02
        -0.27234E-02
        -0.27992E-02
        -0.25385E-02
        -0.19343E-02
        -0.99176E-03
        -0.14425E-02
        -0.31314E-03
        -0.11023E-02
        -0.18839E-02
        -0.18696E-02
        -0.16229E-03
        -0.94867E-03
         0.77997E-03
         0.17205E-02
         0.32092E-02
         0.28043E-02
         0.23044E-02
        -0.40434E-03
        -0.12093E-02
        -0.19443E-02
        -0.25025E-02
        -0.26359E-02
        -0.27630E-02
        -0.21141E-02
        -0.16093E-02
        -0.11954E-02
        -0.59095E-03
         0.20384E-03
         0.10546E-02
         0.18419E-02
         0.24560E-02
         0.26031E-02
         0.37964E-02
         0.39100E-02
         0.34621E-02
         0.29267E-02
         0.22211E-02
         0.13865E-02
         0.47130E-03
        -0.47130E-03
        -0.13865E-02
        -0.22211E-02
        -0.29267E-02
        -0.34621E-02
        -0.37964E-02
        -0.39100E-02
        -0.37964E-02
        -0.34621E-02
        -0.29267E-02
        -0.22211E-02
        -0.13865E-02
        -0.47130E-03
         0.47130E-03
         0.13865E-02
         0.22211E-02
         0.29267E-02
         0.34621E-02
         0.37964E-02
         0.10362E-02
         0.17427E-02
         0.23160E-02
         0.16668E-02
         0.30373E-02
         0.27839E-02
         0.12836E-02
         0.64796E-03
         0.12390E-03
        -0.13082E-03
         0.94036E-03
         0.11279E-02
         0.17435E-02
         0.40512E-03
         0.39755E-03
        -0.76798E-03
        -0.86756E-03
         0.45492E-03
        -0.18341E-02
        -0.18427E-02
        -0.27234E-02
        -0.27990E-02
        -0.25386E-02
        -0.19347E-02
        -0.99161E-03
        -0.14429E-02
        -0.31294E-03
        -0.11019E-02
        -0.18838E-02
        -0.18695E-02
        -0.16256E-03
        -0.94927E-03
         0.77931E-03
         0.17205E-02
         0.32096E-02
         0.28043E-02
         0.23043E-02
        -0.40420E-03
        -0.12093E-02
        -0.19443E-02
        -0.25024E-02
        -0.26358E-02
        -0.27627E-02
        -0.21143E-02
        -0.16093E-02
        -0.11955E-02
        -0.59130E-03
         0.20343E-03
         0.10543E-02
         0.18419E-02
         0.24561E-02
         0.26032E-02
         0.37964E-02
         0.39100E-02
         0.34621E-02
         0.29267E-02
         0.22211E-02
         0.13865E-02
         0.47130E-03
        -0.47130E-03
        -0.13865E-02
        -0.22211E-02
        -0.29267E-02
        -0.34621E-02
        -0.37964E-02
        -0.39100E-02
        -0.37964E-02
        -0.34621E-02
        -0.29267E-02
        -0.22211E-02
        -0.13865E-02
        -0.47130E-03
         0.47130E-03
         0.13865E-02
         0.22211E-02
         0.29267E-02
         0.34621E-02
         0.37964E-02
         0.10360E-02
         0.17425E-02
         0.23158E-02
         0.16666E-02
         0.30373E-02
         0.27842E-02
         0.12835E-02
         0.64771E-03
         0.12363E-03
        -0.13100E-03
         0.94003E-03
         0.11276E-02
         0.17432E-02
         0.40507E-03
         0.39754E-03
        -0.76834E-03
        -0.86767E-03
         0.45447E-03
        -0.18344E-02
        -0.18426E-02
        -0.27234E-02
        -0.27987E-02
        -0.25388E-02
        -0.19352E-02
        -0.99147E-03
        -0.14433E-02
        -0.31274E-03
        -0.11016E-02
        -0.18838E-02
        -0.18694E-02
        -0.16284E-03
        -0.94986E-03
         0.77865E-03
         0.17205E-02
         0.32099E-02
         0.28042E-02
         0.23042E-02
        -0.40407E-03
        -0.12093E-02
        -0.19442E-02
        -0.25024E-02
        -0.26358E-02
        -0.27624E-02
        -0.21144E-02
        -0.16094E-02
        -0.11956E-02
        -0.59165E-03
         0.20302E-03
         0.10540E-02
         0.18419E-02
         0.24563E-02
         0.26033E-02
         0.37964E-02
         0.39100E-02
         0.34621E-02
         0.29267E-02
         0.22211E-02
         0.13865E-02
         0.47130E-03
        -0.47130E-03
        -0.13865E-02
        -0.22211E-02
        -0.29267E-02
        -0.34621E-02
        -0.37964E-02
        -0.39100E-02
        -0.37964E-02
        -0.34621E-02
        -0.29267E-02
        -0.22211E-02
        -0.13865E-02
        -0.47130E-03
         0.47130E-03
         0.13865E-02
         0.22211E-02
         0.29267E-02
         0.34621E-02
         0.37964E-02
         0.10359E-02
         0.17423E-02
         0.23157E-02
         0.16664E-02
         0.30373E-02
         0.27846E-02
         0.12834E-02
         0.64747E-03
         0.12337E-03
        -0.13118E-03
         0.93970E-03
         0.11272E-02
         0.17428E-02
         0.40501E-03
         0.39752E-03
        -0.76869E-03
        -0.86778E-03
         0.45402E-03
        -0.18347E-02
        -0.18425E-02
        -0.27234E-02
        -0.27984E-02
        -0.25389E-02
        -0.19356E-02
        -0.99133E-03
        -0.14436E-02
        -0.31254E-03
        -0.11013E-02
        -0.18837E-02
        -0.18692E-02
        -0.16311E-03
        -0.95046E-03
         0.77799E-03
         0.17204E-02
         0.32102E-02
         0.28042E-02
         0.23041E-02
        -0.40393E-03
        -0.12093E-02
        -0.19442E-02
        -0.25024E-02
        -0.26357E-02
        -0.27621E-02
        -0.21146E-02
        -0.16094E-02
        -0.11957E-02
        -0.59200E-03
         0.20262E-03
         0.10536E-02
         0.18420E-02
         0.24564E-02
         0.26033E-02
         0.37964E-02
         0.39100E-02
         0.34621E-02
         0.29267E-02
         0.22211E-02
         0.13865E-02
         0.47130E-03
        -0.47130E-03
        -0.13865E-02
        -0.22211E-02
        -0.29267E-02
        -0.34621E-02
        -0.37964E-02
        -0.39100E-02
        -0.37964E-02
        -0.34621E-02
        -0.29267E-02
        -0.22211E-02
        -0.13865E-02
        -0.47130E-03
         0.47130E-03
         0.13865E-02
         0.22211E-02
         0.29267E-02
         0.34621E-02
         0.37964E-02
         0.10358E-02
         0.17422E-02
         0.23156E-02
         0.16662E-02
         0.30373E-02
         0.27849E-02
         0.12833E-02
         0.64722E-03
         0.12311E-03
        -0.13137E-03
         0.93937E-03
         0.11269E-02
         0.17424E-02
         0.40496E-03
         0.39750E-03
        -0.76904E-03
        -0.86789E-03
         0.45358E-03
        -0.18350E-02
        -0.18424E-02
        -0.27233E-02
        -0.27981E-02
        -0.25391E-02
        -0.19360E-02
        -0.99118E-03
        -0.14440E-02
        -0.31234E-03
        -0.11009E-02
        -0.18836E-02
        -0.18691E-02
        -0.16339E-03
        -0.95106E-03
         0.77733E-03
         0.17204E-02
         0.32105E-02
         0.28042E-02
         0.23040E-02
        -0.40379E-03
        -0.12093E-02
        -0.19441E-02
        -0.25023E-02
        -0.26356E-02
        -0.27618E-02
        -0.21147E-02
        -0.16094E-02
        -0.11958E-02
        -0.59235E-03
         0.20221E-03
         0.10533E-02
         0.18420E-02
         0.24565E-02
         0.26034E-02
         0.37964E-02
         0.39100E-02
         0.34621E-02
         0.29267E-02
         0.22211E-02
         0.13865E-02
         0.47130E-03
        -0.47130E-03
        -0.13865E-02
        -0.22211E-02
        -0.29267E-02
        -0.34621E-02
        -0.37964E-02
        -0.39100E-02
        -0.37964E-02
        -0.34621E-02
        -0.29267E-02
        -0.22211E-02
        -0.13865E-02
        -0.47130E-03
         0.47130E-03
         0.13865E-02
         0.22211E-02
         0.29267E-02
         0.34621E-02
         0.37964E-02
         0.10357E-02
         0.17420E-02
         0.23155E-02
         0.16660E-02
         0.30372E-02
         0.27853E-02
         0.12832E-02
         0.64698E-03
         0.12285E-03
        -0.13155E-03
         0.93903E-03
         0.11266E-02
         0.17420E-02
         0.40490E-03
         0.39749E-03
        -0.76940E-03
        -0.86800E-03
         0.45313E-03
        -0.18353E-02
        -0.18423E-02
        -0.27233E-02
        -0.27979E-02
        -0.25393E-02
        -0.19365E-02
        -0.99104E-03
        -0.14443E-02
        -0.31214E-03
        -0.11006E-02
        -0.18836E-02
        -0.18690E-02
        -0.16366E-03
        -0.95166E-03
         0.77667E-03
         0.17203E-02
         0.32109E-02
         0.28042E-02
         0.23039E-02
        -0.40365E-03
        -0.12093E-02
        -0.19441E-02
        -0.25023E-02
        -0.26355E-02
        -0.27615E-02
        -0.21148E-02
        -0.16095E-02
        -0.11960E-02
        -0.59270E-03
         0.20180E-03
         0.10530E-02
         0.18421E-02
         0.24566E-02
         0.26035E-02
         0.37964E-02
         0.39100E-02
         0.34621E-02
         0.29267E-02
         0.22211E-02
         0.13865E-02
         0.47130E-03
        -0.47130E-03
        -0.13865E-02
        -0.22211E-02
        -0.29267E-02
        -0.34621E-02
        -0.37964E-02
        -0.39100E-02
        -0.37964E-02
        -0.34621E-02
        -0.29267E-02
        -0.22211E-02
        -0.13865E-02
        -0.47130E-03
         0.47130E-03
         0.13865E-02
         0.22211E-02
         0.29267E-02
         0.34621E-02
         0.37964E-02
         0.10356E-02
         0.17418E-02
         0.23153E-02
         0.16657E-02
         0.30372E-02
         0.27856E-02
         0.12830E-02
         0.64673E-03
         0.12259E-03
        -0.13174E-03
         0.93870E-03
         0.11262E-02
         0.17416E-02
         0.40485E-03
         0.39747E-03
        -0.76975E-03
        -0.86811E-03
         0.45268E-03
        -0.18356E-02
        -0.18422E-02
        -0.27233E-02
        -0.27976E-02
        -0.25394E-02
        -0.19369E-02
        -0.99090E-03
        -0.14446E-02
        -0.31194E-03
        -0.11002E-02
        -0.18835E-02
        -0.18689E-02
        -0.16394E-03
        -0.95226E-03
         0.77601E-03
         0.17203E-02
         0.32112E-02
         0.28042E-02
         0.23038E-02
        -0.40352E-03
        -0.12093E-02
        -0.19441E-02
        -0.25023E-02
        -0.26354E-02
        -0.27612E-02
        -0.21150E-02
        -0.16095E-02
        -0.11961E-02
        -0.59305E-03
         0.20140E-03
         0.10527E-02
         0.18421E-02
         0.24568E-02
         0.26036E-02
         0.37964E-02
         0.39100E-02
         0.34621E-02
         0.29267E-02
         0.22211E-02
         0.13865E-02
         0.47130E-03
        -0.47130E-03
        -0.13865E-02
        -0.22211E-02
        -0.29267E-02
        -0.34621E-02
        -0.37964E-02
        -0.39100E-02
        -0.37964E-02
        -0.34621E-02
        -0.29267E-02
        -0.22211E-02
        -0.13865E-02
        -0.47130E-03
         0.47130E-03
         0.13865E-02
         0.22211E-02
         0.29267E-02
         0.34621E-02
         0.37964E-02
         0.10355E-02
         0.17416E-02
         0.23152E-02
         0.16655E-02
         0.30372E-02
         0.27860E-02
         0.12829E-02
         0.64649E-03
         0.12232E-03
        -0.13193E-03
         0.93837E-03
         0.11259E-02
         0.17412E-02
         0.40480E-03
         0.39745E-03
        -0.77011E-03
        -0.86822E-03
         0.45223E-03
        -0.18359E-02
        -0.18421E-02
        -0.27232E-02
        -0.27973E-02
        -0.25396E-02
        -0.19373E-02
        -0.99075E-03
        -0.14450E-02
        -0.31173E-03
        -0.10999E-02
        -0.18835E-02
        -0.18687E-02
        -0.16421E-03
        -0.95285E-03
         0.77535E-03
         0.17202E-02
         0.32115E-02
         0.28041E-02
         0.23037E-02
        -0.40338E-03
        -0.12093E-02
        -0.19440E-02
        -0.25023E-02
        -0.26353E-02
        -0.27609E-02
        -0.21151E-02
        -0.16096E-02
        -0.11962E-02
        -0.59340E-03
         0.20099E-03
         0.10524E-02
         0.18422E-02
         0.24569E-02
         0.26036E-02
         0.37964E-02
         0.39100E-02
         0.34621E-02
         0.29267E-02
         0.22211E-02
         0.13865E-02
         0.47130E-03
        -0.47130E-03
        -0.13865E-02
        -0.22211E-02
        -0.29267E-02
        -0.34621E-02
        -0.37964E-02
        -0.39100E-02
        -0.37964E-02
        -0.34621E-02
        -0.29267E-02
        -0.22211E-02
        -0.13865E-02
        -0.47130E-03
         0.47130E-03
         0.13865E-02
         0.22211E-02
         0.29267E-02
         0.34621E-02
         0.37964E-02
         0.10354E-02
         0.17414E-02
         0.23151E-02
         0.16653E-02
         0.30372E-02
         0.27863E-02
         0.12829E-02
         0.64624E-03
         0.12206E-03
        -0.13211E-03
         0.93804E-03
         0.11255E-02
         0.17408E-02
         0.40474E-03
         0.39744E-03
        -0.77046E-03
        -0.86832E-03
         0.45179E-03
        -0.18362E-02
        -0.18420E-02
        -0.27232E-02
        -0.27970E-02
        -0.25397E-02
        -0.19377E-02
        -0.99061E-03
        -0.14453E-02
        -0.31153E-03
        -0.10995E-02
        -0.18834E-02
        -0.18686E-02
        -0.16449E-03
        -0.95345E-03
         0.77469E-03
         0.17202E-02
         0.32119E-02
         0.28041E-02
         0.23036E-02
        -0.40324E-03
        -0.12093E-02
        -0.19440E-02
        -0.25022E-02
        -0.26352E-02
        -0.27606E-02
        -0.21152E-02
        -0.16096E-02
        -0.11963E-02
        -0.59375E-03
         0.20059E-03
         0.10521E-02
         0.18422E-02
         0.24570E-02
         0.26037E-02
         0.37964E-02
         0.39100E-02
         0.34621E-02
         0.29267E-02
         0.22211E-02
         0.13865E-02
         0.47130E-03
        -0.47130E-03
        -0.13865E-02
        -0.22211E-02
        -0.29267E-02
        -0.34621E-02
        -0.37964E-02
        -0.39100E-02
        -0.37964E-02
        -0.34621E-02
        -0.29267E-02
        -0.22211E-02
        -0.13865E-02
        -0.47130E-03
         0.47130E-03
         0.13865E-02
         0.22211E-02
         0.29267E-02
         0.34621E-02
         0.37964E-02
         0.10352E-02
         0.17413E-02
         0.23150E-02
         0.16651E-02
         0.30371E-02
         0.27866E-02
         0.12827E-02
         0.64600E-03
         0.12180E-03
        -0.13230E-03
         0.93771E-03
         0.11252E-02
         0.17404E-02
         0.40469E-03
         0.39742E-03
        -0.77081E-03
        -0.86843E-03
         0.45134E-03
        -0.18365E-02
        -0.18419E-02
        -0.27232E-02
        -0.27968E-02
        -0.25399E-02
        -0.19382E-02
        -0.99046E-03
        -0.14457E-02
        -0.31133E-03
        -0.10992E-02
        -0.18834E-02
        -0.18685E-02
        -0.16476E-03
        -0.95405E-03
         0.77402E-03
         0.17202E-02
         0.32122E-02
         0.28041E-02
         0.23034E-02
        -0.40310E-03
        -0.12093E-02
        -0.19440E-02
        -0.25022E-02
        -0.26351E-02
        -0.27602E-02
        -0.21154E-02
        -0.16097E-02
        -0.11964E-02
        -0.59409E-03
         0.20018E-03
         0.10518E-02
         0.18422E-02
         0.24571E-02
         0.26038E-02
         0.37964E-02
         0.39100E-02
         0.34621E-02
         0.29267E-02
         0.22211E-02
         0.13865E-02
         0.47130E-03
        -0.47130E-03
        -0.13865E-02
        -0.22211E-02
        -0.29267E-02
        -0.34621E-02
        -0.37964E-02
        -0.39100E-02
        -0.37964E-02
        -0.34621E-02
        -0.29267E-02
        -0.22211E-02
        -0.13865E-02
        -0.47130E-03
         0.47130E-03
         0.13865E-02
         0.22211E-02
         0.29267E-02
         0.34621E-02
         0.37964E-02
         0.10351E-02
         0.17411E-02
         0.23149E-02
         0.16649E-02
         0.30371E-02
         0.27870E-02
         0.12826E-02
         0.64575E-03
         0.12154E-03
        -0.13248E-03
         0.93738E-03
         0.11249E-02
         0.17400E-02
         0.40463E-03
         0.39740E-03
        -0.77117E-03
        -0.86854E-03
         0.45089E-03
        -0.18368E-02
        -0.18418E-02
        -0.27232E-02
        -0.27965E-02
        -0.25400E-02
        -0.19386E-02
        -0.99032E-03
        -0.14460E-02
        -0.31113E-03
        -0.10988E-02
        -0.18833E-02
        -0.18683E-02
        -0.16504E-03
        -0.95465E-03
         0.77336E-03
         0.17201E-02
         0.32125E-02
         0.28041E-02
         0.23033E-02
        -0.40296E-03
        -0.12093E-02
        -0.19439E-02
        -0.25022E-02
        -0.26350E-02
        -0.27599E-02
        -0.21155E-02
        -0.16097E-02
        -0.11965E-02
        -0.59444E-03
         0.19977E-03
         0.10515E-02
         0.18423E-02
         0.24573E-02
         0.26039E-02
         0.37964E-02
         0.39100E-02
         0.34621E-02
         0.29267E-02
         0.22211E-02
         0.13865E-02
         0.47130E-03
        -0.47130E-03
        -0.13865E-02
        -0.22211E-02
        -0.29267E-02
        -0.34621E-02
        -0.37964E-02
        -0.39100E-02
        -0.37964E-02
        -0.34621E-02
        -0.29267E-02
        -0.22211E-02
        -0.13865E-02
        -0.47130E-03
         0.47130E-03
         0.13865E-02
         0.22211E-02
         0.29267E-02
         0.34621E-02
         0.37964E-02
  
SCALARS           initial_coordinate_y  double 1
LOOKUP_TABLE default
         0.67292E-03
         0.12308E-02
         0.59151E-03
        -0.33775E-03
         0.67237E-03
         0.12301E-02
         0.59098E-03
        -0.33851E-03
         0.14882E-03
        -0.67643E-03
         0.14846E-03
        -0.67692E-03
         0.18412E-02
         0.14576E-02
         0.18410E-02
         0.14566E-02
         0.29933E-03
         0.11672E-02
         0.29819E-03
         0.11655E-02
         0.22748E-02
         0.28286E-02
         0.24238E-02
         0.22746E-02
         0.28291E-02
         0.24236E-02
         0.21685E-02
         0.29366E-02
         0.21684E-02
         0.29369E-02
        -0.10033E-02
         0.78969E-04
        -0.70318E-03
        -0.10032E-02
         0.78160E-04
        -0.70391E-03
        -0.71196E-03
         0.82749E-04
        -0.71210E-03
         0.82626E-04
        -0.77865E-03
         0.40713E-04
        -0.77882E-03
         0.40439E-04
        -0.15195E-02
        -0.13230E-02
        -0.15195E-02
        -0.13231E-02
         0.98847E-03
         0.98712E-03
        -0.17325E-02
        -0.17325E-02
         0.20220E-02
         0.20217E-02
         0.18615E-02
         0.18616E-02
         0.17175E-02
         0.90940E-03
         0.17175E-02
         0.90916E-03
        -0.19800E-02
        -0.23489E-02
        -0.19800E-02
        -0.23489E-02
        -0.17074E-02
        -0.17074E-02
        -0.14894E-02
        -0.14892E-02
         0.76036E-03
         0.12477E-02
         0.75936E-03
         0.12473E-02
         0.18665E-02
         0.18664E-02
         0.29038E-02
         0.29049E-02
         0.27207E-02
         0.27212E-02
         0.24642E-02
         0.24645E-02
         0.22359E-02
         0.16503E-02
         0.22359E-02
         0.16503E-02
         0.87493E-03
         0.87466E-03
        -0.21373E-02
        -0.21373E-02
        -0.26931E-02
        -0.26931E-02
        -0.31291E-02
        -0.30382E-02
        -0.31291E-02
        -0.30382E-02
        -0.28748E-02
        -0.28748E-02
        -0.26423E-02
        -0.26420E-02
        -0.23707E-02
        -0.23705E-02
        -0.21445E-02
        -0.15105E-02
        -0.21439E-02
        -0.15106E-02
         0.93572E-03
         0.00000E+00
         0.93572E-03
         0.00000E+00
         0.18171E-02
         0.18171E-02
         0.25928E-02
         0.25928E-02
         0.32179E-02
         0.32179E-02
         0.36559E-02
         0.36559E-02
         0.38815E-02
         0.38815E-02
         0.38815E-02
         0.38815E-02
         0.36559E-02
         0.36559E-02
         0.32179E-02
         0.32179E-02
         0.25928E-02
         0.25928E-02
         0.18171E-02
         0.18171E-02
         0.93572E-03
         0.93572E-03
         0.22152E-17
        -0.47884E-18
        -0.93572E-03
        -0.93572E-03
        -0.18171E-02
        -0.18171E-02
        -0.25928E-02
        -0.25928E-02
        -0.32179E-02
        -0.32179E-02
        -0.36559E-02
        -0.36559E-02
        -0.38815E-02
        -0.38815E-02
        -0.38815E-02
        -0.38815E-02
        -0.36559E-02
        -0.36559E-02
        -0.32179E-02
        -0.32179E-02
        -0.25928E-02
        -0.25928E-02
        -0.18171E-02
        -0.18171E-02
        -0.93572E-03
        -0.93572E-03
         0.67348E-03
         0.12314E-02
         0.59203E-03
        -0.33700E-03
         0.14918E-03
        -0.67594E-03
         0.18414E-02
         0.14586E-02
         0.30048E-03
         0.11690E-02
         0.22749E-02
         0.28282E-02
         0.24239E-02
         0.21685E-02
         0.29364E-02
        -0.10035E-02
         0.79778E-04
        -0.70245E-03
        -0.71182E-03
         0.82873E-04
        -0.77848E-03
         0.40986E-04
        -0.15194E-02
        -0.13228E-02
         0.98983E-03
        -0.17324E-02
         0.20223E-02
         0.18614E-02
         0.17175E-02
         0.90964E-03
        -0.19800E-02
        -0.23489E-02
        -0.17074E-02
        -0.14896E-02
         0.76137E-03
         0.12481E-02
         0.18665E-02
         0.29027E-02
         0.27202E-02
         0.24640E-02
         0.22359E-02
         0.16503E-02
         0.87519E-03
        -0.21373E-02
        -0.26932E-02
        -0.31291E-02
        -0.30382E-02
        -0.28748E-02
        -0.26426E-02
        -0.23709E-02
        -0.21450E-02
        -0.15104E-02
         0.93572E-03
         0.00000E+00
         0.18171E-02
         0.25928E-02
         0.32179E-02
         0.36559E-02
         0.38815E-02
         0.38815E-02
         0.36559E-02
         0.32179E-02
         0.25928E-02
         0.18171E-02
         0.93572E-03
        -0.47884E-18
        -0.93572E-03
        -0.18171E-02
        -0.25928E-02
        -0.32179E-02
        -0.36559E-02
        -0.38815E-02
        -0.38815E-02
        -0.36559E-02
        -0.32179E-02
        -0.25928E-02
        -0.18171E-02
        -0.93572E-03
         0.67403E-03
         0.12321E-02
         0.59255E-03
        -0.33624E-03
         0.14955E-03
        -0.67544E-03
         0.18415E-02
         0.14596E-02
         0.30163E-03
         0.11707E-02
         0.22750E-02
         0.28277E-02
         0.24241E-02
         0.21685E-02
         0.29361E-02
        -0.10036E-02
         0.80588E-04
        -0.70173E-03
        -0.71168E-03
         0.82996E-04
        -0.77831E-03
         0.41259E-04
        -0.15194E-02
        -0.13227E-02
         0.99119E-03
        -0.17324E-02
         0.20226E-02
         0.18613E-02
         0.17175E-02
         0.90988E-03
        -0.19801E-02
        -0.23490E-02
        -0.17074E-02
        -0.14899E-02
         0.76237E-03
         0.12485E-02
         0.18666E-02
         0.29017E-02
         0.27198E-02
         0.24638E-02
         0.22359E-02
         0.16503E-02
         0.87545E-03
        -0.21374E-02
        -0.26932E-02
        -0.31291E-02
        -0.30382E-02
        -0.28748E-02
        -0.26428E-02
        -0.23711E-02
        -0.21456E-02
        -0.15103E-02
         0.93572E-03
         0.00000E+00
         0.18171E-02
         0.25928E-02
         0.32179E-02
         0.36559E-02
         0.38815E-02
         0.38815E-02
         0.36559E-02
         0.32179E-02
         0.25928E-02
         0.18171E-02
         0.93572E-03
         0.39516E-17
        -0.93572E-03
        -0.18171E-02
        -0.25928E-02
        -0.32179E-02
        -0.36559E-02
        -0.38815E-02
        -0.38815E-02
        -0.36559E-02
        -0.32179E-02
        -0.25928E-02
        -0.18171E-02
        -0.93572E-03
         0.67459E-03
         0.12328E-02
         0.59308E-03
        -0.33549E-03
         0.14991E-03
        -0.67495E-03
         0.18417E-02
         0.14606E-02
         0.30278E-03
         0.11725E-02
         0.22752E-02
         0.28273E-02
         0.24242E-02
         0.21686E-02
         0.29359E-02
        -0.10038E-02
         0.81397E-04
        -0.70100E-03
        -0.71154E-03
         0.83120E-04
        -0.77814E-03
         0.41533E-04
        -0.15193E-02
        -0.13227E-02
         0.99254E-03
        -0.17324E-02
         0.20228E-02
         0.18611E-02
         0.17175E-02
         0.91012E-03
        -0.19801E-02
        -0.23490E-02
        -0.17074E-02
        -0.14901E-02
         0.76338E-03
         0.12490E-02
         0.18666E-02
         0.29006E-02
         0.27193E-02
         0.24636E-02
         0.22359E-02
         0.16503E-02
         0.87571E-03
        -0.21374E-02
        -0.26932E-02
        -0.31291E-02
        -0.30382E-02
        -0.28748E-02
        -0.26431E-02
        -0.23713E-02
        -0.21461E-02
        -0.15102E-02
         0.93572E-03
         0.00000E+00
         0.18171E-02
         0.25928E-02
         0.32179E-02
         0.36559E-02
         0.38815E-02
         0.38815E-02
         0.36559E-02
         0.32179E-02
         0.25928E-02
         0.18171E-02
         0.93572E-03
        -0.47884E-18
        -0.93572E-03
        -0.18171E-02
        -0.25928E-02
        -0.32179E-02
        -0.36559E-02
        -0.38815E-02
        -0.38815E-02
        -0.36559E-02
        -0.32179E-02
        -0.25928E-02
        -0.18171E-02
        -0.93572E-03
         0.67514E-03
         0.12334E-02
         0.59360E-03
        -0.33474E-03
         0.15027E-03
        -0.67446E-03
         0.18419E-02
         0.14616E-02
         0.30393E-03
         0.11742E-02
         0.22753E-02
         0.28269E-02
         0.24244E-02
         0.21686E-02
         0.29356E-02
        -0.10039E-02
         0.82206E-04
        -0.70028E-03
        -0.71140E-03
         0.83243E-04
        -0.77797E-03
         0.41806E-04
        -0.15193E-02
        -0.13226E-02
         0.99390E-03
        -0.17323E-02
         0.20231E-02
         0.18610E-02
         0.17175E-02
         0.91036E-03
        -0.19801E-02
        -0.23490E-02
        -0.17074E-02
        -0.14904E-02
         0.76439E-03
         0.12494E-02
         0.18666E-02
         0.28995E-02
         0.27188E-02
         0.24633E-02
         0.22359E-02
         0.16503E-02
         0.87597E-03
        -0.21374E-02
        -0.26932E-02
        -0.31291E-02
        -0.30382E-02
        -0.28748E-02
        -0.26434E-02
        -0.23715E-02
        -0.21467E-02
        -0.15101E-02
         0.93572E-03
         0.00000E+00
         0.18171E-02
         0.25928E-02
         0.32179E-02
         0.36559E-02
         0.38815E-02
         0.38815E-02
         0.36559E-02
         0.32179E-02
         0.25928E-02
         0.18171E-02
         0.93572E-03
        -0.47884E-18
        -0.93572E-03
        -0.18171E-02
        -0.25928E-02
        -0.32179E-02
        -0.36559E-02
        -0.38815E-02
        -0.38815E-02
        -0.36559E-02
        -0.32179E-02
        -0.25928E-02
        -0.18171E-02
        -0.93572E-03
         0.67570E-03
         0.12341E-02
         0.59412E-03
        -0.33398E-03
         0.15064E-03
        -0.67396E-03
         0.18421E-02
         0.14626E-02
         0.30507E-03
         0.11760E-02
         0.22754E-02
         0.28264E-02
         0.24245E-02
         0.21686E-02
         0.29353E-02
        -0.10040E-02
         0.83015E-04
        -0.69955E-03
        -0.71126E-03
         0.83367E-04
        -0.77780E-03
         0.42080E-04
        -0.15192E-02
        -0.13224E-02
         0.99526E-03
        -0.17323E-02
         0.20234E-02
         0.18609E-02
         0.17175E-02
         0.91060E-03
        -0.19801E-02
        -0.23490E-02
        -0.17074E-02
        -0.14906E-02
         0.76539E-03
         0.12498E-02
         0.18667E-02
         0.28984E-02
         0.27184E-02
         0.24631E-02
         0.22359E-02
         0.16503E-02
         0.87623E-03
        -0.21374E-02
        -0.26932E-02
        -0.31291E-02
        -0.30382E-02
        -0.28748E-02
        -0.26436E-02
        -0.23717E-02
        -0.21472E-02
        -0.15100E-02
         0.93572E-03
         0.00000E+00
         0.18171E-02
         0.25928E-02
         0.32179E-02
         0.36559E-02
         0.38815E-02
         0.38815E-02
         0.36559E-02
         0.32179E-02
         0.25928E-02
         0.18171E-02
         0.93572E-03
        -0.47884E-18
        -0.93572E-03
        -0.18171E-02
        -0.25928E-02
        -0.32179E-02
        -0.36559E-02
        -0.38815E-02
        -0.38815E-02
        -0.36559E-02
        -0.32179E-02
        -0.25928E-02
        -0.18171E-02
        -0.93572E-03
         0.67625E-03
         0.12348E-02
         0.59465E-03
        -0.33323E-03
         0.15100E-03
        -0.67347E-03
         0.18423E-02
         0.14636E-02
         0.30622E-03
         0.11777E-02
         0.22755E-02
         0.28260E-02
         0.24247E-02
         0.21687E-02
         0.29351E-02
        -0.10042E-02
         0.83825E-04
        -0.69882E-03
        -0.71112E-03
         0.83490E-04
        -0.77763E-03
         0.42353E-04
        -0.15192E-02
        -0.13223E-02
         0.99661E-03
        -0.17322E-02
         0.20237E-02
         0.18607E-02
         0.17175E-02
         0.91084E-03
        -0.19801E-02
        -0.23491E-02
        -0.17074E-02
        -0.14909E-02
         0.76640E-03
         0.12503E-02
         0.18667E-02
         0.28974E-02
         0.27179E-02
         0.24629E-02
         0.22359E-02
         0.16503E-02
         0.87650E-03
        -0.21374E-02
        -0.26933E-02
        -0.31291E-02
        -0.30382E-02
        -0.28749E-02
        -0.26439E-02
        -0.23719E-02
        -0.21478E-02
        -0.15099E-02
         0.93572E-03
         0.00000E+00
         0.18171E-02
         0.25928E-02
         0.32179E-02
         0.36559E-02
         0.38815E-02
         0.38815E-02
         0.36559E-02
         0.32179E-02
         0.25928E-02
         0.18171E-02
         0.93572E-03
        -0.47884E-18
        -0.93572E-03
        -0.18171E-02
        -0.25928E-02
        -0.32179E-02
        -0.36559E-02
        -0.38815E-02
        -0.38815E-02
        -0.36559E-02
        -0.32179E-02
        -0.25928E-02
        -0.18171E-02
        -0.93572E-03
         0.67680E-03
         0.12354E-02
         0.59517E-03
        -0.33247E-03
         0.15136E-03
        -0.67298E-03
         0.18425E-02
         0.14646E-02
         0.30737E-03
         0.11795E-02
         0.22757E-02
         0.28255E-02
         0.24248E-02
         0.21687E-02
         0.29348E-02
        -0.10043E-02
         0.84634E-04
        -0.69810E-03
        -0.71098E-03
         0.83614E-04
        -0.77746E-03
         0.42626E-04
        -0.15191E-02
        -0.13223E-02
         0.99797E-03
        -0.17322E-02
         0.20240E-02
         0.18606E-02
         0.17175E-02
         0.91108E-03
        -0.19802E-02
        -0.23491E-02
        -0.17074E-02
        -0.14911E-02
         0.76740E-03
         0.12507E-02
         0.18668E-02
         0.28963E-02
         0.27174E-02
         0.24627E-02
         0.22358E-02
         0.16503E-02
         0.87676E-03
        -0.21374E-02
        -0.26933E-02
        -0.31291E-02
        -0.30382E-02
        -0.28749E-02
        -0.26442E-02
        -0.23721E-02
        -0.21483E-02
        -0.15097E-02
         0.93572E-03
         0.00000E+00
         0.18171E-02
         0.25928E-02
         0.32179E-02
         0.36559E-02
         0.38815E-02
         0.38815E-02
         0.36559E-02
         0.32179E-02
         0.25928E-02
         0.18171E-02
         0.93572E-03
        -0.47884E-18
        -0.93572E-03
        -0.18171E-02
        -0.25928E-02
        -0.32179E-02
        -0.36559E-02
        -0.38815E-02
        -0.38815E-02
        -0.36559E-02
        -0.32179E-02
        -0.25928E-02
        -0.18171E-02
        -0.93572E-03
         0.67736E-03
         0.12361E-02
         0.59570E-03
        -0.33172E-03
         0.15173E-03
        -0.67248E-03
         0.18427E-02
         0.14656E-02
         0.30852E-03
         0.11812E-02
         0.22758E-02
         0.28251E-02
         0.24249E-02
         0.21688E-02
         0.29345E-02
        -0.10044E-02
         0.85443E-04
        -0.69737E-03
        -0.71084E-03
         0.83737E-04
        -0.77729E-03
         0.42899E-04
        -0.15191E-02
        -0.13222E-02
         0.99932E-03
        -0.17322E-02
         0.20243E-02
         0.18605E-02
         0.17175E-02
         0.91132E-03
        -0.19802E-02
        -0.23491E-02
        -0.17074E-02
        -0.14914E-02
         0.76841E-03
         0.12511E-02
         0.18668E-02
         0.28952E-02
         0.27170E-02
         0.24624E-02
         0.22358E-02
         0.16503E-02
         0.87702E-03
        -0.21374E-02
        -0.26933E-02
        -0.31291E-02
        -0.30382E-02
        -0.28749E-02
        -0.26444E-02
        -0.23723E-02
        -0.21489E-02
        -0.15096E-02
         0.93572E-03
         0.00000E+00
         0.18171E-02
         0.25928E-02
         0.32179E-02
         0.36559E-02
         0.38815E-02
         0.38815E-02
         0.36559E-02
         0.32179E-02
         0.25928E-02
         0.18171E-02
         0.93572E-03
        -0.47884E-18
        -0.93572E-03
        -0.18171E-02
        -0.25928E-02
        -0.32179E-02
        -0.36559E-02
        -0.38815E-02
        -0.38815E-02
        -0.36559E-02
        -0.32179E-02
        -0.25928E-02
        -0.18171E-02
        -0.93572E-03
         0.67791E-03
         0.12368E-02
         0.59622E-03
        -0.33096E-03
         0.15209E-03
        -0.67199E-03
         0.18429E-02
         0.14666E-02
         0.30967E-03
         0.11830E-02
         0.22759E-02
         0.28247E-02
         0.24251E-02
         0.21688E-02
         0.29343E-02
        -0.10046E-02
         0.86253E-04
        -0.69665E-03
        -0.71070E-03
         0.83861E-04
        -0.77712E-03
         0.43173E-04
        -0.15190E-02
        -0.13220E-02
         0.10007E-02
        -0.17321E-02
         0.20245E-02
         0.18603E-02
         0.17175E-02
         0.91156E-03
        -0.19802E-02
        -0.23491E-02
        -0.17074E-02
        -0.14916E-02
         0.76941E-03
         0.12515E-02
         0.18668E-02
         0.28942E-02
         0.27165E-02
         0.24622E-02
         0.22358E-02
         0.16503E-02
         0.87728E-03
        -0.21374E-02
        -0.26933E-02
        -0.31291E-02
        -0.30382E-02
        -0.28749E-02
        -0.26447E-02
        -0.23725E-02
        -0.21494E-02
        -0.15095E-02
         0.93572E-03
         0.00000E+00
         0.18171E-02
         0.25928E-02
         0.32179E-02
         0.36559E-02
         0.38815E-02
         0.38815E-02
         0.36559E-02
         0.32179E-02
         0.25928E-02
         0.18171E-02
         0.93572E-03
        -0.47884E-18
        -0.93572E-03
        -0.18171E-02
        -0.25928E-02
        -0.32179E-02
        -0.36559E-02
        -0.38815E-02
        -0.38815E-02
        -0.36559E-02
        -0.32179E-02
        -0.25928E-02
        -0.18171E-02
        -0.93572E-03
         0.67847E-03
         0.12374E-02
         0.59674E-03
        -0.33021E-03
         0.15245E-03
        -0.67150E-03
         0.18430E-02
         0.14676E-02
         0.31081E-03
         0.11847E-02
         0.22761E-02
         0.28242E-02
         0.24252E-02
         0.21688E-02
         0.29340E-02
        -0.10047E-02
         0.87062E-04
        -0.69592E-03
        -0.71056E-03
         0.83985E-04
        -0.77695E-03
         0.43446E-04
        -0.15190E-02
        -0.13219E-02
         0.10020E-02
        -0.17321E-02
         0.20248E-02
         0.18602E-02
         0.17175E-02
         0.91180E-03
        -0.19803E-02
        -0.23491E-02
        -0.17073E-02
        -0.14919E-02
         0.77042E-03
         0.12520E-02
         0.18669E-02
         0.28931E-02
         0.27160E-02
         0.24620E-02
         0.22358E-02
         0.16503E-02
         0.87754E-03
        -0.21374E-02
        -0.26933E-02
        -0.31291E-02
        -0.30382E-02
        -0.28749E-02
        -0.26450E-02
        -0.23727E-02
        -0.21500E-02
        -0.15094E-02
         0.93572E-03
         0.00000E+00
         0.18171E-02
         0.25928E-02
         0.32179E-02
         0.36559E-02
         0.38815E-02
         0.38815E-02
         0.36559E-02
         0.32179E-02
         0.25928E-02
         0.18171E-02
         0.93572E-03
         0.39516E-17
        -0.93572E-03
        -0.18171E-02
        -0.25928E-02
        -0.32179E-02
        -0.36559E-02
        -0.38815E-02
        -0.38815E-02
        -0.36559E-02
        -0.32179E-02
        -0.25928E-02
        -0.18171E-02
        -0.93572E-03
         0.67902E-03
         0.12381E-02
         0.59727E-03
        -0.32945E-03
         0.15282E-03
        -0.67100E-03
         0.18432E-02
         0.14686E-02
         0.31196E-03
         0.11865E-02
         0.22762E-02
         0.28238E-02
         0.24254E-02
         0.21688E-02
         0.29337E-02
        -0.10049E-02
         0.87871E-04
        -0.69519E-03
        -0.71042E-03
         0.84108E-04
        -0.77678E-03
         0.43720E-04
        -0.15189E-02
        -0.13219E-02
         0.10034E-02
        -0.17320E-02
         0.20251E-02
         0.18601E-02
         0.17175E-02
         0.91204E-03
        -0.19803E-02
        -0.23492E-02
        -0.17073E-02
        -0.14921E-02
         0.77142E-03
         0.12524E-02
         0.18669E-02
         0.28920E-02
         0.27155E-02
         0.24618E-02
         0.22358E-02
         0.16503E-02
         0.87781E-03
        -0.21374E-02
        -0.26934E-02
        -0.31291E-02
        -0.30382E-02
        -0.28749E-02
        -0.26452E-02
        -0.23729E-02
        -0.21505E-02
        -0.15093E-02
         0.93572E-03
         0.00000E+00
         0.18171E-02
         0.25928E-02
         0.32179E-02
         0.36559E-02
         0.38815E-02
         0.38815E-02
         0.36559E-02
         0.32179E-02
         0.25928E-02
         0.18171E-02
         0.93572E-03
        -0.47884E-18
        -0.93572E-03
        -0.18171E-02
        -0.25928E-02
        -0.32179E-02
        -0.36559E-02
        -0.38815E-02
        -0.38815E-02
        -0.36559E-02
        -0.32179E-02
        -0.25928E-02
        -0.18171E-02
        -0.93572E-03
         0.67958E-03
         0.12387E-02
         0.59779E-03
        -0.32870E-03
         0.15318E-03
        -0.67051E-03
         0.18434E-02
         0.14696E-02
         0.31311E-03
         0.11882E-02
         0.22763E-02
         0.28233E-02
         0.24255E-02
         0.21689E-02
         0.29335E-02
        -0.10050E-02
         0.88681E-04
        -0.69447E-03
        -0.71028E-03
         0.84232E-04
        -0.77661E-03
         0.43993E-04
        -0.15189E-02
        -0.13218E-02
         0.10048E-02
        -0.17320E-02
         0.20254E-02
         0.18599E-02
         0.17175E-02
         0.91228E-03
        -0.19803E-02
        -0.23492E-02
        -0.17073E-02
        -0.14923E-02
         0.77243E-03
         0.12528E-02
         0.18670E-02
         0.28910E-02
         0.27151E-02
         0.24615E-02
         0.22358E-02
         0.16503E-02
         0.87807E-03
        -0.21374E-02
        -0.26934E-02
        -0.31291E-02
        -0.30382E-02
        -0.28749E-02
        -0.26455E-02
        -0.23732E-02
        -0.21511E-02
        -0.15092E-02
         0.93572E-03
         0.00000E+00
         0.18171E-02
         0.25928E-02
         0.32179E-02
         0.36559E-02
         0.38815E-02
         0.38815E-02
         0.36559E-02
         0.32179E-02
         0.25928E-02
         0.18171E-02
         0.93572E-03
         0.22152E-17
        -0.93572E-03
        -0.18171E-02
        -0.25928E-02
        -0.32179E-02
        -0.36559E-02
        -0.38815E-02
        -0.38815E-02
        -0.36559E-02
        -0.32179E-02
        -0.25928E-02
        -0.18171E-02
        -0.93572E-03
         0.68013E-03
         0.12394E-02
         0.59831E-03
        -0.32794E-03
         0.15354E-03
        -0.67002E-03
         0.18436E-02
         0.14706E-02
         0.31426E-03
         0.11900E-02
         0.22765E-02
         0.28229E-02
         0.24257E-02
         0.21689E-02
         0.29332E-02
        -0.10051E-02
         0.89490E-04
        -0.69374E-03
        -0.71013E-03
         0.84355E-04
        -0.77644E-03
         0.44266E-04
        -0.15188E-02
        -0.13216E-02
         0.10061E-02
        -0.17320E-02
         0.20257E-02
         0.18598E-02
         0.17175E-02
         0.91252E-03
        -0.19803E-02
        -0.23492E-02
        -0.17073E-02
        -0.14926E-02
         0.77343E-03
         0.12533E-02
         0.18670E-02
         0.28899E-02
         0.27146E-02
         0.24613E-02
         0.22358E-02
         0.16503E-02
         0.87833E-03
        -0.21374E-02
        -0.26934E-02
        -0.31291E-02
        -0.30382E-02
        -0.28750E-02
        -0.26458E-02
        -0.23734E-02
        -0.21516E-02
        -0.15091E-02
         0.93572E-03
         0.00000E+00
         0.18171E-02
         0.25928E-02
         0.32179E-02
         0.36559E-02
         0.38815E-02
         0.38815E-02
         0.36559E-02
         0.32179E-02
         0.25928E-02
         0.18171E-02
         0.93572E-03
        -0.47884E-18
        -0.93572E-03
        -0.18171E-02
        -0.25928E-02
        -0.32179E-02
        -0.36559E-02
        -0.38815E-02
        -0.38815E-02
        -0.36559E-02
        -0.32179E-02
        -0.25928E-02
        -0.18171E-02
        -0.93572E-03
         0.68068E-03
         0.12401E-02
         0.59884E-03
        -0.32719E-03
         0.15391E-03
        -0.66953E-03
         0.18438E-02
         0.14716E-02
         0.31541E-03
         0.11917E-02
         0.22766E-02
         0.28225E-02
         0.24258E-02
         0.21690E-02
         0.29330E-02
        -0.10053E-02
         0.90299E-04
        -0.69302E-03
        -0.70999E-03
         0.84479E-04
        -0.77627E-03
         0.44540E-04
        -0.15188E-02
        -0.13215E-02
         0.10075E-02
        -0.17319E-02
         0.20260E-02
         0.18597E-02
         0.17175E-02
         0.91276E-03
        -0.19804E-02
        -0.23493E-02
        -0.17073E-02
        -0.14928E-02
         0.77444E-03
         0.12537E-02
         0.18670E-02
         0.28888E-02
         0.27141E-02
         0.24611E-02
         0.22358E-02
         0.16503E-02
         0.87859E-03
        -0.21374E-02
        -0.26934E-02
        -0.31291E-02
        -0.30382E-02
        -0.28750E-02
        -0.26460E-02
        -0.23736E-02
        -0.21521E-02
        -0.15090E-02
         0.93572E-03
         0.00000E+00
         0.18171E-02
         0.25928E-02
         0.32179E-02
         0.36559E-02
         0.38815E-02
         0.38815E-02
         0.36559E-02
         0.32179E-02
         0.25928E-02
         0.18171E-02
         0.93572E-03
         0.22152E-17
        -0.93572E-03
        -0.18171E-02
        -0.25928E-02
        -0.32179E-02
        -0.36559E-02
        -0.38815E-02
        -0.38815E-02
        -0.36559E-02
        -0.32179E-02
        -0.25928E-02
        -0.18171E-02
        -0.93572E-03
         0.68124E-03
         0.12407E-02
         0.59936E-03
        -0.32643E-03
         0.15427E-03
        -0.66903E-03
         0.18440E-02
         0.14727E-02
         0.31656E-03
         0.11935E-02
         0.22767E-02
         0.28220E-02
         0.24260E-02
         0.21690E-02
         0.29327E-02
        -0.10054E-02
         0.91108E-04
        -0.69229E-03
        -0.70985E-03
         0.84602E-04
        -0.77610E-03
         0.44813E-04
        -0.15187E-02
        -0.13215E-02
         0.10088E-02
        -0.17319E-02
         0.20262E-02
         0.18595E-02
         0.17175E-02
         0.91300E-03
        -0.19804E-02
        -0.23493E-02
        -0.17073E-02
        -0.14931E-02
         0.77544E-03
         0.12541E-02
         0.18671E-02
         0.28877E-02
         0.27137E-02
         0.24609E-02
         0.22358E-02
         0.16503E-02
         0.87885E-03
        -0.21374E-02
        -0.26934E-02
        -0.31291E-02
        -0.30382E-02
        -0.28750E-02
        -0.26463E-02
        -0.23738E-02
        -0.21527E-02
        -0.15088E-02
         0.93572E-03
         0.00000E+00
         0.18171E-02
         0.25928E-02
         0.32179E-02
         0.36559E-02
         0.38815E-02
         0.38815E-02
         0.36559E-02
         0.32179E-02
         0.25928E-02
         0.18171E-02
         0.93572E-03
        -0.47884E-18
        -0.93572E-03
        -0.18171E-02
        -0.25928E-02
        -0.32179E-02
        -0.36559E-02
        -0.38815E-02
        -0.38815E-02
        -0.36559E-02
        -0.32179E-02
        -0.25928E-02
        -0.18171E-02
        -0.93572E-03
         0.68179E-03
         0.12414E-02
         0.59988E-03
        -0.32568E-03
         0.15463E-03
        -0.66854E-03
         0.18442E-02
         0.14736E-02
         0.31770E-03
         0.11952E-02
         0.22768E-02
         0.28216E-02
         0.24261E-02
         0.21690E-02
         0.29324E-02
        -0.10056E-02
         0.91918E-04
        -0.69156E-03
        -0.70971E-03
         0.84726E-04
        -0.77593E-03
         0.45086E-04
        -0.15187E-02
        -0.13213E-02
         0.10102E-02
        -0.17318E-02
         0.20265E-02
         0.18594E-02
         0.17175E-02
         0.91324E-03
        -0.19804E-02
        -0.23493E-02
        -0.17073E-02
        -0.14933E-02
         0.77645E-03
         0.12545E-02
         0.18671E-02
         0.28867E-02
         0.27132E-02
         0.24606E-02
         0.22358E-02
         0.16503E-02
         0.87912E-03
        -0.21374E-02
        -0.26935E-02
        -0.31291E-02
        -0.30381E-02
        -0.28750E-02
        -0.26466E-02
        -0.23740E-02
        -0.21533E-02
        -0.15087E-02
         0.93572E-03
         0.00000E+00
         0.18171E-02
         0.25928E-02
         0.32179E-02
         0.36559E-02
         0.38815E-02
         0.38815E-02
         0.36559E-02
         0.32179E-02
         0.25928E-02
         0.18171E-02
         0.93572E-03
        -0.47884E-18
        -0.93572E-03
        -0.18171E-02
        -0.25928E-02
        -0.32179E-02
        -0.36559E-02
        -0.38815E-02
        -0.38815E-02
        -0.36559E-02
        -0.32179E-02
        -0.25928E-02
        -0.18171E-02
        -0.93572E-03
         0.68235E-03
         0.12421E-02
         0.60041E-03
        -0.32493E-03
         0.15500E-03
        -0.66805E-03
         0.18444E-02
         0.14747E-02
         0.31885E-03
         0.11970E-02
         0.22770E-02
         0.28211E-02
         0.24262E-02
         0.21691E-02
         0.29322E-02
        -0.10057E-02
         0.92727E-04
        -0.69084E-03
        -0.70957E-03
         0.84849E-04
        -0.77576E-03
         0.45359E-04
        -0.15186E-02
        -0.13212E-02
         0.10115E-02
        -0.17318E-02
         0.20268E-02
         0.18593E-02
         0.17175E-02
         0.91347E-03
        -0.19804E-02
        -0.23493E-02
        -0.17073E-02
        -0.14936E-02
         0.77745E-03
         0.12550E-02
         0.18671E-02
         0.28856E-02
         0.27127E-02
         0.24604E-02
         0.22358E-02
         0.16503E-02
         0.87938E-03
        -0.21374E-02
        -0.26935E-02
        -0.31291E-02
        -0.30381E-02
        -0.28750E-02
        -0.26468E-02
        -0.23742E-02
        -0.21538E-02
        -0.15086E-02
         0.93572E-03
         0.00000E+00
         0.18171E-02
         0.25928E-02
         0.32179E-02
         0.36559E-02
         0.38815E-02
         0.38815E-02
         0.36559E-02
         0.32179E-02
         0.25928E-02
         0.18171E-02
         0.93572E-03
        -0.47884E-18
        -0.93572E-03
        -0.18171E-02
        -0.25928E-02
        -0.32179E-02
        -0.36559E-02
        -0.38815E-02
        -0.38815E-02
        -0.36559E-02
        -0.32179E-02
        -0.25928E-02
        -0.18171E-02
        -0.93572E-03
         0.68290E-03
         0.12427E-02
         0.60093E-03
        -0.32417E-03
         0.15536E-03
        -0.66755E-03
         0.18445E-02
         0.14757E-02
         0.32000E-03
         0.11987E-02
         0.22771E-02
         0.28207E-02
         0.24264E-02
         0.21691E-02
         0.29319E-02
        -0.10058E-02
         0.93536E-04
        -0.69011E-03
        -0.70943E-03
         0.84973E-04
        -0.77559E-03
         0.45633E-04
        -0.15186E-02
        -0.13212E-02
         0.10129E-02
        -0.17318E-02
         0.20271E-02
         0.18592E-02
         0.17175E-02
         0.91371E-03
        -0.19805E-02
        -0.23493E-02
        -0.17073E-02
        -0.14938E-02
         0.77846E-03
         0.12554E-02
         0.18672E-02
         0.28845E-02
         0.27122E-02
         0.24602E-02
         0.22358E-02
         0.16502E-02
         0.87964E-03
        -0.21374E-02
        -0.26935E-02
        -0.31291E-02
        -0.30381E-02
        -0.28750E-02
        -0.26471E-02
        -0.23744E-02
        -0.21543E-02
        -0.15085E-02
         0.93572E-03
         0.00000E+00
         0.18171E-02
         0.25928E-02
         0.32179E-02
         0.36559E-02
         0.38815E-02
         0.38815E-02
         0.36559E-02
         0.32179E-02
         0.25928E-02
         0.18171E-02
         0.93572E-03
        -0.47884E-18
        -0.93572E-03
        -0.18171E-02
        -0.25928E-02
        -0.32179E-02
        -0.36559E-02
        -0.38815E-02
        -0.38815E-02
        -0.36559E-02
        -0.32179E-02
        -0.25928E-02
        -0.18171E-02
        -0.93572E-03
         0.68346E-03
         0.12434E-02
         0.60145E-03
        -0.32342E-03
         0.15572E-03
        -0.66706E-03
         0.18447E-02
         0.14767E-02
         0.32115E-03
         0.12005E-02
         0.22772E-02
         0.28203E-02
         0.24265E-02
         0.21691E-02
         0.29316E-02
        -0.10060E-02
         0.94345E-04
        -0.68939E-03
        -0.70929E-03
         0.85096E-04
        -0.77542E-03
         0.45906E-04
        -0.15185E-02
        -0.13211E-02
         0.10142E-02
        -0.17317E-02
         0.20274E-02
         0.18590E-02
         0.17175E-02
         0.91395E-03
        -0.19805E-02
        -0.23494E-02
        -0.17073E-02
        -0.14941E-02
         0.77946E-03
         0.12558E-02
         0.18672E-02
         0.28835E-02
         0.27118E-02
         0.24600E-02
         0.22358E-02
         0.16502E-02
         0.87990E-03
        -0.21374E-02
        -0.26935E-02
        -0.31291E-02
        -0.30381E-02
        -0.28750E-02
        -0.26474E-02
        -0.23746E-02
        -0.21549E-02
        -0.15084E-02
         0.93572E-03
         0.00000E+00
         0.18171E-02
         0.25928E-02
         0.32179E-02
         0.36559E-02
         0.38815E-02
         0.38815E-02
         0.36559E-02
         0.32179E-02
         0.25928E-02
         0.18171E-02
         0.93572E-03
         0.22152E-17
        -0.93572E-03
        -0.18171E-02
        -0.25928E-02
        -0.32179E-02
        -0.36559E-02
        -0.38815E-02
        -0.38815E-02
        -0.36559E-02
        -0.32179E-02
        -0.25928E-02
        -0.18171E-02
        -0.93572E-03
         0.68401E-03
         0.12440E-02
         0.60198E-03
        -0.32266E-03
         0.15609E-03
        -0.66657E-03
         0.18449E-02
         0.14777E-02
         0.32230E-03
         0.12022E-02
         0.22774E-02
         0.28198E-02
         0.24267E-02
         0.21692E-02
         0.29314E-02
        -0.10061E-02
         0.95155E-04
        -0.68866E-03
        -0.70915E-03
         0.85220E-04
        -0.77525E-03
         0.46180E-04
        -0.15185E-02
        -0.13210E-02
         0.10156E-02
        -0.17317E-02
         0.20277E-02
         0.18589E-02
         0.17175E-02
         0.91419E-03
        -0.19805E-02
        -0.23494E-02
        -0.17073E-02
        -0.14943E-02
         0.78047E-03
         0.12563E-02
         0.18672E-02
         0.28824E-02
         0.27113E-02
         0.24597E-02
         0.22358E-02
         0.16502E-02
         0.88016E-03
        -0.21374E-02
        -0.26935E-02
        -0.31291E-02
        -0.30381E-02
        -0.28751E-02
        -0.26476E-02
        -0.23748E-02
        -0.21554E-02
        -0.15083E-02
         0.93572E-03
         0.00000E+00
         0.18171E-02
         0.25928E-02
         0.32179E-02
         0.36559E-02
         0.38815E-02
         0.38815E-02
         0.36559E-02
         0.32179E-02
         0.25928E-02
         0.18171E-02
         0.93572E-03
        -0.47884E-18
        -0.93572E-03
        -0.18171E-02
        -0.25928E-02
        -0.32179E-02
        -0.36559E-02
        -0.38815E-02
        -0.38815E-02
        -0.36559E-02
        -0.32179E-02
        -0.25928E-02
        -0.18171E-02
        -0.93572E-03
         0.68457E-03
         0.12447E-02
         0.60250E-03
        -0.32191E-03
         0.15645E-03
        -0.66607E-03
         0.18451E-02
         0.14787E-02
         0.32345E-03
         0.12040E-02
         0.22775E-02
         0.28194E-02
         0.24268E-02
         0.21692E-02
         0.29311E-02
        -0.10062E-02
         0.95964E-04
        -0.68793E-03
        -0.70901E-03
         0.85343E-04
        -0.77507E-03
         0.46453E-04
        -0.15184E-02
        -0.13209E-02
         0.10169E-02
        -0.17316E-02
         0.20280E-02
         0.18588E-02
         0.17175E-02
         0.91443E-03
        -0.19806E-02
        -0.23494E-02
        -0.17073E-02
        -0.14945E-02
         0.78148E-03
         0.12567E-02
         0.18673E-02
         0.28813E-02
         0.27108E-02
         0.24595E-02
         0.22358E-02
         0.16502E-02
         0.88043E-03
        -0.21374E-02
        -0.26936E-02
        -0.31291E-02
        -0.30381E-02
        -0.28751E-02
        -0.26479E-02
        -0.23750E-02
        -0.21560E-02
        -0.15082E-02
         0.93572E-03
         0.00000E+00
         0.18171E-02
         0.25928E-02
         0.32179E-02
         0.36559E-02
         0.38815E-02
         0.38815E-02
         0.36559E-02
         0.32179E-02
         0.25928E-02
         0.18171E-02
         0.93572E-03
        -0.47884E-18
        -0.93572E-03
        -0.18171E-02
        -0.25928E-02
        -0.32179E-02
        -0.36559E-02
        -0.38815E-02
        -0.38815E-02
        -0.36559E-02
        -0.32179E-02
        -0.25928E-02
        -0.18171E-02
        -0.93572E-03
         0.68512E-03
         0.12454E-02
         0.60302E-03
        -0.32115E-03
         0.15681E-03
        -0.66558E-03
         0.18453E-02
         0.14797E-02
         0.32459E-03
         0.12058E-02
         0.22776E-02
         0.28189E-02
         0.24270E-02
         0.21693E-02
         0.29308E-02
        -0.10064E-02
         0.96773E-04
        -0.68721E-03
        -0.70887E-03
         0.85467E-04
        -0.77490E-03
         0.46726E-04
        -0.15184E-02
        -0.13208E-02
         0.10183E-02
        -0.17316E-02
         0.20283E-02
         0.18586E-02
         0.17175E-02
         0.91467E-03
        -0.19806E-02
        -0.23494E-02
        -0.17073E-02
        -0.14948E-02
         0.78248E-03
         0.12571E-02
         0.18673E-02
         0.28802E-02
         0.27103E-02
         0.24593E-02
         0.22358E-02
         0.16502E-02
         0.88069E-03
        -0.21374E-02
        -0.26936E-02
        -0.31291E-02
        -0.30381E-02
        -0.28751E-02
        -0.26482E-02
        -0.23752E-02
        -0.21565E-02
        -0.15081E-02
         0.93572E-03
         0.00000E+00
         0.18171E-02
         0.25928E-02
         0.32179E-02
         0.36559E-02
         0.38815E-02
         0.38815E-02
         0.36559E-02
         0.32179E-02
         0.25928E-02
         0.18171E-02
         0.93572E-03
        -0.47884E-18
        -0.93572E-03
        -0.18171E-02
        -0.25928E-02
        -0.32179E-02
        -0.36559E-02
        -0.38815E-02
        -0.38815E-02
        -0.36559E-02
        -0.32179E-02
        -0.25928E-02
        -0.18171E-02
        -0.93572E-03
         0.68567E-03
         0.12460E-02
         0.60355E-03
        -0.32040E-03
         0.15718E-03
        -0.66509E-03
         0.18455E-02
         0.14807E-02
         0.32574E-03
         0.12075E-02
         0.22777E-02
         0.28185E-02
         0.24271E-02
         0.21693E-02
         0.29306E-02
        -0.10065E-02
         0.97583E-04
        -0.68648E-03
        -0.70873E-03
         0.85591E-04
        -0.77474E-03
         0.47000E-04
        -0.15183E-02
        -0.13207E-02
         0.10197E-02
        -0.17316E-02
         0.20285E-02
         0.18585E-02
         0.17175E-02
         0.91491E-03
        -0.19806E-02
        -0.23495E-02
        -0.17073E-02
        -0.14950E-02
         0.78348E-03
         0.12576E-02
         0.18674E-02
         0.28792E-02
         0.27099E-02
         0.24591E-02
         0.22358E-02
         0.16502E-02
         0.88095E-03
        -0.21374E-02
        -0.26936E-02
        -0.31290E-02
        -0.30381E-02
        -0.28751E-02
        -0.26484E-02
        -0.23754E-02
        -0.21571E-02
        -0.15080E-02
         0.93572E-03
         0.00000E+00
         0.18171E-02
         0.25928E-02
         0.32179E-02
         0.36559E-02
         0.38815E-02
         0.38815E-02
         0.36559E-02
         0.32179E-02
         0.25928E-02
         0.18171E-02
         0.93572E-03
         0.47884E-18
        -0.93572E-03
        -0.18171E-02
        -0.25928E-02
        -0.32179E-02
        -0.36559E-02
        -0.38815E-02
        -0.38815E-02
        -0.36559E-02
        -0.32179E-02
        -0.25928E-02
        -0.18171E-02
        -0.93572E-03
  
SCALARS           initial_coordinate_z  double 1
LOOKUP_TABLE default
        -0.10771E-01
        -0.10771E-01
        -0.10771E-01
        -0.10771E-01
        -0.11750E-01
        -0.11750E-01
        -0.11750E-01
        -0.11750E-01
        -0.10771E-01
        -0.10771E-01
        -0.11750E-01
        -0.11750E-01
        -0.10771E-01
        -0.10771E-01
        -0.11750E-01
        -0.11750E-01
        -0.10771E-01
        -0.10771E-01
        -0.11750E-01
        -0.11750E-01
        -0.10771E-01
        -0.10771E-01
        -0.10771E-01
        -0.11750E-01
        -0.11750E-01
        -0.11750E-01
        -0.10771E-01
        -0.10771E-01
        -0.11750E-01
        -0.11750E-01
        -0.10771E-01
        -0.10771E-01
        -0.10771E-01
        -0.11750E-01
        -0.11750E-01
        -0.11750E-01
        -0.10771E-01
        -0.10771E-01
        -0.11750E-01
        -0.11750E-01
        -0.10771E-01
        -0.10771E-01
        -0.11750E-01
        -0.11750E-01
        -0.10771E-01
        -0.10771E-01
        -0.11750E-01
        -0.11750E-01
        -0.10771E-01
        -0.11750E-01
        -0.10771E-01
        -0.11750E-01
        -0.10771E-01
        -0.11750E-01
        -0.10771E-01
        -0.11750E-01
        -0.10771E-01
        -0.10771E-01
        -0.11750E-01
        -0.11750E-01
        -0.10771E-01
        -0.10771E-01
        -0.11750E-01
        -0.11750E-01
        -0.10771E-01
        -0.11750E-01
        -0.10771E-01
        -0.11750E-01
        -0.10771E-01
        -0.10771E-01
        -0.11750E-01
        -0.11750E-01
        -0.10771E-01
        -0.11750E-01
        -0.10771E-01
        -0.11750E-01
        -0.10771E-01
        -0.11750E-01
        -0.10771E-01
        -0.11750E-01
        -0.10771E-01
        -0.10771E-01
        -0.11750E-01
        -0.11750E-01
        -0.10771E-01
        -0.11750E-01
        -0.10771E-01
        -0.11750E-01
        -0.10771E-01
        -0.11750E-01
        -0.10771E-01
        -0.10771E-01
        -0.11750E-01
        -0.11750E-01
        -0.10771E-01
        -0.11750E-01
        -0.10771E-01
        -0.11750E-01
        -0.10771E-01
        -0.11750E-01
        -0.10771E-01
        -0.10771E-01
        -0.11750E-01
        -0.11750E-01
        -0.10771E-01
        -0.10771E-01
        -0.11750E-01
        -0.11750E-01
        -0.10771E-01
        -0.11750E-01
        -0.10771E-01
        -0.11750E-01
        -0.10771E-01
        -0.11750E-01
        -0.10771E-01
        -0.11750E-01
        -0.10771E-01
        -0.11750E-01
        -0.10771E-01
        -0.11750E-01
        -0.10771E-01
        -0.11750E-01
        -0.10771E-01
        -0.11750E-01
        -0.10771E-01
        -0.11750E-01
        -0.10771E-01
        -0.11750E-01
        -0.10771E-01
        -0.11750E-01
        -0.10771E-01
        -0.11750E-01
        -0.10771E-01
        -0.11750E-01
        -0.10771E-01
        -0.11750E-01
        -0.10771E-01
        -0.11750E-01
        -0.10771E-01
        -0.11750E-01
        -0.10771E-01
        -0.11750E-01
        -0.10771E-01
        -0.11750E-01
        -0.10771E-01
        -0.11750E-01
        -0.10771E-01
        -0.11750E-01
        -0.10771E-01
        -0.11750E-01
        -0.10771E-01
        -0.11750E-01
        -0.10771E-01
        -0.11750E-01
        -0.10771E-01
        -0.11750E-01
        -0.97917E-02
        -0.97917E-02
        -0.97917E-02
        -0.97917E-02
        -0.97917E-02
        -0.97917E-02
        -0.97917E-02
        -0.97917E-02
        -0.97917E-02
        -0.97917E-02
        -0.97917E-02
        -0.97917E-02
        -0.97917E-02
        -0.97917E-02
        -0.97917E-02
        -0.97917E-02
        -0.97917E-02
        -0.97917E-02
        -0.97917E-02
        -0.97917E-02
        -0.97917E-02
        -0.97917E-02
        -0.97917E-02
        -0.97917E-02
        -0.97917E-02
        -0.97917E-02
        -0.97917E-02
        -0.97917E-02
        -0.97917E-02
        -0.97917E-02
        -0.97917E-02
        -0.97917E-02
        -0.97917E-02
        -0.97917E-02
        -0.97917E-02
        -0.97917E-02
        -0.97917E-02
        -0.97917E-02
        -0.97917E-02
        -0.97917E-02
        -0.97917E-02
        -0.97917E-02
        -0.97917E-02
        -0.97917E-02
        -0.97917E-02
        -0.97917E-02
        -0.97917E-02
        -0.97917E-02
        -0.97917E-02
        -0.97917E-02
        -0.97917E-02
        -0.97917E-02
        -0.97917E-02
        -0.97917E-02
        -0.97917E-02
        -0.97917E-02
        -0.97917E-02
        -0.97917E-02
        -0.97917E-02
        -0.97917E-02
        -0.97917E-02
        -0.97917E-02
        -0.97917E-02
        -0.97917E-02
        -0.97917E-02
        -0.97917E-02
        -0.97917E-02
        -0.97917E-02
        -0.97917E-02
        -0.97917E-02
        -0.97917E-02
        -0.97917E-02
        -0.97917E-02
        -0.97917E-02
        -0.97917E-02
        -0.97917E-02
        -0.97917E-02
        -0.97917E-02
        -0.88125E-02
        -0.88125E-02
        -0.88125E-02
        -0.88125E-02
        -0.88125E-02
        -0.88125E-02
        -0.88125E-02
        -0.88125E-02
        -0.88125E-02
        -0.88125E-02
        -0.88125E-02
        -0.88125E-02
        -0.88125E-02
        -0.88125E-02
        -0.88125E-02
        -0.88125E-02
        -0.88125E-02
        -0.88125E-02
        -0.88125E-02
        -0.88125E-02
        -0.88125E-02
        -0.88125E-02
        -0.88125E-02
        -0.88125E-02
        -0.88125E-02
        -0.88125E-02
        -0.88125E-02
        -0.88125E-02
        -0.88125E-02
        -0.88125E-02
        -0.88125E-02
        -0.88125E-02
        -0.88125E-02
        -0.88125E-02
        -0.88125E-02
        -0.88125E-02
        -0.88125E-02
        -0.88125E-02
        -0.88125E-02
        -0.88125E-02
        -0.88125E-02
        -0.88125E-02
        -0.88125E-02
        -0.88125E-02
        -0.88125E-02
        -0.88125E-02
        -0.88125E-02
        -0.88125E-02
        -0.88125E-02
        -0.88125E-02
        -0.88125E-02
        -0.88125E-02
        -0.88125E-02
        -0.88125E-02
        -0.88125E-02
        -0.88125E-02
        -0.88125E-02
        -0.88125E-02
        -0.88125E-02
        -0.88125E-02
        -0.88125E-02
        -0.88125E-02
        -0.88125E-02
        -0.88125E-02
        -0.88125E-02
        -0.88125E-02
        -0.88125E-02
        -0.88125E-02
        -0.88125E-02
        -0.88125E-02
        -0.88125E-02
        -0.88125E-02
        -0.88125E-02
        -0.88125E-02
        -0.88125E-02
        -0.88125E-02
        -0.88125E-02
        -0.88125E-02
        -0.78333E-02
        -0.78333E-02
        -0.78333E-02
        -0.78333E-02
        -0.78333E-02
        -0.78333E-02
        -0.78333E-02
        -0.78333E-02
        -0.78333E-02
        -0.78333E-02
        -0.78333E-02
        -0.78333E-02
        -0.78333E-02
        -0.78333E-02
        -0.78333E-02
        -0.78333E-02
        -0.78333E-02
        -0.78333E-02
        -0.78333E-02
        -0.78333E-02
        -0.78333E-02
        -0.78333E-02
        -0.78333E-02
        -0.78333E-02
        -0.78333E-02
        -0.78333E-02
        -0.78333E-02
        -0.78333E-02
        -0.78333E-02
        -0.78333E-02
        -0.78333E-02
        -0.78333E-02
        -0.78333E-02
        -0.78333E-02
        -0.78333E-02
        -0.78333E-02
        -0.78333E-02
        -0.78333E-02
        -0.78333E-02
        -0.78333E-02
        -0.78333E-02
        -0.78333E-02
        -0.78333E-02
        -0.78333E-02
        -0.78333E-02
        -0.78333E-02
        -0.78333E-02
        -0.78333E-02
        -0.78333E-02
        -0.78333E-02
        -0.78333E-02
        -0.78333E-02
        -0.78333E-02
        -0.78333E-02
        -0.78333E-02
        -0.78333E-02
        -0.78333E-02
        -0.78333E-02
        -0.78333E-02
        -0.78333E-02
        -0.78333E-02
        -0.78333E-02
        -0.78333E-02
        -0.78333E-02
        -0.78333E-02
        -0.78333E-02
        -0.78333E-02
        -0.78333E-02
        -0.78333E-02
        -0.78333E-02
        -0.78333E-02
        -0.78333E-02
        -0.78333E-02
        -0.78333E-02
        -0.78333E-02
        -0.78333E-02
        -0.78333E-02
        -0.78333E-02
        -0.68542E-02
        -0.68542E-02
        -0.68542E-02
        -0.68542E-02
        -0.68542E-02
        -0.68542E-02
        -0.68542E-02
        -0.68542E-02
        -0.68542E-02
        -0.68542E-02
        -0.68542E-02
        -0.68542E-02
        -0.68542E-02
        -0.68542E-02
        -0.68542E-02
        -0.68542E-02
        -0.68542E-02
        -0.68542E-02
        -0.68542E-02
        -0.68542E-02
        -0.68542E-02
        -0.68542E-02
        -0.68542E-02
        -0.68542E-02
        -0.68542E-02
        -0.68542E-02
        -0.68542E-02
        -0.68542E-02
        -0.68542E-02
        -0.68542E-02
        -0.68542E-02
        -0.68542E-02
        -0.68542E-02
        -0.68542E-02
        -0.68542E-02
        -0.68542E-02
        -0.68542E-02
        -0.68542E-02
        -0.68542E-02
        -0.68542E-02
        -0.68542E-02
        -0.68542E-02
        -0.68542E-02
        -0.68542E-02
        -0.68542E-02
        -0.68542E-02
        -0.68542E-02
        -0.68542E-02
        -0.68542E-02
        -0.68542E-02
        -0.68542E-02
        -0.68542E-02
        -0.68542E-02
        -0.68542E-02
        -0.68542E-02
        -0.68542E-02
        -0.68542E-02
        -0.68542E-02
        -0.68542E-02
        -0.68542E-02
        -0.68542E-02
        -0.68542E-02
        -0.68542E-02
        -0.68542E-02
        -0.68542E-02
        -0.68542E-02
        -0.68542E-02
        -0.68542E-02
        -0.68542E-02
        -0.68542E-02
        -0.68542E-02
        -0.68542E-02
        -0.68542E-02
        -0.68542E-02
        -0.68542E-02
        -0.68542E-02
        -0.68542E-02
        -0.68542E-02
        -0.58750E-02
        -0.58750E-02
        -0.58750E-02
        -0.58750E-02
        -0.58750E-02
        -0.58750E-02
        -0.58750E-02
        -0.58750E-02
        -0.58750E-02
        -0.58750E-02
        -0.58750E-02
        -0.58750E-02
        -0.58750E-02
        -0.58750E-02
        -0.58750E-02
        -0.58750E-02
        -0.58750E-02
        -0.58750E-02
        -0.58750E-02
        -0.58750E-02
        -0.58750E-02
        -0.58750E-02
        -0.58750E-02
        -0.58750E-02
        -0.58750E-02
        -0.58750E-02
        -0.58750E-02
        -0.58750E-02
        -0.58750E-02
        -0.58750E-02
        -0.58750E-02
        -0.58750E-02
        -0.58750E-02
        -0.58750E-02
        -0.58750E-02
        -0.58750E-02
        -0.58750E-02
        -0.58750E-02
        -0.58750E-02
        -0.58750E-02
        -0.58750E-02
        -0.58750E-02
        -0.58750E-02
        -0.58750E-02
        -0.58750E-02
        -0.58750E-02
        -0.58750E-02
        -0.58750E-02
        -0.58750E-02
        -0.58750E-02
        -0.58750E-02
        -0.58750E-02
        -0.58750E-02
        -0.58750E-02
        -0.58750E-02
        -0.58750E-02
        -0.58750E-02
        -0.58750E-02
        -0.58750E-02
        -0.58750E-02
        -0.58750E-02
        -0.58750E-02
        -0.58750E-02
        -0.58750E-02
        -0.58750E-02
        -0.58750E-02
        -0.58750E-02
        -0.58750E-02
        -0.58750E-02
        -0.58750E-02
        -0.58750E-02
        -0.58750E-02
        -0.58750E-02
        -0.58750E-02
        -0.58750E-02
        -0.58750E-02
        -0.58750E-02
        -0.58750E-02
        -0.48958E-02
        -0.48958E-02
        -0.48958E-02
        -0.48958E-02
        -0.48958E-02
        -0.48958E-02
        -0.48958E-02
        -0.48958E-02
        -0.48958E-02
        -0.48958E-02
        -0.48958E-02
        -0.48958E-02
        -0.48958E-02
        -0.48958E-02
        -0.48958E-02
        -0.48958E-02
        -0.48958E-02
        -0.48958E-02
        -0.48958E-02
        -0.48958E-02
        -0.48958E-02
        -0.48958E-02
        -0.48958E-02
        -0.48958E-02
        -0.48958E-02
        -0.48958E-02
        -0.48958E-02
        -0.48958E-02
        -0.48958E-02
        -0.48958E-02
        -0.48958E-02
        -0.48958E-02
        -0.48958E-02
        -0.48958E-02
        -0.48958E-02
        -0.48958E-02
        -0.48958E-02
        -0.48958E-02
        -0.48958E-02
        -0.48958E-02
        -0.48958E-02
        -0.48958E-02
        -0.48958E-02
        -0.48958E-02
        -0.48958E-02
        -0.48958E-02
        -0.48958E-02
        -0.48958E-02
        -0.48958E-02
        -0.48958E-02
        -0.48958E-02
        -0.48958E-02
        -0.48958E-02
        -0.48958E-02
        -0.48958E-02
        -0.48958E-02
        -0.48958E-02
        -0.48958E-02
        -0.48958E-02
        -0.48958E-02
        -0.48958E-02
        -0.48958E-02
        -0.48958E-02
        -0.48958E-02
        -0.48958E-02
        -0.48958E-02
        -0.48958E-02
        -0.48958E-02
        -0.48958E-02
        -0.48958E-02
        -0.48958E-02
        -0.48958E-02
        -0.48958E-02
        -0.48958E-02
        -0.48958E-02
        -0.48958E-02
        -0.48958E-02
        -0.48958E-02
        -0.39167E-02
        -0.39167E-02
        -0.39167E-02
        -0.39167E-02
        -0.39167E-02
        -0.39167E-02
        -0.39167E-02
        -0.39167E-02
        -0.39167E-02
        -0.39167E-02
        -0.39167E-02
        -0.39167E-02
        -0.39167E-02
        -0.39167E-02
        -0.39167E-02
        -0.39167E-02
        -0.39167E-02
        -0.39167E-02
        -0.39167E-02
        -0.39167E-02
        -0.39167E-02
        -0.39167E-02
        -0.39167E-02
        -0.39167E-02
        -0.39167E-02
        -0.39167E-02
        -0.39167E-02
        -0.39167E-02
        -0.39167E-02
        -0.39167E-02
        -0.39167E-02
        -0.39167E-02
        -0.39167E-02
        -0.39167E-02
        -0.39167E-02
        -0.39167E-02
        -0.39167E-02
        -0.39167E-02
        -0.39167E-02
        -0.39167E-02
        -0.39167E-02
        -0.39167E-02
        -0.39167E-02
        -0.39167E-02
        -0.39167E-02
        -0.39167E-02
        -0.39167E-02
        -0.39167E-02
        -0.39167E-02
        -0.39167E-02
        -0.39167E-02
        -0.39167E-02
        -0.39167E-02
        -0.39167E-02
        -0.39167E-02
        -0.39167E-02
        -0.39167E-02
        -0.39167E-02
        -0.39167E-02
        -0.39167E-02
        -0.39167E-02
        -0.39167E-02
        -0.39167E-02
        -0.39167E-02
        -0.39167E-02
        -0.39167E-02
        -0.39167E-02
        -0.39167E-02
        -0.39167E-02
        -0.39167E-02
        -0.39167E-02
        -0.39167E-02
        -0.39167E-02
        -0.39167E-02
        -0.39167E-02
        -0.39167E-02
        -0.39167E-02
        -0.39167E-02
        -0.29375E-02
        -0.29375E-02
        -0.29375E-02
        -0.29375E-02
        -0.29375E-02
        -0.29375E-02
        -0.29375E-02
        -0.29375E-02
        -0.29375E-02
        -0.29375E-02
        -0.29375E-02
        -0.29375E-02
        -0.29375E-02
        -0.29375E-02
        -0.29375E-02
        -0.29375E-02
        -0.29375E-02
        -0.29375E-02
        -0.29375E-02
        -0.29375E-02
        -0.29375E-02
        -0.29375E-02
        -0.29375E-02
        -0.29375E-02
        -0.29375E-02
        -0.29375E-02
        -0.29375E-02
        -0.29375E-02
        -0.29375E-02
        -0.29375E-02
        -0.29375E-02
        -0.29375E-02
        -0.29375E-02
        -0.29375E-02
        -0.29375E-02
        -0.29375E-02
        -0.29375E-02
        -0.29375E-02
        -0.29375E-02
        -0.29375E-02
        -0.29375E-02
        -0.29375E-02
        -0.29375E-02
        -0.29375E-02
        -0.29375E-02
        -0.29375E-02
        -0.29375E-02
        -0.29375E-02
        -0.29375E-02
        -0.29375E-02
        -0.29375E-02
        -0.29375E-02
        -0.29375E-02
        -0.29375E-02
        -0.29375E-02
        -0.29375E-02
        -0.29375E-02
        -0.29375E-02
        -0.29375E-02
        -0.29375E-02
        -0.29375E-02
        -0.29375E-02
        -0.29375E-02
        -0.29375E-02
        -0.29375E-02
        -0.29375E-02
        -0.29375E-02
        -0.29375E-02
        -0.29375E-02
        -0.29375E-02
        -0.29375E-02
        -0.29375E-02
        -0.29375E-02
        -0.29375E-02
        -0.29375E-02
        -0.29375E-02
        -0.29375E-02
        -0.29375E-02
        -0.19583E-02
        -0.19583E-02
        -0.19583E-02
        -0.19583E-02
        -0.19583E-02
        -0.19583E-02
        -0.19583E-02
        -0.19583E-02
        -0.19583E-02
        -0.19583E-02
        -0.19583E-02
        -0.19583E-02
        -0.19583E-02
        -0.19583E-02
        -0.19583E-02
        -0.19583E-02
        -0.19583E-02
        -0.19583E-02
        -0.19583E-02
        -0.19583E-02
        -0.19583E-02
        -0.19583E-02
        -0.19583E-02
        -0.19583E-02
        -0.19583E-02
        -0.19583E-02
        -0.19583E-02
        -0.19583E-02
        -0.19583E-02
        -0.19583E-02
        -0.19583E-02
        -0.19583E-02
        -0.19583E-02
        -0.19583E-02
        -0.19583E-02
        -0.19583E-02
        -0.19583E-02
        -0.19583E-02
        -0.19583E-02
        -0.19583E-02
        -0.19583E-02
        -0.19583E-02
        -0.19583E-02
        -0.19583E-02
        -0.19583E-02
        -0.19583E-02
        -0.19583E-02
        -0.19583E-02
        -0.19583E-02
        -0.19583E-02
        -0.19583E-02
        -0.19583E-02
        -0.19583E-02
        -0.19583E-02
        -0.19583E-02
        -0.19583E-02
        -0.19583E-02
        -0.19583E-02
        -0.19583E-02
        -0.19583E-02
        -0.19583E-02
        -0.19583E-02
        -0.19583E-02
        -0.19583E-02
        -0.19583E-02
        -0.19583E-02
        -0.19583E-02
        -0.19583E-02
        -0.19583E-02
        -0.19583E-02
        -0.19583E-02
        -0.19583E-02
        -0.19583E-02
        -0.19583E-02
        -0.19583E-02
        -0.19583E-02
        -0.19583E-02
        -0.19583E-02
        -0.97917E-03
        -0.97917E-03
        -0.97917E-03
        -0.97917E-03
        -0.97917E-03
        -0.97917E-03
        -0.97917E-03
        -0.97917E-03
        -0.97917E-03
        -0.97917E-03
        -0.97917E-03
        -0.97917E-03
        -0.97917E-03
        -0.97917E-03
        -0.97917E-03
        -0.97917E-03
        -0.97917E-03
        -0.97917E-03
        -0.97917E-03
        -0.97917E-03
        -0.97917E-03
        -0.97917E-03
        -0.97917E-03
        -0.97917E-03
        -0.97917E-03
        -0.97917E-03
        -0.97917E-03
        -0.97917E-03
        -0.97917E-03
        -0.97917E-03
        -0.97917E-03
        -0.97917E-03
        -0.97917E-03
        -0.97917E-03
        -0.97917E-03
        -0.97917E-03
        -0.97917E-03
        -0.97917E-03
        -0.97917E-03
        -0.97917E-03
        -0.97917E-03
        -0.97917E-03
        -0.97917E-03
        -0.97917E-03
        -0.97917E-03
        -0.97917E-03
        -0.97917E-03
        -0.97917E-03
        -0.97917E-03
        -0.97917E-03
        -0.97917E-03
        -0.97917E-03
        -0.97917E-03
        -0.97917E-03
        -0.97917E-03
        -0.97917E-03
        -0.97917E-03
        -0.97917E-03
        -0.97917E-03
        -0.97917E-03
        -0.97917E-03
        -0.97917E-03
        -0.97917E-03
        -0.97917E-03
        -0.97917E-03
        -0.97917E-03
        -0.97917E-03
        -0.97917E-03
        -0.97917E-03
        -0.97917E-03
        -0.97917E-03
        -0.97917E-03
        -0.97917E-03
        -0.97917E-03
        -0.97917E-03
        -0.97917E-03
        -0.97917E-03
        -0.97917E-03
         0.38917E-18
         0.44621E-18
         0.34485E-18
         0.23671E-18
         0.26613E-18
         0.16162E-18
         0.53980E-18
         0.50579E-18
         0.36337E-18
         0.48798E-18
         0.60712E-18
         0.67611E-18
         0.60634E-18
         0.60658E-18
         0.70997E-18
         0.20892E-18
         0.35894E-18
         0.21887E-18
         0.27638E-18
         0.38382E-18
         0.29058E-18
         0.40326E-18
         0.18564E-18
         0.19650E-18
         0.48570E-18
         0.12837E-18
         0.60589E-18
         0.60416E-18
         0.60524E-18
         0.49621E-18
         0.61582E-19
         0.32255E-19
         0.73874E-19
         0.78478E-19
         0.34514E-18
         0.42054E-18
         0.51644E-18
         0.72521E-18
         0.72233E-18
         0.70722E-18
         0.69126E-18
         0.61573E-18
         0.51484E-18
         0.91170E-19
         0.30347E-20
        -0.66516E-19
        -0.69988E-19
        -0.68643E-19
        -0.59779E-19
        -0.43507E-19
        -0.29471E-19
         0.53205E-19
         0.86819E-18
         0.00000E+00
         0.86819E-18
         0.86819E-18
         0.00000E+00
         0.00000E+00
         0.00000E+00
         0.17364E-17
         0.17364E-17
         0.17364E-17
         0.43410E-18
         0.43410E-18
         0.43410E-18
         0.00000E+00
         0.00000E+00
         0.00000E+00
         0.00000E+00
         0.00000E+00
         0.21705E-18
        -0.21705E-18
         0.00000E+00
         0.00000E+00
         0.00000E+00
        -0.32557E-18
         0.54262E-19
        -0.40697E-18
         0.97917E-03
         0.97917E-03
         0.97917E-03
         0.97917E-03
         0.97917E-03
         0.97917E-03
         0.97917E-03
         0.97917E-03
         0.97917E-03
         0.97917E-03
         0.97917E-03
         0.97917E-03
         0.97917E-03
         0.97917E-03
         0.97917E-03
         0.97917E-03
         0.97917E-03
         0.97917E-03
         0.97917E-03
         0.97917E-03
         0.97917E-03
         0.97917E-03
         0.97917E-03
         0.97917E-03
         0.97917E-03
         0.97917E-03
         0.97917E-03
         0.97917E-03
         0.97917E-03
         0.97917E-03
         0.97917E-03
         0.97917E-03
         0.97917E-03
         0.97917E-03
         0.97917E-03
         0.97917E-03
         0.97917E-03
         0.97917E-03
         0.97917E-03
         0.97917E-03
         0.97917E-03
         0.97917E-03
         0.97917E-03
         0.97917E-03
         0.97917E-03
         0.97917E-03
         0.97917E-03
         0.97917E-03
         0.97917E-03
         0.97917E-03
         0.97917E-03
         0.97917E-03
         0.97917E-03
         0.97917E-03
         0.97917E-03
         0.97917E-03
         0.97917E-03
         0.97917E-03
         0.97917E-03
         0.97917E-03
         0.97917E-03
         0.97917E-03
         0.97917E-03
         0.97917E-03
         0.97917E-03
         0.97917E-03
         0.97917E-03
         0.97917E-03
         0.97917E-03
         0.97917E-03
         0.97917E-03
         0.97917E-03
         0.97917E-03
         0.97917E-03
         0.97917E-03
         0.97917E-03
         0.97917E-03
         0.97917E-03
         0.19583E-02
         0.19583E-02
         0.19583E-02
         0.19583E-02
         0.19583E-02
         0.19583E-02
         0.19583E-02
         0.19583E-02
         0.19583E-02
         0.19583E-02
         0.19583E-02
         0.19583E-02
         0.19583E-02
         0.19583E-02
         0.19583E-02
         0.19583E-02
         0.19583E-02
         0.19583E-02
         0.19583E-02
         0.19583E-02
         0.19583E-02
         0.19583E-02
         0.19583E-02
         0.19583E-02
         0.19583E-02
         0.19583E-02
         0.19583E-02
         0.19583E-02
         0.19583E-02
         0.19583E-02
         0.19583E-02
         0.19583E-02
         0.19583E-02
         0.19583E-02
         0.19583E-02
         0.19583E-02
         0.19583E-02
         0.19583E-02
         0.19583E-02
         0.19583E-02
         0.19583E-02
         0.19583E-02
         0.19583E-02
         0.19583E-02
         0.19583E-02
         0.19583E-02
         0.19583E-02
         0.19583E-02
         0.19583E-02
         0.19583E-02
         0.19583E-02
         0.19583E-02
         0.19583E-02
         0.19583E-02
         0.19583E-02
         0.19583E-02
         0.19583E-02
         0.19583E-02
         0.19583E-02
         0.19583E-02
         0.19583E-02
         0.19583E-02
         0.19583E-02
         0.19583E-02
         0.19583E-02
         0.19583E-02
         0.19583E-02
         0.19583E-02
         0.19583E-02
         0.19583E-02
         0.19583E-02
         0.19583E-02
         0.19583E-02
         0.19583E-02
         0.19583E-02
         0.19583E-02
         0.19583E-02
         0.19583E-02
         0.29375E-02
         0.29375E-02
         0.29375E-02
         0.29375E-02
         0.29375E-02
         0.29375E-02
         0.29375E-02
         0.29375E-02
         0.29375E-02
         0.29375E-02
         0.29375E-02
         0.29375E-02
         0.29375E-02
         0.29375E-02
         0.29375E-02
         0.29375E-02
         0.29375E-02
         0.29375E-02
         0.29375E-02
         0.29375E-02
         0.29375E-02
         0.29375E-02
         0.29375E-02
         0.29375E-02
         0.29375E-02
         0.29375E-02
         0.29375E-02
         0.29375E-02
         0.29375E-02
         0.29375E-02
         0.29375E-02
         0.29375E-02
         0.29375E-02
         0.29375E-02
         0.29375E-02
         0.29375E-02
         0.29375E-02
         0.29375E-02
         0.29375E-02
         0.29375E-02
         0.29375E-02
         0.29375E-02
         0.29375E-02
         0.29375E-02
         0.29375E-02
         0.29375E-02
         0.29375E-02
         0.29375E-02
         0.29375E-02
         0.29375E-02
         0.29375E-02
         0.29375E-02
         0.29375E-02
         0.29375E-02
         0.29375E-02
         0.29375E-02
         0.29375E-02
         0.29375E-02
         0.29375E-02
         0.29375E-02
         0.29375E-02
         0.29375E-02
         0.29375E-02
         0.29375E-02
         0.29375E-02
         0.29375E-02
         0.29375E-02
         0.29375E-02
         0.29375E-02
         0.29375E-02
         0.29375E-02
         0.29375E-02
         0.29375E-02
         0.29375E-02
         0.29375E-02
         0.29375E-02
         0.29375E-02
         0.29375E-02
         0.39167E-02
         0.39167E-02
         0.39167E-02
         0.39167E-02
         0.39167E-02
         0.39167E-02
         0.39167E-02
         0.39167E-02
         0.39167E-02
         0.39167E-02
         0.39167E-02
         0.39167E-02
         0.39167E-02
         0.39167E-02
         0.39167E-02
         0.39167E-02
         0.39167E-02
         0.39167E-02
         0.39167E-02
         0.39167E-02
         0.39167E-02
         0.39167E-02
         0.39167E-02
         0.39167E-02
         0.39167E-02
         0.39167E-02
         0.39167E-02
         0.39167E-02
         0.39167E-02
         0.39167E-02
         0.39167E-02
         0.39167E-02
         0.39167E-02
         0.39167E-02
         0.39167E-02
         0.39167E-02
         0.39167E-02
         0.39167E-02
         0.39167E-02
         0.39167E-02
         0.39167E-02
         0.39167E-02
         0.39167E-02
         0.39167E-02
         0.39167E-02
         0.39167E-02
         0.39167E-02
         0.39167E-02
         0.39167E-02
         0.39167E-02
         0.39167E-02
         0.39167E-02
         0.39167E-02
         0.39167E-02
         0.39167E-02
         0.39167E-02
         0.39167E-02
         0.39167E-02
         0.39167E-02
         0.39167E-02
         0.39167E-02
         0.39167E-02
         0.39167E-02
         0.39167E-02
         0.39167E-02
         0.39167E-02
         0.39167E-02
         0.39167E-02
         0.39167E-02
         0.39167E-02
         0.39167E-02
         0.39167E-02
         0.39167E-02
         0.39167E-02
         0.39167E-02
         0.39167E-02
         0.39167E-02
         0.39167E-02
         0.48958E-02
         0.48958E-02
         0.48958E-02
         0.48958E-02
         0.48958E-02
         0.48958E-02
         0.48958E-02
         0.48958E-02
         0.48958E-02
         0.48958E-02
         0.48958E-02
         0.48958E-02
         0.48958E-02
         0.48958E-02
         0.48958E-02
         0.48958E-02
         0.48958E-02
         0.48958E-02
         0.48958E-02
         0.48958E-02
         0.48958E-02
         0.48958E-02
         0.48958E-02
         0.48958E-02
         0.48958E-02
         0.48958E-02
         0.48958E-02
         0.48958E-02
         0.48958E-02
         0.48958E-02
         0.48958E-02
         0.48958E-02
         0.48958E-02
         0.48958E-02
         0.48958E-02
         0.48958E-02
         0.48958E-02
         0.48958E-02
         0.48958E-02
         0.48958E-02
         0.48958E-02
         0.48958E-02
         0.48958E-02
         0.48958E-02
         0.48958E-02
         0.48958E-02
         0.48958E-02
         0.48958E-02
         0.48958E-02
         0.48958E-02
         0.48958E-02
         0.48958E-02
         0.48958E-02
         0.48958E-02
         0.48958E-02
         0.48958E-02
         0.48958E-02
         0.48958E-02
         0.48958E-02
         0.48958E-02
         0.48958E-02
         0.48958E-02
         0.48958E-02
         0.48958E-02
         0.48958E-02
         0.48958E-02
         0.48958E-02
         0.48958E-02
         0.48958E-02
         0.48958E-02
         0.48958E-02
         0.48958E-02
         0.48958E-02
         0.48958E-02
         0.48958E-02
         0.48958E-02
         0.48958E-02
         0.48958E-02
         0.58750E-02
         0.58750E-02
         0.58750E-02
         0.58750E-02
         0.58750E-02
         0.58750E-02
         0.58750E-02
         0.58750E-02
         0.58750E-02
         0.58750E-02
         0.58750E-02
         0.58750E-02
         0.58750E-02
         0.58750E-02
         0.58750E-02
         0.58750E-02
         0.58750E-02
         0.58750E-02
         0.58750E-02
         0.58750E-02
         0.58750E-02
         0.58750E-02
         0.58750E-02
         0.58750E-02
         0.58750E-02
         0.58750E-02
         0.58750E-02
         0.58750E-02
         0.58750E-02
         0.58750E-02
         0.58750E-02
         0.58750E-02
         0.58750E-02
         0.58750E-02
         0.58750E-02
         0.58750E-02
         0.58750E-02
         0.58750E-02
         0.58750E-02
         0.58750E-02
         0.58750E-02
         0.58750E-02
         0.58750E-02
         0.58750E-02
         0.58750E-02
         0.58750E-02
         0.58750E-02
         0.58750E-02
         0.58750E-02
         0.58750E-02
         0.58750E-02
         0.58750E-02
         0.58750E-02
         0.58750E-02
         0.58750E-02
         0.58750E-02
         0.58750E-02
         0.58750E-02
         0.58750E-02
         0.58750E-02
         0.58750E-02
         0.58750E-02
         0.58750E-02
         0.58750E-02
         0.58750E-02
         0.58750E-02
         0.58750E-02
         0.58750E-02
         0.58750E-02
         0.58750E-02
         0.58750E-02
         0.58750E-02
         0.58750E-02
         0.58750E-02
         0.58750E-02
         0.58750E-02
         0.58750E-02
         0.58750E-02
         0.68542E-02
         0.68542E-02
         0.68542E-02
         0.68542E-02
         0.68542E-02
         0.68542E-02
         0.68542E-02
         0.68542E-02
         0.68542E-02
         0.68542E-02
         0.68542E-02
         0.68542E-02
         0.68542E-02
         0.68542E-02
         0.68542E-02
         0.68542E-02
         0.68542E-02
         0.68542E-02
         0.68542E-02
         0.68542E-02
         0.68542E-02
         0.68542E-02
         0.68542E-02
         0.68542E-02
         0.68542E-02
         0.68542E-02
         0.68542E-02
         0.68542E-02
         0.68542E-02
         0.68542E-02
         0.68542E-02
         0.68542E-02
         0.68542E-02
         0.68542E-02
         0.68542E-02
         0.68542E-02
         0.68542E-02
         0.68542E-02
         0.68542E-02
         0.68542E-02
         0.68542E-02
         0.68542E-02
         0.68542E-02
         0.68542E-02
         0.68542E-02
         0.68542E-02
         0.68542E-02
         0.68542E-02
         0.68542E-02
         0.68542E-02
         0.68542E-02
         0.68542E-02
         0.68542E-02
         0.68542E-02
         0.68542E-02
         0.68542E-02
         0.68542E-02
         0.68542E-02
         0.68542E-02
         0.68542E-02
         0.68542E-02
         0.68542E-02
         0.68542E-02
         0.68542E-02
         0.68542E-02
         0.68542E-02
         0.68542E-02
         0.68542E-02
         0.68542E-02
         0.68542E-02
         0.68542E-02
         0.68542E-02
         0.68542E-02
         0.68542E-02
         0.68542E-02
         0.68542E-02
         0.68542E-02
         0.68542E-02
         0.78333E-02
         0.78333E-02
         0.78333E-02
         0.78333E-02
         0.78333E-02
         0.78333E-02
         0.78333E-02
         0.78333E-02
         0.78333E-02
         0.78333E-02
         0.78333E-02
         0.78333E-02
         0.78333E-02
         0.78333E-02
         0.78333E-02
         0.78333E-02
         0.78333E-02
         0.78333E-02
         0.78333E-02
         0.78333E-02
         0.78333E-02
         0.78333E-02
         0.78333E-02
         0.78333E-02
         0.78333E-02
         0.78333E-02
         0.78333E-02
         0.78333E-02
         0.78333E-02
         0.78333E-02
         0.78333E-02
         0.78333E-02
         0.78333E-02
         0.78333E-02
         0.78333E-02
         0.78333E-02
         0.78333E-02
         0.78333E-02
         0.78333E-02
         0.78333E-02
         0.78333E-02
         0.78333E-02
         0.78333E-02
         0.78333E-02
         0.78333E-02
         0.78333E-02
         0.78333E-02
         0.78333E-02
         0.78333E-02
         0.78333E-02
         0.78333E-02
         0.78333E-02
         0.78333E-02
         0.78333E-02
         0.78333E-02
         0.78333E-02
         0.78333E-02
         0.78333E-02
         0.78333E-02
         0.78333E-02
         0.78333E-02
         0.78333E-02
         0.78333E-02
         0.78333E-02
         0.78333E-02
         0.78333E-02
         0.78333E-02
         0.78333E-02
         0.78333E-02
         0.78333E-02
         0.78333E-02
         0.78333E-02
         0.78333E-02
         0.78333E-02
         0.78333E-02
         0.78333E-02
         0.78333E-02
         0.78333E-02
         0.88125E-02
         0.88125E-02
         0.88125E-02
         0.88125E-02
         0.88125E-02
         0.88125E-02
         0.88125E-02
         0.88125E-02
         0.88125E-02
         0.88125E-02
         0.88125E-02
         0.88125E-02
         0.88125E-02
         0.88125E-02
         0.88125E-02
         0.88125E-02
         0.88125E-02
         0.88125E-02
         0.88125E-02
         0.88125E-02
         0.88125E-02
         0.88125E-02
         0.88125E-02
         0.88125E-02
         0.88125E-02
         0.88125E-02
         0.88125E-02
         0.88125E-02
         0.88125E-02
         0.88125E-02
         0.88125E-02
         0.88125E-02
         0.88125E-02
         0.88125E-02
         0.88125E-02
         0.88125E-02
         0.88125E-02
         0.88125E-02
         0.88125E-02
         0.88125E-02
         0.88125E-02
         0.88125E-02
         0.88125E-02
         0.88125E-02
         0.88125E-02
         0.88125E-02
         0.88125E-02
         0.88125E-02
         0.88125E-02
         0.88125E-02
         0.88125E-02
         0.88125E-02
         0.88125E-02
         0.88125E-02
         0.88125E-02
         0.88125E-02
         0.88125E-02
         0.88125E-02
         0.88125E-02
         0.88125E-02
         0.88125E-02
         0.88125E-02
         0.88125E-02
         0.88125E-02
         0.88125E-02
         0.88125E-02
         0.88125E-02
         0.88125E-02
         0.88125E-02
         0.88125E-02
         0.88125E-02
         0.88125E-02
         0.88125E-02
         0.88125E-02
         0.88125E-02
         0.88125E-02
         0.88125E-02
         0.88125E-02
         0.97917E-02
         0.97917E-02
         0.97917E-02
         0.97917E-02
         0.97917E-02
         0.97917E-02
         0.97917E-02
         0.97917E-02
         0.97917E-02
         0.97917E-02
         0.97917E-02
         0.97917E-02
         0.97917E-02
         0.97917E-02
         0.97917E-02
         0.97917E-02
         0.97917E-02
         0.97917E-02
         0.97917E-02
         0.97917E-02
         0.97917E-02
         0.97917E-02
         0.97917E-02
         0.97917E-02
         0.97917E-02
         0.97917E-02
         0.97917E-02
         0.97917E-02
         0.97917E-02
         0.97917E-02
         0.97917E-02
         0.97917E-02
         0.97917E-02
         0.97917E-02
         0.97917E-02
         0.97917E-02
         0.97917E-02
         0.97917E-02
         0.97917E-02
         0.97917E-02
         0.97917E-02
         0.97917E-02
         0.97917E-02
         0.97917E-02
         0.97917E-02
         0.97917E-02
         0.97917E-02
         0.97917E-02
         0.97917E-02
         0.97917E-02
         0.97917E-02
         0.97917E-02
         0.97917E-02
         0.97917E-02
         0.97917E-02
         0.97917E-02
         0.97917E-02
         0.97917E-02
         0.97917E-02
         0.97917E-02
         0.97917E-02
         0.97917E-02
         0.97917E-02
         0.97917E-02
         0.97917E-02
         0.97917E-02
         0.97917E-02
         0.97917E-02
         0.97917E-02
         0.97917E-02
         0.97917E-02
         0.97917E-02
         0.97917E-02
         0.97917E-02
         0.97917E-02
         0.97917E-02
         0.97917E-02
         0.97917E-02
         0.10771E-01
         0.10771E-01
         0.10771E-01
         0.10771E-01
         0.10771E-01
         0.10771E-01
         0.10771E-01
         0.10771E-01
         0.10771E-01
         0.10771E-01
         0.10771E-01
         0.10771E-01
         0.10771E-01
         0.10771E-01
         0.10771E-01
         0.10771E-01
         0.10771E-01
         0.10771E-01
         0.10771E-01
         0.10771E-01
         0.10771E-01
         0.10771E-01
         0.10771E-01
         0.10771E-01
         0.10771E-01
         0.10771E-01
         0.10771E-01
         0.10771E-01
         0.10771E-01
         0.10771E-01
         0.10771E-01
         0.10771E-01
         0.10771E-01
         0.10771E-01
         0.10771E-01
         0.10771E-01
         0.10771E-01
         0.10771E-01
         0.10771E-01
         0.10771E-01
         0.10771E-01
         0.10771E-01
         0.10771E-01
         0.10771E-01
         0.10771E-01
         0.10771E-01
         0.10771E-01
         0.10771E-01
         0.10771E-01
         0.10771E-01
         0.10771E-01
         0.10771E-01
         0.10771E-01
         0.10771E-01
         0.10771E-01
         0.10771E-01
         0.10771E-01
         0.10771E-01
         0.10771E-01
         0.10771E-01
         0.10771E-01
         0.10771E-01
         0.10771E-01
         0.10771E-01
         0.10771E-01
         0.10771E-01
         0.10771E-01
         0.10771E-01
         0.10771E-01
         0.10771E-01
         0.10771E-01
         0.10771E-01
         0.10771E-01
         0.10771E-01
         0.10771E-01
         0.10771E-01
         0.10771E-01
         0.10771E-01
         0.11750E-01
         0.11750E-01
         0.11750E-01
         0.11750E-01
         0.11750E-01
         0.11750E-01
         0.11750E-01
         0.11750E-01
         0.11750E-01
         0.11750E-01
         0.11750E-01
         0.11750E-01
         0.11750E-01
         0.11750E-01
         0.11750E-01
         0.11750E-01
         0.11750E-01
         0.11750E-01
         0.11750E-01
         0.11750E-01
         0.11750E-01
         0.11750E-01
         0.11750E-01
         0.11750E-01
         0.11750E-01
         0.11750E-01
         0.11750E-01
         0.11750E-01
         0.11750E-01
         0.11750E-01
         0.11750E-01
         0.11750E-01
         0.11750E-01
         0.11750E-01
         0.11750E-01
         0.11750E-01
         0.11750E-01
         0.11750E-01
         0.11750E-01
         0.11750E-01
         0.11750E-01
         0.11750E-01
         0.11750E-01
         0.11750E-01
         0.11750E-01
         0.11750E-01
         0.11750E-01
         0.11750E-01
         0.11750E-01
         0.11750E-01
         0.11750E-01
         0.11750E-01
         0.11750E-01
         0.11750E-01
         0.11750E-01
         0.11750E-01
         0.11750E-01
         0.11750E-01
         0.11750E-01
         0.11750E-01
         0.11750E-01
         0.11750E-01
         0.11750E-01
         0.11750E-01
         0.11750E-01
         0.11750E-01
         0.11750E-01
         0.11750E-01
         0.11750E-01
         0.11750E-01
         0.11750E-01
         0.11750E-01
         0.11750E-01
         0.11750E-01
         0.11750E-01
         0.11750E-01
         0.11750E-01
         0.11750E-01
  
SCALARS                init_velocity_x  double 1
LOOKUP_TABLE default
         0.00000E+00
         0.00000E+00
         0.00000E+00
         0.00000E+00
         0.00000E+00
         0.00000E+00
         0.00000E+00
         0.00000E+00
         0.00000E+00
         0.00000E+00
         0.00000E+00
         0.00000E+00
         0.00000E+00
         0.00000E+00
         0.00000E+00
         0.00000E+00
         0.00000E+00
         0.00000E+00
         0.00000E+00
         0.00000E+00
         0.00000E+00
         0.00000E+00
         0.00000E+00
         0.00000E+00
         0.00000E+00
         0.00000E+00
         0.00000E+00
         0.00000E+00
         0.00000E+00
         0.00000E+00
         0.00000E+00
         0.00000E+00
         0.00000E+00
         0.00000E+00
         0.00000E+00
         0.00000E+00
         0.00000E+00
         0.00000E+00
         0.00000E+00
         0.00000E+00
         0.00000E+00
         0.00000E+00
         0.00000E+00
         0.00000E+00
         0.00000E+00
         0.00000E+00
         0.00000E+00
         0.00000E+00
         0.00000E+00
         0.00000E+00
         0.00000E+00
         0.00000E+00
         0.00000E+00
         0.00000E+00
         0.00000E+00
         0.00000E+00
         0.00000E+00
         0.00000E+00
         0.00000E+00
         0.00000E+00
         0.00000E+00
         0.00000E+00
         0.00000E+00
         0.00000E+00
         0.00000E+00
         0.00000E+00
         0.00000E+00
         0.00000E+00
         0.00000E+00
         0.00000E+00
         0.00000E+00
         0.00000E+00
         0.00000E+00
         0.00000E+00
         0.00000E+00
         0.00000E+00
         0.00000E+00
         0.00000E+00
         0.00000E+00
         0.00000E+00
         0.00000E+00
         0.00000E+00
         0.00000E+00
         0.00000E+00
         0.00000E+00
         0.00000E+00
         0.00000E+00
         0.00000E+00
         0.00000E+00
         0.00000E+00
         0.00000E+00
         0.00000E+00
         0.00000E+00
         0.00000E+00
         0.00000E+00
         0.00000E+00
         0.00000E+00
         0.00000E+00
         0.00000E+00
         0.00000E+00
         0.00000E+00
         0.00000E+00
         0.00000E+00
         0.00000E+00
         0.00000E+00
         0.00000E+00
         0.00000E+00
         0.00000E+00
         0.00000E+00
         0.00000E+00
         0.00000E+00
         0.00000E+00
         0.00000E+00
         0.00000E+00
         0.00000E+00
         0.00000E+00
         0.00000E+00
         0.00000E+00
         0.00000E+00
         0.00000E+00
         0.00000E+00
         0.00000E+00
         0.00000E+00
         0.00000E+00
         0.00000E+00
         0.00000E+00
         0.00000E+00
         0.00000E+00
         0.00000E+00
         0.00000E+00
         0.00000E+00
         0.00000E+00
         0.00000E+00
         0.00000E+00
         0.00000E+00
         0.00000E+00
         0.00000E+00
         0.00000E+00
         0.00000E+00
         0.00000E+00
         0.00000E+00
         0.00000E+00
         0.00000E+00
         0.00000E+00
         0.00000E+00
         0.00000E+00
         0.00000E+00
         0.00000E+00
         0.00000E+00
         0.00000E+00
         0.00000E+00
         0.00000E+00
         0.00000E+00
         0.00000E+00
         0.00000E+00
         0.00000E+00
         0.00000E+00
         0.00000E+00
         0.00000E+00
         0.00000E+00
         0.00000E+00
         0.00000E+00
         0.00000E+00
         0.00000E+00
         0.00000E+00
         0.00000E+00
         0.00000E+00
         0.00000E+00
         0.00000E+00
         0.00000E+00
         0.00000E+00
         0.00000E+00
         0.00000E+00
         0.00000E+00
         0.00000E+00
         0.00000E+00
         0.00000E+00
         0.00000E+00
         0.00000E+00
         0.00000E+00
         0.00000E+00
         0.00000E+00
         0.00000E+00
         0.00000E+00
         0.00000E+00
         0.00000E+00
         0.00000E+00
         0.00000E+00
         0.00000E+00
         0.00000E+00
         0.00000E+00
         0.00000E+00
         0.00000E+00
         0.00000E+00
         0.00000E+00
         0.00000E+00
         0.00000E+00
         0.00000E+00
         0.00000E+00
         0.00000E+00
         0.00000E+00
         0.00000E+00
         0.00000E+00
         0.00000E+00
         0.00000E+00
         0.00000E+00
         0.00000E+00
         0.00000E+00
         0.00000E+00
         0.00000E+00
         0.00000E+00
         0.00000E+00
         0.00000E+00
         0.00000E+00
         0.00000E+00
         0.00000E+00
         0.00000E+00
         0.00000E+00
         0.00000E+00
         0.00000E+00
         0.00000E+00
         0.00000E+00
         0.00000E+00
         0.00000E+00
         0.00000E+00
         0.00000E+00
         0.00000E+00
         0.00000E+00
         0.00000E+00
         0.00000E+00
         0.00000E+00
         0.00000E+00
         0.00000E+00
         0.00000E+00
         0.00000E+00
         0.00000E+00
         0.00000E+00
         0.00000E+00
         0.00000E+00
         0.00000E+00
         0.00000E+00
         0.00000E+00
         0.00000E+00
         0.00000E+00
         0.00000E+00
         0.00000E+00
         0.00000E+00
         0.00000E+00
         0.00000E+00
         0.00000E+00
         0.00000E+00
         0.00000E+00
         0.00000E+00
         0.00000E+00
         0.00000E+00
         0.00000E+00
         0.00000E+00
         0.00000E+00
         0.00000E+00
         0.00000E+00
         0.00000E+00
         0.00000E+00
         0.00000E+00
         0.00000E+00
         0.00000E+00
         0.00000E+00
         0.00000E+00
         0.00000E+00
         0.00000E+00
         0.00000E+00
         0.00000E+00
         0.00000E+00
         0.00000E+00
         0.00000E+00
         0.00000E+00
         0.00000E+00
         0.00000E+00
         0.00000E+00
         0.00000E+00
         0.00000E+00
         0.00000E+00
         0.00000E+00
         0.00000E+00
         0.00000E+00
         0.00000E+00
         0.00000E+00
         0.00000E+00
         0.00000E+00
         0.00000E+00
         0.00000E+00
         0.00000E+00
         0.00000E+00
         0.00000E+00
         0.00000E+00
         0.00000E+00
         0.00000E+00
         0.00000E+00
         0.00000E+00
         0.00000E+00
         0.00000E+00
         0.00000E+00
         0.00000E+00
         0.00000E+00
         0.00000E+00
         0.00000E+00
         0.00000E+00
         0.00000E+00
         0.00000E+00
         0.00000E+00
         0.00000E+00
         0.00000E+00
         0.00000E+00
         0.00000E+00
         0.00000E+00
         0.00000E+00
         0.00000E+00
         0.00000E+00
         0.00000E+00
         0.00000E+00
         0.00000E+00
         0.00000E+00
         0.00000E+00
         0.00000E+00
         0.00000E+00
         0.00000E+00
         0.00000E+00
         0.00000E+00
         0.00000E+00
         0.00000E+00
         0.00000E+00
         0.00000E+00
         0.00000E+00
         0.00000E+00
         0.00000E+00
         0.00000E+00
         0.00000E+00
         0.00000E+00
         0.00000E+00
         0.00000E+00
         0.00000E+00
         0.00000E+00
         0.00000E+00
         0.00000E+00
         0.00000E+00
         0.00000E+00
         0.00000E+00
         0.00000E+00
         0.00000E+00
         0.00000E+00
         0.00000E+00
         0.00000E+00
         0.00000E+00
         0.00000E+00
         0.00000E+00
         0.00000E+00
         0.00000E+00
         0.00000E+00
         0.00000E+00
         0.00000E+00
         0.00000E+00
         0.00000E+00
         0.00000E+00
         0.00000E+00
         0.00000E+00
         0.00000E+00
         0.00000E+00
         0.00000E+00
         0.00000E+00
         0.00000E+00
         0.00000E+00
         0.00000E+00
         0.00000E+00
         0.00000E+00
         0.00000E+00
         0.00000E+00
         0.00000E+00
         0.00000E+00
         0.00000E+00
         0.00000E+00
         0.00000E+00
         0.00000E+00
         0.00000E+00
         0.00000E+00
         0.00000E+00
         0.00000E+00
         0.00000E+00
         0.00000E+00
         0.00000E+00
         0.00000E+00
         0.00000E+00
         0.00000E+00
         0.00000E+00
         0.00000E+00
         0.00000E+00
         0.00000E+00
         0.00000E+00
         0.00000E+00
         0.00000E+00
         0.00000E+00
         0.00000E+00
         0.00000E+00
         0.00000E+00
         0.00000E+00
         0.00000E+00
         0.00000E+00
         0.00000E+00
         0.00000E+00
         0.00000E+00
         0.00000E+00
         0.00000E+00
         0.00000E+00
         0.00000E+00
         0.00000E+00
         0.00000E+00
         0.00000E+00
         0.00000E+00
         0.00000E+00
         0.00000E+00
         0.00000E+00
         0.00000E+00
         0.00000E+00
         0.00000E+00
         0.00000E+00
         0.00000E+00
         0.00000E+00
         0.00000E+00
         0.00000E+00
         0.00000E+00
         0.00000E+00
         0.00000E+00
         0.00000E+00
         0.00000E+00
         0.00000E+00
         0.00000E+00
         0.00000E+00
         0.00000E+00
         0.00000E+00
         0.00000E+00
         0.00000E+00
         0.00000E+00
         0.00000E+00
         0.00000E+00
         0.00000E+00
         0.00000E+00
         0.00000E+00
         0.00000E+00
         0.00000E+00
         0.00000E+00
         0.00000E+00
         0.00000E+00
         0.00000E+00
         0.00000E+00
         0.00000E+00
         0.00000E+00
         0.00000E+00
         0.00000E+00
         0.00000E+00
         0.00000E+00
         0.00000E+00
         0.00000E+00
         0.00000E+00
         0.00000E+00
         0.00000E+00
         0.00000E+00
         0.00000E+00
         0.00000E+00
         0.00000E+00
         0.00000E+00
         0.00000E+00
         0.00000E+00
         0.00000E+00
         0.00000E+00
         0.00000E+00
         0.00000E+00
         0.00000E+00
         0.00000E+00
         0.00000E+00
         0.00000E+00
         0.00000E+00
         0.00000E+00
         0.00000E+00
         0.00000E+00
         0.00000E+00
         0.00000E+00
         0.00000E+00
         0.00000E+00
         0.00000E+00
         0.00000E+00
         0.00000E+00
         0.00000E+00
         0.00000E+00
         0.00000E+00
         0.00000E+00
         0.00000E+00
         0.00000E+00
         0.00000E+00
         0.00000E+00
         0.00000E+00
         0.00000E+00
         0.00000E+00
         0.00000E+00
         0.00000E+00
         0.00000E+00
         0.00000E+00
         0.00000E+00
         0.00000E+00
         0.00000E+00
         0.00000E+00
         0.00000E+00
         0.00000E+00
         0.00000E+00
         0.00000E+00
         0.00000E+00
         0.00000E+00
         0.00000E+00
         0.00000E+00
         0.00000E+00
         0.00000E+00
         0.00000E+00
         0.00000E+00
         0.00000E+00
         0.00000E+00
         0.00000E+00
         0.00000E+00
         0.00000E+00
         0.00000E+00
         0.00000E+00
         0.00000E+00
         0.00000E+00
         0.00000E+00
         0.00000E+00
         0.00000E+00
         0.00000E+00
         0.00000E+00
         0.00000E+00
         0.00000E+00
         0.00000E+00
         0.00000E+00
         0.00000E+00
         0.00000E+00
         0.00000E+00
         0.00000E+00
         0.00000E+00
         0.00000E+00
         0.00000E+00
         0.00000E+00
         0.00000E+00
         0.00000E+00
         0.00000E+00
         0.00000E+00
         0.00000E+00
         0.00000E+00
         0.00000E+00
         0.00000E+00
         0.00000E+00
         0.00000E+00
         0.00000E+00
         0.00000E+00
         0.00000E+00
         0.00000E+00
         0.00000E+00
         0.00000E+00
         0.00000E+00
         0.00000E+00
         0.00000E+00
         0.00000E+00
         0.00000E+00
         0.00000E+00
         0.00000E+00
         0.00000E+00
         0.00000E+00
         0.00000E+00
         0.00000E+00
         0.00000E+00
         0.00000E+00
         0.00000E+00
         0.00000E+00
         0.00000E+00
         0.00000E+00
         0.00000E+00
         0.00000E+00
         0.00000E+00
         0.00000E+00
         0.00000E+00
         0.00000E+00
         0.00000E+00
         0.00000E+00
         0.00000E+00
         0.00000E+00
         0.00000E+00
         0.00000E+00
         0.00000E+00
         0.00000E+00
         0.00000E+00
         0.00000E+00
         0.00000E+00
         0.00000E+00
         0.00000E+00
         0.00000E+00
         0.00000E+00
         0.00000E+00
         0.00000E+00
         0.00000E+00
         0.00000E+00
         0.00000E+00
         0.00000E+00
         0.00000E+00
         0.00000E+00
         0.00000E+00
         0.00000E+00
         0.00000E+00
         0.00000E+00
         0.00000E+00
         0.00000E+00
         0.00000E+00
         0.00000E+00
         0.00000E+00
         0.00000E+00
         0.00000E+00
         0.00000E+00
         0.00000E+00
         0.00000E+00
         0.00000E+00
         0.00000E+00
         0.00000E+00
         0.00000E+00
         0.00000E+00
         0.00000E+00
         0.00000E+00
         0.00000E+00
         0.00000E+00
         0.00000E+00
         0.00000E+00
         0.00000E+00
         0.00000E+00
         0.00000E+00
         0.00000E+00
         0.00000E+00
         0.00000E+00
         0.00000E+00
         0.00000E+00
         0.00000E+00
         0.00000E+00
         0.00000E+00
         0.00000E+00
         0.00000E+00
         0.00000E+00
         0.00000E+00
         0.00000E+00
         0.00000E+00
         0.00000E+00
         0.00000E+00
         0.00000E+00
         0.00000E+00
         0.00000E+00
         0.00000E+00
         0.00000E+00
         0.00000E+00
         0.00000E+00
         0.00000E+00
         0.00000E+00
         0.00000E+00
         0.00000E+00
         0.00000E+00
         0.00000E+00
         0.00000E+00
         0.00000E+00
         0.00000E+00
         0.00000E+00
         0.00000E+00
         0.00000E+00
         0.00000E+00
         0.00000E+00
         0.00000E+00
         0.00000E+00
         0.00000E+00
         0.00000E+00
         0.00000E+00
         0.00000E+00
         0.00000E+00
         0.00000E+00
         0.00000E+00
         0.00000E+00
         0.00000E+00
         0.00000E+00
         0.00000E+00
         0.00000E+00
         0.00000E+00
         0.00000E+00
         0.00000E+00
         0.00000E+00
         0.00000E+00
         0.00000E+00
         0.00000E+00
         0.00000E+00
         0.00000E+00
         0.00000E+00
         0.00000E+00
         0.00000E+00
         0.00000E+00
         0.00000E+00
         0.00000E+00
         0.00000E+00
         0.00000E+00
         0.00000E+00
         0.00000E+00
         0.00000E+00
         0.00000E+00
         0.00000E+00
         0.00000E+00
         0.00000E+00
         0.00000E+00
         0.00000E+00
         0.00000E+00
         0.00000E+00
         0.00000E+00
         0.00000E+00
         0.00000E+00
         0.00000E+00
         0.00000E+00
         0.00000E+00
         0.00000E+00
         0.00000E+00
         0.00000E+00
         0.00000E+00
         0.00000E+00
         0.00000E+00
         0.00000E+00
         0.00000E+00
         0.00000E+00
         0.00000E+00
         0.00000E+00
         0.00000E+00
         0.00000E+00
         0.00000E+00
         0.00000E+00
         0.00000E+00
         0.00000E+00
         0.00000E+00
         0.00000E+00
         0.00000E+00
         0.00000E+00
         0.00000E+00
         0.00000E+00
         0.00000E+00
         0.00000E+00
         0.00000E+00
         0.00000E+00
         0.00000E+00
         0.00000E+00
         0.00000E+00
         0.00000E+00
         0.00000E+00
         0.00000E+00
         0.00000E+00
         0.00000E+00
         0.00000E+00
         0.00000E+00
         0.00000E+00
         0.00000E+00
         0.00000E+00
         0.00000E+00
         0.00000E+00
         0.00000E+00
         0.00000E+00
         0.00000E+00
         0.00000E+00
         0.00000E+00
         0.00000E+00
         0.00000E+00
         0.00000E+00
         0.00000E+00
         0.00000E+00
         0.00000E+00
         0.00000E+00
         0.00000E+00
         0.00000E+00
         0.00000E+00
         0.00000E+00
         0.00000E+00
         0.00000E+00
         0.00000E+00
         0.00000E+00
         0.00000E+00
         0.00000E+00
         0.00000E+00
         0.00000E+00
         0.00000E+00
         0.00000E+00
         0.00000E+00
         0.00000E+00
         0.00000E+00
         0.00000E+00
         0.00000E+00
         0.00000E+00
         0.00000E+00
         0.00000E+00
         0.00000E+00
         0.00000E+00
         0.00000E+00
         0.00000E+00
         0.00000E+00
         0.00000E+00
         0.00000E+00
         0.00000E+00
         0.00000E+00
         0.00000E+00
         0.00000E+00
         0.00000E+00
         0.00000E+00
         0.00000E+00
         0.00000E+00
         0.00000E+00
         0.00000E+00
         0.00000E+00
         0.00000E+00
         0.00000E+00
         0.00000E+00
         0.00000E+00
         0.00000E+00
         0.00000E+00
         0.00000E+00
         0.00000E+00
         0.00000E+00
         0.00000E+00
         0.00000E+00
         0.00000E+00
         0.00000E+00
         0.00000E+00
         0.00000E+00
         0.00000E+00
         0.00000E+00
         0.00000E+00
         0.00000E+00
         0.00000E+00
         0.00000E+00
         0.00000E+00
         0.00000E+00
         0.00000E+00
         0.00000E+00
         0.00000E+00
         0.00000E+00
         0.00000E+00
         0.00000E+00
         0.00000E+00
         0.00000E+00
         0.00000E+00
         0.00000E+00
         0.00000E+00
         0.00000E+00
         0.00000E+00
         0.00000E+00
         0.00000E+00
         0.00000E+00
         0.00000E+00
         0.00000E+00
         0.00000E+00
         0.00000E+00
         0.00000E+00
         0.00000E+00
         0.00000E+00
         0.00000E+00
         0.00000E+00
         0.00000E+00
         0.00000E+00
         0.00000E+00
         0.00000E+00
         0.00000E+00
         0.00000E+00
         0.00000E+00
         0.00000E+00
         0.00000E+00
         0.00000E+00
         0.00000E+00
         0.00000E+00
         0.00000E+00
         0.00000E+00
         0.00000E+00
         0.00000E+00
         0.00000E+00
         0.00000E+00
         0.00000E+00
         0.00000E+00
         0.00000E+00
         0.00000E+00
         0.00000E+00
         0.00000E+00
         0.00000E+00
         0.00000E+00
         0.00000E+00
         0.00000E+00
         0.00000E+00
         0.00000E+00
         0.00000E+00
         0.00000E+00
         0.00000E+00
         0.00000E+00
         0.00000E+00
         0.00000E+00
         0.00000E+00
         0.00000E+00
         0.00000E+00
         0.00000E+00
         0.00000E+00
         0.00000E+00
         0.00000E+00
         0.00000E+00
         0.00000E+00
         0.00000E+00
         0.00000E+00
         0.00000E+00
         0.00000E+00
         0.00000E+00
         0.00000E+00
         0.00000E+00
         0.00000E+00
         0.00000E+00
         0.00000E+00
         0.00000E+00
         0.00000E+00
         0.00000E+00
         0.00000E+00
         0.00000E+00
         0.00000E+00
         0.00000E+00
         0.00000E+00
         0.00000E+00
         0.00000E+00
         0.00000E+00
         0.00000E+00
         0.00000E+00
         0.00000E+00
         0.00000E+00
         0.00000E+00
         0.00000E+00
         0.00000E+00
         0.00000E+00
         0.00000E+00
         0.00000E+00
         0.00000E+00
         0.00000E+00
         0.00000E+00
         0.00000E+00
         0.00000E+00
         0.00000E+00
         0.00000E+00
         0.00000E+00
         0.00000E+00
         0.00000E+00
         0.00000E+00
         0.00000E+00
         0.00000E+00
         0.00000E+00
         0.00000E+00
         0.00000E+00
         0.00000E+00
         0.00000E+00
         0.00000E+00
         0.00000E+00
         0.00000E+00
         0.00000E+00
         0.00000E+00
         0.00000E+00
         0.00000E+00
         0.00000E+00
         0.00000E+00
         0.00000E+00
         0.00000E+00
         0.00000E+00
         0.00000E+00
         0.00000E+00
         0.00000E+00
         0.00000E+00
         0.00000E+00
         0.00000E+00
         0.00000E+00
         0.00000E+00
         0.00000E+00
         0.00000E+00
         0.00000E+00
         0.00000E+00
         0.00000E+00
         0.00000E+00
         0.00000E+00
         0.00000E+00
         0.00000E+00
         0.00000E+00
         0.00000E+00
         0.00000E+00
         0.00000E+00
         0.00000E+00
         0.00000E+00
         0.00000E+00
         0.00000E+00
         0.00000E+00
         0.00000E+00
         0.00000E+00
         0.00000E+00
         0.00000E+00
         0.00000E+00
         0.00000E+00
         0.00000E+00
         0.00000E+00
         0.00000E+00
         0.00000E+00
         0.00000E+00
         0.00000E+00
         0.00000E+00
         0.00000E+00
         0.00000E+00
         0.00000E+00
         0.00000E+00
         0.00000E+00
         0.00000E+00
         0.00000E+00
         0.00000E+00
         0.00000E+00
         0.00000E+00
         0.00000E+00
         0.00000E+00
         0.00000E+00
         0.00000E+00
         0.00000E+00
         0.00000E+00
         0.00000E+00
         0.00000E+00
         0.00000E+00
         0.00000E+00
         0.00000E+00
         0.00000E+00
         0.00000E+00
         0.00000E+00
         0.00000E+00
         0.00000E+00
         0.00000E+00
         0.00000E+00
         0.00000E+00
         0.00000E+00
         0.00000E+00
         0.00000E+00
         0.00000E+00
         0.00000E+00
         0.00000E+00
         0.00000E+00
         0.00000E+00
         0.00000E+00
         0.00000E+00
         0.00000E+00
         0.00000E+00
         0.00000E+00
         0.00000E+00
         0.00000E+00
         0.00000E+00
         0.00000E+00
         0.00000E+00
         0.00000E+00
         0.00000E+00
         0.00000E+00
         0.00000E+00
         0.00000E+00
         0.00000E+00
         0.00000E+00
         0.00000E+00
         0.00000E+00
         0.00000E+00
         0.00000E+00
         0.00000E+00
         0.00000E+00
         0.00000E+00
         0.00000E+00
         0.00000E+00
         0.00000E+00
         0.00000E+00
         0.00000E+00
         0.00000E+00
         0.00000E+00
         0.00000E+00
         0.00000E+00
         0.00000E+00
         0.00000E+00
         0.00000E+00
         0.00000E+00
         0.00000E+00
         0.00000E+00
         0.00000E+00
         0.00000E+00
         0.00000E+00
         0.00000E+00
         0.00000E+00
         0.00000E+00
         0.00000E+00
         0.00000E+00
         0.00000E+00
         0.00000E+00
         0.00000E+00
         0.00000E+00
         0.00000E+00
         0.00000E+00
         0.00000E+00
         0.00000E+00
         0.00000E+00
         0.00000E+00
         0.00000E+00
         0.00000E+00
         0.00000E+00
         0.00000E+00
         0.00000E+00
         0.00000E+00
         0.00000E+00
         0.00000E+00
         0.00000E+00
         0.00000E+00
         0.00000E+00
         0.00000E+00
         0.00000E+00
         0.00000E+00
         0.00000E+00
         0.00000E+00
         0.00000E+00
         0.00000E+00
         0.00000E+00
         0.00000E+00
         0.00000E+00
         0.00000E+00
         0.00000E+00
         0.00000E+00
         0.00000E+00
         0.00000E+00
         0.00000E+00
         0.00000E+00
         0.00000E+00
         0.00000E+00
         0.00000E+00
         0.00000E+00
         0.00000E+00
         0.00000E+00
         0.00000E+00
         0.00000E+00
         0.00000E+00
         0.00000E+00
         0.00000E+00
         0.00000E+00
         0.00000E+00
         0.00000E+00
         0.00000E+00
         0.00000E+00
         0.00000E+00
         0.00000E+00
         0.00000E+00
         0.00000E+00
         0.00000E+00
         0.00000E+00
         0.00000E+00
         0.00000E+00
         0.00000E+00
         0.00000E+00
         0.00000E+00
         0.00000E+00
         0.00000E+00
         0.00000E+00
         0.00000E+00
         0.00000E+00
         0.00000E+00
         0.00000E+00
         0.00000E+00
         0.00000E+00
         0.00000E+00
         0.00000E+00
         0.00000E+00
         0.00000E+00
         0.00000E+00
         0.00000E+00
         0.00000E+00
         0.00000E+00
         0.00000E+00
         0.00000E+00
         0.00000E+00
         0.00000E+00
         0.00000E+00
         0.00000E+00
         0.00000E+00
         0.00000E+00
         0.00000E+00
         0.00000E+00
         0.00000E+00
         0.00000E+00
         0.00000E+00
         0.00000E+00
         0.00000E+00
         0.00000E+00
         0.00000E+00
         0.00000E+00
         0.00000E+00
         0.00000E+00
         0.00000E+00
         0.00000E+00
         0.00000E+00
         0.00000E+00
         0.00000E+00
         0.00000E+00
         0.00000E+00
         0.00000E+00
         0.00000E+00
         0.00000E+00
         0.00000E+00
         0.00000E+00
         0.00000E+00
         0.00000E+00
         0.00000E+00
         0.00000E+00
         0.00000E+00
         0.00000E+00
         0.00000E+00
         0.00000E+00
         0.00000E+00
         0.00000E+00
         0.00000E+00
         0.00000E+00
         0.00000E+00
         0.00000E+00
         0.00000E+00
         0.00000E+00
         0.00000E+00
         0.00000E+00
         0.00000E+00
         0.00000E+00
         0.00000E+00
         0.00000E+00
         0.00000E+00
         0.00000E+00
         0.00000E+00
         0.00000E+00
         0.00000E+00
         0.00000E+00
         0.00000E+00
         0.00000E+00
         0.00000E+00
         0.00000E+00
         0.00000E+00
         0.00000E+00
         0.00000E+00
         0.00000E+00
         0.00000E+00
         0.00000E+00
         0.00000E+00
         0.00000E+00
         0.00000E+00
         0.00000E+00
         0.00000E+00
         0.00000E+00
         0.00000E+00
         0.00000E+00
         0.00000E+00
         0.00000E+00
         0.00000E+00
         0.00000E+00
         0.00000E+00
         0.00000E+00
         0.00000E+00
         0.00000E+00
         0.00000E+00
         0.00000E+00
         0.00000E+00
         0.00000E+00
         0.00000E+00
         0.00000E+00
         0.00000E+00
         0.00000E+00
         0.00000E+00
         0.00000E+00
         0.00000E+00
         0.00000E+00
         0.00000E+00
         0.00000E+00
         0.00000E+00
         0.00000E+00
         0.00000E+00
         0.00000E+00
         0.00000E+00
         0.00000E+00
         0.00000E+00
         0.00000E+00
         0.00000E+00
         0.00000E+00
         0.00000E+00
         0.00000E+00
         0.00000E+00
         0.00000E+00
         0.00000E+00
         0.00000E+00
         0.00000E+00
         0.00000E+00
         0.00000E+00
         0.00000E+00
         0.00000E+00
         0.00000E+00
         0.00000E+00
         0.00000E+00
         0.00000E+00
         0.00000E+00
         0.00000E+00
         0.00000E+00
         0.00000E+00
         0.00000E+00
         0.00000E+00
         0.00000E+00
         0.00000E+00
         0.00000E+00
         0.00000E+00
         0.00000E+00
         0.00000E+00
         0.00000E+00
         0.00000E+00
         0.00000E+00
         0.00000E+00
         0.00000E+00
         0.00000E+00
         0.00000E+00
         0.00000E+00
         0.00000E+00
         0.00000E+00
         0.00000E+00
         0.00000E+00
         0.00000E+00
         0.00000E+00
         0.00000E+00
         0.00000E+00
         0.00000E+00
         0.00000E+00
         0.00000E+00
         0.00000E+00
         0.00000E+00
         0.00000E+00
         0.00000E+00
         0.00000E+00
         0.00000E+00
         0.00000E+00
         0.00000E+00
         0.00000E+00
         0.00000E+00
         0.00000E+00
         0.00000E+00
         0.00000E+00
         0.00000E+00
         0.00000E+00
         0.00000E+00
         0.00000E+00
         0.00000E+00
         0.00000E+00
         0.00000E+00
         0.00000E+00
         0.00000E+00
         0.00000E+00
         0.00000E+00
         0.00000E+00
         0.00000E+00
         0.00000E+00
         0.00000E+00
         0.00000E+00
         0.00000E+00
         0.00000E+00
         0.00000E+00
         0.00000E+00
         0.00000E+00
         0.00000E+00
         0.00000E+00
         0.00000E+00
         0.00000E+00
         0.00000E+00
         0.00000E+00
         0.00000E+00
         0.00000E+00
         0.00000E+00
         0.00000E+00
         0.00000E+00
         0.00000E+00
         0.00000E+00
         0.00000E+00
         0.00000E+00
         0.00000E+00
         0.00000E+00
         0.00000E+00
         0.00000E+00
         0.00000E+00
         0.00000E+00
         0.00000E+00
         0.00000E+00
         0.00000E+00
         0.00000E+00
         0.00000E+00
         0.00000E+00
         0.00000E+00
         0.00000E+00
         0.00000E+00
         0.00000E+00
         0.00000E+00
         0.00000E+00
         0.00000E+00
         0.00000E+00
         0.00000E+00
         0.00000E+00
         0.00000E+00
         0.00000E+00
         0.00000E+00
         0.00000E+00
         0.00000E+00
         0.00000E+00
         0.00000E+00
         0.00000E+00
         0.00000E+00
         0.00000E+00
         0.00000E+00
         0.00000E+00
         0.00000E+00
         0.00000E+00
         0.00000E+00
         0.00000E+00
         0.00000E+00
         0.00000E+00
         0.00000E+00
         0.00000E+00
         0.00000E+00
         0.00000E+00
         0.00000E+00
         0.00000E+00
         0.00000E+00
         0.00000E+00
         0.00000E+00
         0.00000E+00
         0.00000E+00
         0.00000E+00
         0.00000E+00
         0.00000E+00
         0.00000E+00
         0.00000E+00
         0.00000E+00
         0.00000E+00
         0.00000E+00
         0.00000E+00
         0.00000E+00
         0.00000E+00
         0.00000E+00
         0.00000E+00
         0.00000E+00
         0.00000E+00
         0.00000E+00
         0.00000E+00
         0.00000E+00
         0.00000E+00
         0.00000E+00
         0.00000E+00
         0.00000E+00
         0.00000E+00
         0.00000E+00
         0.00000E+00
         0.00000E+00
         0.00000E+00
         0.00000E+00
         0.00000E+00
         0.00000E+00
         0.00000E+00
         0.00000E+00
         0.00000E+00
         0.00000E+00
         0.00000E+00
         0.00000E+00
         0.00000E+00
         0.00000E+00
         0.00000E+00
         0.00000E+00
         0.00000E+00
         0.00000E+00
         0.00000E+00
         0.00000E+00
         0.00000E+00
         0.00000E+00
         0.00000E+00
         0.00000E+00
         0.00000E+00
         0.00000E+00
         0.00000E+00
         0.00000E+00
         0.00000E+00
         0.00000E+00
         0.00000E+00
         0.00000E+00
         0.00000E+00
         0.00000E+00
         0.00000E+00
         0.00000E+00
         0.00000E+00
         0.00000E+00
         0.00000E+00
         0.00000E+00
         0.00000E+00
         0.00000E+00
         0.00000E+00
         0.00000E+00
         0.00000E+00
         0.00000E+00
         0.00000E+00
         0.00000E+00
         0.00000E+00
         0.00000E+00
         0.00000E+00
         0.00000E+00
         0.00000E+00
         0.00000E+00
         0.00000E+00
         0.00000E+00
         0.00000E+00
         0.00000E+00
         0.00000E+00
         0.00000E+00
         0.00000E+00
         0.00000E+00
         0.00000E+00
         0.00000E+00
         0.00000E+00
         0.00000E+00
         0.00000E+00
         0.00000E+00
         0.00000E+00
         0.00000E+00
         0.00000E+00
         0.00000E+00
         0.00000E+00
         0.00000E+00
         0.00000E+00
         0.00000E+00
         0.00000E+00
         0.00000E+00
         0.00000E+00
         0.00000E+00
         0.00000E+00
         0.00000E+00
         0.00000E+00
         0.00000E+00
         0.00000E+00
         0.00000E+00
         0.00000E+00
         0.00000E+00
         0.00000E+00
         0.00000E+00
         0.00000E+00
         0.00000E+00
         0.00000E+00
         0.00000E+00
         0.00000E+00
         0.00000E+00
         0.00000E+00
         0.00000E+00
         0.00000E+00
         0.00000E+00
         0.00000E+00
         0.00000E+00
         0.00000E+00
         0.00000E+00
         0.00000E+00
         0.00000E+00
         0.00000E+00
         0.00000E+00
         0.00000E+00
         0.00000E+00
         0.00000E+00
         0.00000E+00
         0.00000E+00
         0.00000E+00
         0.00000E+00
         0.00000E+00
         0.00000E+00
         0.00000E+00
         0.00000E+00
         0.00000E+00
         0.00000E+00
         0.00000E+00
         0.00000E+00
         0.00000E+00
         0.00000E+00
         0.00000E+00
         0.00000E+00
         0.00000E+00
         0.00000E+00
         0.00000E+00
         0.00000E+00
         0.00000E+00
         0.00000E+00
         0.00000E+00
         0.00000E+00
         0.00000E+00
         0.00000E+00
         0.00000E+00
         0.00000E+00
         0.00000E+00
         0.00000E+00
         0.00000E+00
         0.00000E+00
         0.00000E+00
         0.00000E+00
         0.00000E+00
         0.00000E+00
         0.00000E+00
         0.00000E+00
         0.00000E+00
         0.00000E+00
         0.00000E+00
         0.00000E+00
         0.00000E+00
         0.00000E+00
         0.00000E+00
         0.00000E+00
         0.00000E+00
         0.00000E+00
         0.00000E+00
         0.00000E+00
         0.00000E+00
         0.00000E+00
         0.00000E+00
         0.00000E+00
         0.00000E+00
         0.00000E+00
         0.00000E+00
         0.00000E+00
         0.00000E+00
         0.00000E+00
         0.00000E+00
         0.00000E+00
         0.00000E+00
         0.00000E+00
         0.00000E+00
         0.00000E+00
         0.00000E+00
         0.00000E+00
         0.00000E+00
         0.00000E+00
         0.00000E+00
         0.00000E+00
         0.00000E+00
         0.00000E+00
         0.00000E+00
         0.00000E+00
         0.00000E+00
         0.00000E+00
         0.00000E+00
         0.00000E+00
         0.00000E+00
         0.00000E+00
         0.00000E+00
         0.00000E+00
         0.00000E+00
         0.00000E+00
         0.00000E+00
         0.00000E+00
         0.00000E+00
         0.00000E+00
         0.00000E+00
         0.00000E+00
         0.00000E+00
         0.00000E+00
         0.00000E+00
         0.00000E+00
         0.00000E+00
         0.00000E+00
         0.00000E+00
         0.00000E+00
         0.00000E+00
         0.00000E+00
         0.00000E+00
         0.00000E+00
         0.00000E+00
         0.00000E+00
         0.00000E+00
         0.00000E+00
         0.00000E+00
         0.00000E+00
         0.00000E+00
         0.00000E+00
         0.00000E+00
         0.00000E+00
         0.00000E+00
         0.00000E+00
         0.00000E+00
         0.00000E+00
         0.00000E+00
         0.00000E+00
         0.00000E+00
         0.00000E+00
         0.00000E+00
         0.00000E+00
         0.00000E+00
         0.00000E+00
         0.00000E+00
         0.00000E+00
         0.00000E+00
         0.00000E+00
         0.00000E+00
         0.00000E+00
         0.00000E+00
         0.00000E+00
         0.00000E+00
         0.00000E+00
         0.00000E+00
         0.00000E+00
         0.00000E+00
         0.00000E+00
         0.00000E+00
         0.00000E+00
         0.00000E+00
         0.00000E+00
         0.00000E+00
         0.00000E+00
         0.00000E+00
         0.00000E+00
         0.00000E+00
         0.00000E+00
         0.00000E+00
         0.00000E+00
         0.00000E+00
         0.00000E+00
         0.00000E+00
         0.00000E+00
         0.00000E+00
         0.00000E+00
         0.00000E+00
         0.00000E+00
         0.00000E+00
         0.00000E+00
         0.00000E+00
         0.00000E+00
         0.00000E+00
         0.00000E+00
         0.00000E+00
         0.00000E+00
         0.00000E+00
         0.00000E+00
         0.00000E+00
         0.00000E+00
         0.00000E+00
         0.00000E+00
         0.00000E+00
         0.00000E+00
         0.00000E+00
         0.00000E+00
         0.00000E+00
         0.00000E+00
         0.00000E+00
         0.00000E+00
         0.00000E+00
         0.00000E+00
         0.00000E+00
         0.00000E+00
         0.00000E+00
         0.00000E+00
         0.00000E+00
         0.00000E+00
         0.00000E+00
         0.00000E+00
         0.00000E+00
         0.00000E+00
         0.00000E+00
         0.00000E+00
         0.00000E+00
         0.00000E+00
         0.00000E+00
         0.00000E+00
         0.00000E+00
         0.00000E+00
         0.00000E+00
         0.00000E+00
         0.00000E+00
         0.00000E+00
         0.00000E+00
         0.00000E+00
         0.00000E+00
         0.00000E+00
         0.00000E+00
         0.00000E+00
         0.00000E+00
         0.00000E+00
         0.00000E+00
         0.00000E+00
         0.00000E+00
         0.00000E+00
         0.00000E+00
         0.00000E+00
         0.00000E+00
         0.00000E+00
         0.00000E+00
         0.00000E+00
         0.00000E+00
         0.00000E+00
         0.00000E+00
         0.00000E+00
         0.00000E+00
         0.00000E+00
         0.00000E+00
         0.00000E+00
         0.00000E+00
         0.00000E+00
         0.00000E+00
         0.00000E+00
         0.00000E+00
         0.00000E+00
         0.00000E+00
         0.00000E+00
         0.00000E+00
         0.00000E+00
         0.00000E+00
         0.00000E+00
         0.00000E+00
         0.00000E+00
         0.00000E+00
         0.00000E+00
         0.00000E+00
         0.00000E+00
         0.00000E+00
         0.00000E+00
         0.00000E+00
         0.00000E+00
         0.00000E+00
         0.00000E+00
         0.00000E+00
         0.00000E+00
         0.00000E+00
         0.00000E+00
         0.00000E+00
         0.00000E+00
         0.00000E+00
         0.00000E+00
         0.00000E+00
         0.00000E+00
         0.00000E+00
         0.00000E+00
         0.00000E+00
         0.00000E+00
         0.00000E+00
         0.00000E+00
         0.00000E+00
         0.00000E+00
         0.00000E+00
         0.00000E+00
         0.00000E+00
         0.00000E+00
         0.00000E+00
         0.00000E+00
         0.00000E+00
         0.00000E+00
         0.00000E+00
         0.00000E+00
         0.00000E+00
         0.00000E+00
         0.00000E+00
         0.00000E+00
         0.00000E+00
         0.00000E+00
         0.00000E+00
         0.00000E+00
         0.00000E+00
         0.00000E+00
         0.00000E+00
         0.00000E+00
         0.00000E+00
         0.00000E+00
         0.00000E+00
         0.00000E+00
         0.00000E+00
         0.00000E+00
         0.00000E+00
         0.00000E+00
         0.00000E+00
         0.00000E+00
         0.00000E+00
         0.00000E+00
         0.00000E+00
         0.00000E+00
         0.00000E+00
         0.00000E+00
         0.00000E+00
         0.00000E+00
         0.00000E+00
         0.00000E+00
         0.00000E+00
         0.00000E+00
         0.00000E+00
         0.00000E+00
         0.00000E+00
         0.00000E+00
         0.00000E+00
         0.00000E+00
         0.00000E+00
         0.00000E+00
         0.00000E+00
         0.00000E+00
         0.00000E+00
         0.00000E+00
         0.00000E+00
         0.00000E+00
         0.00000E+00
         0.00000E+00
         0.00000E+00
         0.00000E+00
         0.00000E+00
         0.00000E+00
         0.00000E+00
         0.00000E+00
         0.00000E+00
         0.00000E+00
         0.00000E+00
         0.00000E+00
         0.00000E+00
         0.00000E+00
         0.00000E+00
         0.00000E+00
         0.00000E+00
         0.00000E+00
         0.00000E+00
         0.00000E+00
         0.00000E+00
         0.00000E+00
         0.00000E+00
         0.00000E+00
         0.00000E+00
         0.00000E+00
         0.00000E+00
         0.00000E+00
         0.00000E+00
         0.00000E+00
         0.00000E+00
         0.00000E+00
         0.00000E+00
         0.00000E+00
         0.00000E+00
         0.00000E+00
         0.00000E+00
         0.00000E+00
         0.00000E+00
         0.00000E+00
         0.00000E+00
         0.00000E+00
         0.00000E+00
         0.00000E+00
         0.00000E+00
         0.00000E+00
         0.00000E+00
         0.00000E+00
         0.00000E+00
         0.00000E+00
         0.00000E+00
         0.00000E+00
         0.00000E+00
  
SCALARS                init_velocity_y  double 1
LOOKUP_TABLE default
         0.00000E+00
         0.00000E+00
         0.00000E+00
         0.00000E+00
         0.00000E+00
         0.00000E+00
         0.00000E+00
         0.00000E+00
         0.00000E+00
         0.00000E+00
         0.00000E+00
         0.00000E+00
         0.00000E+00
         0.00000E+00
         0.00000E+00
         0.00000E+00
         0.00000E+00
         0.00000E+00
         0.00000E+00
         0.00000E+00
         0.00000E+00
         0.00000E+00
         0.00000E+00
         0.00000E+00
         0.00000E+00
         0.00000E+00
         0.00000E+00
         0.00000E+00
         0.00000E+00
         0.00000E+00
         0.00000E+00
         0.00000E+00
         0.00000E+00
         0.00000E+00
         0.00000E+00
         0.00000E+00
         0.00000E+00
         0.00000E+00
         0.00000E+00
         0.00000E+00
         0.00000E+00
         0.00000E+00
         0.00000E+00
         0.00000E+00
         0.00000E+00
         0.00000E+00
         0.00000E+00
         0.00000E+00
         0.00000E+00
         0.00000E+00
         0.00000E+00
         0.00000E+00
         0.00000E+00
         0.00000E+00
         0.00000E+00
         0.00000E+00
         0.00000E+00
         0.00000E+00
         0.00000E+00
         0.00000E+00
         0.00000E+00
         0.00000E+00
         0.00000E+00
         0.00000E+00
         0.00000E+00
         0.00000E+00
         0.00000E+00
         0.00000E+00
         0.00000E+00
         0.00000E+00
         0.00000E+00
         0.00000E+00
         0.00000E+00
         0.00000E+00
         0.00000E+00
         0.00000E+00
         0.00000E+00
         0.00000E+00
         0.00000E+00
         0.00000E+00
         0.00000E+00
         0.00000E+00
         0.00000E+00
         0.00000E+00
         0.00000E+00
         0.00000E+00
         0.00000E+00
         0.00000E+00
         0.00000E+00
         0.00000E+00
         0.00000E+00
         0.00000E+00
         0.00000E+00
         0.00000E+00
         0.00000E+00
         0.00000E+00
         0.00000E+00
         0.00000E+00
         0.00000E+00
         0.00000E+00
         0.00000E+00
         0.00000E+00
         0.00000E+00
         0.00000E+00
         0.00000E+00
         0.00000E+00
         0.00000E+00
         0.00000E+00
         0.00000E+00
         0.00000E+00
         0.00000E+00
         0.00000E+00
         0.00000E+00
         0.00000E+00
         0.00000E+00
         0.00000E+00
         0.00000E+00
         0.00000E+00
         0.00000E+00
         0.00000E+00
         0.00000E+00
         0.00000E+00
         0.00000E+00
         0.00000E+00
         0.00000E+00
         0.00000E+00
         0.00000E+00
         0.00000E+00
         0.00000E+00
         0.00000E+00
         0.00000E+00
         0.00000E+00
         0.00000E+00
         0.00000E+00
         0.00000E+00
         0.00000E+00
         0.00000E+00
         0.00000E+00
         0.00000E+00
         0.00000E+00
         0.00000E+00
         0.00000E+00
         0.00000E+00
         0.00000E+00
         0.00000E+00
         0.00000E+00
         0.00000E+00
         0.00000E+00
         0.00000E+00
         0.00000E+00
         0.00000E+00
         0.00000E+00
         0.00000E+00
         0.00000E+00
         0.00000E+00
         0.00000E+00
         0.00000E+00
         0.00000E+00
         0.00000E+00
         0.00000E+00
         0.00000E+00
         0.00000E+00
         0.00000E+00
         0.00000E+00
         0.00000E+00
         0.00000E+00
         0.00000E+00
         0.00000E+00
         0.00000E+00
         0.00000E+00
         0.00000E+00
         0.00000E+00
         0.00000E+00
         0.00000E+00
         0.00000E+00
         0.00000E+00
         0.00000E+00
         0.00000E+00
         0.00000E+00
         0.00000E+00
         0.00000E+00
         0.00000E+00
         0.00000E+00
         0.00000E+00
         0.00000E+00
         0.00000E+00
         0.00000E+00
         0.00000E+00
         0.00000E+00
         0.00000E+00
         0.00000E+00
         0.00000E+00
         0.00000E+00
         0.00000E+00
         0.00000E+00
         0.00000E+00
         0.00000E+00
         0.00000E+00
         0.00000E+00
         0.00000E+00
         0.00000E+00
         0.00000E+00
         0.00000E+00
         0.00000E+00
         0.00000E+00
         0.00000E+00
         0.00000E+00
         0.00000E+00
         0.00000E+00
         0.00000E+00
         0.00000E+00
         0.00000E+00
         0.00000E+00
         0.00000E+00
         0.00000E+00
         0.00000E+00
         0.00000E+00
         0.00000E+00
         0.00000E+00
         0.00000E+00
         0.00000E+00
         0.00000E+00
         0.00000E+00
         0.00000E+00
         0.00000E+00
         0.00000E+00
         0.00000E+00
         0.00000E+00
         0.00000E+00
         0.00000E+00
         0.00000E+00
         0.00000E+00
         0.00000E+00
         0.00000E+00
         0.00000E+00
         0.00000E+00
         0.00000E+00
         0.00000E+00
         0.00000E+00
         0.00000E+00
         0.00000E+00
         0.00000E+00
         0.00000E+00
         0.00000E+00
         0.00000E+00
         0.00000E+00
         0.00000E+00
         0.00000E+00
         0.00000E+00
         0.00000E+00
         0.00000E+00
         0.00000E+00
         0.00000E+00
         0.00000E+00
         0.00000E+00
         0.00000E+00
         0.00000E+00
         0.00000E+00
         0.00000E+00
         0.00000E+00
         0.00000E+00
         0.00000E+00
         0.00000E+00
         0.00000E+00
         0.00000E+00
         0.00000E+00
         0.00000E+00
         0.00000E+00
         0.00000E+00
         0.00000E+00
         0.00000E+00
         0.00000E+00
         0.00000E+00
         0.00000E+00
         0.00000E+00
         0.00000E+00
         0.00000E+00
         0.00000E+00
         0.00000E+00
         0.00000E+00
         0.00000E+00
         0.00000E+00
         0.00000E+00
         0.00000E+00
         0.00000E+00
         0.00000E+00
         0.00000E+00
         0.00000E+00
         0.00000E+00
         0.00000E+00
         0.00000E+00
         0.00000E+00
         0.00000E+00
         0.00000E+00
         0.00000E+00
         0.00000E+00
         0.00000E+00
         0.00000E+00
         0.00000E+00
         0.00000E+00
         0.00000E+00
         0.00000E+00
         0.00000E+00
         0.00000E+00
         0.00000E+00
         0.00000E+00
         0.00000E+00
         0.00000E+00
         0.00000E+00
         0.00000E+00
         0.00000E+00
         0.00000E+00
         0.00000E+00
         0.00000E+00
         0.00000E+00
         0.00000E+00
         0.00000E+00
         0.00000E+00
         0.00000E+00
         0.00000E+00
         0.00000E+00
         0.00000E+00
         0.00000E+00
         0.00000E+00
         0.00000E+00
         0.00000E+00
         0.00000E+00
         0.00000E+00
         0.00000E+00
         0.00000E+00
         0.00000E+00
         0.00000E+00
         0.00000E+00
         0.00000E+00
         0.00000E+00
         0.00000E+00
         0.00000E+00
         0.00000E+00
         0.00000E+00
         0.00000E+00
         0.00000E+00
         0.00000E+00
         0.00000E+00
         0.00000E+00
         0.00000E+00
         0.00000E+00
         0.00000E+00
         0.00000E+00
         0.00000E+00
         0.00000E+00
         0.00000E+00
         0.00000E+00
         0.00000E+00
         0.00000E+00
         0.00000E+00
         0.00000E+00
         0.00000E+00
         0.00000E+00
         0.00000E+00
         0.00000E+00
         0.00000E+00
         0.00000E+00
         0.00000E+00
         0.00000E+00
         0.00000E+00
         0.00000E+00
         0.00000E+00
         0.00000E+00
         0.00000E+00
         0.00000E+00
         0.00000E+00
         0.00000E+00
         0.00000E+00
         0.00000E+00
         0.00000E+00
         0.00000E+00
         0.00000E+00
         0.00000E+00
         0.00000E+00
         0.00000E+00
         0.00000E+00
         0.00000E+00
         0.00000E+00
         0.00000E+00
         0.00000E+00
         0.00000E+00
         0.00000E+00
         0.00000E+00
         0.00000E+00
         0.00000E+00
         0.00000E+00
         0.00000E+00
         0.00000E+00
         0.00000E+00
         0.00000E+00
         0.00000E+00
         0.00000E+00
         0.00000E+00
         0.00000E+00
         0.00000E+00
         0.00000E+00
         0.00000E+00
         0.00000E+00
         0.00000E+00
         0.00000E+00
         0.00000E+00
         0.00000E+00
         0.00000E+00
         0.00000E+00
         0.00000E+00
         0.00000E+00
         0.00000E+00
         0.00000E+00
         0.00000E+00
         0.00000E+00
         0.00000E+00
         0.00000E+00
         0.00000E+00
         0.00000E+00
         0.00000E+00
         0.00000E+00
         0.00000E+00
         0.00000E+00
         0.00000E+00
         0.00000E+00
         0.00000E+00
         0.00000E+00
         0.00000E+00
         0.00000E+00
         0.00000E+00
         0.00000E+00
         0.00000E+00
         0.00000E+00
         0.00000E+00
         0.00000E+00
         0.00000E+00
         0.00000E+00
         0.00000E+00
         0.00000E+00
         0.00000E+00
         0.00000E+00
         0.00000E+00
         0.00000E+00
         0.00000E+00
         0.00000E+00
         0.00000E+00
         0.00000E+00
         0.00000E+00
         0.00000E+00
         0.00000E+00
         0.00000E+00
         0.00000E+00
         0.00000E+00
         0.00000E+00
         0.00000E+00
         0.00000E+00
         0.00000E+00
         0.00000E+00
         0.00000E+00
         0.00000E+00
         0.00000E+00
         0.00000E+00
         0.00000E+00
         0.00000E+00
         0.00000E+00
         0.00000E+00
         0.00000E+00
         0.00000E+00
         0.00000E+00
         0.00000E+00
         0.00000E+00
         0.00000E+00
         0.00000E+00
         0.00000E+00
         0.00000E+00
         0.00000E+00
         0.00000E+00
         0.00000E+00
         0.00000E+00
         0.00000E+00
         0.00000E+00
         0.00000E+00
         0.00000E+00
         0.00000E+00
         0.00000E+00
         0.00000E+00
         0.00000E+00
         0.00000E+00
         0.00000E+00
         0.00000E+00
         0.00000E+00
         0.00000E+00
         0.00000E+00
         0.00000E+00
         0.00000E+00
         0.00000E+00
         0.00000E+00
         0.00000E+00
         0.00000E+00
         0.00000E+00
         0.00000E+00
         0.00000E+00
         0.00000E+00
         0.00000E+00
         0.00000E+00
         0.00000E+00
         0.00000E+00
         0.00000E+00
         0.00000E+00
         0.00000E+00
         0.00000E+00
         0.00000E+00
         0.00000E+00
         0.00000E+00
         0.00000E+00
         0.00000E+00
         0.00000E+00
         0.00000E+00
         0.00000E+00
         0.00000E+00
         0.00000E+00
         0.00000E+00
         0.00000E+00
         0.00000E+00
         0.00000E+00
         0.00000E+00
         0.00000E+00
         0.00000E+00
         0.00000E+00
         0.00000E+00
         0.00000E+00
         0.00000E+00
         0.00000E+00
         0.00000E+00
         0.00000E+00
         0.00000E+00
         0.00000E+00
         0.00000E+00
         0.00000E+00
         0.00000E+00
         0.00000E+00
         0.00000E+00
         0.00000E+00
         0.00000E+00
         0.00000E+00
         0.00000E+00
         0.00000E+00
         0.00000E+00
         0.00000E+00
         0.00000E+00
         0.00000E+00
         0.00000E+00
         0.00000E+00
         0.00000E+00
         0.00000E+00
         0.00000E+00
         0.00000E+00
         0.00000E+00
         0.00000E+00
         0.00000E+00
         0.00000E+00
         0.00000E+00
         0.00000E+00
         0.00000E+00
         0.00000E+00
         0.00000E+00
         0.00000E+00
         0.00000E+00
         0.00000E+00
         0.00000E+00
         0.00000E+00
         0.00000E+00
         0.00000E+00
         0.00000E+00
         0.00000E+00
         0.00000E+00
         0.00000E+00
         0.00000E+00
         0.00000E+00
         0.00000E+00
         0.00000E+00
         0.00000E+00
         0.00000E+00
         0.00000E+00
         0.00000E+00
         0.00000E+00
         0.00000E+00
         0.00000E+00
         0.00000E+00
         0.00000E+00
         0.00000E+00
         0.00000E+00
         0.00000E+00
         0.00000E+00
         0.00000E+00
         0.00000E+00
         0.00000E+00
         0.00000E+00
         0.00000E+00
         0.00000E+00
         0.00000E+00
         0.00000E+00
         0.00000E+00
         0.00000E+00
         0.00000E+00
         0.00000E+00
         0.00000E+00
         0.00000E+00
         0.00000E+00
         0.00000E+00
         0.00000E+00
         0.00000E+00
         0.00000E+00
         0.00000E+00
         0.00000E+00
         0.00000E+00
         0.00000E+00
         0.00000E+00
         0.00000E+00
         0.00000E+00
         0.00000E+00
         0.00000E+00
         0.00000E+00
         0.00000E+00
         0.00000E+00
         0.00000E+00
         0.00000E+00
         0.00000E+00
         0.00000E+00
         0.00000E+00
         0.00000E+00
         0.00000E+00
         0.00000E+00
         0.00000E+00
         0.00000E+00
         0.00000E+00
         0.00000E+00
         0.00000E+00
         0.00000E+00
         0.00000E+00
         0.00000E+00
         0.00000E+00
         0.00000E+00
         0.00000E+00
         0.00000E+00
         0.00000E+00
         0.00000E+00
         0.00000E+00
         0.00000E+00
         0.00000E+00
         0.00000E+00
         0.00000E+00
         0.00000E+00
         0.00000E+00
         0.00000E+00
         0.00000E+00
         0.00000E+00
         0.00000E+00
         0.00000E+00
         0.00000E+00
         0.00000E+00
         0.00000E+00
         0.00000E+00
         0.00000E+00
         0.00000E+00
         0.00000E+00
         0.00000E+00
         0.00000E+00
         0.00000E+00
         0.00000E+00
         0.00000E+00
         0.00000E+00
         0.00000E+00
         0.00000E+00
         0.00000E+00
         0.00000E+00
         0.00000E+00
         0.00000E+00
         0.00000E+00
         0.00000E+00
         0.00000E+00
         0.00000E+00
         0.00000E+00
         0.00000E+00
         0.00000E+00
         0.00000E+00
         0.00000E+00
         0.00000E+00
         0.00000E+00
         0.00000E+00
         0.00000E+00
         0.00000E+00
         0.00000E+00
         0.00000E+00
         0.00000E+00
         0.00000E+00
         0.00000E+00
         0.00000E+00
         0.00000E+00
         0.00000E+00
         0.00000E+00
         0.00000E+00
         0.00000E+00
         0.00000E+00
         0.00000E+00
         0.00000E+00
         0.00000E+00
         0.00000E+00
         0.00000E+00
         0.00000E+00
         0.00000E+00
         0.00000E+00
         0.00000E+00
         0.00000E+00
         0.00000E+00
         0.00000E+00
         0.00000E+00
         0.00000E+00
         0.00000E+00
         0.00000E+00
         0.00000E+00
         0.00000E+00
         0.00000E+00
         0.00000E+00
         0.00000E+00
         0.00000E+00
         0.00000E+00
         0.00000E+00
         0.00000E+00
         0.00000E+00
         0.00000E+00
         0.00000E+00
         0.00000E+00
         0.00000E+00
         0.00000E+00
         0.00000E+00
         0.00000E+00
         0.00000E+00
         0.00000E+00
         0.00000E+00
         0.00000E+00
         0.00000E+00
         0.00000E+00
         0.00000E+00
         0.00000E+00
         0.00000E+00
         0.00000E+00
         0.00000E+00
         0.00000E+00
         0.00000E+00
         0.00000E+00
         0.00000E+00
         0.00000E+00
         0.00000E+00
         0.00000E+00
         0.00000E+00
         0.00000E+00
         0.00000E+00
         0.00000E+00
         0.00000E+00
         0.00000E+00
         0.00000E+00
         0.00000E+00
         0.00000E+00
         0.00000E+00
         0.00000E+00
         0.00000E+00
         0.00000E+00
         0.00000E+00
         0.00000E+00
         0.00000E+00
         0.00000E+00
         0.00000E+00
         0.00000E+00
         0.00000E+00
         0.00000E+00
         0.00000E+00
         0.00000E+00
         0.00000E+00
         0.00000E+00
         0.00000E+00
         0.00000E+00
         0.00000E+00
         0.00000E+00
         0.00000E+00
         0.00000E+00
         0.00000E+00
         0.00000E+00
         0.00000E+00
         0.00000E+00
         0.00000E+00
         0.00000E+00
         0.00000E+00
         0.00000E+00
         0.00000E+00
         0.00000E+00
         0.00000E+00
         0.00000E+00
         0.00000E+00
         0.00000E+00
         0.00000E+00
         0.00000E+00
         0.00000E+00
         0.00000E+00
         0.00000E+00
         0.00000E+00
         0.00000E+00
         0.00000E+00
         0.00000E+00
         0.00000E+00
         0.00000E+00
         0.00000E+00
         0.00000E+00
         0.00000E+00
         0.00000E+00
         0.00000E+00
         0.00000E+00
         0.00000E+00
         0.00000E+00
         0.00000E+00
         0.00000E+00
         0.00000E+00
         0.00000E+00
         0.00000E+00
         0.00000E+00
         0.00000E+00
         0.00000E+00
         0.00000E+00
         0.00000E+00
         0.00000E+00
         0.00000E+00
         0.00000E+00
         0.00000E+00
         0.00000E+00
         0.00000E+00
         0.00000E+00
         0.00000E+00
         0.00000E+00
         0.00000E+00
         0.00000E+00
         0.00000E+00
         0.00000E+00
         0.00000E+00
         0.00000E+00
         0.00000E+00
         0.00000E+00
         0.00000E+00
         0.00000E+00
         0.00000E+00
         0.00000E+00
         0.00000E+00
         0.00000E+00
         0.00000E+00
         0.00000E+00
         0.00000E+00
         0.00000E+00
         0.00000E+00
         0.00000E+00
         0.00000E+00
         0.00000E+00
         0.00000E+00
         0.00000E+00
         0.00000E+00
         0.00000E+00
         0.00000E+00
         0.00000E+00
         0.00000E+00
         0.00000E+00
         0.00000E+00
         0.00000E+00
         0.00000E+00
         0.00000E+00
         0.00000E+00
         0.00000E+00
         0.00000E+00
         0.00000E+00
         0.00000E+00
         0.00000E+00
         0.00000E+00
         0.00000E+00
         0.00000E+00
         0.00000E+00
         0.00000E+00
         0.00000E+00
         0.00000E+00
         0.00000E+00
         0.00000E+00
         0.00000E+00
         0.00000E+00
         0.00000E+00
         0.00000E+00
         0.00000E+00
         0.00000E+00
         0.00000E+00
         0.00000E+00
         0.00000E+00
         0.00000E+00
         0.00000E+00
         0.00000E+00
         0.00000E+00
         0.00000E+00
         0.00000E+00
         0.00000E+00
         0.00000E+00
         0.00000E+00
         0.00000E+00
         0.00000E+00
         0.00000E+00
         0.00000E+00
         0.00000E+00
         0.00000E+00
         0.00000E+00
         0.00000E+00
         0.00000E+00
         0.00000E+00
         0.00000E+00
         0.00000E+00
         0.00000E+00
         0.00000E+00
         0.00000E+00
         0.00000E+00
         0.00000E+00
         0.00000E+00
         0.00000E+00
         0.00000E+00
         0.00000E+00
         0.00000E+00
         0.00000E+00
         0.00000E+00
         0.00000E+00
         0.00000E+00
         0.00000E+00
         0.00000E+00
         0.00000E+00
         0.00000E+00
         0.00000E+00
         0.00000E+00
         0.00000E+00
         0.00000E+00
         0.00000E+00
         0.00000E+00
         0.00000E+00
         0.00000E+00
         0.00000E+00
         0.00000E+00
         0.00000E+00
         0.00000E+00
         0.00000E+00
         0.00000E+00
         0.00000E+00
         0.00000E+00
         0.00000E+00
         0.00000E+00
         0.00000E+00
         0.00000E+00
         0.00000E+00
         0.00000E+00
         0.00000E+00
         0.00000E+00
         0.00000E+00
         0.00000E+00
         0.00000E+00
         0.00000E+00
         0.00000E+00
         0.00000E+00
         0.00000E+00
         0.00000E+00
         0.00000E+00
         0.00000E+00
         0.00000E+00
         0.00000E+00
         0.00000E+00
         0.00000E+00
         0.00000E+00
         0.00000E+00
         0.00000E+00
         0.00000E+00
         0.00000E+00
         0.00000E+00
         0.00000E+00
         0.00000E+00
         0.00000E+00
         0.00000E+00
         0.00000E+00
         0.00000E+00
         0.00000E+00
         0.00000E+00
         0.00000E+00
         0.00000E+00
         0.00000E+00
         0.00000E+00
         0.00000E+00
         0.00000E+00
         0.00000E+00
         0.00000E+00
         0.00000E+00
         0.00000E+00
         0.00000E+00
         0.00000E+00
         0.00000E+00
         0.00000E+00
         0.00000E+00
         0.00000E+00
         0.00000E+00
         0.00000E+00
         0.00000E+00
         0.00000E+00
         0.00000E+00
         0.00000E+00
         0.00000E+00
         0.00000E+00
         0.00000E+00
         0.00000E+00
         0.00000E+00
         0.00000E+00
         0.00000E+00
         0.00000E+00
         0.00000E+00
         0.00000E+00
         0.00000E+00
         0.00000E+00
         0.00000E+00
         0.00000E+00
         0.00000E+00
         0.00000E+00
         0.00000E+00
         0.00000E+00
         0.00000E+00
         0.00000E+00
         0.00000E+00
         0.00000E+00
         0.00000E+00
         0.00000E+00
         0.00000E+00
         0.00000E+00
         0.00000E+00
         0.00000E+00
         0.00000E+00
         0.00000E+00
         0.00000E+00
         0.00000E+00
         0.00000E+00
         0.00000E+00
         0.00000E+00
         0.00000E+00
         0.00000E+00
         0.00000E+00
         0.00000E+00
         0.00000E+00
         0.00000E+00
         0.00000E+00
         0.00000E+00
         0.00000E+00
         0.00000E+00
         0.00000E+00
         0.00000E+00
         0.00000E+00
         0.00000E+00
         0.00000E+00
         0.00000E+00
         0.00000E+00
         0.00000E+00
         0.00000E+00
         0.00000E+00
         0.00000E+00
         0.00000E+00
         0.00000E+00
         0.00000E+00
         0.00000E+00
         0.00000E+00
         0.00000E+00
         0.00000E+00
         0.00000E+00
         0.00000E+00
         0.00000E+00
         0.00000E+00
         0.00000E+00
         0.00000E+00
         0.00000E+00
         0.00000E+00
         0.00000E+00
         0.00000E+00
         0.00000E+00
         0.00000E+00
         0.00000E+00
         0.00000E+00
         0.00000E+00
         0.00000E+00
         0.00000E+00
         0.00000E+00
         0.00000E+00
         0.00000E+00
         0.00000E+00
         0.00000E+00
         0.00000E+00
         0.00000E+00
         0.00000E+00
         0.00000E+00
         0.00000E+00
         0.00000E+00
         0.00000E+00
         0.00000E+00
         0.00000E+00
         0.00000E+00
         0.00000E+00
         0.00000E+00
         0.00000E+00
         0.00000E+00
         0.00000E+00
         0.00000E+00
         0.00000E+00
         0.00000E+00
         0.00000E+00
         0.00000E+00
         0.00000E+00
         0.00000E+00
         0.00000E+00
         0.00000E+00
         0.00000E+00
         0.00000E+00
         0.00000E+00
         0.00000E+00
         0.00000E+00
         0.00000E+00
         0.00000E+00
         0.00000E+00
         0.00000E+00
         0.00000E+00
         0.00000E+00
         0.00000E+00
         0.00000E+00
         0.00000E+00
         0.00000E+00
         0.00000E+00
         0.00000E+00
         0.00000E+00
         0.00000E+00
         0.00000E+00
         0.00000E+00
         0.00000E+00
         0.00000E+00
         0.00000E+00
         0.00000E+00
         0.00000E+00
         0.00000E+00
         0.00000E+00
         0.00000E+00
         0.00000E+00
         0.00000E+00
         0.00000E+00
         0.00000E+00
         0.00000E+00
         0.00000E+00
         0.00000E+00
         0.00000E+00
         0.00000E+00
         0.00000E+00
         0.00000E+00
         0.00000E+00
         0.00000E+00
         0.00000E+00
         0.00000E+00
         0.00000E+00
         0.00000E+00
         0.00000E+00
         0.00000E+00
         0.00000E+00
         0.00000E+00
         0.00000E+00
         0.00000E+00
         0.00000E+00
         0.00000E+00
         0.00000E+00
         0.00000E+00
         0.00000E+00
         0.00000E+00
         0.00000E+00
         0.00000E+00
         0.00000E+00
         0.00000E+00
         0.00000E+00
         0.00000E+00
         0.00000E+00
         0.00000E+00
         0.00000E+00
         0.00000E+00
         0.00000E+00
         0.00000E+00
         0.00000E+00
         0.00000E+00
         0.00000E+00
         0.00000E+00
         0.00000E+00
         0.00000E+00
         0.00000E+00
         0.00000E+00
         0.00000E+00
         0.00000E+00
         0.00000E+00
         0.00000E+00
         0.00000E+00
         0.00000E+00
         0.00000E+00
         0.00000E+00
         0.00000E+00
         0.00000E+00
         0.00000E+00
         0.00000E+00
         0.00000E+00
         0.00000E+00
         0.00000E+00
         0.00000E+00
         0.00000E+00
         0.00000E+00
         0.00000E+00
         0.00000E+00
         0.00000E+00
         0.00000E+00
         0.00000E+00
         0.00000E+00
         0.00000E+00
         0.00000E+00
         0.00000E+00
         0.00000E+00
         0.00000E+00
         0.00000E+00
         0.00000E+00
         0.00000E+00
         0.00000E+00
         0.00000E+00
         0.00000E+00
         0.00000E+00
         0.00000E+00
         0.00000E+00
         0.00000E+00
         0.00000E+00
         0.00000E+00
         0.00000E+00
         0.00000E+00
         0.00000E+00
         0.00000E+00
         0.00000E+00
         0.00000E+00
         0.00000E+00
         0.00000E+00
         0.00000E+00
         0.00000E+00
         0.00000E+00
         0.00000E+00
         0.00000E+00
         0.00000E+00
         0.00000E+00
         0.00000E+00
         0.00000E+00
         0.00000E+00
         0.00000E+00
         0.00000E+00
         0.00000E+00
         0.00000E+00
         0.00000E+00
         0.00000E+00
         0.00000E+00
         0.00000E+00
         0.00000E+00
         0.00000E+00
         0.00000E+00
         0.00000E+00
         0.00000E+00
         0.00000E+00
         0.00000E+00
         0.00000E+00
         0.00000E+00
         0.00000E+00
         0.00000E+00
         0.00000E+00
         0.00000E+00
         0.00000E+00
         0.00000E+00
         0.00000E+00
         0.00000E+00
         0.00000E+00
         0.00000E+00
         0.00000E+00
         0.00000E+00
         0.00000E+00
         0.00000E+00
         0.00000E+00
         0.00000E+00
         0.00000E+00
         0.00000E+00
         0.00000E+00
         0.00000E+00
         0.00000E+00
         0.00000E+00
         0.00000E+00
         0.00000E+00
         0.00000E+00
         0.00000E+00
         0.00000E+00
         0.00000E+00
         0.00000E+00
         0.00000E+00
         0.00000E+00
         0.00000E+00
         0.00000E+00
         0.00000E+00
         0.00000E+00
         0.00000E+00
         0.00000E+00
         0.00000E+00
         0.00000E+00
         0.00000E+00
         0.00000E+00
         0.00000E+00
         0.00000E+00
         0.00000E+00
         0.00000E+00
         0.00000E+00
         0.00000E+00
         0.00000E+00
         0.00000E+00
         0.00000E+00
         0.00000E+00
         0.00000E+00
         0.00000E+00
         0.00000E+00
         0.00000E+00
         0.00000E+00
         0.00000E+00
         0.00000E+00
         0.00000E+00
         0.00000E+00
         0.00000E+00
         0.00000E+00
         0.00000E+00
         0.00000E+00
         0.00000E+00
         0.00000E+00
         0.00000E+00
         0.00000E+00
         0.00000E+00
         0.00000E+00
         0.00000E+00
         0.00000E+00
         0.00000E+00
         0.00000E+00
         0.00000E+00
         0.00000E+00
         0.00000E+00
         0.00000E+00
         0.00000E+00
         0.00000E+00
         0.00000E+00
         0.00000E+00
         0.00000E+00
         0.00000E+00
         0.00000E+00
         0.00000E+00
         0.00000E+00
         0.00000E+00
         0.00000E+00
         0.00000E+00
         0.00000E+00
         0.00000E+00
         0.00000E+00
         0.00000E+00
         0.00000E+00
         0.00000E+00
         0.00000E+00
         0.00000E+00
         0.00000E+00
         0.00000E+00
         0.00000E+00
         0.00000E+00
         0.00000E+00
         0.00000E+00
         0.00000E+00
         0.00000E+00
         0.00000E+00
         0.00000E+00
         0.00000E+00
         0.00000E+00
         0.00000E+00
         0.00000E+00
         0.00000E+00
         0.00000E+00
         0.00000E+00
         0.00000E+00
         0.00000E+00
         0.00000E+00
         0.00000E+00
         0.00000E+00
         0.00000E+00
         0.00000E+00
         0.00000E+00
         0.00000E+00
         0.00000E+00
         0.00000E+00
         0.00000E+00
         0.00000E+00
         0.00000E+00
         0.00000E+00
         0.00000E+00
         0.00000E+00
         0.00000E+00
         0.00000E+00
         0.00000E+00
         0.00000E+00
         0.00000E+00
         0.00000E+00
         0.00000E+00
         0.00000E+00
         0.00000E+00
         0.00000E+00
         0.00000E+00
         0.00000E+00
         0.00000E+00
         0.00000E+00
         0.00000E+00
         0.00000E+00
         0.00000E+00
         0.00000E+00
         0.00000E+00
         0.00000E+00
         0.00000E+00
         0.00000E+00
         0.00000E+00
         0.00000E+00
         0.00000E+00
         0.00000E+00
         0.00000E+00
         0.00000E+00
         0.00000E+00
         0.00000E+00
         0.00000E+00
         0.00000E+00
         0.00000E+00
         0.00000E+00
         0.00000E+00
         0.00000E+00
         0.00000E+00
         0.00000E+00
         0.00000E+00
         0.00000E+00
         0.00000E+00
         0.00000E+00
         0.00000E+00
         0.00000E+00
         0.00000E+00
         0.00000E+00
         0.00000E+00
         0.00000E+00
         0.00000E+00
         0.00000E+00
         0.00000E+00
         0.00000E+00
         0.00000E+00
         0.00000E+00
         0.00000E+00
         0.00000E+00
         0.00000E+00
         0.00000E+00
         0.00000E+00
         0.00000E+00
         0.00000E+00
         0.00000E+00
         0.00000E+00
         0.00000E+00
         0.00000E+00
         0.00000E+00
         0.00000E+00
         0.00000E+00
         0.00000E+00
         0.00000E+00
         0.00000E+00
         0.00000E+00
         0.00000E+00
         0.00000E+00
         0.00000E+00
         0.00000E+00
         0.00000E+00
         0.00000E+00
         0.00000E+00
         0.00000E+00
         0.00000E+00
         0.00000E+00
         0.00000E+00
         0.00000E+00
         0.00000E+00
         0.00000E+00
         0.00000E+00
         0.00000E+00
         0.00000E+00
         0.00000E+00
         0.00000E+00
         0.00000E+00
         0.00000E+00
         0.00000E+00
         0.00000E+00
         0.00000E+00
         0.00000E+00
         0.00000E+00
         0.00000E+00
         0.00000E+00
         0.00000E+00
         0.00000E+00
         0.00000E+00
         0.00000E+00
         0.00000E+00
         0.00000E+00
         0.00000E+00
         0.00000E+00
         0.00000E+00
         0.00000E+00
         0.00000E+00
         0.00000E+00
         0.00000E+00
         0.00000E+00
         0.00000E+00
         0.00000E+00
         0.00000E+00
         0.00000E+00
         0.00000E+00
         0.00000E+00
         0.00000E+00
         0.00000E+00
         0.00000E+00
         0.00000E+00
         0.00000E+00
         0.00000E+00
         0.00000E+00
         0.00000E+00
         0.00000E+00
         0.00000E+00
         0.00000E+00
         0.00000E+00
         0.00000E+00
         0.00000E+00
         0.00000E+00
         0.00000E+00
         0.00000E+00
         0.00000E+00
         0.00000E+00
         0.00000E+00
         0.00000E+00
         0.00000E+00
         0.00000E+00
         0.00000E+00
         0.00000E+00
         0.00000E+00
         0.00000E+00
         0.00000E+00
         0.00000E+00
         0.00000E+00
         0.00000E+00
         0.00000E+00
         0.00000E+00
         0.00000E+00
         0.00000E+00
         0.00000E+00
         0.00000E+00
         0.00000E+00
         0.00000E+00
         0.00000E+00
         0.00000E+00
         0.00000E+00
         0.00000E+00
         0.00000E+00
         0.00000E+00
         0.00000E+00
         0.00000E+00
         0.00000E+00
         0.00000E+00
         0.00000E+00
         0.00000E+00
         0.00000E+00
         0.00000E+00
         0.00000E+00
         0.00000E+00
         0.00000E+00
         0.00000E+00
         0.00000E+00
         0.00000E+00
         0.00000E+00
         0.00000E+00
         0.00000E+00
         0.00000E+00
         0.00000E+00
         0.00000E+00
         0.00000E+00
         0.00000E+00
         0.00000E+00
         0.00000E+00
         0.00000E+00
         0.00000E+00
         0.00000E+00
         0.00000E+00
         0.00000E+00
         0.00000E+00
         0.00000E+00
         0.00000E+00
         0.00000E+00
         0.00000E+00
         0.00000E+00
         0.00000E+00
         0.00000E+00
         0.00000E+00
         0.00000E+00
         0.00000E+00
         0.00000E+00
         0.00000E+00
         0.00000E+00
         0.00000E+00
         0.00000E+00
         0.00000E+00
         0.00000E+00
         0.00000E+00
         0.00000E+00
         0.00000E+00
         0.00000E+00
         0.00000E+00
         0.00000E+00
         0.00000E+00
         0.00000E+00
         0.00000E+00
         0.00000E+00
         0.00000E+00
         0.00000E+00
         0.00000E+00
         0.00000E+00
         0.00000E+00
         0.00000E+00
         0.00000E+00
         0.00000E+00
         0.00000E+00
         0.00000E+00
         0.00000E+00
         0.00000E+00
         0.00000E+00
         0.00000E+00
         0.00000E+00
         0.00000E+00
         0.00000E+00
         0.00000E+00
         0.00000E+00
         0.00000E+00
         0.00000E+00
         0.00000E+00
         0.00000E+00
         0.00000E+00
         0.00000E+00
         0.00000E+00
         0.00000E+00
         0.00000E+00
         0.00000E+00
         0.00000E+00
         0.00000E+00
         0.00000E+00
         0.00000E+00
         0.00000E+00
         0.00000E+00
         0.00000E+00
         0.00000E+00
         0.00000E+00
         0.00000E+00
         0.00000E+00
         0.00000E+00
         0.00000E+00
         0.00000E+00
         0.00000E+00
         0.00000E+00
         0.00000E+00
         0.00000E+00
         0.00000E+00
         0.00000E+00
         0.00000E+00
         0.00000E+00
         0.00000E+00
         0.00000E+00
         0.00000E+00
         0.00000E+00
         0.00000E+00
         0.00000E+00
         0.00000E+00
         0.00000E+00
         0.00000E+00
         0.00000E+00
         0.00000E+00
         0.00000E+00
         0.00000E+00
         0.00000E+00
         0.00000E+00
         0.00000E+00
         0.00000E+00
         0.00000E+00
         0.00000E+00
         0.00000E+00
         0.00000E+00
         0.00000E+00
         0.00000E+00
         0.00000E+00
         0.00000E+00
         0.00000E+00
         0.00000E+00
         0.00000E+00
         0.00000E+00
         0.00000E+00
         0.00000E+00
         0.00000E+00
         0.00000E+00
         0.00000E+00
         0.00000E+00
         0.00000E+00
         0.00000E+00
         0.00000E+00
         0.00000E+00
         0.00000E+00
         0.00000E+00
         0.00000E+00
         0.00000E+00
         0.00000E+00
         0.00000E+00
         0.00000E+00
         0.00000E+00
         0.00000E+00
         0.00000E+00
         0.00000E+00
         0.00000E+00
         0.00000E+00
         0.00000E+00
         0.00000E+00
         0.00000E+00
         0.00000E+00
         0.00000E+00
         0.00000E+00
         0.00000E+00
         0.00000E+00
         0.00000E+00
         0.00000E+00
         0.00000E+00
         0.00000E+00
         0.00000E+00
         0.00000E+00
         0.00000E+00
         0.00000E+00
         0.00000E+00
         0.00000E+00
         0.00000E+00
         0.00000E+00
         0.00000E+00
         0.00000E+00
         0.00000E+00
         0.00000E+00
         0.00000E+00
         0.00000E+00
         0.00000E+00
         0.00000E+00
         0.00000E+00
         0.00000E+00
         0.00000E+00
         0.00000E+00
         0.00000E+00
         0.00000E+00
         0.00000E+00
         0.00000E+00
         0.00000E+00
         0.00000E+00
         0.00000E+00
         0.00000E+00
         0.00000E+00
         0.00000E+00
         0.00000E+00
         0.00000E+00
         0.00000E+00
         0.00000E+00
         0.00000E+00
         0.00000E+00
         0.00000E+00
         0.00000E+00
         0.00000E+00
         0.00000E+00
         0.00000E+00
         0.00000E+00
         0.00000E+00
         0.00000E+00
         0.00000E+00
         0.00000E+00
         0.00000E+00
         0.00000E+00
         0.00000E+00
         0.00000E+00
         0.00000E+00
         0.00000E+00
         0.00000E+00
         0.00000E+00
         0.00000E+00
         0.00000E+00
         0.00000E+00
         0.00000E+00
         0.00000E+00
         0.00000E+00
         0.00000E+00
         0.00000E+00
         0.00000E+00
         0.00000E+00
         0.00000E+00
         0.00000E+00
         0.00000E+00
         0.00000E+00
         0.00000E+00
         0.00000E+00
         0.00000E+00
         0.00000E+00
         0.00000E+00
         0.00000E+00
         0.00000E+00
         0.00000E+00
         0.00000E+00
         0.00000E+00
         0.00000E+00
         0.00000E+00
         0.00000E+00
         0.00000E+00
         0.00000E+00
         0.00000E+00
         0.00000E+00
         0.00000E+00
         0.00000E+00
         0.00000E+00
         0.00000E+00
         0.00000E+00
         0.00000E+00
         0.00000E+00
         0.00000E+00
         0.00000E+00
         0.00000E+00
         0.00000E+00
         0.00000E+00
         0.00000E+00
         0.00000E+00
         0.00000E+00
         0.00000E+00
         0.00000E+00
         0.00000E+00
         0.00000E+00
         0.00000E+00
         0.00000E+00
         0.00000E+00
         0.00000E+00
         0.00000E+00
         0.00000E+00
         0.00000E+00
         0.00000E+00
         0.00000E+00
         0.00000E+00
         0.00000E+00
         0.00000E+00
         0.00000E+00
         0.00000E+00
         0.00000E+00
         0.00000E+00
         0.00000E+00
         0.00000E+00
         0.00000E+00
         0.00000E+00
         0.00000E+00
         0.00000E+00
         0.00000E+00
         0.00000E+00
         0.00000E+00
         0.00000E+00
         0.00000E+00
         0.00000E+00
         0.00000E+00
         0.00000E+00
         0.00000E+00
         0.00000E+00
         0.00000E+00
         0.00000E+00
         0.00000E+00
         0.00000E+00
         0.00000E+00
         0.00000E+00
         0.00000E+00
         0.00000E+00
         0.00000E+00
         0.00000E+00
         0.00000E+00
         0.00000E+00
         0.00000E+00
         0.00000E+00
         0.00000E+00
         0.00000E+00
         0.00000E+00
         0.00000E+00
         0.00000E+00
         0.00000E+00
         0.00000E+00
         0.00000E+00
         0.00000E+00
         0.00000E+00
         0.00000E+00
         0.00000E+00
         0.00000E+00
         0.00000E+00
         0.00000E+00
         0.00000E+00
         0.00000E+00
         0.00000E+00
         0.00000E+00
         0.00000E+00
         0.00000E+00
         0.00000E+00
         0.00000E+00
         0.00000E+00
         0.00000E+00
         0.00000E+00
         0.00000E+00
         0.00000E+00
         0.00000E+00
         0.00000E+00
         0.00000E+00
         0.00000E+00
         0.00000E+00
         0.00000E+00
         0.00000E+00
         0.00000E+00
         0.00000E+00
         0.00000E+00
         0.00000E+00
         0.00000E+00
         0.00000E+00
         0.00000E+00
         0.00000E+00
         0.00000E+00
         0.00000E+00
         0.00000E+00
         0.00000E+00
         0.00000E+00
         0.00000E+00
         0.00000E+00
         0.00000E+00
         0.00000E+00
         0.00000E+00
         0.00000E+00
         0.00000E+00
         0.00000E+00
         0.00000E+00
         0.00000E+00
         0.00000E+00
  
SCALARS                init_velocity_z  double 1
LOOKUP_TABLE default
        -0.37300E+03
        -0.37300E+03
        -0.37300E+03
        -0.37300E+03
        -0.37300E+03
        -0.37300E+03
        -0.37300E+03
        -0.37300E+03
        -0.37300E+03
        -0.37300E+03
        -0.37300E+03
        -0.37300E+03
        -0.37300E+03
        -0.37300E+03
        -0.37300E+03
        -0.37300E+03
        -0.37300E+03
        -0.37300E+03
        -0.37300E+03
        -0.37300E+03
        -0.37300E+03
        -0.37300E+03
        -0.37300E+03
        -0.37300E+03
        -0.37300E+03
        -0.37300E+03
        -0.37300E+03
        -0.37300E+03
        -0.37300E+03
        -0.37300E+03
        -0.37300E+03
        -0.37300E+03
        -0.37300E+03
        -0.37300E+03
        -0.37300E+03
        -0.37300E+03
        -0.37300E+03
        -0.37300E+03
        -0.37300E+03
        -0.37300E+03
        -0.37300E+03
        -0.37300E+03
        -0.37300E+03
        -0.37300E+03
        -0.37300E+03
        -0.37300E+03
        -0.37300E+03
        -0.37300E+03
        -0.37300E+03
        -0.37300E+03
        -0.37300E+03
        -0.37300E+03
        -0.37300E+03
        -0.37300E+03
        -0.37300E+03
        -0.37300E+03
        -0.37300E+03
        -0.37300E+03
        -0.37300E+03
        -0.37300E+03
        -0.37300E+03
        -0.37300E+03
        -0.37300E+03
        -0.37300E+03
        -0.37300E+03
        -0.37300E+03
        -0.37300E+03
        -0.37300E+03
        -0.37300E+03
        -0.37300E+03
        -0.37300E+03
        -0.37300E+03
        -0.37300E+03
        -0.37300E+03
        -0.37300E+03
        -0.37300E+03
        -0.37300E+03
        -0.37300E+03
        -0.37300E+03
        -0.37300E+03
        -0.37300E+03
        -0.37300E+03
        -0.37300E+03
        -0.37300E+03
        -0.37300E+03
        -0.37300E+03
        -0.37300E+03
        -0.37300E+03
        -0.37300E+03
        -0.37300E+03
        -0.37300E+03
        -0.37300E+03
        -0.37300E+03
        -0.37300E+03
        -0.37300E+03
        -0.37300E+03
        -0.37300E+03
        -0.37300E+03
        -0.37300E+03
        -0.37300E+03
        -0.37300E+03
        -0.37300E+03
        -0.37300E+03
        -0.37300E+03
        -0.37300E+03
        -0.37300E+03
        -0.37300E+03
        -0.37300E+03
        -0.37300E+03
        -0.37300E+03
        -0.37300E+03
        -0.37300E+03
        -0.37300E+03
        -0.37300E+03
        -0.37300E+03
        -0.37300E+03
        -0.37300E+03
        -0.37300E+03
        -0.37300E+03
        -0.37300E+03
        -0.37300E+03
        -0.37300E+03
        -0.37300E+03
        -0.37300E+03
        -0.37300E+03
        -0.37300E+03
        -0.37300E+03
        -0.37300E+03
        -0.37300E+03
        -0.37300E+03
        -0.37300E+03
        -0.37300E+03
        -0.37300E+03
        -0.37300E+03
        -0.37300E+03
        -0.37300E+03
        -0.37300E+03
        -0.37300E+03
        -0.37300E+03
        -0.37300E+03
        -0.37300E+03
        -0.37300E+03
        -0.37300E+03
        -0.37300E+03
        -0.37300E+03
        -0.37300E+03
        -0.37300E+03
        -0.37300E+03
        -0.37300E+03
        -0.37300E+03
        -0.37300E+03
        -0.37300E+03
        -0.37300E+03
        -0.37300E+03
        -0.37300E+03
        -0.37300E+03
        -0.37300E+03
        -0.37300E+03
        -0.37300E+03
        -0.37300E+03
        -0.37300E+03
        -0.37300E+03
        -0.37300E+03
        -0.37300E+03
        -0.37300E+03
        -0.37300E+03
        -0.37300E+03
        -0.37300E+03
        -0.37300E+03
        -0.37300E+03
        -0.37300E+03
        -0.37300E+03
        -0.37300E+03
        -0.37300E+03
        -0.37300E+03
        -0.37300E+03
        -0.37300E+03
        -0.37300E+03
        -0.37300E+03
        -0.37300E+03
        -0.37300E+03
        -0.37300E+03
        -0.37300E+03
        -0.37300E+03
        -0.37300E+03
        -0.37300E+03
        -0.37300E+03
        -0.37300E+03
        -0.37300E+03
        -0.37300E+03
        -0.37300E+03
        -0.37300E+03
        -0.37300E+03
        -0.37300E+03
        -0.37300E+03
        -0.37300E+03
        -0.37300E+03
        -0.37300E+03
        -0.37300E+03
        -0.37300E+03
        -0.37300E+03
        -0.37300E+03
        -0.37300E+03
        -0.37300E+03
        -0.37300E+03
        -0.37300E+03
        -0.37300E+03
        -0.37300E+03
        -0.37300E+03
        -0.37300E+03
        -0.37300E+03
        -0.37300E+03
        -0.37300E+03
        -0.37300E+03
        -0.37300E+03
        -0.37300E+03
        -0.37300E+03
        -0.37300E+03
        -0.37300E+03
        -0.37300E+03
        -0.37300E+03
        -0.37300E+03
        -0.37300E+03
        -0.37300E+03
        -0.37300E+03
        -0.37300E+03
        -0.37300E+03
        -0.37300E+03
        -0.37300E+03
        -0.37300E+03
        -0.37300E+03
        -0.37300E+03
        -0.37300E+03
        -0.37300E+03
        -0.37300E+03
        -0.37300E+03
        -0.37300E+03
        -0.37300E+03
        -0.37300E+03
        -0.37300E+03
        -0.37300E+03
        -0.37300E+03
        -0.37300E+03
        -0.37300E+03
        -0.37300E+03
        -0.37300E+03
        -0.37300E+03
        -0.37300E+03
        -0.37300E+03
        -0.37300E+03
        -0.37300E+03
        -0.37300E+03
        -0.37300E+03
        -0.37300E+03
        -0.37300E+03
        -0.37300E+03
        -0.37300E+03
        -0.37300E+03
        -0.37300E+03
        -0.37300E+03
        -0.37300E+03
        -0.37300E+03
        -0.37300E+03
        -0.37300E+03
        -0.37300E+03
        -0.37300E+03
        -0.37300E+03
        -0.37300E+03
        -0.37300E+03
        -0.37300E+03
        -0.37300E+03
        -0.37300E+03
        -0.37300E+03
        -0.37300E+03
        -0.37300E+03
        -0.37300E+03
        -0.37300E+03
        -0.37300E+03
        -0.37300E+03
        -0.37300E+03
        -0.37300E+03
        -0.37300E+03
        -0.37300E+03
        -0.37300E+03
        -0.37300E+03
        -0.37300E+03
        -0.37300E+03
        -0.37300E+03
        -0.37300E+03
        -0.37300E+03
        -0.37300E+03
        -0.37300E+03
        -0.37300E+03
        -0.37300E+03
        -0.37300E+03
        -0.37300E+03
        -0.37300E+03
        -0.37300E+03
        -0.37300E+03
        -0.37300E+03
        -0.37300E+03
        -0.37300E+03
        -0.37300E+03
        -0.37300E+03
        -0.37300E+03
        -0.37300E+03
        -0.37300E+03
        -0.37300E+03
        -0.37300E+03
        -0.37300E+03
        -0.37300E+03
        -0.37300E+03
        -0.37300E+03
        -0.37300E+03
        -0.37300E+03
        -0.37300E+03
        -0.37300E+03
        -0.37300E+03
        -0.37300E+03
        -0.37300E+03
        -0.37300E+03
        -0.37300E+03
        -0.37300E+03
        -0.37300E+03
        -0.37300E+03
        -0.37300E+03
        -0.37300E+03
        -0.37300E+03
        -0.37300E+03
        -0.37300E+03
        -0.37300E+03
        -0.37300E+03
        -0.37300E+03
        -0.37300E+03
        -0.37300E+03
        -0.37300E+03
        -0.37300E+03
        -0.37300E+03
        -0.37300E+03
        -0.37300E+03
        -0.37300E+03
        -0.37300E+03
        -0.37300E+03
        -0.37300E+03
        -0.37300E+03
        -0.37300E+03
        -0.37300E+03
        -0.37300E+03
        -0.37300E+03
        -0.37300E+03
        -0.37300E+03
        -0.37300E+03
        -0.37300E+03
        -0.37300E+03
        -0.37300E+03
        -0.37300E+03
        -0.37300E+03
        -0.37300E+03
        -0.37300E+03
        -0.37300E+03
        -0.37300E+03
        -0.37300E+03
        -0.37300E+03
        -0.37300E+03
        -0.37300E+03
        -0.37300E+03
        -0.37300E+03
        -0.37300E+03
        -0.37300E+03
        -0.37300E+03
        -0.37300E+03
        -0.37300E+03
        -0.37300E+03
        -0.37300E+03
        -0.37300E+03
        -0.37300E+03
        -0.37300E+03
        -0.37300E+03
        -0.37300E+03
        -0.37300E+03
        -0.37300E+03
        -0.37300E+03
        -0.37300E+03
        -0.37300E+03
        -0.37300E+03
        -0.37300E+03
        -0.37300E+03
        -0.37300E+03
        -0.37300E+03
        -0.37300E+03
        -0.37300E+03
        -0.37300E+03
        -0.37300E+03
        -0.37300E+03
        -0.37300E+03
        -0.37300E+03
        -0.37300E+03
        -0.37300E+03
        -0.37300E+03
        -0.37300E+03
        -0.37300E+03
        -0.37300E+03
        -0.37300E+03
        -0.37300E+03
        -0.37300E+03
        -0.37300E+03
        -0.37300E+03
        -0.37300E+03
        -0.37300E+03
        -0.37300E+03
        -0.37300E+03
        -0.37300E+03
        -0.37300E+03
        -0.37300E+03
        -0.37300E+03
        -0.37300E+03
        -0.37300E+03
        -0.37300E+03
        -0.37300E+03
        -0.37300E+03
        -0.37300E+03
        -0.37300E+03
        -0.37300E+03
        -0.37300E+03
        -0.37300E+03
        -0.37300E+03
        -0.37300E+03
        -0.37300E+03
        -0.37300E+03
        -0.37300E+03
        -0.37300E+03
        -0.37300E+03
        -0.37300E+03
        -0.37300E+03
        -0.37300E+03
        -0.37300E+03
        -0.37300E+03
        -0.37300E+03
        -0.37300E+03
        -0.37300E+03
        -0.37300E+03
        -0.37300E+03
        -0.37300E+03
        -0.37300E+03
        -0.37300E+03
        -0.37300E+03
        -0.37300E+03
        -0.37300E+03
        -0.37300E+03
        -0.37300E+03
        -0.37300E+03
        -0.37300E+03
        -0.37300E+03
        -0.37300E+03
        -0.37300E+03
        -0.37300E+03
        -0.37300E+03
        -0.37300E+03
        -0.37300E+03
        -0.37300E+03
        -0.37300E+03
        -0.37300E+03
        -0.37300E+03
        -0.37300E+03
        -0.37300E+03
        -0.37300E+03
        -0.37300E+03
        -0.37300E+03
        -0.37300E+03
        -0.37300E+03
        -0.37300E+03
        -0.37300E+03
        -0.37300E+03
        -0.37300E+03
        -0.37300E+03
        -0.37300E+03
        -0.37300E+03
        -0.37300E+03
        -0.37300E+03
        -0.37300E+03
        -0.37300E+03
        -0.37300E+03
        -0.37300E+03
        -0.37300E+03
        -0.37300E+03
        -0.37300E+03
        -0.37300E+03
        -0.37300E+03
        -0.37300E+03
        -0.37300E+03
        -0.37300E+03
        -0.37300E+03
        -0.37300E+03
        -0.37300E+03
        -0.37300E+03
        -0.37300E+03
        -0.37300E+03
        -0.37300E+03
        -0.37300E+03
        -0.37300E+03
        -0.37300E+03
        -0.37300E+03
        -0.37300E+03
        -0.37300E+03
        -0.37300E+03
        -0.37300E+03
        -0.37300E+03
        -0.37300E+03
        -0.37300E+03
        -0.37300E+03
        -0.37300E+03
        -0.37300E+03
        -0.37300E+03
        -0.37300E+03
        -0.37300E+03
        -0.37300E+03
        -0.37300E+03
        -0.37300E+03
        -0.37300E+03
        -0.37300E+03
        -0.37300E+03
        -0.37300E+03
        -0.37300E+03
        -0.37300E+03
        -0.37300E+03
        -0.37300E+03
        -0.37300E+03
        -0.37300E+03
        -0.37300E+03
        -0.37300E+03
        -0.37300E+03
        -0.37300E+03
        -0.37300E+03
        -0.37300E+03
        -0.37300E+03
        -0.37300E+03
        -0.37300E+03
        -0.37300E+03
        -0.37300E+03
        -0.37300E+03
        -0.37300E+03
        -0.37300E+03
        -0.37300E+03
        -0.37300E+03
        -0.37300E+03
        -0.37300E+03
        -0.37300E+03
        -0.37300E+03
        -0.37300E+03
        -0.37300E+03
        -0.37300E+03
        -0.37300E+03
        -0.37300E+03
        -0.37300E+03
        -0.37300E+03
        -0.37300E+03
        -0.37300E+03
        -0.37300E+03
        -0.37300E+03
        -0.37300E+03
        -0.37300E+03
        -0.37300E+03
        -0.37300E+03
        -0.37300E+03
        -0.37300E+03
        -0.37300E+03
        -0.37300E+03
        -0.37300E+03
        -0.37300E+03
        -0.37300E+03
        -0.37300E+03
        -0.37300E+03
        -0.37300E+03
        -0.37300E+03
        -0.37300E+03
        -0.37300E+03
        -0.37300E+03
        -0.37300E+03
        -0.37300E+03
        -0.37300E+03
        -0.37300E+03
        -0.37300E+03
        -0.37300E+03
        -0.37300E+03
        -0.37300E+03
        -0.37300E+03
        -0.37300E+03
        -0.37300E+03
        -0.37300E+03
        -0.37300E+03
        -0.37300E+03
        -0.37300E+03
        -0.37300E+03
        -0.37300E+03
        -0.37300E+03
        -0.37300E+03
        -0.37300E+03
        -0.37300E+03
        -0.37300E+03
        -0.37300E+03
        -0.37300E+03
        -0.37300E+03
        -0.37300E+03
        -0.37300E+03
        -0.37300E+03
        -0.37300E+03
        -0.37300E+03
        -0.37300E+03
        -0.37300E+03
        -0.37300E+03
        -0.37300E+03
        -0.37300E+03
        -0.37300E+03
        -0.37300E+03
        -0.37300E+03
        -0.37300E+03
        -0.37300E+03
        -0.37300E+03
        -0.37300E+03
        -0.37300E+03
        -0.37300E+03
        -0.37300E+03
        -0.37300E+03
        -0.37300E+03
        -0.37300E+03
        -0.37300E+03
        -0.37300E+03
        -0.37300E+03
        -0.37300E+03
        -0.37300E+03
        -0.37300E+03
        -0.37300E+03
        -0.37300E+03
        -0.37300E+03
        -0.37300E+03
        -0.37300E+03
        -0.37300E+03
        -0.37300E+03
        -0.37300E+03
        -0.37300E+03
        -0.37300E+03
        -0.37300E+03
        -0.37300E+03
        -0.37300E+03
        -0.37300E+03
        -0.37300E+03
        -0.37300E+03
        -0.37300E+03
        -0.37300E+03
        -0.37300E+03
        -0.37300E+03
        -0.37300E+03
        -0.37300E+03
        -0.37300E+03
        -0.37300E+03
        -0.37300E+03
        -0.37300E+03
        -0.37300E+03
        -0.37300E+03
        -0.37300E+03
        -0.37300E+03
        -0.37300E+03
        -0.37300E+03
        -0.37300E+03
        -0.37300E+03
        -0.37300E+03
        -0.37300E+03
        -0.37300E+03
        -0.37300E+03
        -0.37300E+03
        -0.37300E+03
        -0.37300E+03
        -0.37300E+03
        -0.37300E+03
        -0.37300E+03
        -0.37300E+03
        -0.37300E+03
        -0.37300E+03
        -0.37300E+03
        -0.37300E+03
        -0.37300E+03
        -0.37300E+03
        -0.37300E+03
        -0.37300E+03
        -0.37300E+03
        -0.37300E+03
        -0.37300E+03
        -0.37300E+03
        -0.37300E+03
        -0.37300E+03
        -0.37300E+03
        -0.37300E+03
        -0.37300E+03
        -0.37300E+03
        -0.37300E+03
        -0.37300E+03
        -0.37300E+03
        -0.37300E+03
        -0.37300E+03
        -0.37300E+03
        -0.37300E+03
        -0.37300E+03
        -0.37300E+03
        -0.37300E+03
        -0.37300E+03
        -0.37300E+03
        -0.37300E+03
        -0.37300E+03
        -0.37300E+03
        -0.37300E+03
        -0.37300E+03
        -0.37300E+03
        -0.37300E+03
        -0.37300E+03
        -0.37300E+03
        -0.37300E+03
        -0.37300E+03
        -0.37300E+03
        -0.37300E+03
        -0.37300E+03
        -0.37300E+03
        -0.37300E+03
        -0.37300E+03
        -0.37300E+03
        -0.37300E+03
        -0.37300E+03
        -0.37300E+03
        -0.37300E+03
        -0.37300E+03
        -0.37300E+03
        -0.37300E+03
        -0.37300E+03
        -0.37300E+03
        -0.37300E+03
        -0.37300E+03
        -0.37300E+03
        -0.37300E+03
        -0.37300E+03
        -0.37300E+03
        -0.37300E+03
        -0.37300E+03
        -0.37300E+03
        -0.37300E+03
        -0.37300E+03
        -0.37300E+03
        -0.37300E+03
        -0.37300E+03
        -0.37300E+03
        -0.37300E+03
        -0.37300E+03
        -0.37300E+03
        -0.37300E+03
        -0.37300E+03
        -0.37300E+03
        -0.37300E+03
        -0.37300E+03
        -0.37300E+03
        -0.37300E+03
        -0.37300E+03
        -0.37300E+03
        -0.37300E+03
        -0.37300E+03
        -0.37300E+03
        -0.37300E+03
        -0.37300E+03
        -0.37300E+03
        -0.37300E+03
        -0.37300E+03
        -0.37300E+03
        -0.37300E+03
        -0.37300E+03
        -0.37300E+03
        -0.37300E+03
        -0.37300E+03
        -0.37300E+03
        -0.37300E+03
        -0.37300E+03
        -0.37300E+03
        -0.37300E+03
        -0.37300E+03
        -0.37300E+03
        -0.37300E+03
        -0.37300E+03
        -0.37300E+03
        -0.37300E+03
        -0.37300E+03
        -0.37300E+03
        -0.37300E+03
        -0.37300E+03
        -0.37300E+03
        -0.37300E+03
        -0.37300E+03
        -0.37300E+03
        -0.37300E+03
        -0.37300E+03
        -0.37300E+03
        -0.37300E+03
        -0.37300E+03
        -0.37300E+03
        -0.37300E+03
        -0.37300E+03
        -0.37300E+03
        -0.37300E+03
        -0.37300E+03
        -0.37300E+03
        -0.37300E+03
        -0.37300E+03
        -0.37300E+03
        -0.37300E+03
        -0.37300E+03
        -0.37300E+03
        -0.37300E+03
        -0.37300E+03
        -0.37300E+03
        -0.37300E+03
        -0.37300E+03
        -0.37300E+03
        -0.37300E+03
        -0.37300E+03
        -0.37300E+03
        -0.37300E+03
        -0.37300E+03
        -0.37300E+03
        -0.37300E+03
        -0.37300E+03
        -0.37300E+03
        -0.37300E+03
        -0.37300E+03
        -0.37300E+03
        -0.37300E+03
        -0.37300E+03
        -0.37300E+03
        -0.37300E+03
        -0.37300E+03
        -0.37300E+03
        -0.37300E+03
        -0.37300E+03
        -0.37300E+03
        -0.37300E+03
        -0.37300E+03
        -0.37300E+03
        -0.37300E+03
        -0.37300E+03
        -0.37300E+03
        -0.37300E+03
        -0.37300E+03
        -0.37300E+03
        -0.37300E+03
        -0.37300E+03
        -0.37300E+03
        -0.37300E+03
        -0.37300E+03
        -0.37300E+03
        -0.37300E+03
        -0.37300E+03
        -0.37300E+03
        -0.37300E+03
        -0.37300E+03
        -0.37300E+03
        -0.37300E+03
        -0.37300E+03
        -0.37300E+03
        -0.37300E+03
        -0.37300E+03
        -0.37300E+03
        -0.37300E+03
        -0.37300E+03
        -0.37300E+03
        -0.37300E+03
        -0.37300E+03
        -0.37300E+03
        -0.37300E+03
        -0.37300E+03
        -0.37300E+03
        -0.37300E+03
        -0.37300E+03
        -0.37300E+03
        -0.37300E+03
        -0.37300E+03
        -0.37300E+03
        -0.37300E+03
        -0.37300E+03
        -0.37300E+03
        -0.37300E+03
        -0.37300E+03
        -0.37300E+03
        -0.37300E+03
        -0.37300E+03
        -0.37300E+03
        -0.37300E+03
        -0.37300E+03
        -0.37300E+03
        -0.37300E+03
        -0.37300E+03
        -0.37300E+03
        -0.37300E+03
        -0.37300E+03
        -0.37300E+03
        -0.37300E+03
        -0.37300E+03
        -0.37300E+03
        -0.37300E+03
        -0.37300E+03
        -0.37300E+03
        -0.37300E+03
        -0.37300E+03
        -0.37300E+03
        -0.37300E+03
        -0.37300E+03
        -0.37300E+03
        -0.37300E+03
        -0.37300E+03
        -0.37300E+03
        -0.37300E+03
        -0.37300E+03
        -0.37300E+03
        -0.37300E+03
        -0.37300E+03
        -0.37300E+03
        -0.37300E+03
        -0.37300E+03
        -0.37300E+03
        -0.37300E+03
        -0.37300E+03
        -0.37300E+03
        -0.37300E+03
        -0.37300E+03
        -0.37300E+03
        -0.37300E+03
        -0.37300E+03
        -0.37300E+03
        -0.37300E+03
        -0.37300E+03
        -0.37300E+03
        -0.37300E+03
        -0.37300E+03
        -0.37300E+03
        -0.37300E+03
        -0.37300E+03
        -0.37300E+03
        -0.37300E+03
        -0.37300E+03
        -0.37300E+03
        -0.37300E+03
        -0.37300E+03
        -0.37300E+03
        -0.37300E+03
        -0.37300E+03
        -0.37300E+03
        -0.37300E+03
        -0.37300E+03
        -0.37300E+03
        -0.37300E+03
        -0.37300E+03
        -0.37300E+03
        -0.37300E+03
        -0.37300E+03
        -0.37300E+03
        -0.37300E+03
        -0.37300E+03
        -0.37300E+03
        -0.37300E+03
        -0.37300E+03
        -0.37300E+03
        -0.37300E+03
        -0.37300E+03
        -0.37300E+03
        -0.37300E+03
        -0.37300E+03
        -0.37300E+03
        -0.37300E+03
        -0.37300E+03
        -0.37300E+03
        -0.37300E+03
        -0.37300E+03
        -0.37300E+03
        -0.37300E+03
        -0.37300E+03
        -0.37300E+03
        -0.37300E+03
        -0.37300E+03
        -0.37300E+03
        -0.37300E+03
        -0.37300E+03
        -0.37300E+03
        -0.37300E+03
        -0.37300E+03
        -0.37300E+03
        -0.37300E+03
        -0.37300E+03
        -0.37300E+03
        -0.37300E+03
        -0.37300E+03
        -0.37300E+03
        -0.37300E+03
        -0.37300E+03
        -0.37300E+03
        -0.37300E+03
        -0.37300E+03
        -0.37300E+03
        -0.37300E+03
        -0.37300E+03
        -0.37300E+03
        -0.37300E+03
        -0.37300E+03
        -0.37300E+03
        -0.37300E+03
        -0.37300E+03
        -0.37300E+03
        -0.37300E+03
        -0.37300E+03
        -0.37300E+03
        -0.37300E+03
        -0.37300E+03
        -0.37300E+03
        -0.37300E+03
        -0.37300E+03
        -0.37300E+03
        -0.37300E+03
        -0.37300E+03
        -0.37300E+03
        -0.37300E+03
        -0.37300E+03
        -0.37300E+03
        -0.37300E+03
        -0.37300E+03
        -0.37300E+03
        -0.37300E+03
        -0.37300E+03
        -0.37300E+03
        -0.37300E+03
        -0.37300E+03
        -0.37300E+03
        -0.37300E+03
        -0.37300E+03
        -0.37300E+03
        -0.37300E+03
        -0.37300E+03
        -0.37300E+03
        -0.37300E+03
        -0.37300E+03
        -0.37300E+03
        -0.37300E+03
        -0.37300E+03
        -0.37300E+03
        -0.37300E+03
        -0.37300E+03
        -0.37300E+03
        -0.37300E+03
        -0.37300E+03
        -0.37300E+03
        -0.37300E+03
        -0.37300E+03
        -0.37300E+03
        -0.37300E+03
        -0.37300E+03
        -0.37300E+03
        -0.37300E+03
        -0.37300E+03
        -0.37300E+03
        -0.37300E+03
        -0.37300E+03
        -0.37300E+03
        -0.37300E+03
        -0.37300E+03
        -0.37300E+03
        -0.37300E+03
        -0.37300E+03
        -0.37300E+03
        -0.37300E+03
        -0.37300E+03
        -0.37300E+03
        -0.37300E+03
        -0.37300E+03
        -0.37300E+03
        -0.37300E+03
        -0.37300E+03
        -0.37300E+03
        -0.37300E+03
        -0.37300E+03
        -0.37300E+03
        -0.37300E+03
        -0.37300E+03
        -0.37300E+03
        -0.37300E+03
        -0.37300E+03
        -0.37300E+03
        -0.37300E+03
        -0.37300E+03
        -0.37300E+03
        -0.37300E+03
        -0.37300E+03
        -0.37300E+03
        -0.37300E+03
        -0.37300E+03
        -0.37300E+03
        -0.37300E+03
        -0.37300E+03
        -0.37300E+03
        -0.37300E+03
        -0.37300E+03
        -0.37300E+03
        -0.37300E+03
        -0.37300E+03
        -0.37300E+03
        -0.37300E+03
        -0.37300E+03
        -0.37300E+03
        -0.37300E+03
        -0.37300E+03
        -0.37300E+03
        -0.37300E+03
        -0.37300E+03
        -0.37300E+03
        -0.37300E+03
        -0.37300E+03
        -0.37300E+03
        -0.37300E+03
        -0.37300E+03
        -0.37300E+03
        -0.37300E+03
        -0.37300E+03
        -0.37300E+03
        -0.37300E+03
        -0.37300E+03
        -0.37300E+03
        -0.37300E+03
        -0.37300E+03
        -0.37300E+03
        -0.37300E+03
        -0.37300E+03
        -0.37300E+03
        -0.37300E+03
        -0.37300E+03
        -0.37300E+03
        -0.37300E+03
        -0.37300E+03
        -0.37300E+03
        -0.37300E+03
        -0.37300E+03
        -0.37300E+03
        -0.37300E+03
        -0.37300E+03
        -0.37300E+03
        -0.37300E+03
        -0.37300E+03
        -0.37300E+03
        -0.37300E+03
        -0.37300E+03
        -0.37300E+03
        -0.37300E+03
        -0.37300E+03
        -0.37300E+03
        -0.37300E+03
        -0.37300E+03
        -0.37300E+03
        -0.37300E+03
        -0.37300E+03
        -0.37300E+03
        -0.37300E+03
        -0.37300E+03
        -0.37300E+03
        -0.37300E+03
        -0.37300E+03
        -0.37300E+03
        -0.37300E+03
        -0.37300E+03
        -0.37300E+03
        -0.37300E+03
        -0.37300E+03
        -0.37300E+03
        -0.37300E+03
        -0.37300E+03
        -0.37300E+03
        -0.37300E+03
        -0.37300E+03
        -0.37300E+03
        -0.37300E+03
        -0.37300E+03
        -0.37300E+03
        -0.37300E+03
        -0.37300E+03
        -0.37300E+03
        -0.37300E+03
        -0.37300E+03
        -0.37300E+03
        -0.37300E+03
        -0.37300E+03
        -0.37300E+03
        -0.37300E+03
        -0.37300E+03
        -0.37300E+03
        -0.37300E+03
        -0.37300E+03
        -0.37300E+03
        -0.37300E+03
        -0.37300E+03
        -0.37300E+03
        -0.37300E+03
        -0.37300E+03
        -0.37300E+03
        -0.37300E+03
        -0.37300E+03
        -0.37300E+03
        -0.37300E+03
        -0.37300E+03
        -0.37300E+03
        -0.37300E+03
        -0.37300E+03
        -0.37300E+03
        -0.37300E+03
        -0.37300E+03
        -0.37300E+03
        -0.37300E+03
        -0.37300E+03
        -0.37300E+03
        -0.37300E+03
        -0.37300E+03
        -0.37300E+03
        -0.37300E+03
        -0.37300E+03
        -0.37300E+03
        -0.37300E+03
        -0.37300E+03
        -0.37300E+03
        -0.37300E+03
        -0.37300E+03
        -0.37300E+03
        -0.37300E+03
        -0.37300E+03
        -0.37300E+03
        -0.37300E+03
        -0.37300E+03
        -0.37300E+03
        -0.37300E+03
        -0.37300E+03
        -0.37300E+03
        -0.37300E+03
        -0.37300E+03
        -0.37300E+03
        -0.37300E+03
        -0.37300E+03
        -0.37300E+03
        -0.37300E+03
        -0.37300E+03
        -0.37300E+03
        -0.37300E+03
        -0.37300E+03
        -0.37300E+03
        -0.37300E+03
        -0.37300E+03
        -0.37300E+03
        -0.37300E+03
        -0.37300E+03
        -0.37300E+03
        -0.37300E+03
        -0.37300E+03
        -0.37300E+03
        -0.37300E+03
        -0.37300E+03
        -0.37300E+03
        -0.37300E+03
        -0.37300E+03
        -0.37300E+03
        -0.37300E+03
        -0.37300E+03
        -0.37300E+03
        -0.37300E+03
        -0.37300E+03
        -0.37300E+03
        -0.37300E+03
        -0.37300E+03
        -0.37300E+03
        -0.37300E+03
        -0.37300E+03
        -0.37300E+03
        -0.37300E+03
        -0.37300E+03
        -0.37300E+03
        -0.37300E+03
        -0.37300E+03
        -0.37300E+03
        -0.37300E+03
        -0.37300E+03
        -0.37300E+03
        -0.37300E+03
        -0.37300E+03
        -0.37300E+03
        -0.37300E+03
        -0.37300E+03
        -0.37300E+03
        -0.37300E+03
        -0.37300E+03
        -0.37300E+03
        -0.37300E+03
        -0.37300E+03
        -0.37300E+03
        -0.37300E+03
        -0.37300E+03
        -0.37300E+03
        -0.37300E+03
        -0.37300E+03
        -0.37300E+03
        -0.37300E+03
        -0.37300E+03
        -0.37300E+03
        -0.37300E+03
        -0.37300E+03
        -0.37300E+03
        -0.37300E+03
        -0.37300E+03
        -0.37300E+03
        -0.37300E+03
        -0.37300E+03
        -0.37300E+03
        -0.37300E+03
        -0.37300E+03
        -0.37300E+03
        -0.37300E+03
        -0.37300E+03
        -0.37300E+03
        -0.37300E+03
        -0.37300E+03
        -0.37300E+03
        -0.37300E+03
        -0.37300E+03
        -0.37300E+03
        -0.37300E+03
        -0.37300E+03
        -0.37300E+03
        -0.37300E+03
        -0.37300E+03
        -0.37300E+03
        -0.37300E+03
        -0.37300E+03
        -0.37300E+03
        -0.37300E+03
        -0.37300E+03
        -0.37300E+03
        -0.37300E+03
        -0.37300E+03
        -0.37300E+03
        -0.37300E+03
        -0.37300E+03
        -0.37300E+03
        -0.37300E+03
        -0.37300E+03
        -0.37300E+03
        -0.37300E+03
        -0.37300E+03
        -0.37300E+03
        -0.37300E+03
        -0.37300E+03
        -0.37300E+03
        -0.37300E+03
        -0.37300E+03
        -0.37300E+03
        -0.37300E+03
        -0.37300E+03
        -0.37300E+03
        -0.37300E+03
        -0.37300E+03
        -0.37300E+03
        -0.37300E+03
        -0.37300E+03
        -0.37300E+03
        -0.37300E+03
        -0.37300E+03
        -0.37300E+03
        -0.37300E+03
        -0.37300E+03
        -0.37300E+03
        -0.37300E+03
        -0.37300E+03
        -0.37300E+03
        -0.37300E+03
        -0.37300E+03
        -0.37300E+03
        -0.37300E+03
        -0.37300E+03
        -0.37300E+03
        -0.37300E+03
        -0.37300E+03
        -0.37300E+03
        -0.37300E+03
        -0.37300E+03
        -0.37300E+03
        -0.37300E+03
        -0.37300E+03
        -0.37300E+03
        -0.37300E+03
        -0.37300E+03
        -0.37300E+03
        -0.37300E+03
        -0.37300E+03
        -0.37300E+03
        -0.37300E+03
        -0.37300E+03
        -0.37300E+03
        -0.37300E+03
        -0.37300E+03
        -0.37300E+03
        -0.37300E+03
        -0.37300E+03
        -0.37300E+03
        -0.37300E+03
        -0.37300E+03
        -0.37300E+03
        -0.37300E+03
        -0.37300E+03
        -0.37300E+03
        -0.37300E+03
        -0.37300E+03
        -0.37300E+03
        -0.37300E+03
        -0.37300E+03
        -0.37300E+03
        -0.37300E+03
        -0.37300E+03
        -0.37300E+03
        -0.37300E+03
        -0.37300E+03
        -0.37300E+03
        -0.37300E+03
        -0.37300E+03
        -0.37300E+03
        -0.37300E+03
        -0.37300E+03
        -0.37300E+03
        -0.37300E+03
        -0.37300E+03
        -0.37300E+03
        -0.37300E+03
        -0.37300E+03
        -0.37300E+03
        -0.37300E+03
        -0.37300E+03
        -0.37300E+03
        -0.37300E+03
        -0.37300E+03
        -0.37300E+03
        -0.37300E+03
        -0.37300E+03
        -0.37300E+03
        -0.37300E+03
        -0.37300E+03
        -0.37300E+03
        -0.37300E+03
        -0.37300E+03
        -0.37300E+03
        -0.37300E+03
        -0.37300E+03
        -0.37300E+03
        -0.37300E+03
        -0.37300E+03
        -0.37300E+03
        -0.37300E+03
        -0.37300E+03
        -0.37300E+03
        -0.37300E+03
        -0.37300E+03
        -0.37300E+03
        -0.37300E+03
        -0.37300E+03
        -0.37300E+03
        -0.37300E+03
        -0.37300E+03
        -0.37300E+03
        -0.37300E+03
        -0.37300E+03
        -0.37300E+03
        -0.37300E+03
        -0.37300E+03
        -0.37300E+03
        -0.37300E+03
        -0.37300E+03
        -0.37300E+03
        -0.37300E+03
        -0.37300E+03
        -0.37300E+03
        -0.37300E+03
        -0.37300E+03
        -0.37300E+03
        -0.37300E+03
        -0.37300E+03
        -0.37300E+03
        -0.37300E+03
        -0.37300E+03
        -0.37300E+03
        -0.37300E+03
        -0.37300E+03
        -0.37300E+03
        -0.37300E+03
        -0.37300E+03
        -0.37300E+03
        -0.37300E+03
        -0.37300E+03
        -0.37300E+03
        -0.37300E+03
        -0.37300E+03
        -0.37300E+03
        -0.37300E+03
        -0.37300E+03
        -0.37300E+03
        -0.37300E+03
        -0.37300E+03
        -0.37300E+03
        -0.37300E+03
        -0.37300E+03
        -0.37300E+03
        -0.37300E+03
        -0.37300E+03
        -0.37300E+03
        -0.37300E+03
        -0.37300E+03
        -0.37300E+03
        -0.37300E+03
        -0.37300E+03
        -0.37300E+03
        -0.37300E+03
        -0.37300E+03
        -0.37300E+03
        -0.37300E+03
        -0.37300E+03
        -0.37300E+03
        -0.37300E+03
        -0.37300E+03
        -0.37300E+03
        -0.37300E+03
        -0.37300E+03
        -0.37300E+03
        -0.37300E+03
        -0.37300E+03
        -0.37300E+03
        -0.37300E+03
        -0.37300E+03
        -0.37300E+03
        -0.37300E+03
        -0.37300E+03
        -0.37300E+03
        -0.37300E+03
        -0.37300E+03
        -0.37300E+03
        -0.37300E+03
        -0.37300E+03
        -0.37300E+03
        -0.37300E+03
        -0.37300E+03
        -0.37300E+03
        -0.37300E+03
        -0.37300E+03
        -0.37300E+03
        -0.37300E+03
        -0.37300E+03
        -0.37300E+03
        -0.37300E+03
        -0.37300E+03
        -0.37300E+03
        -0.37300E+03
        -0.37300E+03
        -0.37300E+03
        -0.37300E+03
        -0.37300E+03
        -0.37300E+03
        -0.37300E+03
        -0.37300E+03
        -0.37300E+03
        -0.37300E+03
        -0.37300E+03
        -0.37300E+03
        -0.37300E+03
        -0.37300E+03
        -0.37300E+03
        -0.37300E+03
        -0.37300E+03
        -0.37300E+03
        -0.37300E+03
        -0.37300E+03
        -0.37300E+03
        -0.37300E+03
        -0.37300E+03
        -0.37300E+03
        -0.37300E+03
        -0.37300E+03
        -0.37300E+03
        -0.37300E+03
        -0.37300E+03
        -0.37300E+03
        -0.37300E+03
        -0.37300E+03
        -0.37300E+03
        -0.37300E+03
        -0.37300E+03
        -0.37300E+03
        -0.37300E+03
        -0.37300E+03
        -0.37300E+03
        -0.37300E+03
        -0.37300E+03
        -0.37300E+03
        -0.37300E+03
        -0.37300E+03
        -0.37300E+03
        -0.37300E+03
        -0.37300E+03
        -0.37300E+03
        -0.37300E+03
        -0.37300E+03
        -0.37300E+03
        -0.37300E+03
        -0.37300E+03
        -0.37300E+03
        -0.37300E+03
        -0.37300E+03
        -0.37300E+03
        -0.37300E+03
        -0.37300E+03
        -0.37300E+03
        -0.37300E+03
        -0.37300E+03
        -0.37300E+03
        -0.37300E+03
        -0.37300E+03
        -0.37300E+03
        -0.37300E+03
        -0.37300E+03
        -0.37300E+03
        -0.37300E+03
        -0.37300E+03
        -0.37300E+03
        -0.37300E+03
        -0.37300E+03
        -0.37300E+03
        -0.37300E+03
        -0.37300E+03
        -0.37300E+03
        -0.37300E+03
        -0.37300E+03
        -0.37300E+03
        -0.37300E+03
        -0.37300E+03
        -0.37300E+03
        -0.37300E+03
        -0.37300E+03
        -0.37300E+03
        -0.37300E+03
        -0.37300E+03
        -0.37300E+03
        -0.37300E+03
        -0.37300E+03
        -0.37300E+03
        -0.37300E+03
        -0.37300E+03
        -0.37300E+03
        -0.37300E+03
        -0.37300E+03
        -0.37300E+03
        -0.37300E+03
        -0.37300E+03
        -0.37300E+03
        -0.37300E+03
        -0.37300E+03
        -0.37300E+03
        -0.37300E+03
        -0.37300E+03
        -0.37300E+03
        -0.37300E+03
        -0.37300E+03
        -0.37300E+03
        -0.37300E+03
        -0.37300E+03
        -0.37300E+03
        -0.37300E+03
        -0.37300E+03
        -0.37300E+03
        -0.37300E+03
        -0.37300E+03
        -0.37300E+03
        -0.37300E+03
        -0.37300E+03
        -0.37300E+03
        -0.37300E+03
        -0.37300E+03
        -0.37300E+03
        -0.37300E+03
        -0.37300E+03
        -0.37300E+03
        -0.37300E+03
        -0.37300E+03
        -0.37300E+03
        -0.37300E+03
        -0.37300E+03
        -0.37300E+03
        -0.37300E+03
        -0.37300E+03
        -0.37300E+03
        -0.37300E+03
        -0.37300E+03
        -0.37300E+03
        -0.37300E+03
        -0.37300E+03
        -0.37300E+03
        -0.37300E+03
        -0.37300E+03
        -0.37300E+03
        -0.37300E+03
        -0.37300E+03
        -0.37300E+03
        -0.37300E+03
        -0.37300E+03
        -0.37300E+03
        -0.37300E+03
        -0.37300E+03
        -0.37300E+03
        -0.37300E+03
        -0.37300E+03
        -0.37300E+03
        -0.37300E+03
        -0.37300E+03
        -0.37300E+03
        -0.37300E+03
        -0.37300E+03
        -0.37300E+03
        -0.37300E+03
        -0.37300E+03
        -0.37300E+03
        -0.37300E+03
        -0.37300E+03
        -0.37300E+03
        -0.37300E+03
        -0.37300E+03
        -0.37300E+03
        -0.37300E+03
        -0.37300E+03
        -0.37300E+03
        -0.37300E+03
        -0.37300E+03
        -0.37300E+03
        -0.37300E+03
        -0.37300E+03
        -0.37300E+03
        -0.37300E+03
        -0.37300E+03
        -0.37300E+03
        -0.37300E+03
        -0.37300E+03
        -0.37300E+03
        -0.37300E+03
        -0.37300E+03
        -0.37300E+03
        -0.37300E+03
        -0.37300E+03
        -0.37300E+03
        -0.37300E+03
        -0.37300E+03
        -0.37300E+03
        -0.37300E+03
        -0.37300E+03
        -0.37300E+03
        -0.37300E+03
        -0.37300E+03
        -0.37300E+03
        -0.37300E+03
        -0.37300E+03
        -0.37300E+03
        -0.37300E+03
        -0.37300E+03
        -0.37300E+03
        -0.37300E+03
        -0.37300E+03
        -0.37300E+03
        -0.37300E+03
        -0.37300E+03
        -0.37300E+03
        -0.37300E+03
        -0.37300E+03
        -0.37300E+03
        -0.37300E+03
        -0.37300E+03
        -0.37300E+03
        -0.37300E+03
        -0.37300E+03
        -0.37300E+03
        -0.37300E+03
        -0.37300E+03
        -0.37300E+03
        -0.37300E+03
        -0.37300E+03
        -0.37300E+03
        -0.37300E+03
        -0.37300E+03
        -0.37300E+03
        -0.37300E+03
        -0.37300E+03
        -0.37300E+03
        -0.37300E+03
        -0.37300E+03
        -0.37300E+03
        -0.37300E+03
        -0.37300E+03
        -0.37300E+03
        -0.37300E+03
        -0.37300E+03
        -0.37300E+03
        -0.37300E+03
        -0.37300E+03
        -0.37300E+03
        -0.37300E+03
        -0.37300E+03
        -0.37300E+03
        -0.37300E+03
        -0.37300E+03
        -0.37300E+03
        -0.37300E+03
        -0.37300E+03
        -0.37300E+03
        -0.37300E+03
        -0.37300E+03
        -0.37300E+03
        -0.37300E+03
        -0.37300E+03
        -0.37300E+03
        -0.37300E+03
        -0.37300E+03
        -0.37300E+03
        -0.37300E+03
        -0.37300E+03
        -0.37300E+03
        -0.37300E+03
        -0.37300E+03
        -0.37300E+03
        -0.37300E+03
        -0.37300E+03
        -0.37300E+03
        -0.37300E+03
        -0.37300E+03
        -0.37300E+03
        -0.37300E+03
        -0.37300E+03
        -0.37300E+03
        -0.37300E+03
        -0.37300E+03
        -0.37300E+03
        -0.37300E+03
        -0.37300E+03
        -0.37300E+03
        -0.37300E+03
        -0.37300E+03
        -0.37300E+03
        -0.37300E+03
        -0.37300E+03
        -0.37300E+03
        -0.37300E+03
        -0.37300E+03
        -0.37300E+03
        -0.37300E+03
        -0.37300E+03
        -0.37300E+03
        -0.37300E+03
        -0.37300E+03
        -0.37300E+03
        -0.37300E+03
        -0.37300E+03
        -0.37300E+03
        -0.37300E+03
        -0.37300E+03
        -0.37300E+03
        -0.37300E+03
        -0.37300E+03
        -0.37300E+03
        -0.37300E+03
        -0.37300E+03
        -0.37300E+03
        -0.37300E+03
        -0.37300E+03
        -0.37300E+03
        -0.37300E+03
        -0.37300E+03
        -0.37300E+03
        -0.37300E+03
        -0.37300E+03
        -0.37300E+03
        -0.37300E+03
        -0.37300E+03
        -0.37300E+03
        -0.37300E+03
        -0.37300E+03
        -0.37300E+03
        -0.37300E+03
        -0.37300E+03
        -0.37300E+03
        -0.37300E+03
        -0.37300E+03
        -0.37300E+03
        -0.37300E+03
        -0.37300E+03
        -0.37300E+03
        -0.37300E+03
        -0.37300E+03
        -0.37300E+03
        -0.37300E+03
        -0.37300E+03
        -0.37300E+03
        -0.37300E+03
        -0.37300E+03
        -0.37300E+03
        -0.37300E+03
        -0.37300E+03
        -0.37300E+03
        -0.37300E+03
        -0.37300E+03
        -0.37300E+03
        -0.37300E+03
        -0.37300E+03
        -0.37300E+03
        -0.37300E+03
        -0.37300E+03
        -0.37300E+03
        -0.37300E+03
        -0.37300E+03
        -0.37300E+03
        -0.37300E+03
        -0.37300E+03
        -0.37300E+03
        -0.37300E+03
        -0.37300E+03
        -0.37300E+03
        -0.37300E+03
        -0.37300E+03
        -0.37300E+03
        -0.37300E+03
        -0.37300E+03
        -0.37300E+03
        -0.37300E+03
        -0.37300E+03
        -0.37300E+03
        -0.37300E+03
        -0.37300E+03
        -0.37300E+03
        -0.37300E+03
        -0.37300E+03
        -0.37300E+03
        -0.37300E+03
        -0.37300E+03
        -0.37300E+03
        -0.37300E+03
        -0.37300E+03
        -0.37300E+03
        -0.37300E+03
        -0.37300E+03
  
SCALARS              normalized_window  double 1
LOOKUP_TABLE default
         0.27500E+01
         0.27500E+01
         0.27500E+01
         0.27500E+01
         0.27500E+01
         0.27500E+01
         0.27500E+01
         0.27500E+01
         0.27500E+01
         0.27500E+01
         0.27500E+01
         0.27500E+01
         0.27500E+01
         0.27500E+01
         0.27500E+01
         0.27500E+01
         0.27500E+01
         0.27500E+01
         0.27500E+01
         0.27500E+01
         0.27500E+01
         0.27500E+01
         0.27500E+01
         0.27500E+01
         0.27500E+01
         0.27500E+01
         0.27500E+01
         0.27500E+01
         0.27500E+01
         0.27500E+01
         0.27500E+01
         0.27500E+01
         0.27500E+01
         0.27500E+01
         0.27500E+01
         0.27500E+01
         0.27500E+01
         0.27500E+01
         0.27500E+01
         0.27500E+01
         0.27500E+01
         0.27500E+01
         0.27500E+01
         0.27500E+01
         0.27500E+01
         0.27500E+01
         0.27500E+01
         0.27500E+01
         0.27500E+01
         0.27500E+01
         0.27500E+01
         0.27500E+01
         0.27500E+01
         0.27500E+01
         0.27500E+01
         0.27500E+01
         0.27500E+01
         0.27500E+01
         0.27500E+01
         0.27500E+01
         0.27500E+01
         0.27500E+01
         0.27500E+01
         0.27500E+01
         0.27500E+01
         0.27500E+01
         0.27500E+01
         0.27500E+01
         0.27500E+01
         0.27500E+01
         0.27500E+01
         0.27500E+01
         0.27500E+01
         0.27500E+01
         0.27500E+01
         0.27500E+01
         0.27500E+01
         0.27500E+01
         0.27500E+01
         0.27500E+01
         0.27500E+01
         0.27500E+01
         0.27500E+01
         0.27500E+01
         0.27500E+01
         0.27500E+01
         0.27500E+01
         0.27500E+01
         0.27500E+01
         0.27500E+01
         0.27500E+01
         0.27500E+01
         0.27500E+01
         0.27500E+01
         0.27500E+01
         0.27500E+01
         0.27500E+01
         0.27500E+01
         0.27500E+01
         0.27500E+01
         0.27500E+01
         0.27500E+01
         0.27500E+01
         0.27500E+01
         0.27500E+01
         0.27500E+01
         0.27500E+01
         0.27500E+01
         0.27500E+01
         0.27500E+01
         0.27500E+01
         0.27500E+01
         0.27500E+01
         0.27500E+01
         0.27500E+01
         0.27500E+01
         0.27500E+01
         0.27500E+01
         0.27500E+01
         0.27500E+01
         0.27500E+01
         0.27500E+01
         0.27500E+01
         0.27500E+01
         0.27500E+01
         0.27500E+01
         0.27500E+01
         0.27500E+01
         0.27500E+01
         0.27500E+01
         0.27500E+01
         0.27500E+01
         0.27500E+01
         0.27500E+01
         0.27500E+01
         0.27500E+01
         0.27500E+01
         0.27500E+01
         0.27500E+01
         0.27500E+01
         0.27500E+01
         0.27500E+01
         0.27500E+01
         0.27500E+01
         0.27500E+01
         0.27500E+01
         0.27500E+01
         0.27500E+01
         0.27500E+01
         0.27500E+01
         0.27500E+01
         0.27500E+01
         0.27500E+01
         0.27500E+01
         0.27500E+01
         0.27500E+01
         0.27500E+01
         0.27500E+01
         0.27500E+01
         0.27500E+01
         0.27500E+01
         0.27500E+01
         0.27500E+01
         0.27500E+01
         0.27500E+01
         0.27500E+01
         0.27500E+01
         0.27500E+01
         0.27500E+01
         0.27500E+01
         0.27500E+01
         0.27500E+01
         0.27500E+01
         0.27500E+01
         0.27500E+01
         0.27500E+01
         0.27500E+01
         0.27500E+01
         0.27500E+01
         0.27500E+01
         0.27500E+01
         0.27500E+01
         0.27500E+01
         0.27500E+01
         0.27500E+01
         0.27500E+01
         0.27500E+01
         0.27500E+01
         0.27500E+01
         0.27500E+01
         0.27500E+01
         0.27500E+01
         0.27500E+01
         0.27500E+01
         0.27500E+01
         0.27500E+01
         0.27500E+01
         0.27500E+01
         0.27500E+01
         0.27500E+01
         0.27500E+01
         0.27500E+01
         0.27500E+01
         0.27500E+01
         0.27500E+01
         0.27500E+01
         0.27500E+01
         0.27500E+01
         0.27500E+01
         0.27500E+01
         0.27500E+01
         0.27500E+01
         0.27500E+01
         0.27500E+01
         0.27500E+01
         0.27500E+01
         0.27500E+01
         0.27500E+01
         0.27500E+01
         0.27500E+01
         0.27500E+01
         0.27500E+01
         0.27500E+01
         0.27500E+01
         0.27500E+01
         0.27500E+01
         0.27500E+01
         0.27500E+01
         0.27500E+01
         0.27500E+01
         0.27500E+01
         0.27500E+01
         0.27500E+01
         0.27500E+01
         0.27500E+01
         0.27500E+01
         0.27500E+01
         0.27500E+01
         0.27500E+01
         0.27500E+01
         0.27500E+01
         0.27500E+01
         0.27500E+01
         0.27500E+01
         0.27500E+01
         0.27500E+01
         0.27500E+01
         0.27500E+01
         0.27500E+01
         0.27500E+01
         0.27500E+01
         0.27500E+01
         0.27500E+01
         0.27500E+01
         0.27500E+01
         0.27500E+01
         0.27500E+01
         0.27500E+01
         0.27500E+01
         0.27500E+01
         0.27500E+01
         0.27500E+01
         0.27500E+01
         0.27500E+01
         0.27500E+01
         0.27500E+01
         0.27500E+01
         0.27500E+01
         0.27500E+01
         0.27500E+01
         0.27500E+01
         0.27500E+01
         0.27500E+01
         0.27500E+01
         0.27500E+01
         0.27500E+01
         0.27500E+01
         0.27500E+01
         0.27500E+01
         0.27500E+01
         0.27500E+01
         0.27500E+01
         0.27500E+01
         0.27500E+01
         0.27500E+01
         0.27500E+01
         0.27500E+01
         0.27500E+01
         0.27500E+01
         0.27500E+01
         0.27500E+01
         0.27500E+01
         0.27500E+01
         0.27500E+01
         0.27500E+01
         0.27500E+01
         0.27500E+01
         0.27500E+01
         0.27500E+01
         0.27500E+01
         0.27500E+01
         0.27500E+01
         0.27500E+01
         0.27500E+01
         0.27500E+01
         0.27500E+01
         0.27500E+01
         0.27500E+01
         0.27500E+01
         0.27500E+01
         0.27500E+01
         0.27500E+01
         0.27500E+01
         0.27500E+01
         0.27500E+01
         0.27500E+01
         0.27500E+01
         0.27500E+01
         0.27500E+01
         0.27500E+01
         0.27500E+01
         0.27500E+01
         0.27500E+01
         0.27500E+01
         0.27500E+01
         0.27500E+01
         0.27500E+01
         0.27500E+01
         0.27500E+01
         0.27500E+01
         0.27500E+01
         0.27500E+01
         0.27500E+01
         0.27500E+01
         0.27500E+01
         0.27500E+01
         0.27500E+01
         0.27500E+01
         0.27500E+01
         0.27500E+01
         0.27500E+01
         0.27500E+01
         0.27500E+01
         0.27500E+01
         0.27500E+01
         0.27500E+01
         0.27500E+01
         0.27500E+01
         0.27500E+01
         0.27500E+01
         0.27500E+01
         0.27500E+01
         0.27500E+01
         0.27500E+01
         0.27500E+01
         0.27500E+01
         0.27500E+01
         0.27500E+01
         0.27500E+01
         0.27500E+01
         0.27500E+01
         0.27500E+01
         0.27500E+01
         0.27500E+01
         0.27500E+01
         0.27500E+01
         0.27500E+01
         0.27500E+01
         0.27500E+01
         0.27500E+01
         0.27500E+01
         0.27500E+01
         0.27500E+01
         0.27500E+01
         0.27500E+01
         0.27500E+01
         0.27500E+01
         0.27500E+01
         0.27500E+01
         0.27500E+01
         0.27500E+01
         0.27500E+01
         0.27500E+01
         0.27500E+01
         0.27500E+01
         0.27500E+01
         0.27500E+01
         0.27500E+01
         0.27500E+01
         0.27500E+01
         0.27500E+01
         0.27500E+01
         0.27500E+01
         0.27500E+01
         0.27500E+01
         0.27500E+01
         0.27500E+01
         0.27500E+01
         0.27500E+01
         0.27500E+01
         0.27500E+01
         0.27500E+01
         0.27500E+01
         0.27500E+01
         0.27500E+01
         0.27500E+01
         0.27500E+01
         0.27500E+01
         0.27500E+01
         0.27500E+01
         0.27500E+01
         0.27500E+01
         0.27500E+01
         0.27500E+01
         0.27500E+01
         0.27500E+01
         0.27500E+01
         0.27500E+01
         0.27500E+01
         0.27500E+01
         0.27500E+01
         0.27500E+01
         0.27500E+01
         0.27500E+01
         0.27500E+01
         0.27500E+01
         0.27500E+01
         0.27500E+01
         0.27500E+01
         0.27500E+01
         0.27500E+01
         0.27500E+01
         0.27500E+01
         0.27500E+01
         0.27500E+01
         0.27500E+01
         0.27500E+01
         0.27500E+01
         0.27500E+01
         0.27500E+01
         0.27500E+01
         0.27500E+01
         0.27500E+01
         0.27500E+01
         0.27500E+01
         0.27500E+01
         0.27500E+01
         0.27500E+01
         0.27500E+01
         0.27500E+01
         0.27500E+01
         0.27500E+01
         0.27500E+01
         0.27500E+01
         0.27500E+01
         0.27500E+01
         0.27500E+01
         0.27500E+01
         0.27500E+01
         0.27500E+01
         0.27500E+01
         0.27500E+01
         0.27500E+01
         0.27500E+01
         0.27500E+01
         0.27500E+01
         0.27500E+01
         0.27500E+01
         0.27500E+01
         0.27500E+01
         0.27500E+01
         0.27500E+01
         0.27500E+01
         0.27500E+01
         0.27500E+01
         0.27500E+01
         0.27500E+01
         0.27500E+01
         0.27500E+01
         0.27500E+01
         0.27500E+01
         0.27500E+01
         0.27500E+01
         0.27500E+01
         0.27500E+01
         0.27500E+01
         0.27500E+01
         0.27500E+01
         0.27500E+01
         0.27500E+01
         0.27500E+01
         0.27500E+01
         0.27500E+01
         0.27500E+01
         0.27500E+01
         0.27500E+01
         0.27500E+01
         0.27500E+01
         0.27500E+01
         0.27500E+01
         0.27500E+01
         0.27500E+01
         0.27500E+01
         0.27500E+01
         0.27500E+01
         0.27500E+01
         0.27500E+01
         0.27500E+01
         0.27500E+01
         0.27500E+01
         0.27500E+01
         0.27500E+01
         0.27500E+01
         0.27500E+01
         0.27500E+01
         0.27500E+01
         0.27500E+01
         0.27500E+01
         0.27500E+01
         0.27500E+01
         0.27500E+01
         0.27500E+01
         0.27500E+01
         0.27500E+01
         0.27500E+01
         0.27500E+01
         0.27500E+01
         0.27500E+01
         0.27500E+01
         0.27500E+01
         0.27500E+01
         0.27500E+01
         0.27500E+01
         0.27500E+01
         0.27500E+01
         0.27500E+01
         0.27500E+01
         0.27500E+01
         0.27500E+01
         0.27500E+01
         0.27500E+01
         0.27500E+01
         0.27500E+01
         0.27500E+01
         0.27500E+01
         0.27500E+01
         0.27500E+01
         0.27500E+01
         0.27500E+01
         0.27500E+01
         0.27500E+01
         0.27500E+01
         0.27500E+01
         0.27500E+01
         0.27500E+01
         0.27500E+01
         0.27500E+01
         0.27500E+01
         0.27500E+01
         0.27500E+01
         0.27500E+01
         0.27500E+01
         0.27500E+01
         0.27500E+01
         0.27500E+01
         0.27500E+01
         0.27500E+01
         0.27500E+01
         0.27500E+01
         0.27500E+01
         0.27500E+01
         0.27500E+01
         0.27500E+01
         0.27500E+01
         0.27500E+01
         0.27500E+01
         0.27500E+01
         0.27500E+01
         0.27500E+01
         0.27500E+01
         0.27500E+01
         0.27500E+01
         0.27500E+01
         0.27500E+01
         0.27500E+01
         0.27500E+01
         0.27500E+01
         0.27500E+01
         0.27500E+01
         0.27500E+01
         0.27500E+01
         0.27500E+01
         0.27500E+01
         0.27500E+01
         0.27500E+01
         0.27500E+01
         0.27500E+01
         0.27500E+01
         0.27500E+01
         0.27500E+01
         0.27500E+01
         0.27500E+01
         0.27500E+01
         0.27500E+01
         0.27500E+01
         0.27500E+01
         0.27500E+01
         0.27500E+01
         0.27500E+01
         0.27500E+01
         0.27500E+01
         0.27500E+01
         0.27500E+01
         0.27500E+01
         0.27500E+01
         0.27500E+01
         0.27500E+01
         0.27500E+01
         0.27500E+01
         0.27500E+01
         0.27500E+01
         0.27500E+01
         0.27500E+01
         0.27500E+01
         0.27500E+01
         0.27500E+01
         0.27500E+01
         0.27500E+01
         0.27500E+01
         0.27500E+01
         0.27500E+01
         0.27500E+01
         0.27500E+01
         0.27500E+01
         0.27500E+01
         0.27500E+01
         0.27500E+01
         0.27500E+01
         0.27500E+01
         0.27500E+01
         0.27500E+01
         0.27500E+01
         0.27500E+01
         0.27500E+01
         0.27500E+01
         0.27500E+01
         0.27500E+01
         0.27500E+01
         0.27500E+01
         0.27500E+01
         0.27500E+01
         0.27500E+01
         0.27500E+01
         0.27500E+01
         0.27500E+01
         0.27500E+01
         0.27500E+01
         0.27500E+01
         0.27500E+01
         0.27500E+01
         0.27500E+01
         0.27500E+01
         0.27500E+01
         0.27500E+01
         0.27500E+01
         0.27500E+01
         0.27500E+01
         0.27500E+01
         0.27500E+01
         0.27500E+01
         0.27500E+01
         0.27500E+01
         0.27500E+01
         0.27500E+01
         0.27500E+01
         0.27500E+01
         0.27500E+01
         0.27500E+01
         0.27500E+01
         0.27500E+01
         0.27500E+01
         0.27500E+01
         0.27500E+01
         0.27500E+01
         0.27500E+01
         0.27500E+01
         0.27500E+01
         0.27500E+01
         0.27500E+01
         0.27500E+01
         0.27500E+01
         0.27500E+01
         0.27500E+01
         0.27500E+01
         0.27500E+01
         0.27500E+01
         0.27500E+01
         0.27500E+01
         0.27500E+01
         0.27500E+01
         0.27500E+01
         0.27500E+01
         0.27500E+01
         0.27500E+01
         0.27500E+01
         0.27500E+01
         0.27500E+01
         0.27500E+01
         0.27500E+01
         0.27500E+01
         0.27500E+01
         0.27500E+01
         0.27500E+01
         0.27500E+01
         0.27500E+01
         0.27500E+01
         0.27500E+01
         0.27500E+01
         0.27500E+01
         0.27500E+01
         0.27500E+01
         0.27500E+01
         0.27500E+01
         0.27500E+01
         0.27500E+01
         0.27500E+01
         0.27500E+01
         0.27500E+01
         0.27500E+01
         0.27500E+01
         0.27500E+01
         0.27500E+01
         0.27500E+01
         0.27500E+01
         0.27500E+01
         0.27500E+01
         0.27500E+01
         0.27500E+01
         0.27500E+01
         0.27500E+01
         0.27500E+01
         0.27500E+01
         0.27500E+01
         0.27500E+01
         0.27500E+01
         0.27500E+01
         0.27500E+01
         0.27500E+01
         0.27500E+01
         0.27500E+01
         0.27500E+01
         0.27500E+01
         0.27500E+01
         0.27500E+01
         0.27500E+01
         0.27500E+01
         0.27500E+01
         0.27500E+01
         0.27500E+01
         0.27500E+01
         0.27500E+01
         0.27500E+01
         0.27500E+01
         0.27500E+01
         0.27500E+01
         0.27500E+01
         0.27500E+01
         0.27500E+01
         0.27500E+01
         0.27500E+01
         0.27500E+01
         0.27500E+01
         0.27500E+01
         0.27500E+01
         0.27500E+01
         0.27500E+01
         0.27500E+01
         0.27500E+01
         0.27500E+01
         0.27500E+01
         0.27500E+01
         0.27500E+01
         0.27500E+01
         0.27500E+01
         0.27500E+01
         0.27500E+01
         0.27500E+01
         0.27500E+01
         0.27500E+01
         0.27500E+01
         0.27500E+01
         0.27500E+01
         0.27500E+01
         0.27500E+01
         0.27500E+01
         0.27500E+01
         0.27500E+01
         0.27500E+01
         0.27500E+01
         0.27500E+01
         0.27500E+01
         0.27500E+01
         0.27500E+01
         0.27500E+01
         0.27500E+01
         0.27500E+01
         0.27500E+01
         0.27500E+01
         0.27500E+01
         0.27500E+01
         0.27500E+01
         0.27500E+01
         0.27500E+01
         0.27500E+01
         0.27500E+01
         0.27500E+01
         0.27500E+01
         0.27500E+01
         0.27500E+01
         0.27500E+01
         0.27500E+01
         0.27500E+01
         0.27500E+01
         0.27500E+01
         0.27500E+01
         0.27500E+01
         0.27500E+01
         0.27500E+01
         0.27500E+01
         0.27500E+01
         0.27500E+01
         0.27500E+01
         0.27500E+01
         0.27500E+01
         0.27500E+01
         0.27500E+01
         0.27500E+01
         0.27500E+01
         0.27500E+01
         0.27500E+01
         0.27500E+01
         0.27500E+01
         0.27500E+01
         0.27500E+01
         0.27500E+01
         0.27500E+01
         0.27500E+01
         0.27500E+01
         0.27500E+01
         0.27500E+01
         0.27500E+01
         0.27500E+01
         0.27500E+01
         0.27500E+01
         0.27500E+01
         0.27500E+01
         0.27500E+01
         0.27500E+01
         0.27500E+01
         0.27500E+01
         0.27500E+01
         0.27500E+01
         0.27500E+01
         0.27500E+01
         0.27500E+01
         0.27500E+01
         0.27500E+01
         0.27500E+01
         0.27500E+01
         0.27500E+01
         0.27500E+01
         0.27500E+01
         0.27500E+01
         0.27500E+01
         0.27500E+01
         0.27500E+01
         0.27500E+01
         0.27500E+01
         0.27500E+01
         0.27500E+01
         0.27500E+01
         0.27500E+01
         0.27500E+01
         0.27500E+01
         0.27500E+01
         0.27500E+01
         0.27500E+01
         0.27500E+01
         0.27500E+01
         0.27500E+01
         0.27500E+01
         0.27500E+01
         0.27500E+01
         0.27500E+01
         0.27500E+01
         0.27500E+01
         0.27500E+01
         0.27500E+01
         0.27500E+01
         0.27500E+01
         0.27500E+01
         0.27500E+01
         0.27500E+01
         0.27500E+01
         0.27500E+01
         0.27500E+01
         0.27500E+01
         0.27500E+01
         0.27500E+01
         0.27500E+01
         0.27500E+01
         0.27500E+01
         0.27500E+01
         0.27500E+01
         0.27500E+01
         0.27500E+01
         0.27500E+01
         0.27500E+01
         0.27500E+01
         0.27500E+01
         0.27500E+01
         0.27500E+01
         0.27500E+01
         0.27500E+01
         0.27500E+01
         0.27500E+01
         0.27500E+01
         0.27500E+01
         0.27500E+01
         0.27500E+01
         0.27500E+01
         0.27500E+01
         0.27500E+01
         0.27500E+01
         0.27500E+01
         0.27500E+01
         0.27500E+01
         0.27500E+01
         0.27500E+01
         0.27500E+01
         0.27500E+01
         0.27500E+01
         0.27500E+01
         0.27500E+01
         0.27500E+01
         0.27500E+01
         0.27500E+01
         0.27500E+01
         0.27500E+01
         0.27500E+01
         0.27500E+01
         0.27500E+01
         0.27500E+01
         0.27500E+01
         0.27500E+01
         0.27500E+01
         0.27500E+01
         0.27500E+01
         0.27500E+01
         0.27500E+01
         0.27500E+01
         0.27500E+01
         0.27500E+01
         0.27500E+01
         0.27500E+01
         0.27500E+01
         0.27500E+01
         0.27500E+01
         0.27500E+01
         0.27500E+01
         0.27500E+01
         0.27500E+01
         0.27500E+01
         0.27500E+01
         0.27500E+01
         0.27500E+01
         0.27500E+01
         0.27500E+01
         0.27500E+01
         0.27500E+01
         0.27500E+01
         0.27500E+01
         0.27500E+01
         0.27500E+01
         0.27500E+01
         0.27500E+01
         0.27500E+01
         0.27500E+01
         0.27500E+01
         0.27500E+01
         0.27500E+01
         0.27500E+01
         0.27500E+01
         0.27500E+01
         0.27500E+01
         0.27500E+01
         0.27500E+01
         0.27500E+01
         0.27500E+01
         0.27500E+01
         0.27500E+01
         0.27500E+01
         0.27500E+01
         0.27500E+01
         0.27500E+01
         0.27500E+01
         0.27500E+01
         0.27500E+01
         0.27500E+01
         0.27500E+01
         0.27500E+01
         0.27500E+01
         0.27500E+01
         0.27500E+01
         0.27500E+01
         0.27500E+01
         0.27500E+01
         0.27500E+01
         0.27500E+01
         0.27500E+01
         0.27500E+01
         0.27500E+01
         0.27500E+01
         0.27500E+01
         0.27500E+01
         0.27500E+01
         0.27500E+01
         0.27500E+01
         0.27500E+01
         0.27500E+01
         0.27500E+01
         0.27500E+01
         0.27500E+01
         0.27500E+01
         0.27500E+01
         0.27500E+01
         0.27500E+01
         0.27500E+01
         0.27500E+01
         0.27500E+01
         0.27500E+01
         0.27500E+01
         0.27500E+01
         0.27500E+01
         0.27500E+01
         0.27500E+01
         0.27500E+01
         0.27500E+01
         0.27500E+01
         0.27500E+01
         0.27500E+01
         0.27500E+01
         0.27500E+01
         0.27500E+01
         0.27500E+01
         0.27500E+01
         0.27500E+01
         0.27500E+01
         0.27500E+01
         0.27500E+01
         0.27500E+01
         0.27500E+01
         0.27500E+01
         0.27500E+01
         0.27500E+01
         0.27500E+01
         0.27500E+01
         0.27500E+01
         0.27500E+01
         0.27500E+01
         0.27500E+01
         0.27500E+01
         0.27500E+01
         0.27500E+01
         0.27500E+01
         0.27500E+01
         0.27500E+01
         0.27500E+01
         0.27500E+01
         0.27500E+01
         0.27500E+01
         0.27500E+01
         0.27500E+01
         0.27500E+01
         0.27500E+01
         0.27500E+01
         0.27500E+01
         0.27500E+01
         0.27500E+01
         0.27500E+01
         0.27500E+01
         0.27500E+01
         0.27500E+01
         0.27500E+01
         0.27500E+01
         0.27500E+01
         0.27500E+01
         0.27500E+01
         0.27500E+01
         0.27500E+01
         0.27500E+01
         0.27500E+01
         0.27500E+01
         0.27500E+01
         0.27500E+01
         0.27500E+01
         0.27500E+01
         0.27500E+01
         0.27500E+01
         0.27500E+01
         0.27500E+01
         0.27500E+01
         0.27500E+01
         0.27500E+01
         0.27500E+01
         0.27500E+01
         0.27500E+01
         0.27500E+01
         0.27500E+01
         0.27500E+01
         0.27500E+01
         0.27500E+01
         0.27500E+01
         0.27500E+01
         0.27500E+01
         0.27500E+01
         0.27500E+01
         0.27500E+01
         0.27500E+01
         0.27500E+01
         0.27500E+01
         0.27500E+01
         0.27500E+01
         0.27500E+01
         0.27500E+01
         0.27500E+01
         0.27500E+01
         0.27500E+01
         0.27500E+01
         0.27500E+01
         0.27500E+01
         0.27500E+01
         0.27500E+01
         0.27500E+01
         0.27500E+01
         0.27500E+01
         0.27500E+01
         0.27500E+01
         0.27500E+01
         0.27500E+01
         0.27500E+01
         0.27500E+01
         0.27500E+01
         0.27500E+01
         0.27500E+01
         0.27500E+01
         0.27500E+01
         0.27500E+01
         0.27500E+01
         0.27500E+01
         0.27500E+01
         0.27500E+01
         0.27500E+01
         0.27500E+01
         0.27500E+01
         0.27500E+01
         0.27500E+01
         0.27500E+01
         0.27500E+01
         0.27500E+01
         0.27500E+01
         0.27500E+01
         0.27500E+01
         0.27500E+01
         0.27500E+01
         0.27500E+01
         0.27500E+01
         0.27500E+01
         0.27500E+01
         0.27500E+01
         0.27500E+01
         0.27500E+01
         0.27500E+01
         0.27500E+01
         0.27500E+01
         0.27500E+01
         0.27500E+01
         0.27500E+01
         0.27500E+01
         0.27500E+01
         0.27500E+01
         0.27500E+01
         0.27500E+01
         0.27500E+01
         0.27500E+01
         0.27500E+01
         0.27500E+01
         0.27500E+01
         0.27500E+01
         0.27500E+01
         0.27500E+01
         0.27500E+01
         0.27500E+01
         0.27500E+01
         0.27500E+01
         0.27500E+01
         0.27500E+01
         0.27500E+01
         0.27500E+01
         0.27500E+01
         0.27500E+01
         0.27500E+01
         0.27500E+01
         0.27500E+01
         0.27500E+01
         0.27500E+01
         0.27500E+01
         0.27500E+01
         0.27500E+01
         0.27500E+01
         0.27500E+01
         0.27500E+01
         0.27500E+01
         0.27500E+01
         0.27500E+01
         0.27500E+01
         0.27500E+01
         0.27500E+01
         0.27500E+01
         0.27500E+01
         0.27500E+01
         0.27500E+01
         0.27500E+01
         0.27500E+01
         0.27500E+01
         0.27500E+01
         0.27500E+01
         0.27500E+01
         0.27500E+01
         0.27500E+01
         0.27500E+01
         0.27500E+01
         0.27500E+01
         0.27500E+01
         0.27500E+01
         0.27500E+01
         0.27500E+01
         0.27500E+01
         0.27500E+01
         0.27500E+01
         0.27500E+01
         0.27500E+01
         0.27500E+01
         0.27500E+01
         0.27500E+01
         0.27500E+01
         0.27500E+01
         0.27500E+01
         0.27500E+01
         0.27500E+01
         0.27500E+01
         0.27500E+01
         0.27500E+01
         0.27500E+01
         0.27500E+01
         0.27500E+01
         0.27500E+01
         0.27500E+01
         0.27500E+01
         0.27500E+01
         0.27500E+01
         0.27500E+01
         0.27500E+01
         0.27500E+01
         0.27500E+01
         0.27500E+01
         0.27500E+01
         0.27500E+01
         0.27500E+01
         0.27500E+01
         0.27500E+01
         0.27500E+01
         0.27500E+01
         0.27500E+01
         0.27500E+01
         0.27500E+01
         0.27500E+01
         0.27500E+01
         0.27500E+01
         0.27500E+01
         0.27500E+01
         0.27500E+01
         0.27500E+01
         0.27500E+01
         0.27500E+01
         0.27500E+01
         0.27500E+01
         0.27500E+01
         0.27500E+01
         0.27500E+01
         0.27500E+01
         0.27500E+01
         0.27500E+01
         0.27500E+01
         0.27500E+01
         0.27500E+01
         0.27500E+01
         0.27500E+01
         0.27500E+01
         0.27500E+01
         0.27500E+01
         0.27500E+01
         0.27500E+01
         0.27500E+01
         0.27500E+01
         0.27500E+01
         0.27500E+01
         0.27500E+01
         0.27500E+01
         0.27500E+01
         0.27500E+01
         0.27500E+01
         0.27500E+01
         0.27500E+01
         0.27500E+01
         0.27500E+01
         0.27500E+01
         0.27500E+01
         0.27500E+01
         0.27500E+01
         0.27500E+01
         0.27500E+01
         0.27500E+01
         0.27500E+01
         0.27500E+01
         0.27500E+01
         0.27500E+01
         0.27500E+01
         0.27500E+01
         0.27500E+01
         0.27500E+01
         0.27500E+01
         0.27500E+01
         0.27500E+01
         0.27500E+01
         0.27500E+01
         0.27500E+01
         0.27500E+01
         0.27500E+01
         0.27500E+01
         0.27500E+01
         0.27500E+01
         0.27500E+01
         0.27500E+01
         0.27500E+01
         0.27500E+01
         0.27500E+01
         0.27500E+01
         0.27500E+01
         0.27500E+01
         0.27500E+01
         0.27500E+01
         0.27500E+01
         0.27500E+01
         0.27500E+01
         0.27500E+01
         0.27500E+01
         0.27500E+01
         0.27500E+01
         0.27500E+01
         0.27500E+01
         0.27500E+01
         0.27500E+01
         0.27500E+01
         0.27500E+01
         0.27500E+01
         0.27500E+01
         0.27500E+01
         0.27500E+01
         0.27500E+01
         0.27500E+01
         0.27500E+01
         0.27500E+01
         0.27500E+01
         0.27500E+01
         0.27500E+01
         0.27500E+01
         0.27500E+01
         0.27500E+01
         0.27500E+01
         0.27500E+01
         0.27500E+01
         0.27500E+01
         0.27500E+01
         0.27500E+01
         0.27500E+01
         0.27500E+01
         0.27500E+01
         0.27500E+01
         0.27500E+01
         0.27500E+01
         0.27500E+01
         0.27500E+01
         0.27500E+01
         0.27500E+01
         0.27500E+01
         0.27500E+01
         0.27500E+01
         0.27500E+01
         0.27500E+01
         0.27500E+01
         0.27500E+01
         0.27500E+01
         0.27500E+01
         0.27500E+01
         0.27500E+01
         0.27500E+01
         0.27500E+01
         0.27500E+01
         0.27500E+01
         0.27500E+01
         0.27500E+01
         0.27500E+01
         0.27500E+01
         0.27500E+01
         0.27500E+01
         0.27500E+01
         0.27500E+01
         0.27500E+01
         0.27500E+01
         0.27500E+01
         0.27500E+01
         0.27500E+01
         0.27500E+01
         0.27500E+01
         0.27500E+01
         0.27500E+01
         0.27500E+01
         0.27500E+01
         0.27500E+01
         0.27500E+01
         0.27500E+01
         0.27500E+01
         0.27500E+01
         0.27500E+01
         0.27500E+01
         0.27500E+01
         0.27500E+01
         0.27500E+01
         0.27500E+01
         0.27500E+01
         0.27500E+01
         0.27500E+01
         0.27500E+01
         0.27500E+01
         0.27500E+01
         0.27500E+01
         0.27500E+01
         0.27500E+01
         0.27500E+01
         0.27500E+01
         0.27500E+01
         0.27500E+01
         0.27500E+01
         0.27500E+01
         0.27500E+01
         0.27500E+01
         0.27500E+01
         0.27500E+01
         0.27500E+01
         0.27500E+01
         0.27500E+01
         0.27500E+01
         0.27500E+01
         0.27500E+01
         0.27500E+01
         0.27500E+01
         0.27500E+01
         0.27500E+01
         0.27500E+01
         0.27500E+01
         0.27500E+01
         0.27500E+01
         0.27500E+01
         0.27500E+01
         0.27500E+01
         0.27500E+01
         0.27500E+01
         0.27500E+01
         0.27500E+01
         0.27500E+01
         0.27500E+01
         0.27500E+01
         0.27500E+01
         0.27500E+01
         0.27500E+01
         0.27500E+01
         0.27500E+01
         0.27500E+01
         0.27500E+01
         0.27500E+01
         0.27500E+01
         0.27500E+01
         0.27500E+01
         0.27500E+01
         0.27500E+01
         0.27500E+01
         0.27500E+01
         0.27500E+01
         0.27500E+01
         0.27500E+01
         0.27500E+01
         0.27500E+01
         0.27500E+01
         0.27500E+01
         0.27500E+01
         0.27500E+01
         0.27500E+01
         0.27500E+01
         0.27500E+01
         0.27500E+01
         0.27500E+01
         0.27500E+01
         0.27500E+01
         0.27500E+01
         0.27500E+01
         0.27500E+01
         0.27500E+01
         0.27500E+01
         0.27500E+01
         0.27500E+01
         0.27500E+01
         0.27500E+01
         0.27500E+01
         0.27500E+01
         0.27500E+01
         0.27500E+01
         0.27500E+01
         0.27500E+01
         0.27500E+01
         0.27500E+01
         0.27500E+01
         0.27500E+01
         0.27500E+01
         0.27500E+01
         0.27500E+01
         0.27500E+01
         0.27500E+01
         0.27500E+01
         0.27500E+01
         0.27500E+01
         0.27500E+01
         0.27500E+01
         0.27500E+01
         0.27500E+01
         0.27500E+01
         0.27500E+01
         0.27500E+01
         0.27500E+01
         0.27500E+01
         0.27500E+01
         0.27500E+01
         0.27500E+01
         0.27500E+01
         0.27500E+01
         0.27500E+01
         0.27500E+01
         0.27500E+01
         0.27500E+01
         0.27500E+01
         0.27500E+01
         0.27500E+01
         0.27500E+01
         0.27500E+01
         0.27500E+01
         0.27500E+01
         0.27500E+01
         0.27500E+01
         0.27500E+01
         0.27500E+01
         0.27500E+01
         0.27500E+01
         0.27500E+01
         0.27500E+01
         0.27500E+01
         0.27500E+01
         0.27500E+01
         0.27500E+01
         0.27500E+01
         0.27500E+01
         0.27500E+01
         0.27500E+01
         0.27500E+01
         0.27500E+01
         0.27500E+01
         0.27500E+01
         0.27500E+01
         0.27500E+01
         0.27500E+01
         0.27500E+01
         0.27500E+01
         0.27500E+01
         0.27500E+01
         0.27500E+01
         0.27500E+01
         0.27500E+01
         0.27500E+01
         0.27500E+01
         0.27500E+01
         0.27500E+01
         0.27500E+01
         0.27500E+01
         0.27500E+01
         0.27500E+01
         0.27500E+01
         0.27500E+01
         0.27500E+01
         0.27500E+01
         0.27500E+01
         0.27500E+01
         0.27500E+01
         0.27500E+01
         0.27500E+01
         0.27500E+01
         0.27500E+01
         0.27500E+01
         0.27500E+01
         0.27500E+01
         0.27500E+01
         0.27500E+01
         0.27500E+01
         0.27500E+01
         0.27500E+01
         0.27500E+01
         0.27500E+01
         0.27500E+01
         0.27500E+01
         0.27500E+01
         0.27500E+01
         0.27500E+01
         0.27500E+01
         0.27500E+01
         0.27500E+01
         0.27500E+01
         0.27500E+01
         0.27500E+01
         0.27500E+01
         0.27500E+01
         0.27500E+01
         0.27500E+01
         0.27500E+01
         0.27500E+01
         0.27500E+01
         0.27500E+01
         0.27500E+01
         0.27500E+01
         0.27500E+01
         0.27500E+01
         0.27500E+01
         0.27500E+01
         0.27500E+01
         0.27500E+01
         0.27500E+01
         0.27500E+01
         0.27500E+01
         0.27500E+01
         0.27500E+01
         0.27500E+01
         0.27500E+01
         0.27500E+01
         0.27500E+01
         0.27500E+01
         0.27500E+01
         0.27500E+01
         0.27500E+01
         0.27500E+01
         0.27500E+01
         0.27500E+01
         0.27500E+01
         0.27500E+01
         0.27500E+01
         0.27500E+01
         0.27500E+01
         0.27500E+01
         0.27500E+01
         0.27500E+01
         0.27500E+01
         0.27500E+01
         0.27500E+01
         0.27500E+01
         0.27500E+01
         0.27500E+01
         0.27500E+01
         0.27500E+01
         0.27500E+01
         0.27500E+01
         0.27500E+01
         0.27500E+01
         0.27500E+01
         0.27500E+01
         0.27500E+01
         0.27500E+01
         0.27500E+01
         0.27500E+01
         0.27500E+01
         0.27500E+01
         0.27500E+01
         0.27500E+01
         0.27500E+01
         0.27500E+01
         0.27500E+01
         0.27500E+01
         0.27500E+01
         0.27500E+01
         0.27500E+01
         0.27500E+01
         0.27500E+01
         0.27500E+01
         0.27500E+01
         0.27500E+01
         0.27500E+01
         0.27500E+01
         0.27500E+01
         0.27500E+01
         0.27500E+01
         0.27500E+01
         0.27500E+01
         0.27500E+01
         0.27500E+01
         0.27500E+01
         0.27500E+01
         0.27500E+01
         0.27500E+01
         0.27500E+01
         0.27500E+01
         0.27500E+01
         0.27500E+01
         0.27500E+01
         0.27500E+01
         0.27500E+01
         0.27500E+01
         0.27500E+01
         0.27500E+01
         0.27500E+01
         0.27500E+01
         0.27500E+01
         0.27500E+01
         0.27500E+01
         0.27500E+01
         0.27500E+01
         0.27500E+01
         0.27500E+01
         0.27500E+01
         0.27500E+01
         0.27500E+01
         0.27500E+01
         0.27500E+01
         0.27500E+01
         0.27500E+01
         0.27500E+01
         0.27500E+01
         0.27500E+01
         0.27500E+01
         0.27500E+01
         0.27500E+01
         0.27500E+01
         0.27500E+01
         0.27500E+01
         0.27500E+01
         0.27500E+01
         0.27500E+01
         0.27500E+01
         0.27500E+01
         0.27500E+01
         0.27500E+01
         0.27500E+01
         0.27500E+01
         0.27500E+01
         0.27500E+01
         0.27500E+01
         0.27500E+01
         0.27500E+01
         0.27500E+01
         0.27500E+01
         0.27500E+01
         0.27500E+01
         0.27500E+01
         0.27500E+01
         0.27500E+01
         0.27500E+01
         0.27500E+01
         0.27500E+01
         0.27500E+01
         0.27500E+01
         0.27500E+01
         0.27500E+01
         0.27500E+01
         0.27500E+01
         0.27500E+01
         0.27500E+01
         0.27500E+01
         0.27500E+01
         0.27500E+01
         0.27500E+01
         0.27500E+01
         0.27500E+01
         0.27500E+01
         0.27500E+01
         0.27500E+01
         0.27500E+01
         0.27500E+01
         0.27500E+01
         0.27500E+01
         0.27500E+01
         0.27500E+01
         0.27500E+01
         0.27500E+01
         0.27500E+01
         0.27500E+01
         0.27500E+01
         0.27500E+01
         0.27500E+01
         0.27500E+01
         0.27500E+01
         0.27500E+01
         0.27500E+01
         0.27500E+01
         0.27500E+01
         0.27500E+01
         0.27500E+01
         0.27500E+01
         0.27500E+01
         0.27500E+01
         0.27500E+01
         0.27500E+01
         0.27500E+01
         0.27500E+01
         0.27500E+01
         0.27500E+01
         0.27500E+01
         0.27500E+01
         0.27500E+01
         0.27500E+01
         0.27500E+01
         0.27500E+01
         0.27500E+01
         0.27500E+01
         0.27500E+01
         0.27500E+01
         0.27500E+01
         0.27500E+01
         0.27500E+01
         0.27500E+01
         0.27500E+01
         0.27500E+01
         0.27500E+01
         0.27500E+01
         0.27500E+01
         0.27500E+01
         0.27500E+01
         0.27500E+01
         0.27500E+01
         0.27500E+01
         0.27500E+01
         0.27500E+01
         0.27500E+01
         0.27500E+01
         0.27500E+01
         0.27500E+01
         0.27500E+01
         0.27500E+01
         0.27500E+01
         0.27500E+01
         0.27500E+01
         0.27500E+01
         0.27500E+01
         0.27500E+01
         0.27500E+01
         0.27500E+01
         0.27500E+01
         0.27500E+01
         0.27500E+01
         0.27500E+01
         0.27500E+01
         0.27500E+01
         0.27500E+01
         0.27500E+01
         0.27500E+01
         0.27500E+01
         0.27500E+01
         0.27500E+01
         0.27500E+01
         0.27500E+01
         0.27500E+01
         0.27500E+01
         0.27500E+01
         0.27500E+01
         0.27500E+01
         0.27500E+01
         0.27500E+01
         0.27500E+01
         0.27500E+01
         0.27500E+01
         0.27500E+01
         0.27500E+01
         0.27500E+01
         0.27500E+01
         0.27500E+01
         0.27500E+01
         0.27500E+01
         0.27500E+01
         0.27500E+01
         0.27500E+01
         0.27500E+01
         0.27500E+01
         0.27500E+01
         0.27500E+01
         0.27500E+01
         0.27500E+01
         0.27500E+01
         0.27500E+01
         0.27500E+01
         0.27500E+01
         0.27500E+01
         0.27500E+01
         0.27500E+01
         0.27500E+01
         0.27500E+01
         0.27500E+01
         0.27500E+01
         0.27500E+01
         0.27500E+01
         0.27500E+01
         0.27500E+01
         0.27500E+01
         0.27500E+01
         0.27500E+01
         0.27500E+01
         0.27500E+01
         0.27500E+01
         0.27500E+01
         0.27500E+01
         0.27500E+01
         0.27500E+01
         0.27500E+01
         0.27500E+01
         0.27500E+01
         0.27500E+01
         0.27500E+01
         0.27500E+01
  
SCALARS              physical_window_x  double 1
LOOKUP_TABLE default
         0.42419E-02
         0.35201E-02
         0.37624E-02
         0.42419E-02
         0.42417E-02
         0.35201E-02
         0.37618E-02
         0.42417E-02
         0.37624E-02
         0.37624E-02
         0.37618E-02
         0.37618E-02
         0.30086E-02
         0.32069E-02
         0.30084E-02
         0.32067E-02
         0.42419E-02
         0.32069E-02
         0.42417E-02
         0.32067E-02
         0.24180E-02
         0.29942E-02
         0.32396E-02
         0.24180E-02
         0.29933E-02
         0.32385E-02
         0.26608E-02
         0.27190E-02
         0.26608E-02
         0.27190E-02
         0.42687E-02
         0.36511E-02
         0.42687E-02
         0.42687E-02
         0.36511E-02
         0.42687E-02
         0.32069E-02
         0.29739E-02
         0.32066E-02
         0.29739E-02
         0.34652E-02
         0.32621E-02
         0.34652E-02
         0.32621E-02
         0.37123E-02
         0.32069E-02
         0.37123E-02
         0.32066E-02
         0.30844E-02
         0.30844E-02
         0.35191E-02
         0.35189E-02
         0.26925E-02
         0.26925E-02
         0.26925E-02
         0.26925E-02
         0.24643E-02
         0.27651E-02
         0.24643E-02
         0.27651E-02
         0.42687E-02
         0.35191E-02
         0.42687E-02
         0.35189E-02
         0.42687E-02
         0.42687E-02
         0.34658E-02
         0.34648E-02
         0.27274E-02
         0.31799E-02
         0.27273E-02
         0.31796E-02
         0.32396E-02
         0.32385E-02
         0.26964E-02
         0.26960E-02
         0.27828E-02
         0.27828E-02
         0.27828E-02
         0.27828E-02
         0.27004E-02
         0.31883E-02
         0.27003E-02
         0.31880E-02
         0.31883E-02
         0.31880E-02
         0.37123E-02
         0.37123E-02
         0.36245E-02
         0.36245E-02
         0.28253E-02
         0.31642E-02
         0.28253E-02
         0.31636E-02
         0.33485E-02
         0.33485E-02
         0.33485E-02
         0.33485E-02
         0.31978E-02
         0.31969E-02
         0.29849E-02
         0.32843E-02
         0.29849E-02
         0.32843E-02
         0.27274E-02
         0.31109E-02
         0.27273E-02
         0.31109E-02
         0.31799E-02
         0.31796E-02
         0.32396E-02
         0.32385E-02
         0.32396E-02
         0.32385E-02
         0.29942E-02
         0.29933E-02
         0.27190E-02
         0.27190E-02
         0.26964E-02
         0.26960E-02
         0.27828E-02
         0.27828E-02
         0.27828E-02
         0.27828E-02
         0.27004E-02
         0.27003E-02
         0.31883E-02
         0.31880E-02
         0.31883E-02
         0.31880E-02
         0.32621E-02
         0.32621E-02
         0.34652E-02
         0.34652E-02
         0.37123E-02
         0.37123E-02
         0.37123E-02
         0.37123E-02
         0.36245E-02
         0.36245E-02
         0.28253E-02
         0.28253E-02
         0.29097E-02
         0.29087E-02
         0.32389E-02
         0.32378E-02
         0.32389E-02
         0.32378E-02
         0.31978E-02
         0.31969E-02
         0.29849E-02
         0.29849E-02
         0.32843E-02
         0.32843E-02
         0.32843E-02
         0.32843E-02
         0.42420E-02
         0.35201E-02
         0.37629E-02
         0.42420E-02
         0.37629E-02
         0.37629E-02
         0.30087E-02
         0.32071E-02
         0.42420E-02
         0.32071E-02
         0.24178E-02
         0.29952E-02
         0.32407E-02
         0.26596E-02
         0.27191E-02
         0.42679E-02
         0.36502E-02
         0.42679E-02
         0.32071E-02
         0.29727E-02
         0.34648E-02
         0.32622E-02
         0.37119E-02
         0.32071E-02
         0.30833E-02
         0.35193E-02
         0.26910E-02
         0.26910E-02
         0.24638E-02
         0.27644E-02
         0.42679E-02
         0.35193E-02
         0.42679E-02
         0.34670E-02
         0.27274E-02
         0.31802E-02
         0.32407E-02
         0.26968E-02
         0.27828E-02
         0.27828E-02
         0.27005E-02
         0.31885E-02
         0.31885E-02
         0.37119E-02
         0.36244E-02
         0.28250E-02
         0.31647E-02
         0.33484E-02
         0.33484E-02
         0.31986E-02
         0.29848E-02
         0.32841E-02
         0.27274E-02
         0.31099E-02
         0.31802E-02
         0.32407E-02
         0.32407E-02
         0.29952E-02
         0.27191E-02
         0.26968E-02
         0.27828E-02
         0.27828E-02
         0.27005E-02
         0.31885E-02
         0.31885E-02
         0.32622E-02
         0.34648E-02
         0.37119E-02
         0.37119E-02
         0.36244E-02
         0.28250E-02
         0.29106E-02
         0.32401E-02
         0.32401E-02
         0.31986E-02
         0.29848E-02
         0.32841E-02
         0.32841E-02
         0.42421E-02
         0.35201E-02
         0.37634E-02
         0.42421E-02
         0.37634E-02
         0.37634E-02
         0.30089E-02
         0.32073E-02
         0.42421E-02
         0.32073E-02
         0.24177E-02
         0.29961E-02
         0.32418E-02
         0.26584E-02
         0.27191E-02
         0.42670E-02
         0.36493E-02
         0.42670E-02
         0.32073E-02
         0.29714E-02
         0.34644E-02
         0.32623E-02
         0.37115E-02
         0.32073E-02
         0.30822E-02
         0.35195E-02
         0.26896E-02
         0.26896E-02
         0.24633E-02
         0.27638E-02
         0.42670E-02
         0.35195E-02
         0.42670E-02
         0.34681E-02
         0.27275E-02
         0.31805E-02
         0.32418E-02
         0.26972E-02
         0.27828E-02
         0.27828E-02
         0.27006E-02
         0.31888E-02
         0.31888E-02
         0.37115E-02
         0.36243E-02
         0.28247E-02
         0.31652E-02
         0.33483E-02
         0.33483E-02
         0.31995E-02
         0.29847E-02
         0.32839E-02
         0.27275E-02
         0.31090E-02
         0.31805E-02
         0.32418E-02
         0.32418E-02
         0.29961E-02
         0.27191E-02
         0.26972E-02
         0.27828E-02
         0.27828E-02
         0.27006E-02
         0.31888E-02
         0.31888E-02
         0.32623E-02
         0.34644E-02
         0.37115E-02
         0.37115E-02
         0.36243E-02
         0.28247E-02
         0.29116E-02
         0.32412E-02
         0.32412E-02
         0.31995E-02
         0.29847E-02
         0.32839E-02
         0.32839E-02
         0.42423E-02
         0.35200E-02
         0.37639E-02
         0.42423E-02
         0.37639E-02
         0.37639E-02
         0.30091E-02
         0.32075E-02
         0.42423E-02
         0.32075E-02
         0.24176E-02
         0.29970E-02
         0.32428E-02
         0.26572E-02
         0.27192E-02
         0.42662E-02
         0.36483E-02
         0.42662E-02
         0.32075E-02
         0.29702E-02
         0.34639E-02
         0.32624E-02
         0.37111E-02
         0.32075E-02
         0.30811E-02
         0.35197E-02
         0.26881E-02
         0.26881E-02
         0.24628E-02
         0.27631E-02
         0.42662E-02
         0.35197E-02
         0.42662E-02
         0.34692E-02
         0.27276E-02
         0.31808E-02
         0.32428E-02
         0.26975E-02
         0.27828E-02
         0.27828E-02
         0.27007E-02
         0.31890E-02
         0.31890E-02
         0.37111E-02
         0.36242E-02
         0.28243E-02
         0.31658E-02
         0.33482E-02
         0.33482E-02
         0.32003E-02
         0.29846E-02
         0.32837E-02
         0.27276E-02
         0.31081E-02
         0.31808E-02
         0.32428E-02
         0.32428E-02
         0.29970E-02
         0.27192E-02
         0.26975E-02
         0.27828E-02
         0.27828E-02
         0.27007E-02
         0.31890E-02
         0.31890E-02
         0.32624E-02
         0.34639E-02
         0.37111E-02
         0.37111E-02
         0.36242E-02
         0.28243E-02
         0.29125E-02
         0.32423E-02
         0.32423E-02
         0.32003E-02
         0.29846E-02
         0.32837E-02
         0.32837E-02
         0.42424E-02
         0.35200E-02
         0.37644E-02
         0.42424E-02
         0.37644E-02
         0.37644E-02
         0.30093E-02
         0.32077E-02
         0.42424E-02
         0.32077E-02
         0.24174E-02
         0.29979E-02
         0.32439E-02
         0.26559E-02
         0.27192E-02
         0.42653E-02
         0.36474E-02
         0.42653E-02
         0.32077E-02
         0.29690E-02
         0.34635E-02
         0.32624E-02
         0.37108E-02
         0.32077E-02
         0.30799E-02
         0.35199E-02
         0.26867E-02
         0.26867E-02
         0.24623E-02
         0.27625E-02
         0.42653E-02
         0.35199E-02
         0.42653E-02
         0.34703E-02
         0.27276E-02
         0.31812E-02
         0.32439E-02
         0.26979E-02
         0.27828E-02
         0.27828E-02
         0.27008E-02
         0.31893E-02
         0.31893E-02
         0.37108E-02
         0.36241E-02
         0.28240E-02
         0.31663E-02
         0.33481E-02
         0.33481E-02
         0.32012E-02
         0.29844E-02
         0.32835E-02
         0.27276E-02
         0.31071E-02
         0.31812E-02
         0.32439E-02
         0.32439E-02
         0.29979E-02
         0.27192E-02
         0.26979E-02
         0.27828E-02
         0.27828E-02
         0.27008E-02
         0.31893E-02
         0.31893E-02
         0.32624E-02
         0.34635E-02
         0.37108E-02
         0.37108E-02
         0.36241E-02
         0.28240E-02
         0.29135E-02
         0.32434E-02
         0.32434E-02
         0.32012E-02
         0.29844E-02
         0.32835E-02
         0.32835E-02
         0.42425E-02
         0.35200E-02
         0.37649E-02
         0.42425E-02
         0.37649E-02
         0.37649E-02
         0.30095E-02
         0.32079E-02
         0.42425E-02
         0.32079E-02
         0.24173E-02
         0.29989E-02
         0.32450E-02
         0.26547E-02
         0.27193E-02
         0.42645E-02
         0.36465E-02
         0.42645E-02
         0.32079E-02
         0.29677E-02
         0.34631E-02
         0.32625E-02
         0.37104E-02
         0.32079E-02
         0.30788E-02
         0.35201E-02
         0.26852E-02
         0.26852E-02
         0.24618E-02
         0.27618E-02
         0.42645E-02
         0.35201E-02
         0.42645E-02
         0.34715E-02
         0.27277E-02
         0.31815E-02
         0.32450E-02
         0.26983E-02
         0.27828E-02
         0.27828E-02
         0.27009E-02
         0.31895E-02
         0.31895E-02
         0.37104E-02
         0.36239E-02
         0.28237E-02
         0.31668E-02
         0.33480E-02
         0.33480E-02
         0.32020E-02
         0.29843E-02
         0.32833E-02
         0.27277E-02
         0.31062E-02
         0.31815E-02
         0.32450E-02
         0.32450E-02
         0.29989E-02
         0.27193E-02
         0.26983E-02
         0.27828E-02
         0.27828E-02
         0.27009E-02
         0.31895E-02
         0.31895E-02
         0.32625E-02
         0.34631E-02
         0.37104E-02
         0.37104E-02
         0.36239E-02
         0.28237E-02
         0.29145E-02
         0.32445E-02
         0.32445E-02
         0.32020E-02
         0.29843E-02
         0.32833E-02
         0.32833E-02
         0.42427E-02
         0.35200E-02
         0.37654E-02
         0.42427E-02
         0.37654E-02
         0.37654E-02
         0.30097E-02
         0.32081E-02
         0.42427E-02
         0.32081E-02
         0.24171E-02
         0.29998E-02
         0.32461E-02
         0.26535E-02
         0.27193E-02
         0.42636E-02
         0.36455E-02
         0.42636E-02
         0.32081E-02
         0.29665E-02
         0.34626E-02
         0.32626E-02
         0.37100E-02
         0.32081E-02
         0.30777E-02
         0.35203E-02
         0.26838E-02
         0.26838E-02
         0.24613E-02
         0.27611E-02
         0.42636E-02
         0.35203E-02
         0.42636E-02
         0.34726E-02
         0.27278E-02
         0.31818E-02
         0.32461E-02
         0.26987E-02
         0.27827E-02
         0.27827E-02
         0.27010E-02
         0.31898E-02
         0.31898E-02
         0.37100E-02
         0.36238E-02
         0.28234E-02
         0.31673E-02
         0.33479E-02
         0.33479E-02
         0.32029E-02
         0.29842E-02
         0.32831E-02
         0.27278E-02
         0.31052E-02
         0.31818E-02
         0.32461E-02
         0.32461E-02
         0.29998E-02
         0.27193E-02
         0.26987E-02
         0.27827E-02
         0.27827E-02
         0.27010E-02
         0.31898E-02
         0.31898E-02
         0.32626E-02
         0.34626E-02
         0.37100E-02
         0.37100E-02
         0.36238E-02
         0.28234E-02
         0.29154E-02
         0.32457E-02
         0.32457E-02
         0.32029E-02
         0.29842E-02
         0.32831E-02
         0.32831E-02
         0.42428E-02
         0.35199E-02
         0.37660E-02
         0.42428E-02
         0.37660E-02
         0.37660E-02
         0.30099E-02
         0.32083E-02
         0.42428E-02
         0.32083E-02
         0.24170E-02
         0.30007E-02
         0.32471E-02
         0.26523E-02
         0.27194E-02
         0.42628E-02
         0.36446E-02
         0.42628E-02
         0.32083E-02
         0.29652E-02
         0.34622E-02
         0.32627E-02
         0.37096E-02
         0.32083E-02
         0.30766E-02
         0.35205E-02
         0.26823E-02
         0.26823E-02
         0.24608E-02
         0.27605E-02
         0.42628E-02
         0.35205E-02
         0.42628E-02
         0.34737E-02
         0.27279E-02
         0.31821E-02
         0.32471E-02
         0.26991E-02
         0.27827E-02
         0.27827E-02
         0.27011E-02
         0.31900E-02
         0.31900E-02
         0.37096E-02
         0.36237E-02
         0.28231E-02
         0.31679E-02
         0.33478E-02
         0.33478E-02
         0.32038E-02
         0.29841E-02
         0.32829E-02
         0.27279E-02
         0.31043E-02
         0.31821E-02
         0.32471E-02
         0.32471E-02
         0.30007E-02
         0.27194E-02
         0.26991E-02
         0.27827E-02
         0.27827E-02
         0.27011E-02
         0.31900E-02
         0.31900E-02
         0.32627E-02
         0.34622E-02
         0.37096E-02
         0.37096E-02
         0.36237E-02
         0.28231E-02
         0.29164E-02
         0.32468E-02
         0.32468E-02
         0.32038E-02
         0.29841E-02
         0.32829E-02
         0.32829E-02
         0.42429E-02
         0.35199E-02
         0.37665E-02
         0.42429E-02
         0.37665E-02
         0.37665E-02
         0.30101E-02
         0.32085E-02
         0.42429E-02
         0.32085E-02
         0.24168E-02
         0.30017E-02
         0.32482E-02
         0.26510E-02
         0.27194E-02
         0.42619E-02
         0.36437E-02
         0.42619E-02
         0.32085E-02
         0.29640E-02
         0.34618E-02
         0.32627E-02
         0.37092E-02
         0.32085E-02
         0.30755E-02
         0.35207E-02
         0.26808E-02
         0.26808E-02
         0.24603E-02
         0.27599E-02
         0.42619E-02
         0.35207E-02
         0.42619E-02
         0.34748E-02
         0.27279E-02
         0.31824E-02
         0.32482E-02
         0.26994E-02
         0.27827E-02
         0.27827E-02
         0.27012E-02
         0.31902E-02
         0.31902E-02
         0.37092E-02
         0.36236E-02
         0.28227E-02
         0.31684E-02
         0.33477E-02
         0.33477E-02
         0.32046E-02
         0.29840E-02
         0.32827E-02
         0.27279E-02
         0.31034E-02
         0.31824E-02
         0.32482E-02
         0.32482E-02
         0.30017E-02
         0.27194E-02
         0.26994E-02
         0.27827E-02
         0.27827E-02
         0.27012E-02
         0.31902E-02
         0.31902E-02
         0.32627E-02
         0.34618E-02
         0.37092E-02
         0.37092E-02
         0.36236E-02
         0.28227E-02
         0.29173E-02
         0.32479E-02
         0.32479E-02
         0.32046E-02
         0.29840E-02
         0.32827E-02
         0.32827E-02
         0.42431E-02
         0.35199E-02
         0.37670E-02
         0.42431E-02
         0.37670E-02
         0.37670E-02
         0.30102E-02
         0.32087E-02
         0.42431E-02
         0.32087E-02
         0.24167E-02
         0.30026E-02
         0.32493E-02
         0.26498E-02
         0.27194E-02
         0.42611E-02
         0.36427E-02
         0.42611E-02
         0.32087E-02
         0.29628E-02
         0.34613E-02
         0.32628E-02
         0.37089E-02
         0.32087E-02
         0.30744E-02
         0.35209E-02
         0.26794E-02
         0.26794E-02
         0.24598E-02
         0.27592E-02
         0.42611E-02
         0.35209E-02
         0.42611E-02
         0.34759E-02
         0.27280E-02
         0.31827E-02
         0.32493E-02
         0.26998E-02
         0.27827E-02
         0.27827E-02
         0.27013E-02
         0.31905E-02
         0.31905E-02
         0.37089E-02
         0.36235E-02
         0.28224E-02
         0.31689E-02
         0.33476E-02
         0.33476E-02
         0.32055E-02
         0.29839E-02
         0.32825E-02
         0.27280E-02
         0.31024E-02
         0.31827E-02
         0.32493E-02
         0.32493E-02
         0.30026E-02
         0.27194E-02
         0.26998E-02
         0.27827E-02
         0.27827E-02
         0.27013E-02
         0.31905E-02
         0.31905E-02
         0.32628E-02
         0.34613E-02
         0.37089E-02
         0.37089E-02
         0.36235E-02
         0.28224E-02
         0.29183E-02
         0.32490E-02
         0.32490E-02
         0.32055E-02
         0.29839E-02
         0.32825E-02
         0.32825E-02
         0.42432E-02
         0.35199E-02
         0.37675E-02
         0.42432E-02
         0.37675E-02
         0.37675E-02
         0.30104E-02
         0.32089E-02
         0.42432E-02
         0.32089E-02
         0.24166E-02
         0.30035E-02
         0.32504E-02
         0.26486E-02
         0.27195E-02
         0.42603E-02
         0.36418E-02
         0.42603E-02
         0.32089E-02
         0.29615E-02
         0.34609E-02
         0.32629E-02
         0.37085E-02
         0.32089E-02
         0.30732E-02
         0.35211E-02
         0.26779E-02
         0.26779E-02
         0.24593E-02
         0.27585E-02
         0.42603E-02
         0.35211E-02
         0.42603E-02
         0.34771E-02
         0.27281E-02
         0.31830E-02
         0.32504E-02
         0.27002E-02
         0.27827E-02
         0.27827E-02
         0.27014E-02
         0.31907E-02
         0.31907E-02
         0.37085E-02
         0.36233E-02
         0.28221E-02
         0.31694E-02
         0.33475E-02
         0.33475E-02
         0.32063E-02
         0.29838E-02
         0.32823E-02
         0.27281E-02
         0.31015E-02
         0.31830E-02
         0.32504E-02
         0.32504E-02
         0.30035E-02
         0.27195E-02
         0.27002E-02
         0.27827E-02
         0.27827E-02
         0.27014E-02
         0.31907E-02
         0.31907E-02
         0.32629E-02
         0.34609E-02
         0.37085E-02
         0.37085E-02
         0.36233E-02
         0.28221E-02
         0.29193E-02
         0.32501E-02
         0.32501E-02
         0.32063E-02
         0.29838E-02
         0.32823E-02
         0.32823E-02
         0.42433E-02
         0.35199E-02
         0.37680E-02
         0.42433E-02
         0.37680E-02
         0.37680E-02
         0.30106E-02
         0.32091E-02
         0.42433E-02
         0.32091E-02
         0.24164E-02
         0.30045E-02
         0.32514E-02
         0.26474E-02
         0.27195E-02
         0.42594E-02
         0.36409E-02
         0.42594E-02
         0.32091E-02
         0.29603E-02
         0.34605E-02
         0.32630E-02
         0.37081E-02
         0.32091E-02
         0.30721E-02
         0.35213E-02
         0.26765E-02
         0.26765E-02
         0.24588E-02
         0.27579E-02
         0.42594E-02
         0.35213E-02
         0.42594E-02
         0.34782E-02
         0.27281E-02
         0.31833E-02
         0.32514E-02
         0.27006E-02
         0.27826E-02
         0.27826E-02
         0.27015E-02
         0.31910E-02
         0.31910E-02
         0.37081E-02
         0.36232E-02
         0.28218E-02
         0.31700E-02
         0.33474E-02
         0.33474E-02
         0.32072E-02
         0.29836E-02
         0.32821E-02
         0.27281E-02
         0.31005E-02
         0.31833E-02
         0.32514E-02
         0.32514E-02
         0.30045E-02
         0.27195E-02
         0.27006E-02
         0.27826E-02
         0.27826E-02
         0.27015E-02
         0.31910E-02
         0.31910E-02
         0.32630E-02
         0.34605E-02
         0.37081E-02
         0.37081E-02
         0.36232E-02
         0.28218E-02
         0.29202E-02
         0.32512E-02
         0.32512E-02
         0.32072E-02
         0.29836E-02
         0.32821E-02
         0.32821E-02
         0.42435E-02
         0.35199E-02
         0.37685E-02
         0.42435E-02
         0.37685E-02
         0.37685E-02
         0.30108E-02
         0.32093E-02
         0.42435E-02
         0.32093E-02
         0.24163E-02
         0.30054E-02
         0.32525E-02
         0.26461E-02
         0.27196E-02
         0.42586E-02
         0.36399E-02
         0.42586E-02
         0.32093E-02
         0.29591E-02
         0.34601E-02
         0.32630E-02
         0.37077E-02
         0.32093E-02
         0.30710E-02
         0.35215E-02
         0.26750E-02
         0.26750E-02
         0.24583E-02
         0.27572E-02
         0.42586E-02
         0.35215E-02
         0.42586E-02
         0.34793E-02
         0.27282E-02
         0.31836E-02
         0.32525E-02
         0.27010E-02
         0.27826E-02
         0.27826E-02
         0.27016E-02
         0.31912E-02
         0.31912E-02
         0.37077E-02
         0.36231E-02
         0.28215E-02
         0.31705E-02
         0.33473E-02
         0.33473E-02
         0.32080E-02
         0.29835E-02
         0.32819E-02
         0.27282E-02
         0.30996E-02
         0.31836E-02
         0.32525E-02
         0.32525E-02
         0.30054E-02
         0.27196E-02
         0.27010E-02
         0.27826E-02
         0.27826E-02
         0.27016E-02
         0.31912E-02
         0.31912E-02
         0.32630E-02
         0.34601E-02
         0.37077E-02
         0.37077E-02
         0.36231E-02
         0.28215E-02
         0.29212E-02
         0.32524E-02
         0.32524E-02
         0.32080E-02
         0.29835E-02
         0.32819E-02
         0.32819E-02
         0.42436E-02
         0.35198E-02
         0.37690E-02
         0.42436E-02
         0.37690E-02
         0.37690E-02
         0.30110E-02
         0.32095E-02
         0.42436E-02
         0.32095E-02
         0.24162E-02
         0.30064E-02
         0.32536E-02
         0.26449E-02
         0.27196E-02
         0.42577E-02
         0.36390E-02
         0.42577E-02
         0.32096E-02
         0.29578E-02
         0.34596E-02
         0.32631E-02
         0.37074E-02
         0.32096E-02
         0.30699E-02
         0.35217E-02
         0.26735E-02
         0.26735E-02
         0.24578E-02
         0.27566E-02
         0.42577E-02
         0.35217E-02
         0.42577E-02
         0.34804E-02
         0.27283E-02
         0.31839E-02
         0.32536E-02
         0.27013E-02
         0.27826E-02
         0.27826E-02
         0.27017E-02
         0.31915E-02
         0.31915E-02
         0.37074E-02
         0.36230E-02
         0.28211E-02
         0.31710E-02
         0.33472E-02
         0.33472E-02
         0.32089E-02
         0.29834E-02
         0.32817E-02
         0.27283E-02
         0.30986E-02
         0.31839E-02
         0.32536E-02
         0.32536E-02
         0.30064E-02
         0.27196E-02
         0.27013E-02
         0.27826E-02
         0.27826E-02
         0.27017E-02
         0.31915E-02
         0.31915E-02
         0.32631E-02
         0.34596E-02
         0.37074E-02
         0.37074E-02
         0.36230E-02
         0.28211E-02
         0.29221E-02
         0.32535E-02
         0.32535E-02
         0.32089E-02
         0.29834E-02
         0.32817E-02
         0.32817E-02
         0.42437E-02
         0.35198E-02
         0.37695E-02
         0.42437E-02
         0.37695E-02
         0.37695E-02
         0.30112E-02
         0.32097E-02
         0.42437E-02
         0.32097E-02
         0.24160E-02
         0.30073E-02
         0.32547E-02
         0.26437E-02
         0.27197E-02
         0.42569E-02
         0.36381E-02
         0.42569E-02
         0.32098E-02
         0.29566E-02
         0.34592E-02
         0.32632E-02
         0.37070E-02
         0.32098E-02
         0.30688E-02
         0.35219E-02
         0.26721E-02
         0.26721E-02
         0.24573E-02
         0.27560E-02
         0.42569E-02
         0.35219E-02
         0.42569E-02
         0.34815E-02
         0.27284E-02
         0.31843E-02
         0.32547E-02
         0.27017E-02
         0.27826E-02
         0.27826E-02
         0.27018E-02
         0.31917E-02
         0.31917E-02
         0.37070E-02
         0.36229E-02
         0.28208E-02
         0.31716E-02
         0.33471E-02
         0.33471E-02
         0.32097E-02
         0.29833E-02
         0.32815E-02
         0.27284E-02
         0.30977E-02
         0.31843E-02
         0.32547E-02
         0.32547E-02
         0.30073E-02
         0.27197E-02
         0.27017E-02
         0.27826E-02
         0.27826E-02
         0.27018E-02
         0.31917E-02
         0.31917E-02
         0.32632E-02
         0.34592E-02
         0.37070E-02
         0.37070E-02
         0.36229E-02
         0.28208E-02
         0.29231E-02
         0.32546E-02
         0.32546E-02
         0.32097E-02
         0.29833E-02
         0.32815E-02
         0.32815E-02
         0.42439E-02
         0.35198E-02
         0.37701E-02
         0.42439E-02
         0.37701E-02
         0.37701E-02
         0.30113E-02
         0.32099E-02
         0.42439E-02
         0.32099E-02
         0.24159E-02
         0.30082E-02
         0.32558E-02
         0.26425E-02
         0.27197E-02
         0.42560E-02
         0.36371E-02
         0.42560E-02
         0.32100E-02
         0.29554E-02
         0.34588E-02
         0.32633E-02
         0.37066E-02
         0.32100E-02
         0.30677E-02
         0.35221E-02
         0.26706E-02
         0.26706E-02
         0.24568E-02
         0.27553E-02
         0.42560E-02
         0.35221E-02
         0.42560E-02
         0.34827E-02
         0.27284E-02
         0.31846E-02
         0.32558E-02
         0.27021E-02
         0.27826E-02
         0.27826E-02
         0.27019E-02
         0.31920E-02
         0.31920E-02
         0.37066E-02
         0.36227E-02
         0.28205E-02
         0.31721E-02
         0.33470E-02
         0.33470E-02
         0.32106E-02
         0.29831E-02
         0.32813E-02
         0.27284E-02
         0.30968E-02
         0.31846E-02
         0.32558E-02
         0.32558E-02
         0.30082E-02
         0.27197E-02
         0.27021E-02
         0.27826E-02
         0.27826E-02
         0.27019E-02
         0.31920E-02
         0.31920E-02
         0.32633E-02
         0.34588E-02
         0.37066E-02
         0.37066E-02
         0.36227E-02
         0.28205E-02
         0.29241E-02
         0.32557E-02
         0.32557E-02
         0.32106E-02
         0.29831E-02
         0.32813E-02
         0.32813E-02
         0.42440E-02
         0.35198E-02
         0.37706E-02
         0.42440E-02
         0.37706E-02
         0.37706E-02
         0.30115E-02
         0.32101E-02
         0.42440E-02
         0.32101E-02
         0.24158E-02
         0.30091E-02
         0.32568E-02
         0.26412E-02
         0.27198E-02
         0.42552E-02
         0.36362E-02
         0.42552E-02
         0.32102E-02
         0.29541E-02
         0.34583E-02
         0.32633E-02
         0.37062E-02
         0.32102E-02
         0.30665E-02
         0.35223E-02
         0.26692E-02
         0.26692E-02
         0.24563E-02
         0.27546E-02
         0.42552E-02
         0.35223E-02
         0.42552E-02
         0.34838E-02
         0.27285E-02
         0.31849E-02
         0.32568E-02
         0.27025E-02
         0.27826E-02
         0.27826E-02
         0.27020E-02
         0.31922E-02
         0.31922E-02
         0.37062E-02
         0.36226E-02
         0.28202E-02
         0.31726E-02
         0.33469E-02
         0.33469E-02
         0.32114E-02
         0.29830E-02
         0.32811E-02
         0.27285E-02
         0.30958E-02
         0.31849E-02
         0.32568E-02
         0.32568E-02
         0.30091E-02
         0.27198E-02
         0.27025E-02
         0.27826E-02
         0.27826E-02
         0.27020E-02
         0.31922E-02
         0.31922E-02
         0.32633E-02
         0.34583E-02
         0.37062E-02
         0.37062E-02
         0.36226E-02
         0.28202E-02
         0.29250E-02
         0.32568E-02
         0.32568E-02
         0.32114E-02
         0.29830E-02
         0.32811E-02
         0.32811E-02
         0.42441E-02
         0.35198E-02
         0.37711E-02
         0.42441E-02
         0.37711E-02
         0.37711E-02
         0.30117E-02
         0.32103E-02
         0.42441E-02
         0.32103E-02
         0.24156E-02
         0.30101E-02
         0.32579E-02
         0.26400E-02
         0.27198E-02
         0.42543E-02
         0.36353E-02
         0.42543E-02
         0.32104E-02
         0.29529E-02
         0.34579E-02
         0.32634E-02
         0.37058E-02
         0.32104E-02
         0.30654E-02
         0.35225E-02
         0.26677E-02
         0.26677E-02
         0.24558E-02
         0.27540E-02
         0.42543E-02
         0.35225E-02
         0.42543E-02
         0.34849E-02
         0.27286E-02
         0.31852E-02
         0.32579E-02
         0.27029E-02
         0.27826E-02
         0.27826E-02
         0.27021E-02
         0.31924E-02
         0.31924E-02
         0.37058E-02
         0.36225E-02
         0.28198E-02
         0.31731E-02
         0.33468E-02
         0.33468E-02
         0.32123E-02
         0.29829E-02
         0.32809E-02
         0.27286E-02
         0.30949E-02
         0.31852E-02
         0.32579E-02
         0.32579E-02
         0.30101E-02
         0.27198E-02
         0.27029E-02
         0.27826E-02
         0.27826E-02
         0.27021E-02
         0.31924E-02
         0.31924E-02
         0.32634E-02
         0.34579E-02
         0.37058E-02
         0.37058E-02
         0.36225E-02
         0.28198E-02
         0.29260E-02
         0.32579E-02
         0.32579E-02
         0.32123E-02
         0.29829E-02
         0.32809E-02
         0.32809E-02
         0.42443E-02
         0.35197E-02
         0.37716E-02
         0.42443E-02
         0.37716E-02
         0.37716E-02
         0.30119E-02
         0.32105E-02
         0.42443E-02
         0.32105E-02
         0.24155E-02
         0.30110E-02
         0.32590E-02
         0.26388E-02
         0.27199E-02
         0.42535E-02
         0.36343E-02
         0.42535E-02
         0.32106E-02
         0.29517E-02
         0.34575E-02
         0.32635E-02
         0.37055E-02
         0.32106E-02
         0.30643E-02
         0.35227E-02
         0.26663E-02
         0.26663E-02
         0.24553E-02
         0.27533E-02
         0.42535E-02
         0.35227E-02
         0.42535E-02
         0.34860E-02
         0.27286E-02
         0.31855E-02
         0.32590E-02
         0.27032E-02
         0.27826E-02
         0.27826E-02
         0.27022E-02
         0.31927E-02
         0.31927E-02
         0.37055E-02
         0.36224E-02
         0.28195E-02
         0.31737E-02
         0.33467E-02
         0.33467E-02
         0.32132E-02
         0.29828E-02
         0.32807E-02
         0.27286E-02
         0.30939E-02
         0.31855E-02
         0.32590E-02
         0.32590E-02
         0.30110E-02
         0.27199E-02
         0.27032E-02
         0.27826E-02
         0.27826E-02
         0.27022E-02
         0.31927E-02
         0.31927E-02
         0.32635E-02
         0.34575E-02
         0.37055E-02
         0.37055E-02
         0.36224E-02
         0.28195E-02
         0.29269E-02
         0.32591E-02
         0.32591E-02
         0.32132E-02
         0.29828E-02
         0.32807E-02
         0.32807E-02
         0.42444E-02
         0.35197E-02
         0.37721E-02
         0.42444E-02
         0.37721E-02
         0.37721E-02
         0.30121E-02
         0.32107E-02
         0.42444E-02
         0.32107E-02
         0.24154E-02
         0.30119E-02
         0.32601E-02
         0.26376E-02
         0.27199E-02
         0.42527E-02
         0.36334E-02
         0.42527E-02
         0.32108E-02
         0.29504E-02
         0.34571E-02
         0.32636E-02
         0.37051E-02
         0.32108E-02
         0.30632E-02
         0.35229E-02
         0.26648E-02
         0.26648E-02
         0.24552E-02
         0.27527E-02
         0.42527E-02
         0.35229E-02
         0.42527E-02
         0.34871E-02
         0.27287E-02
         0.31858E-02
         0.32601E-02
         0.27036E-02
         0.27825E-02
         0.27825E-02
         0.27023E-02
         0.31929E-02
         0.31929E-02
         0.37051E-02
         0.36223E-02
         0.28192E-02
         0.31742E-02
         0.33466E-02
         0.33466E-02
         0.32140E-02
         0.29827E-02
         0.32805E-02
         0.27287E-02
         0.30930E-02
         0.31858E-02
         0.32601E-02
         0.32601E-02
         0.30119E-02
         0.27199E-02
         0.27036E-02
         0.27825E-02
         0.27825E-02
         0.27023E-02
         0.31929E-02
         0.31929E-02
         0.32636E-02
         0.34571E-02
         0.37051E-02
         0.37051E-02
         0.36223E-02
         0.28192E-02
         0.29279E-02
         0.32602E-02
         0.32602E-02
         0.32140E-02
         0.29827E-02
         0.32805E-02
         0.32805E-02
         0.42445E-02
         0.35197E-02
         0.37726E-02
         0.42445E-02
         0.37726E-02
         0.37726E-02
         0.30123E-02
         0.32108E-02
         0.42445E-02
         0.32108E-02
         0.24152E-02
         0.30129E-02
         0.32611E-02
         0.26363E-02
         0.27200E-02
         0.42518E-02
         0.36325E-02
         0.42518E-02
         0.32110E-02
         0.29492E-02
         0.34566E-02
         0.32636E-02
         0.37047E-02
         0.32110E-02
         0.30621E-02
         0.35231E-02
         0.26633E-02
         0.26633E-02
         0.24554E-02
         0.27520E-02
         0.42518E-02
         0.35231E-02
         0.42518E-02
         0.34882E-02
         0.27288E-02
         0.31861E-02
         0.32611E-02
         0.27040E-02
         0.27825E-02
         0.27825E-02
         0.27024E-02
         0.31932E-02
         0.31932E-02
         0.37047E-02
         0.36222E-02
         0.28189E-02
         0.31747E-02
         0.33465E-02
         0.33465E-02
         0.32149E-02
         0.29826E-02
         0.32803E-02
         0.27288E-02
         0.30921E-02
         0.31861E-02
         0.32611E-02
         0.32611E-02
         0.30129E-02
         0.27200E-02
         0.27040E-02
         0.27825E-02
         0.27825E-02
         0.27024E-02
         0.31932E-02
         0.31932E-02
         0.32636E-02
         0.34566E-02
         0.37047E-02
         0.37047E-02
         0.36222E-02
         0.28189E-02
         0.29289E-02
         0.32613E-02
         0.32613E-02
         0.32149E-02
         0.29826E-02
         0.32803E-02
         0.32803E-02
         0.42447E-02
         0.35196E-02
         0.37732E-02
         0.42447E-02
         0.37732E-02
         0.37732E-02
         0.30125E-02
         0.32111E-02
         0.42447E-02
         0.32111E-02
         0.24151E-02
         0.30138E-02
         0.32622E-02
         0.26351E-02
         0.27200E-02
         0.42510E-02
         0.36315E-02
         0.42510E-02
         0.32112E-02
         0.29480E-02
         0.34562E-02
         0.32637E-02
         0.37043E-02
         0.32112E-02
         0.30610E-02
         0.35233E-02
         0.26619E-02
         0.26619E-02
         0.24557E-02
         0.27514E-02
         0.42510E-02
         0.35233E-02
         0.42510E-02
         0.34894E-02
         0.27289E-02
         0.31864E-02
         0.32622E-02
         0.27044E-02
         0.27825E-02
         0.27825E-02
         0.27025E-02
         0.31934E-02
         0.31934E-02
         0.37043E-02
         0.36220E-02
         0.28186E-02
         0.31753E-02
         0.33464E-02
         0.33464E-02
         0.32157E-02
         0.29824E-02
         0.32801E-02
         0.27289E-02
         0.30911E-02
         0.31864E-02
         0.32622E-02
         0.32622E-02
         0.30138E-02
         0.27200E-02
         0.27044E-02
         0.27825E-02
         0.27825E-02
         0.27025E-02
         0.31934E-02
         0.31934E-02
         0.32637E-02
         0.34562E-02
         0.37043E-02
         0.37043E-02
         0.36220E-02
         0.28186E-02
         0.29298E-02
         0.32624E-02
         0.32624E-02
         0.32157E-02
         0.29824E-02
         0.32801E-02
         0.32801E-02
         0.42448E-02
         0.35196E-02
         0.37737E-02
         0.42448E-02
         0.37737E-02
         0.37737E-02
         0.30126E-02
         0.32112E-02
         0.42448E-02
         0.32112E-02
         0.24150E-02
         0.30147E-02
         0.32633E-02
         0.26339E-02
         0.27200E-02
         0.42501E-02
         0.36306E-02
         0.42501E-02
         0.32114E-02
         0.29467E-02
         0.34558E-02
         0.32638E-02
         0.37039E-02
         0.32114E-02
         0.30598E-02
         0.35235E-02
         0.26604E-02
         0.26604E-02
         0.24559E-02
         0.27507E-02
         0.42501E-02
         0.35235E-02
         0.42501E-02
         0.34905E-02
         0.27289E-02
         0.31867E-02
         0.32633E-02
         0.27048E-02
         0.27825E-02
         0.27825E-02
         0.27026E-02
         0.31937E-02
         0.31937E-02
         0.37039E-02
         0.36219E-02
         0.28183E-02
         0.31758E-02
         0.33463E-02
         0.33463E-02
         0.32166E-02
         0.29823E-02
         0.32799E-02
         0.27289E-02
         0.30902E-02
         0.31867E-02
         0.32633E-02
         0.32633E-02
         0.30147E-02
         0.27200E-02
         0.27048E-02
         0.27825E-02
         0.27825E-02
         0.27026E-02
         0.31937E-02
         0.31937E-02
         0.32638E-02
         0.34558E-02
         0.37039E-02
         0.37039E-02
         0.36219E-02
         0.28183E-02
         0.29308E-02
         0.32635E-02
         0.32635E-02
         0.32166E-02
         0.29823E-02
         0.32799E-02
         0.32799E-02
         0.42448E-02
         0.35196E-02
         0.37737E-02
         0.42448E-02
         0.37737E-02
         0.37737E-02
         0.30126E-02
         0.32112E-02
         0.42448E-02
         0.32112E-02
         0.24148E-02
         0.30147E-02
         0.32633E-02
         0.26327E-02
         0.27200E-02
         0.42493E-02
         0.36297E-02
         0.42493E-02
         0.32114E-02
         0.29455E-02
         0.34553E-02
         0.32638E-02
         0.37036E-02
         0.32114E-02
         0.30587E-02
         0.35235E-02
         0.26590E-02
         0.26590E-02
         0.24559E-02
         0.27501E-02
         0.42493E-02
         0.35235E-02
         0.42493E-02
         0.34905E-02
         0.27289E-02
         0.31867E-02
         0.32633E-02
         0.27048E-02
         0.27825E-02
         0.27825E-02
         0.27026E-02
         0.31937E-02
         0.31937E-02
         0.37036E-02
         0.36218E-02
         0.28180E-02
         0.31758E-02
         0.33462E-02
         0.33462E-02
         0.32166E-02
         0.29822E-02
         0.32797E-02
         0.27289E-02
         0.30892E-02
         0.31867E-02
         0.32633E-02
         0.32633E-02
         0.30147E-02
         0.27200E-02
         0.27048E-02
         0.27825E-02
         0.27825E-02
         0.27026E-02
         0.31937E-02
         0.31937E-02
         0.32638E-02
         0.34553E-02
         0.37036E-02
         0.37036E-02
         0.36218E-02
         0.28180E-02
         0.29308E-02
         0.32635E-02
         0.32635E-02
         0.32166E-02
         0.29822E-02
         0.32797E-02
         0.32797E-02
  
SCALARS              physical_window_y  double 1
LOOKUP_TABLE default
         0.43155E-02
         0.43155E-02
         0.43155E-02
         0.43155E-02
         0.43155E-02
         0.43155E-02
         0.43155E-02
         0.43155E-02
         0.34883E-02
         0.34883E-02
         0.34882E-02
         0.34882E-02
         0.32826E-02
         0.32142E-02
         0.32826E-02
         0.32142E-02
         0.37863E-02
         0.31884E-02
         0.37863E-02
         0.31884E-02
         0.27172E-02
         0.33887E-02
         0.37164E-02
         0.27172E-02
         0.33887E-02
         0.37164E-02
         0.27582E-02
         0.28966E-02
         0.27582E-02
         0.28954E-02
         0.37007E-02
         0.35859E-02
         0.37863E-02
         0.37007E-02
         0.35824E-02
         0.37863E-02
         0.29875E-02
         0.29875E-02
         0.29867E-02
         0.29867E-02
         0.28561E-02
         0.26860E-02
         0.28556E-02
         0.26852E-02
         0.29518E-02
         0.28068E-02
         0.29517E-02
         0.28066E-02
         0.29975E-02
         0.29949E-02
         0.37007E-02
         0.37007E-02
         0.28693E-02
         0.28693E-02
         0.28693E-02
         0.28693E-02
         0.27602E-02
         0.26193E-02
         0.27602E-02
         0.26193E-02
         0.37007E-02
         0.37007E-02
         0.37007E-02
         0.37007E-02
         0.37685E-02
         0.37665E-02
         0.37685E-02
         0.37665E-02
         0.30230E-02
         0.37003E-02
         0.30229E-02
         0.37003E-02
         0.37164E-02
         0.37164E-02
         0.31934E-02
         0.31921E-02
         0.32777E-02
         0.32771E-02
         0.32777E-02
         0.32771E-02
         0.27006E-02
         0.25920E-02
         0.27006E-02
         0.25920E-02
         0.25916E-02
         0.25916E-02
         0.29715E-02
         0.29715E-02
         0.29715E-02
         0.29715E-02
         0.26477E-02
         0.29102E-02
         0.26477E-02
         0.29102E-02
         0.34085E-02
         0.34085E-02
         0.35350E-02
         0.35350E-02
         0.35350E-02
         0.35350E-02
         0.29766E-02
         0.32272E-02
         0.29763E-02
         0.32254E-02
         0.29087E-02
         0.29835E-02
         0.29087E-02
         0.29825E-02
         0.37003E-02
         0.37003E-02
         0.37164E-02
         0.37164E-02
         0.37164E-02
         0.37164E-02
         0.33887E-02
         0.33887E-02
         0.28966E-02
         0.28954E-02
         0.31934E-02
         0.31921E-02
         0.32777E-02
         0.32771E-02
         0.32777E-02
         0.32771E-02
         0.27006E-02
         0.27006E-02
         0.25920E-02
         0.25920E-02
         0.25916E-02
         0.25916E-02
         0.26860E-02
         0.26852E-02
         0.28561E-02
         0.28556E-02
         0.29518E-02
         0.29517E-02
         0.29715E-02
         0.29715E-02
         0.29715E-02
         0.29715E-02
         0.26477E-02
         0.26477E-02
         0.27685E-02
         0.27685E-02
         0.34085E-02
         0.34085E-02
         0.35350E-02
         0.35350E-02
         0.35350E-02
         0.35350E-02
         0.29766E-02
         0.29763E-02
         0.31381E-02
         0.31368E-02
         0.31381E-02
         0.31368E-02
         0.43153E-02
         0.43153E-02
         0.43153E-02
         0.43153E-02
         0.34883E-02
         0.34883E-02
         0.32812E-02
         0.32132E-02
         0.37858E-02
         0.31880E-02
         0.27155E-02
         0.33883E-02
         0.37163E-02
         0.27535E-02
         0.28978E-02
         0.37004E-02
         0.35894E-02
         0.37858E-02
         0.29882E-02
         0.29882E-02
         0.28566E-02
         0.26867E-02
         0.29519E-02
         0.28071E-02
         0.30001E-02
         0.37004E-02
         0.28667E-02
         0.28667E-02
         0.27589E-02
         0.26183E-02
         0.37004E-02
         0.37004E-02
         0.37706E-02
         0.37706E-02
         0.30232E-02
         0.36991E-02
         0.37163E-02
         0.31947E-02
         0.32784E-02
         0.32784E-02
         0.27006E-02
         0.25920E-02
         0.25909E-02
         0.29715E-02
         0.29715E-02
         0.26476E-02
         0.29101E-02
         0.34078E-02
         0.35344E-02
         0.35344E-02
         0.29769E-02
         0.32290E-02
         0.29059E-02
         0.29845E-02
         0.36991E-02
         0.37163E-02
         0.37163E-02
         0.33883E-02
         0.28978E-02
         0.31947E-02
         0.32784E-02
         0.32784E-02
         0.27006E-02
         0.25920E-02
         0.25909E-02
         0.26867E-02
         0.28566E-02
         0.29519E-02
         0.29715E-02
         0.29715E-02
         0.26476E-02
         0.27685E-02
         0.34078E-02
         0.35344E-02
         0.35344E-02
         0.29769E-02
         0.31395E-02
         0.31395E-02
         0.43150E-02
         0.43150E-02
         0.43150E-02
         0.43150E-02
         0.34884E-02
         0.34884E-02
         0.32798E-02
         0.32122E-02
         0.37853E-02
         0.31876E-02
         0.27137E-02
         0.33879E-02
         0.37162E-02
         0.27488E-02
         0.28990E-02
         0.37001E-02
         0.35930E-02
         0.37853E-02
         0.29889E-02
         0.29889E-02
         0.28571E-02
         0.26875E-02
         0.29521E-02
         0.28074E-02
         0.30027E-02
         0.37001E-02
         0.28641E-02
         0.28641E-02
         0.27576E-02
         0.26173E-02
         0.37001E-02
         0.37001E-02
         0.37727E-02
         0.37727E-02
         0.30234E-02
         0.36979E-02
         0.37162E-02
         0.31960E-02
         0.32790E-02
         0.32790E-02
         0.27006E-02
         0.25920E-02
         0.25902E-02
         0.29715E-02
         0.29715E-02
         0.26476E-02
         0.29100E-02
         0.34071E-02
         0.35339E-02
         0.35339E-02
         0.29772E-02
         0.32307E-02
         0.29032E-02
         0.29855E-02
         0.36979E-02
         0.37162E-02
         0.37162E-02
         0.33879E-02
         0.28990E-02
         0.31960E-02
         0.32790E-02
         0.32790E-02
         0.27006E-02
         0.25920E-02
         0.25902E-02
         0.26875E-02
         0.28571E-02
         0.29521E-02
         0.29715E-02
         0.29715E-02
         0.26476E-02
         0.27684E-02
         0.34071E-02
         0.35339E-02
         0.35339E-02
         0.29772E-02
         0.31408E-02
         0.31408E-02
         0.43148E-02
         0.43148E-02
         0.43148E-02
         0.43148E-02
         0.34885E-02
         0.34885E-02
         0.32783E-02
         0.32112E-02
         0.37849E-02
         0.31872E-02
         0.27120E-02
         0.33875E-02
         0.37161E-02
         0.27441E-02
         0.29003E-02
         0.36998E-02
         0.35965E-02
         0.37849E-02
         0.29896E-02
         0.29896E-02
         0.28575E-02
         0.26882E-02
         0.29522E-02
         0.28077E-02
         0.30053E-02
         0.36998E-02
         0.28615E-02
         0.28615E-02
         0.27563E-02
         0.26163E-02
         0.36998E-02
         0.36998E-02
         0.37747E-02
         0.37747E-02
         0.30236E-02
         0.36967E-02
         0.37161E-02
         0.31973E-02
         0.32796E-02
         0.32796E-02
         0.27006E-02
         0.25920E-02
         0.25895E-02
         0.29714E-02
         0.29714E-02
         0.26475E-02
         0.29099E-02
         0.34063E-02
         0.35333E-02
         0.35333E-02
         0.29775E-02
         0.32325E-02
         0.29004E-02
         0.29865E-02
         0.36967E-02
         0.37161E-02
         0.37161E-02
         0.33875E-02
         0.29003E-02
         0.31973E-02
         0.32796E-02
         0.32796E-02
         0.27006E-02
         0.25920E-02
         0.25895E-02
         0.26882E-02
         0.28575E-02
         0.29522E-02
         0.29714E-02
         0.29714E-02
         0.26475E-02
         0.27684E-02
         0.34063E-02
         0.35333E-02
         0.35333E-02
         0.29775E-02
         0.31422E-02
         0.31422E-02
         0.43145E-02
         0.43145E-02
         0.43145E-02
         0.43145E-02
         0.34886E-02
         0.34886E-02
         0.32769E-02
         0.32102E-02
         0.37844E-02
         0.31868E-02
         0.27103E-02
         0.33871E-02
         0.37160E-02
         0.27394E-02
         0.29015E-02
         0.36995E-02
         0.36000E-02
         0.37844E-02
         0.29903E-02
         0.29903E-02
         0.28580E-02
         0.26890E-02
         0.29523E-02
         0.28079E-02
         0.30079E-02
         0.36995E-02
         0.28589E-02
         0.28589E-02
         0.27550E-02
         0.26152E-02
         0.36995E-02
         0.36995E-02
         0.37768E-02
         0.37768E-02
         0.30238E-02
         0.36956E-02
         0.37160E-02
         0.31986E-02
         0.32802E-02
         0.32802E-02
         0.27006E-02
         0.25920E-02
         0.25887E-02
         0.29714E-02
         0.29714E-02
         0.26475E-02
         0.29098E-02
         0.34056E-02
         0.35327E-02
         0.35327E-02
         0.29778E-02
         0.32342E-02
         0.28977E-02
         0.29875E-02
         0.36956E-02
         0.37160E-02
         0.37160E-02
         0.33871E-02
         0.29015E-02
         0.31986E-02
         0.32802E-02
         0.32802E-02
         0.27006E-02
         0.25920E-02
         0.25887E-02
         0.26890E-02
         0.28580E-02
         0.29523E-02
         0.29714E-02
         0.29714E-02
         0.26475E-02
         0.27683E-02
         0.34056E-02
         0.35327E-02
         0.35327E-02
         0.29778E-02
         0.31435E-02
         0.31435E-02
         0.43143E-02
         0.43143E-02
         0.43143E-02
         0.43143E-02
         0.34887E-02
         0.34887E-02
         0.32755E-02
         0.32091E-02
         0.37839E-02
         0.31864E-02
         0.27086E-02
         0.33867E-02
         0.37159E-02
         0.27347E-02
         0.29027E-02
         0.36991E-02
         0.36036E-02
         0.37839E-02
         0.29920E-02
         0.29920E-02
         0.28585E-02
         0.26897E-02
         0.29525E-02
         0.28082E-02
         0.30105E-02
         0.36991E-02
         0.28563E-02
         0.28563E-02
         0.27537E-02
         0.26142E-02
         0.36991E-02
         0.36991E-02
         0.37789E-02
         0.37789E-02
         0.30240E-02
         0.36944E-02
         0.37159E-02
         0.31999E-02
         0.32808E-02
         0.32808E-02
         0.27006E-02
         0.25920E-02
         0.25880E-02
         0.29714E-02
         0.29714E-02
         0.26474E-02
         0.29097E-02
         0.34049E-02
         0.35322E-02
         0.35322E-02
         0.29781E-02
         0.32360E-02
         0.28949E-02
         0.29885E-02
         0.36944E-02
         0.37159E-02
         0.37159E-02
         0.33867E-02
         0.29027E-02
         0.31999E-02
         0.32808E-02
         0.32808E-02
         0.27006E-02
         0.25920E-02
         0.25880E-02
         0.26897E-02
         0.28585E-02
         0.29525E-02
         0.29714E-02
         0.29714E-02
         0.26474E-02
         0.27683E-02
         0.34049E-02
         0.35322E-02
         0.35322E-02
         0.29781E-02
         0.31449E-02
         0.31449E-02
         0.43140E-02
         0.43140E-02
         0.43140E-02
         0.43140E-02
         0.34888E-02
         0.34888E-02
         0.32740E-02
         0.32081E-02
         0.37834E-02
         0.31860E-02
         0.27069E-02
         0.33863E-02
         0.37158E-02
         0.27299E-02
         0.29039E-02
         0.36988E-02
         0.36071E-02
         0.37834E-02
         0.29946E-02
         0.29946E-02
         0.28589E-02
         0.26905E-02
         0.29526E-02
         0.28085E-02
         0.30131E-02
         0.36988E-02
         0.28538E-02
         0.28538E-02
         0.27524E-02
         0.26132E-02
         0.36988E-02
         0.36988E-02
         0.37809E-02
         0.37809E-02
         0.30241E-02
         0.36932E-02
         0.37158E-02
         0.32012E-02
         0.32814E-02
         0.32814E-02
         0.27006E-02
         0.25920E-02
         0.25873E-02
         0.29714E-02
         0.29714E-02
         0.26473E-02
         0.29097E-02
         0.34041E-02
         0.35316E-02
         0.35316E-02
         0.29784E-02
         0.32378E-02
         0.28921E-02
         0.29895E-02
         0.36932E-02
         0.37158E-02
         0.37158E-02
         0.33863E-02
         0.29039E-02
         0.32012E-02
         0.32814E-02
         0.32814E-02
         0.27006E-02
         0.25920E-02
         0.25873E-02
         0.26905E-02
         0.28589E-02
         0.29526E-02
         0.29714E-02
         0.29714E-02
         0.26473E-02
         0.27683E-02
         0.34041E-02
         0.35316E-02
         0.35316E-02
         0.29784E-02
         0.31463E-02
         0.31463E-02
         0.43138E-02
         0.43138E-02
         0.43138E-02
         0.43138E-02
         0.34888E-02
         0.34888E-02
         0.32726E-02
         0.32071E-02
         0.37830E-02
         0.31856E-02
         0.27051E-02
         0.33859E-02
         0.37157E-02
         0.27252E-02
         0.29051E-02
         0.36985E-02
         0.36106E-02
         0.37830E-02
         0.29972E-02
         0.29972E-02
         0.28594E-02
         0.26912E-02
         0.29528E-02
         0.28087E-02
         0.30156E-02
         0.36985E-02
         0.28512E-02
         0.28512E-02
         0.27512E-02
         0.26122E-02
         0.36985E-02
         0.36985E-02
         0.37830E-02
         0.37830E-02
         0.30243E-02
         0.36920E-02
         0.37157E-02
         0.32025E-02
         0.32821E-02
         0.32821E-02
         0.27006E-02
         0.25920E-02
         0.25866E-02
         0.29714E-02
         0.29714E-02
         0.26473E-02
         0.29096E-02
         0.34034E-02
         0.35310E-02
         0.35310E-02
         0.29787E-02
         0.32396E-02
         0.28894E-02
         0.29905E-02
         0.36920E-02
         0.37157E-02
         0.37157E-02
         0.33859E-02
         0.29051E-02
         0.32025E-02
         0.32821E-02
         0.32821E-02
         0.27006E-02
         0.25920E-02
         0.25866E-02
         0.26912E-02
         0.28594E-02
         0.29528E-02
         0.29714E-02
         0.29714E-02
         0.26473E-02
         0.27682E-02
         0.34034E-02
         0.35310E-02
         0.35310E-02
         0.29787E-02
         0.31476E-02
         0.31476E-02
         0.43135E-02
         0.43135E-02
         0.43135E-02
         0.43135E-02
         0.34889E-02
         0.34889E-02
         0.32712E-02
         0.32061E-02
         0.37825E-02
         0.31852E-02
         0.27034E-02
         0.33856E-02
         0.37156E-02
         0.27205E-02
         0.29063E-02
         0.36982E-02
         0.36142E-02
         0.37851E-02
         0.29998E-02
         0.29998E-02
         0.28599E-02
         0.26920E-02
         0.29529E-02
         0.28090E-02
         0.30182E-02
         0.36982E-02
         0.28486E-02
         0.28486E-02
         0.27499E-02
         0.26112E-02
         0.36982E-02
         0.36982E-02
         0.37851E-02
         0.37851E-02
         0.30245E-02
         0.36908E-02
         0.37156E-02
         0.32038E-02
         0.32827E-02
         0.32827E-02
         0.27006E-02
         0.25920E-02
         0.25859E-02
         0.29714E-02
         0.29714E-02
         0.26472E-02
         0.29095E-02
         0.34027E-02
         0.35304E-02
         0.35304E-02
         0.29790E-02
         0.32413E-02
         0.28866E-02
         0.29915E-02
         0.36908E-02
         0.37156E-02
         0.37156E-02
         0.33856E-02
         0.29063E-02
         0.32038E-02
         0.32827E-02
         0.32827E-02
         0.27006E-02
         0.25920E-02
         0.25859E-02
         0.26920E-02
         0.28599E-02
         0.29529E-02
         0.29714E-02
         0.29714E-02
         0.26472E-02
         0.27682E-02
         0.34027E-02
         0.35304E-02
         0.35304E-02
         0.29790E-02
         0.31490E-02
         0.31490E-02
         0.43133E-02
         0.43133E-02
         0.43133E-02
         0.43133E-02
         0.34890E-02
         0.34890E-02
         0.32698E-02
         0.32051E-02
         0.37820E-02
         0.31848E-02
         0.27017E-02
         0.33851E-02
         0.37155E-02
         0.27158E-02
         0.29075E-02
         0.36979E-02
         0.36177E-02
         0.37871E-02
         0.30024E-02
         0.30024E-02
         0.28603E-02
         0.26927E-02
         0.29530E-02
         0.28093E-02
         0.30208E-02
         0.36979E-02
         0.28460E-02
         0.28460E-02
         0.27486E-02
         0.26101E-02
         0.36979E-02
         0.36979E-02
         0.37871E-02
         0.37871E-02
         0.30247E-02
         0.36896E-02
         0.37155E-02
         0.32051E-02
         0.32833E-02
         0.32833E-02
         0.27006E-02
         0.25920E-02
         0.25851E-02
         0.29714E-02
         0.29714E-02
         0.26472E-02
         0.29094E-02
         0.34019E-02
         0.35299E-02
         0.35299E-02
         0.29793E-02
         0.32431E-02
         0.28838E-02
         0.29925E-02
         0.36896E-02
         0.37155E-02
         0.37155E-02
         0.33851E-02
         0.29075E-02
         0.32051E-02
         0.32833E-02
         0.32833E-02
         0.27006E-02
         0.25920E-02
         0.25851E-02
         0.26927E-02
         0.28603E-02
         0.29530E-02
         0.29714E-02
         0.29714E-02
         0.26472E-02
         0.27681E-02
         0.34019E-02
         0.35299E-02
         0.35299E-02
         0.29793E-02
         0.31503E-02
         0.31503E-02
         0.43130E-02
         0.43130E-02
         0.43130E-02
         0.43130E-02
         0.34891E-02
         0.34891E-02
         0.32683E-02
         0.32041E-02
         0.37816E-02
         0.31844E-02
         0.27000E-02
         0.33848E-02
         0.37154E-02
         0.27111E-02
         0.29087E-02
         0.36976E-02
         0.36213E-02
         0.37892E-02
         0.30050E-02
         0.30050E-02
         0.28608E-02
         0.26935E-02
         0.29532E-02
         0.28096E-02
         0.30234E-02
         0.36976E-02
         0.28434E-02
         0.28434E-02
         0.27472E-02
         0.26091E-02
         0.36976E-02
         0.36976E-02
         0.37892E-02
         0.37892E-02
         0.30249E-02
         0.36885E-02
         0.37154E-02
         0.32064E-02
         0.32839E-02
         0.32839E-02
         0.27006E-02
         0.25920E-02
         0.25844E-02
         0.29714E-02
         0.29714E-02
         0.26471E-02
         0.29094E-02
         0.34012E-02
         0.35293E-02
         0.35293E-02
         0.29797E-02
         0.32449E-02
         0.28811E-02
         0.29935E-02
         0.36885E-02
         0.37154E-02
         0.37154E-02
         0.33848E-02
         0.29087E-02
         0.32064E-02
         0.32839E-02
         0.32839E-02
         0.27006E-02
         0.25920E-02
         0.25844E-02
         0.26935E-02
         0.28608E-02
         0.29532E-02
         0.29714E-02
         0.29714E-02
         0.26471E-02
         0.27681E-02
         0.34012E-02
         0.35293E-02
         0.35293E-02
         0.29797E-02
         0.31517E-02
         0.31517E-02
         0.43128E-02
         0.43128E-02
         0.43128E-02
         0.43128E-02
         0.34892E-02
         0.34892E-02
         0.32669E-02
         0.32031E-02
         0.37811E-02
         0.31840E-02
         0.26982E-02
         0.33844E-02
         0.37152E-02
         0.27063E-02
         0.29099E-02
         0.36973E-02
         0.36248E-02
         0.37913E-02
         0.30076E-02
         0.30076E-02
         0.28613E-02
         0.26942E-02
         0.29533E-02
         0.28099E-02
         0.30260E-02
         0.36973E-02
         0.28408E-02
         0.28408E-02
         0.27460E-02
         0.26081E-02
         0.36973E-02
         0.36973E-02
         0.37913E-02
         0.37913E-02
         0.30250E-02
         0.36873E-02
         0.37152E-02
         0.32077E-02
         0.32845E-02
         0.32845E-02
         0.27006E-02
         0.25920E-02
         0.25837E-02
         0.29714E-02
         0.29714E-02
         0.26471E-02
         0.29093E-02
         0.34005E-02
         0.35287E-02
         0.35287E-02
         0.29800E-02
         0.32467E-02
         0.28783E-02
         0.29945E-02
         0.36873E-02
         0.37152E-02
         0.37152E-02
         0.33844E-02
         0.29099E-02
         0.32077E-02
         0.32845E-02
         0.32845E-02
         0.27006E-02
         0.25920E-02
         0.25837E-02
         0.26942E-02
         0.28613E-02
         0.29533E-02
         0.29714E-02
         0.29714E-02
         0.26471E-02
         0.27681E-02
         0.34005E-02
         0.35287E-02
         0.35287E-02
         0.29800E-02
         0.31530E-02
         0.31530E-02
         0.43125E-02
         0.43125E-02
         0.43125E-02
         0.43125E-02
         0.34893E-02
         0.34893E-02
         0.32655E-02
         0.32021E-02
         0.37806E-02
         0.31836E-02
         0.26965E-02
         0.33840E-02
         0.37151E-02
         0.27016E-02
         0.29111E-02
         0.36969E-02
         0.36283E-02
         0.37933E-02
         0.30102E-02
         0.30102E-02
         0.28617E-02
         0.26950E-02
         0.29535E-02
         0.28101E-02
         0.30286E-02
         0.36969E-02
         0.28382E-02
         0.28382E-02
         0.27447E-02
         0.26071E-02
         0.36969E-02
         0.36969E-02
         0.37933E-02
         0.37933E-02
         0.30252E-02
         0.36861E-02
         0.37151E-02
         0.32090E-02
         0.32852E-02
         0.32852E-02
         0.27006E-02
         0.25920E-02
         0.25830E-02
         0.29714E-02
         0.29714E-02
         0.26470E-02
         0.29092E-02
         0.33997E-02
         0.35282E-02
         0.35282E-02
         0.29803E-02
         0.32484E-02
         0.28755E-02
         0.29955E-02
         0.36861E-02
         0.37151E-02
         0.37151E-02
         0.33840E-02
         0.29111E-02
         0.32090E-02
         0.32852E-02
         0.32852E-02
         0.27006E-02
         0.25920E-02
         0.25830E-02
         0.26950E-02
         0.28617E-02
         0.29535E-02
         0.29714E-02
         0.29714E-02
         0.26470E-02
         0.27680E-02
         0.33997E-02
         0.35282E-02
         0.35282E-02
         0.29803E-02
         0.31544E-02
         0.31544E-02
         0.43123E-02
         0.43123E-02
         0.43123E-02
         0.43123E-02
         0.34893E-02
         0.34893E-02
         0.32640E-02
         0.32011E-02
         0.37801E-02
         0.31832E-02
         0.26948E-02
         0.33836E-02
         0.37150E-02
         0.26969E-02
         0.29123E-02
         0.36966E-02
         0.36319E-02
         0.37954E-02
         0.30128E-02
         0.30128E-02
         0.28622E-02
         0.26957E-02
         0.29536E-02
         0.28104E-02
         0.30312E-02
         0.36966E-02
         0.28357E-02
         0.28357E-02
         0.27434E-02
         0.26061E-02
         0.36966E-02
         0.36966E-02
         0.37954E-02
         0.37954E-02
         0.30254E-02
         0.36849E-02
         0.37150E-02
         0.32103E-02
         0.32858E-02
         0.32858E-02
         0.27006E-02
         0.25920E-02
         0.25823E-02
         0.29714E-02
         0.29714E-02
         0.26470E-02
         0.29091E-02
         0.33990E-02
         0.35276E-02
         0.35276E-02
         0.29806E-02
         0.32502E-02
         0.28728E-02
         0.29965E-02
         0.36849E-02
         0.37150E-02
         0.37150E-02
         0.33836E-02
         0.29123E-02
         0.32103E-02
         0.32858E-02
         0.32858E-02
         0.27006E-02
         0.25920E-02
         0.25823E-02
         0.26957E-02
         0.28622E-02
         0.29536E-02
         0.29714E-02
         0.29714E-02
         0.26470E-02
         0.27680E-02
         0.33990E-02
         0.35276E-02
         0.35276E-02
         0.29806E-02
         0.31557E-02
         0.31557E-02
         0.43120E-02
         0.43120E-02
         0.43120E-02
         0.43120E-02
         0.34894E-02
         0.34894E-02
         0.32626E-02
         0.32001E-02
         0.37797E-02
         0.31828E-02
         0.26931E-02
         0.33832E-02
         0.37149E-02
         0.26922E-02
         0.29135E-02
         0.36963E-02
         0.36354E-02
         0.37975E-02
         0.30154E-02
         0.30154E-02
         0.28627E-02
         0.26965E-02
         0.29537E-02
         0.28107E-02
         0.30338E-02
         0.36963E-02
         0.28331E-02
         0.28331E-02
         0.27421E-02
         0.26051E-02
         0.36963E-02
         0.36963E-02
         0.37975E-02
         0.37975E-02
         0.30256E-02
         0.36838E-02
         0.37149E-02
         0.32116E-02
         0.32864E-02
         0.32864E-02
         0.27006E-02
         0.25920E-02
         0.25815E-02
         0.29714E-02
         0.29714E-02
         0.26469E-02
         0.29090E-02
         0.33983E-02
         0.35270E-02
         0.35270E-02
         0.29809E-02
         0.32519E-02
         0.28700E-02
         0.29975E-02
         0.36838E-02
         0.37149E-02
         0.37149E-02
         0.33832E-02
         0.29135E-02
         0.32116E-02
         0.32864E-02
         0.32864E-02
         0.27006E-02
         0.25920E-02
         0.25815E-02
         0.26965E-02
         0.28627E-02
         0.29537E-02
         0.29714E-02
         0.29714E-02
         0.26469E-02
         0.27680E-02
         0.33983E-02
         0.35270E-02
         0.35270E-02
         0.29809E-02
         0.31571E-02
         0.31571E-02
         0.43118E-02
         0.43118E-02
         0.43118E-02
         0.43118E-02
         0.34895E-02
         0.34895E-02
         0.32612E-02
         0.31990E-02
         0.37792E-02
         0.31824E-02
         0.26913E-02
         0.33828E-02
         0.37148E-02
         0.26875E-02
         0.29148E-02
         0.36960E-02
         0.36390E-02
         0.37995E-02
         0.30180E-02
         0.30180E-02
         0.28631E-02
         0.26972E-02
         0.29539E-02
         0.28110E-02
         0.30364E-02
         0.36960E-02
         0.28305E-02
         0.28305E-02
         0.27408E-02
         0.26040E-02
         0.36960E-02
         0.36960E-02
         0.37995E-02
         0.37995E-02
         0.30258E-02
         0.36826E-02
         0.37148E-02
         0.32129E-02
         0.32870E-02
         0.32870E-02
         0.27006E-02
         0.25920E-02
         0.25808E-02
         0.29713E-02
         0.29713E-02
         0.26468E-02
         0.29089E-02
         0.33975E-02
         0.35264E-02
         0.35264E-02
         0.29812E-02
         0.32537E-02
         0.28672E-02
         0.29985E-02
         0.36826E-02
         0.37148E-02
         0.37148E-02
         0.33828E-02
         0.29148E-02
         0.32129E-02
         0.32870E-02
         0.32870E-02
         0.27006E-02
         0.25920E-02
         0.25808E-02
         0.26972E-02
         0.28631E-02
         0.29539E-02
         0.29713E-02
         0.29713E-02
         0.26468E-02
         0.27679E-02
         0.33975E-02
         0.35264E-02
         0.35264E-02
         0.29812E-02
         0.31585E-02
         0.31585E-02
         0.43115E-02
         0.43115E-02
         0.43115E-02
         0.43115E-02
         0.34896E-02
         0.34896E-02
         0.32597E-02
         0.31980E-02
         0.37787E-02
         0.31820E-02
         0.26896E-02
         0.33824E-02
         0.37147E-02
         0.26827E-02
         0.29160E-02
         0.36957E-02
         0.36425E-02
         0.38016E-02
         0.30206E-02
         0.30206E-02
         0.28636E-02
         0.26980E-02
         0.29540E-02
         0.28112E-02
         0.30390E-02
         0.36957E-02
         0.28279E-02
         0.28279E-02
         0.27395E-02
         0.26030E-02
         0.36957E-02
         0.36957E-02
         0.38016E-02
         0.38016E-02
         0.30260E-02
         0.36814E-02
         0.37147E-02
         0.32141E-02
         0.32876E-02
         0.32876E-02
         0.27006E-02
         0.25920E-02
         0.25801E-02
         0.29713E-02
         0.29713E-02
         0.26468E-02
         0.29089E-02
         0.33968E-02
         0.35259E-02
         0.35259E-02
         0.29815E-02
         0.32555E-02
         0.28645E-02
         0.29995E-02
         0.36814E-02
         0.37147E-02
         0.37147E-02
         0.33824E-02
         0.29160E-02
         0.32141E-02
         0.32876E-02
         0.32876E-02
         0.27006E-02
         0.25920E-02
         0.25801E-02
         0.26980E-02
         0.28636E-02
         0.29540E-02
         0.29713E-02
         0.29713E-02
         0.26468E-02
         0.27679E-02
         0.33968E-02
         0.35259E-02
         0.35259E-02
         0.29815E-02
         0.31598E-02
         0.31598E-02
         0.43113E-02
         0.43113E-02
         0.43113E-02
         0.43113E-02
         0.34897E-02
         0.34897E-02
         0.32583E-02
         0.31970E-02
         0.37783E-02
         0.31816E-02
         0.26879E-02
         0.33820E-02
         0.37146E-02
         0.26780E-02
         0.29172E-02
         0.36954E-02
         0.36460E-02
         0.38037E-02
         0.30232E-02
         0.30232E-02
         0.28641E-02
         0.26987E-02
         0.29542E-02
         0.28115E-02
         0.30416E-02
         0.36954E-02
         0.28253E-02
         0.28253E-02
         0.27382E-02
         0.26020E-02
         0.36954E-02
         0.36954E-02
         0.38037E-02
         0.38037E-02
         0.30261E-02
         0.36802E-02
         0.37146E-02
         0.32154E-02
         0.32882E-02
         0.32882E-02
         0.27006E-02
         0.25921E-02
         0.25794E-02
         0.29713E-02
         0.29713E-02
         0.26467E-02
         0.29088E-02
         0.33961E-02
         0.35253E-02
         0.35253E-02
         0.29818E-02
         0.32573E-02
         0.28617E-02
         0.30005E-02
         0.36802E-02
         0.37146E-02
         0.37146E-02
         0.33820E-02
         0.29172E-02
         0.32154E-02
         0.32882E-02
         0.32882E-02
         0.27006E-02
         0.25921E-02
         0.25794E-02
         0.26987E-02
         0.28641E-02
         0.29542E-02
         0.29713E-02
         0.29713E-02
         0.26467E-02
         0.27678E-02
         0.33961E-02
         0.35253E-02
         0.35253E-02
         0.29818E-02
         0.31612E-02
         0.31612E-02
         0.43110E-02
         0.43110E-02
         0.43110E-02
         0.43110E-02
         0.34898E-02
         0.34898E-02
         0.32569E-02
         0.31960E-02
         0.37778E-02
         0.31812E-02
         0.26862E-02
         0.33816E-02
         0.37145E-02
         0.26733E-02
         0.29184E-02
         0.36950E-02
         0.36495E-02
         0.38057E-02
         0.30258E-02
         0.30258E-02
         0.28645E-02
         0.26995E-02
         0.29543E-02
         0.28118E-02
         0.30442E-02
         0.36950E-02
         0.28227E-02
         0.28227E-02
         0.27369E-02
         0.26010E-02
         0.36950E-02
         0.36950E-02
         0.38057E-02
         0.38057E-02
         0.30263E-02
         0.36790E-02
         0.37145E-02
         0.32167E-02
         0.32889E-02
         0.32889E-02
         0.27006E-02
         0.25921E-02
         0.25787E-02
         0.29713E-02
         0.29713E-02
         0.26467E-02
         0.29087E-02
         0.33953E-02
         0.35247E-02
         0.35247E-02
         0.29821E-02
         0.32590E-02
         0.28589E-02
         0.30015E-02
         0.36790E-02
         0.37145E-02
         0.37145E-02
         0.33816E-02
         0.29184E-02
         0.32167E-02
         0.32889E-02
         0.32889E-02
         0.27006E-02
         0.25921E-02
         0.25787E-02
         0.26995E-02
         0.28645E-02
         0.29543E-02
         0.29713E-02
         0.29713E-02
         0.26467E-02
         0.27678E-02
         0.33953E-02
         0.35247E-02
         0.35247E-02
         0.29821E-02
         0.31625E-02
         0.31625E-02
         0.43108E-02
         0.43108E-02
         0.43108E-02
         0.43108E-02
         0.34898E-02
         0.34898E-02
         0.32555E-02
         0.31950E-02
         0.37773E-02
         0.31808E-02
         0.26845E-02
         0.33812E-02
         0.37144E-02
         0.26686E-02
         0.29196E-02
         0.36948E-02
         0.36531E-02
         0.38078E-02
         0.30285E-02
         0.30285E-02
         0.28650E-02
         0.27002E-02
         0.29544E-02
         0.28120E-02
         0.30467E-02
         0.36948E-02
         0.28201E-02
         0.28201E-02
         0.27356E-02
         0.26000E-02
         0.36948E-02
         0.36948E-02
         0.38078E-02
         0.38078E-02
         0.30265E-02
         0.36779E-02
         0.37144E-02
         0.32181E-02
         0.32895E-02
         0.32895E-02
         0.27006E-02
         0.25921E-02
         0.25779E-02
         0.29713E-02
         0.29713E-02
         0.26466E-02
         0.29086E-02
         0.33946E-02
         0.35242E-02
         0.35242E-02
         0.29824E-02
         0.32608E-02
         0.28562E-02
         0.30025E-02
         0.36779E-02
         0.37144E-02
         0.37144E-02
         0.33812E-02
         0.29196E-02
         0.32181E-02
         0.32895E-02
         0.32895E-02
         0.27006E-02
         0.25921E-02
         0.25779E-02
         0.27002E-02
         0.28650E-02
         0.29544E-02
         0.29713E-02
         0.29713E-02
         0.26466E-02
         0.27678E-02
         0.33946E-02
         0.35242E-02
         0.35242E-02
         0.29824E-02
         0.31639E-02
         0.31639E-02
         0.43105E-02
         0.43105E-02
         0.43105E-02
         0.43105E-02
         0.34899E-02
         0.34899E-02
         0.32540E-02
         0.31940E-02
         0.37768E-02
         0.31804E-02
         0.26827E-02
         0.33808E-02
         0.37143E-02
         0.26639E-02
         0.29208E-02
         0.36944E-02
         0.36566E-02
         0.38099E-02
         0.30311E-02
         0.30311E-02
         0.28655E-02
         0.27010E-02
         0.29546E-02
         0.28123E-02
         0.30493E-02
         0.36944E-02
         0.28175E-02
         0.28175E-02
         0.27343E-02
         0.25990E-02
         0.36944E-02
         0.36944E-02
         0.38099E-02
         0.38099E-02
         0.30267E-02
         0.36767E-02
         0.37143E-02
         0.32193E-02
         0.32901E-02
         0.32901E-02
         0.27006E-02
         0.25921E-02
         0.25772E-02
         0.29713E-02
         0.29713E-02
         0.26466E-02
         0.29085E-02
         0.33939E-02
         0.35236E-02
         0.35236E-02
         0.29827E-02
         0.32626E-02
         0.28534E-02
         0.30035E-02
         0.36767E-02
         0.37143E-02
         0.37143E-02
         0.33808E-02
         0.29208E-02
         0.32193E-02
         0.32901E-02
         0.32901E-02
         0.27006E-02
         0.25921E-02
         0.25772E-02
         0.27010E-02
         0.28655E-02
         0.29546E-02
         0.29713E-02
         0.29713E-02
         0.26466E-02
         0.27677E-02
         0.33939E-02
         0.35236E-02
         0.35236E-02
         0.29827E-02
         0.31652E-02
         0.31652E-02
         0.43103E-02
         0.43103E-02
         0.43103E-02
         0.43103E-02
         0.34900E-02
         0.34900E-02
         0.32526E-02
         0.31930E-02
         0.37764E-02
         0.31800E-02
         0.26810E-02
         0.33804E-02
         0.37142E-02
         0.26591E-02
         0.29220E-02
         0.36941E-02
         0.36602E-02
         0.38119E-02
         0.30337E-02
         0.30337E-02
         0.28660E-02
         0.27017E-02
         0.29547E-02
         0.28126E-02
         0.30519E-02
         0.36941E-02
         0.28150E-02
         0.28150E-02
         0.27330E-02
         0.25979E-02
         0.36941E-02
         0.36941E-02
         0.38119E-02
         0.38119E-02
         0.30269E-02
         0.36755E-02
         0.37142E-02
         0.32206E-02
         0.32907E-02
         0.32907E-02
         0.27006E-02
         0.25921E-02
         0.25765E-02
         0.29713E-02
         0.29713E-02
         0.26465E-02
         0.29085E-02
         0.33931E-02
         0.35230E-02
         0.35230E-02
         0.29830E-02
         0.32643E-02
         0.28507E-02
         0.30045E-02
         0.36755E-02
         0.37142E-02
         0.37142E-02
         0.33804E-02
         0.29220E-02
         0.32206E-02
         0.32907E-02
         0.32907E-02
         0.27006E-02
         0.25921E-02
         0.25765E-02
         0.27017E-02
         0.28660E-02
         0.29547E-02
         0.29713E-02
         0.29713E-02
         0.26465E-02
         0.27677E-02
         0.33931E-02
         0.35230E-02
         0.35230E-02
         0.29830E-02
         0.31666E-02
         0.31666E-02
         0.43100E-02
         0.43100E-02
         0.43100E-02
         0.43100E-02
         0.34901E-02
         0.34901E-02
         0.32512E-02
         0.31920E-02
         0.37759E-02
         0.31796E-02
         0.26793E-02
         0.33800E-02
         0.37141E-02
         0.26544E-02
         0.29232E-02
         0.36938E-02
         0.36637E-02
         0.38140E-02
         0.30363E-02
         0.30363E-02
         0.28664E-02
         0.27025E-02
         0.29548E-02
         0.28129E-02
         0.30545E-02
         0.36938E-02
         0.28124E-02
         0.28124E-02
         0.27317E-02
         0.25969E-02
         0.36938E-02
         0.36938E-02
         0.38140E-02
         0.38140E-02
         0.30271E-02
         0.36743E-02
         0.37141E-02
         0.32219E-02
         0.32913E-02
         0.32913E-02
         0.27006E-02
         0.25921E-02
         0.25758E-02
         0.29713E-02
         0.29713E-02
         0.26465E-02
         0.29084E-02
         0.33924E-02
         0.35224E-02
         0.35224E-02
         0.29833E-02
         0.32661E-02
         0.28479E-02
         0.30055E-02
         0.36743E-02
         0.37141E-02
         0.37141E-02
         0.33800E-02
         0.29232E-02
         0.32219E-02
         0.32913E-02
         0.32913E-02
         0.27006E-02
         0.25921E-02
         0.25758E-02
         0.27025E-02
         0.28664E-02
         0.29548E-02
         0.29713E-02
         0.29713E-02
         0.26465E-02
         0.27677E-02
         0.33924E-02
         0.35224E-02
         0.35224E-02
         0.29833E-02
         0.31680E-02
         0.31680E-02
         0.43098E-02
         0.43098E-02
         0.43098E-02
         0.43098E-02
         0.34901E-02
         0.34901E-02
         0.32498E-02
         0.31910E-02
         0.37754E-02
         0.31792E-02
         0.26776E-02
         0.33796E-02
         0.37140E-02
         0.26497E-02
         0.29232E-02
         0.36935E-02
         0.36637E-02
         0.38140E-02
         0.30363E-02
         0.30363E-02
         0.28664E-02
         0.27025E-02
         0.29548E-02
         0.28129E-02
         0.30545E-02
         0.36935E-02
         0.28098E-02
         0.28098E-02
         0.27304E-02
         0.25959E-02
         0.36935E-02
         0.36935E-02
         0.38140E-02
         0.38140E-02
         0.30271E-02
         0.36731E-02
         0.37140E-02
         0.32219E-02
         0.32913E-02
         0.32913E-02
         0.27006E-02
         0.25921E-02
         0.25751E-02
         0.29713E-02
         0.29713E-02
         0.26464E-02
         0.29083E-02
         0.33916E-02
         0.35219E-02
         0.35219E-02
         0.29833E-02
         0.32661E-02
         0.28451E-02
         0.30055E-02
         0.36731E-02
         0.37140E-02
         0.37140E-02
         0.33796E-02
         0.29232E-02
         0.32219E-02
         0.32913E-02
         0.32913E-02
         0.27006E-02
         0.25921E-02
         0.25751E-02
         0.27025E-02
         0.28664E-02
         0.29548E-02
         0.29713E-02
         0.29713E-02
         0.26464E-02
         0.27676E-02
         0.33916E-02
         0.35219E-02
         0.35219E-02
         0.29833E-02
         0.31680E-02
         0.31680E-02
  
SCALARS              physical_window_z  double 1
LOOKUP_TABLE default
         0.26928E-02
         0.26928E-02
         0.26928E-02
         0.26928E-02
         0.26928E-02
         0.26928E-02
         0.26928E-02
         0.26928E-02
         0.26928E-02
         0.26928E-02
         0.26928E-02
         0.26928E-02
         0.26928E-02
         0.26928E-02
         0.26928E-02
         0.26928E-02
         0.26928E-02
         0.26928E-02
         0.26928E-02
         0.26928E-02
         0.26928E-02
         0.26928E-02
         0.26928E-02
         0.26928E-02
         0.26928E-02
         0.26928E-02
         0.26928E-02
         0.26928E-02
         0.26928E-02
         0.26928E-02
         0.26928E-02
         0.26928E-02
         0.26928E-02
         0.26928E-02
         0.26928E-02
         0.26928E-02
         0.26928E-02
         0.26928E-02
         0.26928E-02
         0.26928E-02
         0.26928E-02
         0.26928E-02
         0.26928E-02
         0.26928E-02
         0.26928E-02
         0.26928E-02
         0.26928E-02
         0.26928E-02
         0.26928E-02
         0.26928E-02
         0.26928E-02
         0.26928E-02
         0.26928E-02
         0.26928E-02
         0.26928E-02
         0.26928E-02
         0.26928E-02
         0.26928E-02
         0.26928E-02
         0.26928E-02
         0.26928E-02
         0.26928E-02
         0.26928E-02
         0.26928E-02
         0.26928E-02
         0.26928E-02
         0.26928E-02
         0.26928E-02
         0.26928E-02
         0.26928E-02
         0.26928E-02
         0.26928E-02
         0.26928E-02
         0.26928E-02
         0.26928E-02
         0.26928E-02
         0.26928E-02
         0.26928E-02
         0.26928E-02
         0.26928E-02
         0.26928E-02
         0.26928E-02
         0.26928E-02
         0.26928E-02
         0.26928E-02
         0.26928E-02
         0.26928E-02
         0.26928E-02
         0.26928E-02
         0.26928E-02
         0.26928E-02
         0.26928E-02
         0.26928E-02
         0.26928E-02
         0.26928E-02
         0.26928E-02
         0.26928E-02
         0.26928E-02
         0.26928E-02
         0.26928E-02
         0.26928E-02
         0.26928E-02
         0.26928E-02
         0.26928E-02
         0.26928E-02
         0.26928E-02
         0.26928E-02
         0.26928E-02
         0.26928E-02
         0.26928E-02
         0.26928E-02
         0.26928E-02
         0.26928E-02
         0.26928E-02
         0.26928E-02
         0.26928E-02
         0.26928E-02
         0.26928E-02
         0.26928E-02
         0.26928E-02
         0.26928E-02
         0.26928E-02
         0.26928E-02
         0.26928E-02
         0.26928E-02
         0.26928E-02
         0.26928E-02
         0.26928E-02
         0.26928E-02
         0.26928E-02
         0.26928E-02
         0.26928E-02
         0.26928E-02
         0.26928E-02
         0.26928E-02
         0.26928E-02
         0.26928E-02
         0.26928E-02
         0.26928E-02
         0.26928E-02
         0.26928E-02
         0.26928E-02
         0.26928E-02
         0.26928E-02
         0.26928E-02
         0.26928E-02
         0.26928E-02
         0.26928E-02
         0.26928E-02
         0.26928E-02
         0.26928E-02
         0.26928E-02
         0.26928E-02
         0.26928E-02
         0.26928E-02
         0.26928E-02
         0.26927E-02
         0.26927E-02
         0.26927E-02
         0.26927E-02
         0.26927E-02
         0.26927E-02
         0.26927E-02
         0.26927E-02
         0.26927E-02
         0.26927E-02
         0.26927E-02
         0.26927E-02
         0.26927E-02
         0.26927E-02
         0.26927E-02
         0.26927E-02
         0.26927E-02
         0.26927E-02
         0.26927E-02
         0.26927E-02
         0.26927E-02
         0.26927E-02
         0.26927E-02
         0.26927E-02
         0.26927E-02
         0.26927E-02
         0.26927E-02
         0.26927E-02
         0.26927E-02
         0.26927E-02
         0.26927E-02
         0.26927E-02
         0.26927E-02
         0.26927E-02
         0.26927E-02
         0.26927E-02
         0.26927E-02
         0.26927E-02
         0.26927E-02
         0.26927E-02
         0.26927E-02
         0.26927E-02
         0.26927E-02
         0.26927E-02
         0.26927E-02
         0.26927E-02
         0.26927E-02
         0.26927E-02
         0.26927E-02
         0.26927E-02
         0.26927E-02
         0.26927E-02
         0.26927E-02
         0.26927E-02
         0.26927E-02
         0.26927E-02
         0.26927E-02
         0.26927E-02
         0.26927E-02
         0.26927E-02
         0.26927E-02
         0.26927E-02
         0.26927E-02
         0.26927E-02
         0.26927E-02
         0.26927E-02
         0.26927E-02
         0.26927E-02
         0.26927E-02
         0.26927E-02
         0.26927E-02
         0.26927E-02
         0.26927E-02
         0.26927E-02
         0.26927E-02
         0.26927E-02
         0.26927E-02
         0.26927E-02
         0.26927E-02
         0.26927E-02
         0.26927E-02
         0.26927E-02
         0.26927E-02
         0.26927E-02
         0.26927E-02
         0.26927E-02
         0.26927E-02
         0.26927E-02
         0.26927E-02
         0.26927E-02
         0.26927E-02
         0.26927E-02
         0.26927E-02
         0.26927E-02
         0.26927E-02
         0.26927E-02
         0.26927E-02
         0.26927E-02
         0.26927E-02
         0.26927E-02
         0.26927E-02
         0.26927E-02
         0.26927E-02
         0.26927E-02
         0.26927E-02
         0.26927E-02
         0.26927E-02
         0.26927E-02
         0.26927E-02
         0.26927E-02
         0.26927E-02
         0.26927E-02
         0.26927E-02
         0.26927E-02
         0.26927E-02
         0.26927E-02
         0.26927E-02
         0.26927E-02
         0.26927E-02
         0.26927E-02
         0.26927E-02
         0.26927E-02
         0.26927E-02
         0.26927E-02
         0.26927E-02
         0.26927E-02
         0.26927E-02
         0.26927E-02
         0.26927E-02
         0.26927E-02
         0.26927E-02
         0.26927E-02
         0.26927E-02
         0.26927E-02
         0.26927E-02
         0.26927E-02
         0.26927E-02
         0.26927E-02
         0.26927E-02
         0.26927E-02
         0.26927E-02
         0.26927E-02
         0.26927E-02
         0.26927E-02
         0.26927E-02
         0.26927E-02
         0.26927E-02
         0.26927E-02
         0.26927E-02
         0.26927E-02
         0.26927E-02
         0.26927E-02
         0.26927E-02
         0.26927E-02
         0.26927E-02
         0.26927E-02
         0.26927E-02
         0.26927E-02
         0.26927E-02
         0.26927E-02
         0.26927E-02
         0.26927E-02
         0.26927E-02
         0.26927E-02
         0.26927E-02
         0.26927E-02
         0.26927E-02
         0.26927E-02
         0.26927E-02
         0.26927E-02
         0.26927E-02
         0.26927E-02
         0.26927E-02
         0.26927E-02
         0.26927E-02
         0.26927E-02
         0.26927E-02
         0.26927E-02
         0.26927E-02
         0.26927E-02
         0.26927E-02
         0.26927E-02
         0.26927E-02
         0.26927E-02
         0.26927E-02
         0.26927E-02
         0.26927E-02
         0.26927E-02
         0.26927E-02
         0.26927E-02
         0.26927E-02
         0.26927E-02
         0.26927E-02
         0.26927E-02
         0.26927E-02
         0.26927E-02
         0.26927E-02
         0.26927E-02
         0.26927E-02
         0.26927E-02
         0.26927E-02
         0.26927E-02
         0.26927E-02
         0.26927E-02
         0.26927E-02
         0.26927E-02
         0.26927E-02
         0.26927E-02
         0.26927E-02
         0.26927E-02
         0.26927E-02
         0.26927E-02
         0.26927E-02
         0.26927E-02
         0.26927E-02
         0.26927E-02
         0.26927E-02
         0.26927E-02
         0.26927E-02
         0.26927E-02
         0.26927E-02
         0.26927E-02
         0.26927E-02
         0.26927E-02
         0.26927E-02
         0.26927E-02
         0.26927E-02
         0.26927E-02
         0.26927E-02
         0.26927E-02
         0.26927E-02
         0.26927E-02
         0.26927E-02
         0.26927E-02
         0.26927E-02
         0.26927E-02
         0.26927E-02
         0.26927E-02
         0.26927E-02
         0.26927E-02
         0.26927E-02
         0.26927E-02
         0.26927E-02
         0.26927E-02
         0.26927E-02
         0.26927E-02
         0.26927E-02
         0.26927E-02
         0.26927E-02
         0.26927E-02
         0.26927E-02
         0.26927E-02
         0.26927E-02
         0.26927E-02
         0.26927E-02
         0.26927E-02
         0.26927E-02
         0.26927E-02
         0.26927E-02
         0.26927E-02
         0.26927E-02
         0.26927E-02
         0.26927E-02
         0.26927E-02
         0.26927E-02
         0.26927E-02
         0.26927E-02
         0.26927E-02
         0.26927E-02
         0.26927E-02
         0.26927E-02
         0.26927E-02
         0.26927E-02
         0.26927E-02
         0.26927E-02
         0.26927E-02
         0.26927E-02
         0.26927E-02
         0.26927E-02
         0.26927E-02
         0.26927E-02
         0.26927E-02
         0.26927E-02
         0.26927E-02
         0.26927E-02
         0.26927E-02
         0.26927E-02
         0.26927E-02
         0.26927E-02
         0.26927E-02
         0.26927E-02
         0.26927E-02
         0.26927E-02
         0.26927E-02
         0.26927E-02
         0.26927E-02
         0.26927E-02
         0.26927E-02
         0.26927E-02
         0.26927E-02
         0.26927E-02
         0.26927E-02
         0.26927E-02
         0.26927E-02
         0.26927E-02
         0.26927E-02
         0.26927E-02
         0.26927E-02
         0.26927E-02
         0.26927E-02
         0.26927E-02
         0.26927E-02
         0.26927E-02
         0.26927E-02
         0.26927E-02
         0.26927E-02
         0.26927E-02
         0.26927E-02
         0.26927E-02
         0.26927E-02
         0.26927E-02
         0.26927E-02
         0.26927E-02
         0.26927E-02
         0.26927E-02
         0.26927E-02
         0.26927E-02
         0.26927E-02
         0.26927E-02
         0.26927E-02
         0.26927E-02
         0.26927E-02
         0.26927E-02
         0.26927E-02
         0.26927E-02
         0.26927E-02
         0.26927E-02
         0.26927E-02
         0.26927E-02
         0.26927E-02
         0.26927E-02
         0.26927E-02
         0.26927E-02
         0.26927E-02
         0.26927E-02
         0.26927E-02
         0.26927E-02
         0.26927E-02
         0.26927E-02
         0.26927E-02
         0.26927E-02
         0.26927E-02
         0.26927E-02
         0.26927E-02
         0.26927E-02
         0.26927E-02
         0.26927E-02
         0.26927E-02
         0.26927E-02
         0.26927E-02
         0.26927E-02
         0.26927E-02
         0.26927E-02
         0.26927E-02
         0.26927E-02
         0.26927E-02
         0.26927E-02
         0.26927E-02
         0.26927E-02
         0.26927E-02
         0.26927E-02
         0.26927E-02
         0.26927E-02
         0.26927E-02
         0.26927E-02
         0.26927E-02
         0.26927E-02
         0.26927E-02
         0.26927E-02
         0.26927E-02
         0.26927E-02
         0.26927E-02
         0.26927E-02
         0.26927E-02
         0.26927E-02
         0.26927E-02
         0.26927E-02
         0.26927E-02
         0.26927E-02
         0.26927E-02
         0.26927E-02
         0.26927E-02
         0.26927E-02
         0.26927E-02
         0.26927E-02
         0.26927E-02
         0.26927E-02
         0.26927E-02
         0.26927E-02
         0.26927E-02
         0.26927E-02
         0.26927E-02
         0.26927E-02
         0.26927E-02
         0.26927E-02
         0.26927E-02
         0.26927E-02
         0.26927E-02
         0.26927E-02
         0.26927E-02
         0.26927E-02
         0.26927E-02
         0.26927E-02
         0.26927E-02
         0.26927E-02
         0.26927E-02
         0.26927E-02
         0.26927E-02
         0.26927E-02
         0.26927E-02
         0.26927E-02
         0.26927E-02
         0.26927E-02
         0.26927E-02
         0.26927E-02
         0.26927E-02
         0.26927E-02
         0.26927E-02
         0.26927E-02
         0.26927E-02
         0.26927E-02
         0.26927E-02
         0.26927E-02
         0.26927E-02
         0.26927E-02
         0.26927E-02
         0.26927E-02
         0.26927E-02
         0.26927E-02
         0.26927E-02
         0.26927E-02
         0.26927E-02
         0.26927E-02
         0.26927E-02
         0.26927E-02
         0.26927E-02
         0.26927E-02
         0.26927E-02
         0.26927E-02
         0.26927E-02
         0.26927E-02
         0.26927E-02
         0.26927E-02
         0.26927E-02
         0.26927E-02
         0.26927E-02
         0.26927E-02
         0.26927E-02
         0.26927E-02
         0.26927E-02
         0.26927E-02
         0.26927E-02
         0.26927E-02
         0.26927E-02
         0.26927E-02
         0.26927E-02
         0.26927E-02
         0.26927E-02
         0.26927E-02
         0.26927E-02
         0.26927E-02
         0.26927E-02
         0.26927E-02
         0.26927E-02
         0.26927E-02
         0.26927E-02
         0.26927E-02
         0.26927E-02
         0.26927E-02
         0.26927E-02
         0.26927E-02
         0.26927E-02
         0.26927E-02
         0.26927E-02
         0.26927E-02
         0.26927E-02
         0.26927E-02
         0.26927E-02
         0.26927E-02
         0.26927E-02
         0.26927E-02
         0.26927E-02
         0.26927E-02
         0.26927E-02
         0.26927E-02
         0.26927E-02
         0.26927E-02
         0.26927E-02
         0.26927E-02
         0.26927E-02
         0.26927E-02
         0.26927E-02
         0.26927E-02
         0.26927E-02
         0.26927E-02
         0.26927E-02
         0.26927E-02
         0.26927E-02
         0.26927E-02
         0.26927E-02
         0.26927E-02
         0.26927E-02
         0.26927E-02
         0.26927E-02
         0.26927E-02
         0.26927E-02
         0.26927E-02
         0.26927E-02
         0.26927E-02
         0.26927E-02
         0.26927E-02
         0.26927E-02
         0.26927E-02
         0.26927E-02
         0.26927E-02
         0.26927E-02
         0.26927E-02
         0.26927E-02
         0.26927E-02
         0.26927E-02
         0.26927E-02
         0.26927E-02
         0.26927E-02
         0.26927E-02
         0.26927E-02
         0.26927E-02
         0.26927E-02
         0.26927E-02
         0.26927E-02
         0.26927E-02
         0.26927E-02
         0.26927E-02
         0.26927E-02
         0.26927E-02
         0.26927E-02
         0.26927E-02
         0.26927E-02
         0.26927E-02
         0.26927E-02
         0.26927E-02
         0.26927E-02
         0.26927E-02
         0.26927E-02
         0.26927E-02
         0.26927E-02
         0.26927E-02
         0.26927E-02
         0.26927E-02
         0.26927E-02
         0.26927E-02
         0.26927E-02
         0.26927E-02
         0.26927E-02
         0.26927E-02
         0.26927E-02
         0.26927E-02
         0.26927E-02
         0.26927E-02
         0.26927E-02
         0.26927E-02
         0.26927E-02
         0.26927E-02
         0.26927E-02
         0.26927E-02
         0.26927E-02
         0.26927E-02
         0.26927E-02
         0.26927E-02
         0.26927E-02
         0.26927E-02
         0.26927E-02
         0.26927E-02
         0.26927E-02
         0.26927E-02
         0.26927E-02
         0.26927E-02
         0.26927E-02
         0.26927E-02
         0.26927E-02
         0.26927E-02
         0.26927E-02
         0.26927E-02
         0.26927E-02
         0.26927E-02
         0.26927E-02
         0.26927E-02
         0.26927E-02
         0.26927E-02
         0.26927E-02
         0.26927E-02
         0.26927E-02
         0.26927E-02
         0.26927E-02
         0.26927E-02
         0.26927E-02
         0.26927E-02
         0.26927E-02
         0.26927E-02
         0.26927E-02
         0.26927E-02
         0.26927E-02
         0.26927E-02
         0.26927E-02
         0.26927E-02
         0.26927E-02
         0.26927E-02
         0.26927E-02
         0.26927E-02
         0.26927E-02
         0.26927E-02
         0.26927E-02
         0.26927E-02
         0.26927E-02
         0.26927E-02
         0.26927E-02
         0.26927E-02
         0.26927E-02
         0.26927E-02
         0.26927E-02
         0.26927E-02
         0.26927E-02
         0.26927E-02
         0.26927E-02
         0.26927E-02
         0.26927E-02
         0.26927E-02
         0.26927E-02
         0.26927E-02
         0.26927E-02
         0.26927E-02
         0.26927E-02
         0.26927E-02
         0.26927E-02
         0.26927E-02
         0.26927E-02
         0.26927E-02
         0.26927E-02
         0.26927E-02
         0.26927E-02
         0.26927E-02
         0.26927E-02
         0.26927E-02
         0.26927E-02
         0.26927E-02
         0.26927E-02
         0.26927E-02
         0.26927E-02
         0.26927E-02
         0.26927E-02
         0.26927E-02
         0.26927E-02
         0.26927E-02
         0.26927E-02
         0.26927E-02
         0.26927E-02
         0.26927E-02
         0.26927E-02
         0.26927E-02
         0.26927E-02
         0.26927E-02
         0.26927E-02
         0.26927E-02
         0.26927E-02
         0.26927E-02
         0.26927E-02
         0.26927E-02
         0.26927E-02
         0.26927E-02
         0.26927E-02
         0.26927E-02
         0.26927E-02
         0.26927E-02
         0.26927E-02
         0.26927E-02
         0.26927E-02
         0.26927E-02
         0.26927E-02
         0.26927E-02
         0.26927E-02
         0.26927E-02
         0.26927E-02
         0.26927E-02
         0.26927E-02
         0.26927E-02
         0.26927E-02
         0.26927E-02
         0.26927E-02
         0.26927E-02
         0.26927E-02
         0.26927E-02
         0.26927E-02
         0.26927E-02
         0.26927E-02
         0.26927E-02
         0.26927E-02
         0.26927E-02
         0.26927E-02
         0.26927E-02
         0.26927E-02
         0.26927E-02
         0.26927E-02
         0.26927E-02
         0.26927E-02
         0.26927E-02
         0.26927E-02
         0.26927E-02
         0.26927E-02
         0.26927E-02
         0.26927E-02
         0.26927E-02
         0.26927E-02
         0.26927E-02
         0.26927E-02
         0.26927E-02
         0.26927E-02
         0.26927E-02
         0.26927E-02
         0.26927E-02
         0.26927E-02
         0.26927E-02
         0.26927E-02
         0.26927E-02
         0.26927E-02
         0.26927E-02
         0.26927E-02
         0.26927E-02
         0.26927E-02
         0.26927E-02
         0.26927E-02
         0.26927E-02
         0.26927E-02
         0.26927E-02
         0.26927E-02
         0.26927E-02
         0.26927E-02
         0.26927E-02
         0.26927E-02
         0.26927E-02
         0.26927E-02
         0.26927E-02
         0.26927E-02
         0.26927E-02
         0.26927E-02
         0.26927E-02
         0.26927E-02
         0.26927E-02
         0.26927E-02
         0.26927E-02
         0.26927E-02
         0.26927E-02
         0.26927E-02
         0.26927E-02
         0.26927E-02
         0.26927E-02
         0.26927E-02
         0.26927E-02
         0.26927E-02
         0.26927E-02
         0.26927E-02
         0.26927E-02
         0.26927E-02
         0.26927E-02
         0.26927E-02
         0.26927E-02
         0.26927E-02
         0.26927E-02
         0.26927E-02
         0.26927E-02
         0.26927E-02
         0.26927E-02
         0.26927E-02
         0.26927E-02
         0.26927E-02
         0.26927E-02
         0.26927E-02
         0.26927E-02
         0.26927E-02
         0.26927E-02
         0.26927E-02
         0.26927E-02
         0.26927E-02
         0.26927E-02
         0.26927E-02
         0.26927E-02
         0.26927E-02
         0.26927E-02
         0.26927E-02
         0.26927E-02
         0.26927E-02
         0.26927E-02
         0.26927E-02
         0.26927E-02
         0.26927E-02
         0.26927E-02
         0.26927E-02
         0.26927E-02
         0.26927E-02
         0.26927E-02
         0.26927E-02
         0.26927E-02
         0.26927E-02
         0.26927E-02
         0.26927E-02
         0.26927E-02
         0.26927E-02
         0.26927E-02
         0.26927E-02
         0.26927E-02
         0.26927E-02
         0.26927E-02
         0.26927E-02
         0.26927E-02
         0.26927E-02
         0.26927E-02
         0.26927E-02
         0.26927E-02
         0.26927E-02
         0.26927E-02
         0.26927E-02
         0.26927E-02
         0.26927E-02
         0.26927E-02
         0.26927E-02
         0.26927E-02
         0.26927E-02
         0.26927E-02
         0.26927E-02
         0.26927E-02
         0.26927E-02
         0.26927E-02
         0.26927E-02
         0.26927E-02
         0.26927E-02
         0.26927E-02
         0.26927E-02
         0.26927E-02
         0.26927E-02
         0.26927E-02
         0.26927E-02
         0.26927E-02
         0.26927E-02
         0.26927E-02
         0.26927E-02
         0.26927E-02
         0.26927E-02
         0.26927E-02
         0.26927E-02
         0.26927E-02
         0.26927E-02
         0.26927E-02
         0.26927E-02
         0.26927E-02
         0.26927E-02
         0.26927E-02
         0.26927E-02
         0.26927E-02
         0.26927E-02
         0.26927E-02
         0.26927E-02
         0.26927E-02
         0.26927E-02
         0.26927E-02
         0.26927E-02
         0.26927E-02
         0.26927E-02
         0.26927E-02
         0.26927E-02
         0.26927E-02
         0.26927E-02
         0.26927E-02
         0.26927E-02
         0.26927E-02
         0.26927E-02
         0.26927E-02
         0.26927E-02
         0.26927E-02
         0.26927E-02
         0.26927E-02
         0.26927E-02
         0.26927E-02
         0.26927E-02
         0.26927E-02
         0.26927E-02
         0.26927E-02
         0.26927E-02
         0.26927E-02
         0.26927E-02
         0.26927E-02
         0.26927E-02
         0.26927E-02
         0.26927E-02
         0.26927E-02
         0.26927E-02
         0.26927E-02
         0.26927E-02
         0.26927E-02
         0.26927E-02
         0.26927E-02
         0.26927E-02
         0.26927E-02
         0.26927E-02
         0.26927E-02
         0.26927E-02
         0.26927E-02
         0.26927E-02
         0.26927E-02
         0.26927E-02
         0.26927E-02
         0.26927E-02
         0.26927E-02
         0.26927E-02
         0.26927E-02
         0.26927E-02
         0.26927E-02
         0.26927E-02
         0.26927E-02
         0.26927E-02
         0.26927E-02
         0.26927E-02
         0.26927E-02
         0.26927E-02
         0.26927E-02
         0.26927E-02
         0.26927E-02
         0.26927E-02
         0.26927E-02
         0.26927E-02
         0.26927E-02
         0.26927E-02
         0.26927E-02
         0.26927E-02
         0.26927E-02
         0.26927E-02
         0.26927E-02
         0.26927E-02
         0.26927E-02
         0.26927E-02
         0.26927E-02
         0.26927E-02
         0.26927E-02
         0.26927E-02
         0.26927E-02
         0.26927E-02
         0.26927E-02
         0.26927E-02
         0.26927E-02
         0.26927E-02
         0.26927E-02
         0.26927E-02
         0.26927E-02
         0.26927E-02
         0.26927E-02
         0.26927E-02
         0.26927E-02
         0.26927E-02
         0.26927E-02
         0.26927E-02
         0.26927E-02
         0.26927E-02
         0.26927E-02
         0.26927E-02
         0.26927E-02
         0.26927E-02
         0.26927E-02
         0.26927E-02
         0.26927E-02
         0.26927E-02
         0.26927E-02
         0.26927E-02
         0.26927E-02
         0.26927E-02
         0.26927E-02
         0.26927E-02
         0.26927E-02
         0.26927E-02
         0.26927E-02
         0.26927E-02
         0.26927E-02
         0.26927E-02
         0.26927E-02
         0.26927E-02
         0.26927E-02
         0.26927E-02
         0.26927E-02
         0.26927E-02
         0.26927E-02
         0.26927E-02
         0.26927E-02
         0.26927E-02
         0.26927E-02
         0.26927E-02
         0.26927E-02
         0.26927E-02
         0.26927E-02
         0.26927E-02
         0.26927E-02
         0.26927E-02
         0.26927E-02
         0.26927E-02
         0.26927E-02
         0.26927E-02
         0.26927E-02
         0.26927E-02
         0.26927E-02
         0.26927E-02
         0.26927E-02
         0.26927E-02
         0.26927E-02
         0.26927E-02
         0.26927E-02
         0.26927E-02
         0.26927E-02
         0.26927E-02
         0.26927E-02
         0.26927E-02
         0.26927E-02
         0.26927E-02
         0.26927E-02
         0.26927E-02
         0.26927E-02
         0.26927E-02
         0.26927E-02
         0.26927E-02
         0.26927E-02
         0.26927E-02
         0.26927E-02
         0.26927E-02
         0.26927E-02
         0.26927E-02
         0.26927E-02
         0.26927E-02
         0.26927E-02
         0.26927E-02
         0.26927E-02
         0.26927E-02
         0.26927E-02
         0.26927E-02
         0.26927E-02
         0.26927E-02
         0.26927E-02
         0.26927E-02
         0.26927E-02
         0.26927E-02
         0.26927E-02
         0.26927E-02
         0.26927E-02
         0.26927E-02
         0.26927E-02
         0.26927E-02
         0.26927E-02
         0.26927E-02
         0.26927E-02
         0.26927E-02
         0.26927E-02
         0.26927E-02
         0.26927E-02
         0.26927E-02
         0.26927E-02
         0.26927E-02
         0.26927E-02
         0.26927E-02
         0.26927E-02
         0.26927E-02
         0.26927E-02
         0.26927E-02
         0.26927E-02
         0.26927E-02
         0.26927E-02
         0.26927E-02
         0.26927E-02
         0.26927E-02
         0.26927E-02
         0.26927E-02
         0.26927E-02
         0.26927E-02
         0.26927E-02
         0.26927E-02
         0.26927E-02
         0.26927E-02
         0.26927E-02
         0.26927E-02
         0.26927E-02
         0.26927E-02
         0.26927E-02
         0.26927E-02
         0.26927E-02
         0.26927E-02
         0.26927E-02
         0.26927E-02
         0.26927E-02
         0.26927E-02
         0.26927E-02
         0.26927E-02
         0.26927E-02
         0.26927E-02
         0.26927E-02
         0.26927E-02
         0.26927E-02
         0.26927E-02
         0.26927E-02
         0.26927E-02
         0.26927E-02
         0.26927E-02
         0.26927E-02
         0.26927E-02
         0.26927E-02
         0.26927E-02
         0.26927E-02
         0.26927E-02
         0.26927E-02
         0.26927E-02
         0.26927E-02
         0.26927E-02
         0.26927E-02
         0.26927E-02
         0.26927E-02
         0.26927E-02
         0.26927E-02
         0.26927E-02
         0.26927E-02
         0.26927E-02
         0.26927E-02
         0.26927E-02
         0.26927E-02
         0.26927E-02
         0.26927E-02
         0.26927E-02
         0.26927E-02
         0.26927E-02
         0.26927E-02
         0.26927E-02
         0.26927E-02
         0.26927E-02
         0.26927E-02
         0.26927E-02
         0.26927E-02
         0.26927E-02
         0.26927E-02
         0.26927E-02
         0.26927E-02
         0.26927E-02
         0.26927E-02
         0.26927E-02
         0.26927E-02
         0.26927E-02
         0.26927E-02
         0.26927E-02
         0.26927E-02
         0.26927E-02
         0.26927E-02
         0.26927E-02
         0.26927E-02
         0.26927E-02
         0.26927E-02
         0.26927E-02
         0.26927E-02
         0.26927E-02
         0.26927E-02
         0.26927E-02
         0.26927E-02
         0.26927E-02
         0.26927E-02
         0.26927E-02
         0.26927E-02
         0.26927E-02
         0.26927E-02
         0.26927E-02
         0.26927E-02
         0.26927E-02
         0.26927E-02
         0.26927E-02
         0.26927E-02
         0.26927E-02
         0.26927E-02
         0.26927E-02
         0.26927E-02
         0.26927E-02
         0.26927E-02
         0.26927E-02
         0.26927E-02
         0.26927E-02
         0.26927E-02
         0.26927E-02
         0.26927E-02
         0.26927E-02
         0.26927E-02
         0.26927E-02
         0.26927E-02
         0.26927E-02
         0.26927E-02
         0.26927E-02
         0.26927E-02
         0.26927E-02
         0.26927E-02
         0.26927E-02
         0.26927E-02
         0.26927E-02
         0.26927E-02
         0.26927E-02
         0.26927E-02
         0.26927E-02
         0.26927E-02
         0.26927E-02
         0.26927E-02
         0.26927E-02
         0.26927E-02
         0.26927E-02
         0.26927E-02
         0.26927E-02
         0.26927E-02
         0.26927E-02
         0.26927E-02
         0.26927E-02
         0.26927E-02
         0.26927E-02
         0.26927E-02
         0.26927E-02
         0.26927E-02
         0.26927E-02
         0.26927E-02
         0.26927E-02
         0.26927E-02
         0.26927E-02
         0.26927E-02
         0.26927E-02
         0.26927E-02
         0.26927E-02
         0.26927E-02
         0.26927E-02
         0.26927E-02
         0.26927E-02
         0.26927E-02
         0.26927E-02
         0.26927E-02
         0.26927E-02
         0.26927E-02
         0.26927E-02
         0.26927E-02
         0.26927E-02
         0.26927E-02
         0.26927E-02
         0.26927E-02
         0.26927E-02
         0.26927E-02
         0.26927E-02
         0.26927E-02
         0.26927E-02
         0.26927E-02
         0.26927E-02
         0.26927E-02
         0.26927E-02
         0.26927E-02
         0.26927E-02
         0.26927E-02
         0.26927E-02
         0.26927E-02
         0.26927E-02
         0.26927E-02
         0.26927E-02
         0.26927E-02
         0.26927E-02
         0.26927E-02
         0.26927E-02
         0.26927E-02
         0.26927E-02
         0.26927E-02
         0.26927E-02
         0.26927E-02
         0.26927E-02
         0.26927E-02
         0.26927E-02
         0.26927E-02
         0.26927E-02
         0.26927E-02
         0.26927E-02
         0.26927E-02
         0.26927E-02
         0.26927E-02
         0.26927E-02
         0.26927E-02
         0.26927E-02
         0.26927E-02
         0.26927E-02
         0.26927E-02
         0.26927E-02
         0.26927E-02
         0.26927E-02
         0.26927E-02
         0.26927E-02
         0.26927E-02
         0.26927E-02
         0.26927E-02
         0.26927E-02
         0.26927E-02
         0.26927E-02
         0.26927E-02
         0.26927E-02
         0.26927E-02
         0.26927E-02
         0.26927E-02
         0.26927E-02
         0.26927E-02
         0.26927E-02
         0.26927E-02
         0.26927E-02
         0.26927E-02
         0.26927E-02
         0.26927E-02
         0.26927E-02
         0.26927E-02
         0.26927E-02
         0.26927E-02
         0.26927E-02
         0.26927E-02
         0.26927E-02
         0.26927E-02
         0.26927E-02
         0.26927E-02
         0.26927E-02
         0.26927E-02
         0.26927E-02
         0.26927E-02
         0.26927E-02
         0.26927E-02
         0.26927E-02
         0.26927E-02
         0.26927E-02
         0.26927E-02
         0.26927E-02
         0.26927E-02
         0.26927E-02
         0.26927E-02
         0.26927E-02
         0.26927E-02
         0.26927E-02
         0.26927E-02
         0.26927E-02
         0.26927E-02
         0.26927E-02
         0.26927E-02
         0.26927E-02
         0.26927E-02
         0.26927E-02
         0.26927E-02
         0.26927E-02
         0.26927E-02
         0.26927E-02
         0.26927E-02
         0.26927E-02
         0.26927E-02
         0.26927E-02
         0.26927E-02
         0.26927E-02
         0.26927E-02
         0.26927E-02
         0.26927E-02
         0.26927E-02
         0.26927E-02
         0.26927E-02
         0.26927E-02
         0.26927E-02
         0.26927E-02
         0.26927E-02
         0.26927E-02
         0.26927E-02
         0.26927E-02
         0.26927E-02
         0.26927E-02
         0.26927E-02
         0.26927E-02
         0.26927E-02
         0.26927E-02
         0.26927E-02
         0.26927E-02
         0.26927E-02
         0.26927E-02
         0.26927E-02
         0.26927E-02
         0.26927E-02
         0.26927E-02
         0.26927E-02
         0.26927E-02
         0.26927E-02
         0.26927E-02
         0.26927E-02
         0.26927E-02
         0.26927E-02
         0.26927E-02
         0.26927E-02
         0.26927E-02
         0.26927E-02
         0.26927E-02
         0.26927E-02
         0.26927E-02
         0.26927E-02
         0.26927E-02
         0.26927E-02
         0.26927E-02
         0.26927E-02
         0.26927E-02
         0.26927E-02
         0.26927E-02
         0.26927E-02
         0.26927E-02
         0.26927E-02
         0.26927E-02
         0.26927E-02
         0.26927E-02
         0.26927E-02
         0.26927E-02
         0.26927E-02
         0.26927E-02
         0.26927E-02
         0.26927E-02
         0.26927E-02
         0.26927E-02
         0.26927E-02
         0.26927E-02
         0.26927E-02
         0.26927E-02
         0.26927E-02
         0.26927E-02
         0.26927E-02
         0.26927E-02
         0.26927E-02
         0.26927E-02
         0.26927E-02
         0.26927E-02
         0.26927E-02
         0.26927E-02
         0.26927E-02
         0.26927E-02
         0.26927E-02
         0.26927E-02
         0.26927E-02
         0.26927E-02
         0.26927E-02
         0.26927E-02
         0.26927E-02
         0.26927E-02
         0.26927E-02
         0.26927E-02
         0.26927E-02
         0.26927E-02
         0.26927E-02
         0.26927E-02
         0.26927E-02
         0.26927E-02
         0.26927E-02
         0.26927E-02
         0.26927E-02
         0.26927E-02
         0.26927E-02
         0.26927E-02
         0.26927E-02
         0.26927E-02
         0.26927E-02
         0.26927E-02
         0.26927E-02
         0.26927E-02
         0.26927E-02
         0.26927E-02
         0.26927E-02
         0.26927E-02
         0.26927E-02
         0.26927E-02
         0.26927E-02
         0.26927E-02
         0.26927E-02
         0.26927E-02
         0.26927E-02
         0.26927E-02
         0.26927E-02
         0.26927E-02
         0.26927E-02
         0.26927E-02
         0.26927E-02
         0.26927E-02
         0.26927E-02
         0.26927E-02
         0.26927E-02
         0.26927E-02
         0.26927E-02
         0.26927E-02
         0.26927E-02
         0.26927E-02
         0.26927E-02
         0.26927E-02
         0.26927E-02
         0.26927E-02
         0.26927E-02
         0.26927E-02
         0.26927E-02
         0.26927E-02
         0.26927E-02
         0.26927E-02
         0.26927E-02
         0.26927E-02
         0.26927E-02
         0.26927E-02
         0.26927E-02
         0.26927E-02
         0.26927E-02
         0.26927E-02
         0.26927E-02
         0.26927E-02
         0.26927E-02
         0.26927E-02
         0.26927E-02
         0.26927E-02
         0.26927E-02
         0.26927E-02
         0.26927E-02
         0.26927E-02
         0.26927E-02
         0.26927E-02
         0.26927E-02
         0.26927E-02
         0.26927E-02
         0.26927E-02
         0.26927E-02
         0.26927E-02
         0.26927E-02
         0.26927E-02
         0.26927E-02
         0.26927E-02
         0.26927E-02
         0.26927E-02
         0.26927E-02
         0.26927E-02
         0.26927E-02
         0.26927E-02
         0.26927E-02
         0.26927E-02
         0.26927E-02
         0.26927E-02
         0.26927E-02
         0.26927E-02
         0.26927E-02
         0.26927E-02
         0.26927E-02
         0.26927E-02
         0.26927E-02
         0.26927E-02
         0.26927E-02
         0.26927E-02
         0.26927E-02
         0.26927E-02
         0.26927E-02
         0.26927E-02
         0.26927E-02
         0.26927E-02
         0.26927E-02
         0.26927E-02
         0.26927E-02
         0.26927E-02
         0.26927E-02
         0.26927E-02
         0.26927E-02
         0.26927E-02
         0.26927E-02
         0.26927E-02
         0.26927E-02
         0.26927E-02
         0.26927E-02
         0.26927E-02
         0.26927E-02
         0.26927E-02
         0.26927E-02
         0.26927E-02
         0.26927E-02
         0.26927E-02
         0.26927E-02
         0.26927E-02
         0.26927E-02
         0.26927E-02
         0.26927E-02
         0.26927E-02
         0.26927E-02
         0.26927E-02
         0.26927E-02
         0.26927E-02
         0.26927E-02
         0.26927E-02
         0.26927E-02
         0.26927E-02
         0.26927E-02
         0.26927E-02
         0.26927E-02
         0.26927E-02
         0.26927E-02
         0.26927E-02
         0.26927E-02
         0.26927E-02
         0.26927E-02
         0.26927E-02
         0.26927E-02
         0.26927E-02
         0.26927E-02
         0.26927E-02
         0.26927E-02
         0.26927E-02
         0.26927E-02
         0.26927E-02
         0.26927E-02
         0.26927E-02
         0.26927E-02
         0.26927E-02
         0.26927E-02
         0.26927E-02
         0.26927E-02
         0.26927E-02
         0.26927E-02
         0.26927E-02
         0.26927E-02
         0.26927E-02
         0.26927E-02
         0.26927E-02
         0.26927E-02
         0.26927E-02
         0.26927E-02
         0.26927E-02
         0.26927E-02
         0.26927E-02
         0.26927E-02
         0.26927E-02
         0.26927E-02
         0.26927E-02
         0.26928E-02
         0.26928E-02
         0.26928E-02
         0.26928E-02
         0.26928E-02
         0.26928E-02
         0.26928E-02
         0.26928E-02
         0.26928E-02
         0.26928E-02
         0.26928E-02
         0.26928E-02
         0.26928E-02
         0.26928E-02
         0.26928E-02
         0.26928E-02
         0.26928E-02
         0.26928E-02
         0.26928E-02
         0.26928E-02
         0.26928E-02
         0.26928E-02
         0.26928E-02
         0.26928E-02
         0.26928E-02
         0.26928E-02
         0.26928E-02
         0.26928E-02
         0.26928E-02
         0.26928E-02
         0.26928E-02
         0.26928E-02
         0.26928E-02
         0.26928E-02
         0.26928E-02
         0.26928E-02
         0.26928E-02
         0.26928E-02
         0.26928E-02
         0.26928E-02
         0.26928E-02
         0.26928E-02
         0.26928E-02
         0.26928E-02
         0.26928E-02
         0.26928E-02
         0.26928E-02
         0.26928E-02
         0.26928E-02
         0.26928E-02
         0.26928E-02
         0.26928E-02
         0.26928E-02
         0.26928E-02
         0.26928E-02
         0.26928E-02
         0.26928E-02
         0.26928E-02
         0.26928E-02
         0.26928E-02
         0.26928E-02
         0.26928E-02
         0.26928E-02
         0.26928E-02
         0.26928E-02
         0.26928E-02
         0.26928E-02
         0.26928E-02
         0.26928E-02
         0.26928E-02
         0.26928E-02
         0.26928E-02
         0.26928E-02
         0.26928E-02
         0.26928E-02
         0.26928E-02
         0.26928E-02
         0.26928E-02
         0.26928E-02
         0.26928E-02
         0.26928E-02
         0.26928E-02
         0.26928E-02
         0.26928E-02
         0.26928E-02
         0.26928E-02
         0.26928E-02
         0.26928E-02
         0.26928E-02
         0.26928E-02
         0.26928E-02
         0.26928E-02
         0.26928E-02
         0.26928E-02
         0.26928E-02
         0.26928E-02
         0.26928E-02
         0.26928E-02
         0.26928E-02
         0.26928E-02
         0.26928E-02
         0.26928E-02
         0.26928E-02
         0.26928E-02
         0.26928E-02
         0.26928E-02
         0.26928E-02
         0.26928E-02
         0.26928E-02
         0.26928E-02
         0.26928E-02
         0.26928E-02
         0.26928E-02
         0.26928E-02
         0.26928E-02
         0.26928E-02
         0.26928E-02
         0.26928E-02
         0.26928E-02
         0.26928E-02
         0.26928E-02
         0.26928E-02
         0.26928E-02
         0.26928E-02
         0.26928E-02
         0.26928E-02
         0.26928E-02
         0.26928E-02
         0.26928E-02
         0.26928E-02
         0.26928E-02
         0.26928E-02
         0.26928E-02
         0.26928E-02
         0.26928E-02
         0.26928E-02
         0.26928E-02
         0.26928E-02
         0.26928E-02
         0.26928E-02
         0.26928E-02
         0.26928E-02
         0.26928E-02
         0.26928E-02
         0.26928E-02
         0.26928E-02
         0.26928E-02
         0.26928E-02
         0.26928E-02
         0.26928E-02
         0.26928E-02
         0.26928E-02
         0.26928E-02
         0.26928E-02
         0.26928E-02
         0.26928E-02
  
SCALARS                   nodal_volume  double 1
LOOKUP_TABLE default
         0.91140E-09
         0.72412E-09
         0.77574E-09
         0.13316E-08
         0.45570E-09
         0.36211E-09
         0.38787E-09
         0.66566E-09
         0.71537E-09
         0.91211E-09
         0.35767E-09
         0.45600E-09
         0.51195E-09
         0.61532E-09
         0.25605E-09
         0.30776E-09
         0.10101E-08
         0.74536E-09
         0.50500E-09
         0.37281E-09
         0.30273E-09
         0.57012E-09
         0.62699E-09
         0.15144E-09
         0.28509E-09
         0.31352E-09
         0.51329E-09
         0.64933E-09
         0.25683E-09
         0.32471E-09
         0.12026E-08
         0.93909E-09
         0.11935E-08
         0.60122E-09
         0.46945E-09
         0.59663E-09
         0.70296E-09
         0.80270E-09
         0.35149E-09
         0.40134E-09
         0.75859E-09
         0.84013E-09
         0.37932E-09
         0.42007E-09
         0.64542E-09
         0.40086E-09
         0.32274E-09
         0.20045E-09
         0.76288E-09
         0.38153E-09
         0.63346E-09
         0.31675E-09
         0.66583E-09
         0.33318E-09
         0.68008E-09
         0.34022E-09
         0.58930E-09
         0.71738E-09
         0.29472E-09
         0.35874E-09
         0.90938E-09
         0.64302E-09
         0.45469E-09
         0.32154E-09
         0.10152E-08
         0.50747E-09
         0.88120E-09
         0.44042E-09
         0.40077E-09
         0.61872E-09
         0.20039E-09
         0.30940E-09
         0.70206E-09
         0.35106E-09
         0.74172E-09
         0.37089E-09
         0.71539E-09
         0.35770E-09
         0.56226E-09
         0.28113E-09
         0.35349E-09
         0.58452E-09
         0.17675E-09
         0.29229E-09
         0.77354E-09
         0.38679E-09
         0.62469E-09
         0.31238E-09
         0.54957E-09
         0.27483E-09
         0.36009E-09
         0.61365E-09
         0.18007E-09
         0.30685E-09
         0.83268E-09
         0.41635E-09
         0.87287E-09
         0.43642E-09
         0.70438E-09
         0.35217E-09
         0.43365E-09
         0.74413E-09
         0.21683E-09
         0.37198E-09
         0.27660E-09
         0.35144E-09
         0.13833E-09
         0.17573E-09
         0.32921E-09
         0.16465E-09
         0.38764E-09
         0.19382E-09
         0.37797E-09
         0.18897E-09
         0.36707E-09
         0.18352E-09
         0.39112E-09
         0.19552E-09
         0.41268E-09
         0.20627E-09
         0.38876E-09
         0.19433E-09
         0.30402E-09
         0.15200E-09
         0.24796E-09
         0.12398E-09
         0.31999E-09
         0.16000E-09
         0.42608E-09
         0.21303E-09
         0.46805E-09
         0.23401E-09
         0.44933E-09
         0.22466E-09
         0.40550E-09
         0.20276E-09
         0.36826E-09
         0.18414E-09
         0.29911E-09
         0.14956E-09
         0.25178E-09
         0.12591E-09
         0.32888E-09
         0.16445E-09
         0.43529E-09
         0.21765E-09
         0.44963E-09
         0.22482E-09
         0.36384E-09
         0.18194E-09
         0.29543E-09
         0.14774E-09
         0.36126E-09
         0.18063E-09
         0.42771E-09
         0.21386E-09
         0.91143E-09
         0.72396E-09
         0.77579E-09
         0.13322E-08
         0.71547E-09
         0.91237E-09
         0.51167E-09
         0.61494E-09
         0.10105E-08
         0.74486E-09
         0.30244E-09
         0.57001E-09
         0.62694E-09
         0.51257E-09
         0.64918E-09
         0.12029E-08
         0.93950E-09
         0.11941E-08
         0.70298E-09
         0.80279E-09
         0.75855E-09
         0.84015E-09
         0.64535E-09
         0.40081E-09
         0.76254E-09
         0.63339E-09
         0.66483E-09
         0.67941E-09
         0.58904E-09
         0.71721E-09
         0.90946E-09
         0.64293E-09
         0.10157E-08
         0.88199E-09
         0.40076E-09
         0.61859E-09
         0.70195E-09
         0.74166E-09
         0.71543E-09
         0.56228E-09
         0.35349E-09
         0.58443E-09
         0.77349E-09
         0.62459E-09
         0.54943E-09
         0.35999E-09
         0.61359E-09
         0.83268E-09
         0.87299E-09
         0.70451E-09
         0.43366E-09
         0.74449E-09
         0.27651E-09
         0.35143E-09
         0.32904E-09
         0.38765E-09
         0.37805E-09
         0.36714E-09
         0.39129E-09
         0.41297E-09
         0.38899E-09
         0.30408E-09
         0.24798E-09
         0.31999E-09
         0.42613E-09
         0.46815E-09
         0.44938E-09
         0.40548E-09
         0.36823E-09
         0.29908E-09
         0.25174E-09
         0.32885E-09
         0.43527E-09
         0.44962E-09
         0.36376E-09
         0.29536E-09
         0.36130E-09
         0.42769E-09
         0.91151E-09
         0.72383E-09
         0.77587E-09
         0.13329E-08
         0.71560E-09
         0.91267E-09
         0.51142E-09
         0.61459E-09
         0.10109E-08
         0.74439E-09
         0.30216E-09
         0.56992E-09
         0.62691E-09
         0.51187E-09
         0.64906E-09
         0.12033E-08
         0.93995E-09
         0.11947E-08
         0.70302E-09
         0.80291E-09
         0.75853E-09
         0.84020E-09
         0.64530E-09
         0.40078E-09
         0.76223E-09
         0.63335E-09
         0.66385E-09
         0.67875E-09
         0.58880E-09
         0.71706E-09
         0.90957E-09
         0.64286E-09
         0.10162E-08
         0.88281E-09
         0.40076E-09
         0.61849E-09
         0.70188E-09
         0.74162E-09
         0.71550E-09
         0.56232E-09
         0.35350E-09
         0.58436E-09
         0.77347E-09
         0.62452E-09
         0.54931E-09
         0.35990E-09
         0.61355E-09
         0.83270E-09
         0.87315E-09
         0.70467E-09
         0.43368E-09
         0.74487E-09
         0.27643E-09
         0.35143E-09
         0.32889E-09
         0.38767E-09
         0.37814E-09
         0.36723E-09
         0.39147E-09
         0.41328E-09
         0.38923E-09
         0.30416E-09
         0.24800E-09
         0.32001E-09
         0.42620E-09
         0.46826E-09
         0.44944E-09
         0.40548E-09
         0.36821E-09
         0.29906E-09
         0.25171E-09
         0.32883E-09
         0.43527E-09
         0.44963E-09
         0.36369E-09
         0.29530E-09
         0.36135E-09
         0.42769E-09
         0.91156E-09
         0.72368E-09
         0.77594E-09
         0.13335E-08
         0.71571E-09
         0.91295E-09
         0.51115E-09
         0.61422E-09
         0.10112E-08
         0.74389E-09
         0.30187E-09
         0.56982E-09
         0.62686E-09
         0.51116E-09
         0.64892E-09
         0.12036E-08
         0.94038E-09
         0.11953E-08
         0.70304E-09
         0.80300E-09
         0.75850E-09
         0.84023E-09
         0.64523E-09
         0.40073E-09
         0.76190E-09
         0.63330E-09
         0.66285E-09
         0.67809E-09
         0.58855E-09
         0.71689E-09
         0.90966E-09
         0.64278E-09
         0.10168E-08
         0.88361E-09
         0.40076E-09
         0.61837E-09
         0.70178E-09
         0.74156E-09
         0.71554E-09
         0.56234E-09
         0.35350E-09
         0.58428E-09
         0.77343E-09
         0.62442E-09
         0.54918E-09
         0.35981E-09
         0.61349E-09
         0.83271E-09
         0.87328E-09
         0.70481E-09
         0.43369E-09
         0.74524E-09
         0.27634E-09
         0.35142E-09
         0.32873E-09
         0.38768E-09
         0.37823E-09
         0.36731E-09
         0.39163E-09
         0.41358E-09
         0.38945E-09
         0.30422E-09
         0.24802E-09
         0.32001E-09
         0.42625E-09
         0.46837E-09
         0.44949E-09
         0.40546E-09
         0.36819E-09
         0.29904E-09
         0.25167E-09
         0.32881E-09
         0.43526E-09
         0.44963E-09
         0.36362E-09
         0.29523E-09
         0.36139E-09
         0.42768E-09
         0.91161E-09
         0.72353E-09
         0.77600E-09
         0.13341E-08
         0.71583E-09
         0.91323E-09
         0.51088E-09
         0.61386E-09
         0.10116E-08
         0.74341E-09
         0.30158E-09
         0.56972E-09
         0.62682E-09
         0.51045E-09
         0.64879E-09
         0.12040E-08
         0.94081E-09
         0.11959E-08
         0.70307E-09
         0.80310E-09
         0.75847E-09
         0.84027E-09
         0.64517E-09
         0.40069E-09
         0.76158E-09
         0.63325E-09
         0.66186E-09
         0.67742E-09
         0.58831E-09
         0.71673E-09
         0.90975E-09
         0.64270E-09
         0.10173E-08
         0.88441E-09
         0.40075E-09
         0.61825E-09
         0.70169E-09
         0.74151E-09
         0.71559E-09
         0.56237E-09
         0.35350E-09
         0.58420E-09
         0.77339E-09
         0.62433E-09
         0.54905E-09
         0.35972E-09
         0.61344E-09
         0.83272E-09
         0.87341E-09
         0.70496E-09
         0.43370E-09
         0.74562E-09
         0.27626E-09
         0.35142E-09
         0.32857E-09
         0.38770E-09
         0.37832E-09
         0.36739E-09
         0.39181E-09
         0.41387E-09
         0.38968E-09
         0.30429E-09
         0.24804E-09
         0.32002E-09
         0.42631E-09
         0.46847E-09
         0.44954E-09
         0.40545E-09
         0.36816E-09
         0.29901E-09
         0.25163E-09
         0.32878E-09
         0.43525E-09
         0.44963E-09
         0.36354E-09
         0.29517E-09
         0.36144E-09
         0.42766E-09
         0.91167E-09
         0.72338E-09
         0.77607E-09
         0.13348E-08
         0.71594E-09
         0.91351E-09
         0.51062E-09
         0.61349E-09
         0.10119E-08
         0.74292E-09
         0.30129E-09
         0.56962E-09
         0.62678E-09
         0.50974E-09
         0.64865E-09
         0.12044E-08
         0.94125E-09
         0.11965E-08
         0.70310E-09
         0.80321E-09
         0.75844E-09
         0.84031E-09
         0.64511E-09
         0.40065E-09
         0.76125E-09
         0.63320E-09
         0.66087E-09
         0.67676E-09
         0.58806E-09
         0.71657E-09
         0.90984E-09
         0.64263E-09
         0.10179E-08
         0.88522E-09
         0.40075E-09
         0.61813E-09
         0.70160E-09
         0.74146E-09
         0.71564E-09
         0.56240E-09
         0.35350E-09
         0.58412E-09
         0.77336E-09
         0.62425E-09
         0.54892E-09
         0.35963E-09
         0.61339E-09
         0.83274E-09
         0.87355E-09
         0.70511E-09
         0.43371E-09
         0.74599E-09
         0.27618E-09
         0.35141E-09
         0.32841E-09
         0.38771E-09
         0.37841E-09
         0.36747E-09
         0.39198E-09
         0.41417E-09
         0.38992E-09
         0.30436E-09
         0.24806E-09
         0.32003E-09
         0.42637E-09
         0.46858E-09
         0.44960E-09
         0.40544E-09
         0.36814E-09
         0.29899E-09
         0.25159E-09
         0.32876E-09
         0.43525E-09
         0.44963E-09
         0.36347E-09
         0.29511E-09
         0.36148E-09
         0.42766E-09
         0.91171E-09
         0.72323E-09
         0.77613E-09
         0.13354E-08
         0.71606E-09
         0.91379E-09
         0.51035E-09
         0.61313E-09
         0.10123E-08
         0.74243E-09
         0.30101E-09
         0.56952E-09
         0.62674E-09
         0.50903E-09
         0.64851E-09
         0.12047E-08
         0.94167E-09
         0.11971E-08
         0.70312E-09
         0.80331E-09
         0.75840E-09
         0.84034E-09
         0.64504E-09
         0.40061E-09
         0.76092E-09
         0.63314E-09
         0.65988E-09
         0.67609E-09
         0.58781E-09
         0.71641E-09
         0.90993E-09
         0.64255E-09
         0.10184E-08
         0.88601E-09
         0.40075E-09
         0.61801E-09
         0.70151E-09
         0.74140E-09
         0.71569E-09
         0.56243E-09
         0.35350E-09
         0.58404E-09
         0.77332E-09
         0.62416E-09
         0.54879E-09
         0.35953E-09
         0.61334E-09
         0.83274E-09
         0.87368E-09
         0.70525E-09
         0.43372E-09
         0.74636E-09
         0.27609E-09
         0.35141E-09
         0.32825E-09
         0.38772E-09
         0.37849E-09
         0.36754E-09
         0.39215E-09
         0.41447E-09
         0.39014E-09
         0.30443E-09
         0.24808E-09
         0.32004E-09
         0.42642E-09
         0.46868E-09
         0.44965E-09
         0.40543E-09
         0.36812E-09
         0.29897E-09
         0.25155E-09
         0.32874E-09
         0.43524E-09
         0.44963E-09
         0.36340E-09
         0.29504E-09
         0.36153E-09
         0.42764E-09
         0.91176E-09
         0.72308E-09
         0.77620E-09
         0.13360E-08
         0.71617E-09
         0.91407E-09
         0.51008E-09
         0.61276E-09
         0.10126E-08
         0.74195E-09
         0.30072E-09
         0.56942E-09
         0.62670E-09
         0.50832E-09
         0.64838E-09
         0.12051E-08
         0.94210E-09
         0.11977E-08
         0.70314E-09
         0.80341E-09
         0.75837E-09
         0.84038E-09
         0.64498E-09
         0.40056E-09
         0.76060E-09
         0.63309E-09
         0.65888E-09
         0.67542E-09
         0.58756E-09
         0.71624E-09
         0.91002E-09
         0.64247E-09
         0.10189E-08
         0.88682E-09
         0.40074E-09
         0.61790E-09
         0.70142E-09
         0.74135E-09
         0.71574E-09
         0.56245E-09
         0.35351E-09
         0.58396E-09
         0.77328E-09
         0.62407E-09
         0.54866E-09
         0.35944E-09
         0.61329E-09
         0.83275E-09
         0.87382E-09
         0.70539E-09
         0.43373E-09
         0.74673E-09
         0.27601E-09
         0.35140E-09
         0.32809E-09
         0.38774E-09
         0.37858E-09
         0.36762E-09
         0.39232E-09
         0.41477E-09
         0.39037E-09
         0.30450E-09
         0.24810E-09
         0.32005E-09
         0.42648E-09
         0.46879E-09
         0.44970E-09
         0.40541E-09
         0.36809E-09
         0.29894E-09
         0.25151E-09
         0.32871E-09
         0.43523E-09
         0.44963E-09
         0.36333E-09
         0.29497E-09
         0.36157E-09
         0.42763E-09
         0.91182E-09
         0.72293E-09
         0.77627E-09
         0.13367E-08
         0.71629E-09
         0.91436E-09
         0.50982E-09
         0.61240E-09
         0.10130E-08
         0.74146E-09
         0.30043E-09
         0.56932E-09
         0.62666E-09
         0.50762E-09
         0.64825E-09
         0.12054E-08
         0.94253E-09
         0.11983E-08
         0.70317E-09
         0.80351E-09
         0.75834E-09
         0.84041E-09
         0.64491E-09
         0.40053E-09
         0.76028E-09
         0.63304E-09
         0.65790E-09
         0.67476E-09
         0.58731E-09
         0.71609E-09
         0.91012E-09
         0.64239E-09
         0.10195E-08
         0.88762E-09
         0.40074E-09
         0.61778E-09
         0.70133E-09
         0.74130E-09
         0.71579E-09
         0.56249E-09
         0.35351E-09
         0.58388E-09
         0.77324E-09
         0.62398E-09
         0.54853E-09
         0.35935E-09
         0.61324E-09
         0.83277E-09
         0.87396E-09
         0.70554E-09
         0.43375E-09
         0.74711E-09
         0.27592E-09
         0.35140E-09
         0.32793E-09
         0.38775E-09
         0.37867E-09
         0.36770E-09
         0.39249E-09
         0.41507E-09
         0.39061E-09
         0.30457E-09
         0.24812E-09
         0.32006E-09
         0.42654E-09
         0.46890E-09
         0.44975E-09
         0.40540E-09
         0.36807E-09
         0.29892E-09
         0.25148E-09
         0.32869E-09
         0.43522E-09
         0.44963E-09
         0.36325E-09
         0.29491E-09
         0.36162E-09
         0.42762E-09
         0.91187E-09
         0.72278E-09
         0.77633E-09
         0.13373E-08
         0.71640E-09
         0.91463E-09
         0.50955E-09
         0.61204E-09
         0.10134E-08
         0.74098E-09
         0.30015E-09
         0.56922E-09
         0.62662E-09
         0.50691E-09
         0.64811E-09
         0.12058E-08
         0.94296E-09
         0.11989E-08
         0.70320E-09
         0.80361E-09
         0.75831E-09
         0.84045E-09
         0.64485E-09
         0.40048E-09
         0.75995E-09
         0.63298E-09
         0.65690E-09
         0.67409E-09
         0.58706E-09
         0.71592E-09
         0.91020E-09
         0.64231E-09
         0.10200E-08
         0.88843E-09
         0.40074E-09
         0.61766E-09
         0.70124E-09
         0.74124E-09
         0.71584E-09
         0.56251E-09
         0.35351E-09
         0.58380E-09
         0.77320E-09
         0.62389E-09
         0.54840E-09
         0.35926E-09
         0.61318E-09
         0.83277E-09
         0.87409E-09
         0.70568E-09
         0.43376E-09
         0.74748E-09
         0.27584E-09
         0.35139E-09
         0.32777E-09
         0.38777E-09
         0.37876E-09
         0.36778E-09
         0.39266E-09
         0.41536E-09
         0.39084E-09
         0.30464E-09
         0.24814E-09
         0.32006E-09
         0.42659E-09
         0.46900E-09
         0.44980E-09
         0.40539E-09
         0.36805E-09
         0.29890E-09
         0.25144E-09
         0.32867E-09
         0.43521E-09
         0.44963E-09
         0.36318E-09
         0.29485E-09
         0.36166E-09
         0.42761E-09
         0.91192E-09
         0.72263E-09
         0.77640E-09
         0.13380E-08
         0.71652E-09
         0.91491E-09
         0.50928E-09
         0.61167E-09
         0.10137E-08
         0.74049E-09
         0.29986E-09
         0.56912E-09
         0.62657E-09
         0.50620E-09
         0.64797E-09
         0.12061E-08
         0.94339E-09
         0.11995E-08
         0.70322E-09
         0.80371E-09
         0.75827E-09
         0.84048E-09
         0.64478E-09
         0.40044E-09
         0.75962E-09
         0.63293E-09
         0.65591E-09
         0.67343E-09
         0.58681E-09
         0.71576E-09
         0.91029E-09
         0.64223E-09
         0.10205E-08
         0.88923E-09
         0.40073E-09
         0.61754E-09
         0.70114E-09
         0.74119E-09
         0.71588E-09
         0.56254E-09
         0.35351E-09
         0.58372E-09
         0.77316E-09
         0.62380E-09
         0.54827E-09
         0.35917E-09
         0.61313E-09
         0.83278E-09
         0.87422E-09
         0.70582E-09
         0.43377E-09
         0.74785E-09
         0.27575E-09
         0.35138E-09
         0.32761E-09
         0.38778E-09
         0.37885E-09
         0.36786E-09
         0.39283E-09
         0.41566E-09
         0.39107E-09
         0.30470E-09
         0.24816E-09
         0.32007E-09
         0.42665E-09
         0.46911E-09
         0.44985E-09
         0.40538E-09
         0.36802E-09
         0.29887E-09
         0.25140E-09
         0.32864E-09
         0.43520E-09
         0.44963E-09
         0.36310E-09
         0.29478E-09
         0.36170E-09
         0.42760E-09
         0.91198E-09
         0.72248E-09
         0.77646E-09
         0.13386E-08
         0.71663E-09
         0.91520E-09
         0.50901E-09
         0.61131E-09
         0.10141E-08
         0.74000E-09
         0.29957E-09
         0.56902E-09
         0.62653E-09
         0.50549E-09
         0.64784E-09
         0.12065E-08
         0.94382E-09
         0.12002E-08
         0.70325E-09
         0.80381E-09
         0.75824E-09
         0.84052E-09
         0.64472E-09
         0.40040E-09
         0.75929E-09
         0.63288E-09
         0.65492E-09
         0.67276E-09
         0.58657E-09
         0.71560E-09
         0.91038E-09
         0.64216E-09
         0.10211E-08
         0.89003E-09
         0.40073E-09
         0.61742E-09
         0.70105E-09
         0.74114E-09
         0.71593E-09
         0.56257E-09
         0.35351E-09
         0.58364E-09
         0.77313E-09
         0.62371E-09
         0.54814E-09
         0.35908E-09
         0.61308E-09
         0.83280E-09
         0.87436E-09
         0.70597E-09
         0.43378E-09
         0.74823E-09
         0.27567E-09
         0.35138E-09
         0.32745E-09
         0.38779E-09
         0.37893E-09
         0.36794E-09
         0.39300E-09
         0.41596E-09
         0.39130E-09
         0.30477E-09
         0.24818E-09
         0.32008E-09
         0.42671E-09
         0.46921E-09
         0.44991E-09
         0.40537E-09
         0.36800E-09
         0.29885E-09
         0.25136E-09
         0.32862E-09
         0.43520E-09
         0.44963E-09
         0.36303E-09
         0.29472E-09
         0.36175E-09
         0.42759E-09
         0.91203E-09
         0.72233E-09
         0.77653E-09
         0.13392E-08
         0.71675E-09
         0.91547E-09
         0.50875E-09
         0.61094E-09
         0.10144E-08
         0.73952E-09
         0.29928E-09
         0.56892E-09
         0.62649E-09
         0.50478E-09
         0.64770E-09
         0.12068E-08
         0.94424E-09
         0.12008E-08
         0.70327E-09
         0.80391E-09
         0.75821E-09
         0.84055E-09
         0.64465E-09
         0.40035E-09
         0.75896E-09
         0.63282E-09
         0.65393E-09
         0.67210E-09
         0.58632E-09
         0.71543E-09
         0.91047E-09
         0.64208E-09
         0.10216E-08
         0.89084E-09
         0.40073E-09
         0.61730E-09
         0.70096E-09
         0.74108E-09
         0.71598E-09
         0.56259E-09
         0.35351E-09
         0.58356E-09
         0.77309E-09
         0.62362E-09
         0.54801E-09
         0.35898E-09
         0.61303E-09
         0.83281E-09
         0.87449E-09
         0.70611E-09
         0.43379E-09
         0.74860E-09
         0.27558E-09
         0.35137E-09
         0.32729E-09
         0.38781E-09
         0.37902E-09
         0.36802E-09
         0.39317E-09
         0.41625E-09
         0.39153E-09
         0.30484E-09
         0.24820E-09
         0.32009E-09
         0.42677E-09
         0.46932E-09
         0.44996E-09
         0.40536E-09
         0.36798E-09
         0.29883E-09
         0.25132E-09
         0.32859E-09
         0.43519E-09
         0.44963E-09
         0.36296E-09
         0.29465E-09
         0.36179E-09
         0.42758E-09
         0.91208E-09
         0.72218E-09
         0.77659E-09
         0.13399E-08
         0.71686E-09
         0.91576E-09
         0.50848E-09
         0.61058E-09
         0.10148E-08
         0.73903E-09
         0.29900E-09
         0.56882E-09
         0.62645E-09
         0.50408E-09
         0.64757E-09
         0.12072E-08
         0.94467E-09
         0.12014E-08
         0.70330E-09
         0.80401E-09
         0.75818E-09
         0.84059E-09
         0.64459E-09
         0.40031E-09
         0.75864E-09
         0.63277E-09
         0.65294E-09
         0.67143E-09
         0.58607E-09
         0.71527E-09
         0.91057E-09
         0.64200E-09
         0.10221E-08
         0.89164E-09
         0.40072E-09
         0.61719E-09
         0.70087E-09
         0.74103E-09
         0.71603E-09
         0.56262E-09
         0.35352E-09
         0.58348E-09
         0.77305E-09
         0.62354E-09
         0.54788E-09
         0.35889E-09
         0.61298E-09
         0.83282E-09
         0.87463E-09
         0.70626E-09
         0.43380E-09
         0.74897E-09
         0.27550E-09
         0.35137E-09
         0.32713E-09
         0.38782E-09
         0.37911E-09
         0.36810E-09
         0.39334E-09
         0.41655E-09
         0.39176E-09
         0.30491E-09
         0.24822E-09
         0.32010E-09
         0.42682E-09
         0.46942E-09
         0.45001E-09
         0.40534E-09
         0.36796E-09
         0.29881E-09
         0.25128E-09
         0.32857E-09
         0.43518E-09
         0.44963E-09
         0.36288E-09
         0.29459E-09
         0.36184E-09
         0.42757E-09
         0.91214E-09
         0.72204E-09
         0.77666E-09
         0.13405E-08
         0.71698E-09
         0.91604E-09
         0.50822E-09
         0.61022E-09
         0.10151E-08
         0.73855E-09
         0.29871E-09
         0.56872E-09
         0.62641E-09
         0.50337E-09
         0.64743E-09
         0.12075E-08
         0.94510E-09
         0.12020E-08
         0.70333E-09
         0.80411E-09
         0.75815E-09
         0.84063E-09
         0.64453E-09
         0.40027E-09
         0.75831E-09
         0.63272E-09
         0.65196E-09
         0.67077E-09
         0.58582E-09
         0.71511E-09
         0.91066E-09
         0.64192E-09
         0.10227E-08
         0.89245E-09
         0.40072E-09
         0.61707E-09
         0.70078E-09
         0.74098E-09
         0.71608E-09
         0.56265E-09
         0.35352E-09
         0.58340E-09
         0.77301E-09
         0.62345E-09
         0.54775E-09
         0.35880E-09
         0.61293E-09
         0.83283E-09
         0.87476E-09
         0.70641E-09
         0.43382E-09
         0.74935E-09
         0.27541E-09
         0.35136E-09
         0.32697E-09
         0.38784E-09
         0.37920E-09
         0.36818E-09
         0.39352E-09
         0.41685E-09
         0.39199E-09
         0.30498E-09
         0.24824E-09
         0.32011E-09
         0.42688E-09
         0.46953E-09
         0.45007E-09
         0.40533E-09
         0.36793E-09
         0.29878E-09
         0.25124E-09
         0.32855E-09
         0.43517E-09
         0.44963E-09
         0.36281E-09
         0.29452E-09
         0.36188E-09
         0.42756E-09
         0.91219E-09
         0.72188E-09
         0.77672E-09
         0.13412E-08
         0.71709E-09
         0.91632E-09
         0.50795E-09
         0.60986E-09
         0.10155E-08
         0.73806E-09
         0.29842E-09
         0.56862E-09
         0.62636E-09
         0.50266E-09
         0.64730E-09
         0.12079E-08
         0.94552E-09
         0.12026E-08
         0.70335E-09
         0.80421E-09
         0.75811E-09
         0.84066E-09
         0.64446E-09
         0.40023E-09
         0.75798E-09
         0.63267E-09
         0.65096E-09
         0.67010E-09
         0.58557E-09
         0.71494E-09
         0.91074E-09
         0.64184E-09
         0.10232E-08
         0.89325E-09
         0.40072E-09
         0.61695E-09
         0.70069E-09
         0.74092E-09
         0.71612E-09
         0.56268E-09
         0.35352E-09
         0.58332E-09
         0.77297E-09
         0.62336E-09
         0.54762E-09
         0.35871E-09
         0.61287E-09
         0.83284E-09
         0.87489E-09
         0.70655E-09
         0.43383E-09
         0.74972E-09
         0.27533E-09
         0.35136E-09
         0.32681E-09
         0.38785E-09
         0.37929E-09
         0.36825E-09
         0.39369E-09
         0.41715E-09
         0.39222E-09
         0.30505E-09
         0.24826E-09
         0.32011E-09
         0.42694E-09
         0.46963E-09
         0.45011E-09
         0.40532E-09
         0.36791E-09
         0.29876E-09
         0.25120E-09
         0.32853E-09
         0.43516E-09
         0.44962E-09
         0.36274E-09
         0.29445E-09
         0.36192E-09
         0.42755E-09
         0.91224E-09
         0.72173E-09
         0.77679E-09
         0.13418E-08
         0.71720E-09
         0.91660E-09
         0.50768E-09
         0.60949E-09
         0.10158E-08
         0.73758E-09
         0.29814E-09
         0.56852E-09
         0.62632E-09
         0.50195E-09
         0.64716E-09
         0.12082E-08
         0.94595E-09
         0.12032E-08
         0.70337E-09
         0.80431E-09
         0.75808E-09
         0.84069E-09
         0.64440E-09
         0.40018E-09
         0.75766E-09
         0.63262E-09
         0.64998E-09
         0.66943E-09
         0.58532E-09
         0.71478E-09
         0.91083E-09
         0.64176E-09
         0.10238E-08
         0.89406E-09
         0.40071E-09
         0.61683E-09
         0.70059E-09
         0.74087E-09
         0.71617E-09
         0.56270E-09
         0.35352E-09
         0.58324E-09
         0.77294E-09
         0.62327E-09
         0.54749E-09
         0.35861E-09
         0.61282E-09
         0.83284E-09
         0.87503E-09
         0.70669E-09
         0.43384E-09
         0.75009E-09
         0.27524E-09
         0.35135E-09
         0.32665E-09
         0.38786E-09
         0.37937E-09
         0.36833E-09
         0.39386E-09
         0.41745E-09
         0.39245E-09
         0.30512E-09
         0.24828E-09
         0.32012E-09
         0.42699E-09
         0.46974E-09
         0.45017E-09
         0.40531E-09
         0.36788E-09
         0.29873E-09
         0.25117E-09
         0.32850E-09
         0.43515E-09
         0.44962E-09
         0.36266E-09
         0.29439E-09
         0.36197E-09
         0.42754E-09
         0.91230E-09
         0.72159E-09
         0.77686E-09
         0.13425E-08
         0.71732E-09
         0.91688E-09
         0.50742E-09
         0.60913E-09
         0.10162E-08
         0.73710E-09
         0.29785E-09
         0.56842E-09
         0.62628E-09
         0.50125E-09
         0.64703E-09
         0.12086E-08
         0.94638E-09
         0.12038E-08
         0.70340E-09
         0.80441E-09
         0.75805E-09
         0.84073E-09
         0.64433E-09
         0.40014E-09
         0.75733E-09
         0.63257E-09
         0.64899E-09
         0.66877E-09
         0.58508E-09
         0.71462E-09
         0.91093E-09
         0.64169E-09
         0.10243E-08
         0.89487E-09
         0.40071E-09
         0.61671E-09
         0.70051E-09
         0.74082E-09
         0.71622E-09
         0.56273E-09
         0.35352E-09
         0.58316E-09
         0.77290E-09
         0.62318E-09
         0.54737E-09
         0.35852E-09
         0.61277E-09
         0.83286E-09
         0.87517E-09
         0.70684E-09
         0.43385E-09
         0.75047E-09
         0.27516E-09
         0.35135E-09
         0.32649E-09
         0.38788E-09
         0.37946E-09
         0.36841E-09
         0.39403E-09
         0.41775E-09
         0.39268E-09
         0.30519E-09
         0.24830E-09
         0.32013E-09
         0.42705E-09
         0.46985E-09
         0.45022E-09
         0.40530E-09
         0.36786E-09
         0.29871E-09
         0.25113E-09
         0.32848E-09
         0.43515E-09
         0.44962E-09
         0.36259E-09
         0.29433E-09
         0.36201E-09
         0.42753E-09
         0.91235E-09
         0.72143E-09
         0.77692E-09
         0.13431E-08
         0.71743E-09
         0.91716E-09
         0.50715E-09
         0.60877E-09
         0.10165E-08
         0.73661E-09
         0.29757E-09
         0.56832E-09
         0.62624E-09
         0.50054E-09
         0.64689E-09
         0.12089E-08
         0.94680E-09
         0.12044E-08
         0.70342E-09
         0.80450E-09
         0.75802E-09
         0.84076E-09
         0.64427E-09
         0.40010E-09
         0.75700E-09
         0.63251E-09
         0.64800E-09
         0.66810E-09
         0.58482E-09
         0.71445E-09
         0.91101E-09
         0.64161E-09
         0.10248E-08
         0.89567E-09
         0.40071E-09
         0.61659E-09
         0.70041E-09
         0.74077E-09
         0.71627E-09
         0.56276E-09
         0.35352E-09
         0.58308E-09
         0.77286E-09
         0.62309E-09
         0.54723E-09
         0.35843E-09
         0.61272E-09
         0.83287E-09
         0.87530E-09
         0.70698E-09
         0.43386E-09
         0.75084E-09
         0.27507E-09
         0.35134E-09
         0.32633E-09
         0.38789E-09
         0.37955E-09
         0.36849E-09
         0.39420E-09
         0.41804E-09
         0.39291E-09
         0.30525E-09
         0.24832E-09
         0.32014E-09
         0.42711E-09
         0.46995E-09
         0.45027E-09
         0.40528E-09
         0.36784E-09
         0.29869E-09
         0.25109E-09
         0.32845E-09
         0.43514E-09
         0.44962E-09
         0.36252E-09
         0.29426E-09
         0.36206E-09
         0.42751E-09
         0.91240E-09
         0.72128E-09
         0.77698E-09
         0.13437E-08
         0.71755E-09
         0.91744E-09
         0.50688E-09
         0.60841E-09
         0.10169E-08
         0.73612E-09
         0.29728E-09
         0.56822E-09
         0.62619E-09
         0.49984E-09
         0.64676E-09
         0.12093E-08
         0.94723E-09
         0.12050E-08
         0.70345E-09
         0.80460E-09
         0.75798E-09
         0.84080E-09
         0.64420E-09
         0.40006E-09
         0.75667E-09
         0.63246E-09
         0.64701E-09
         0.66744E-09
         0.58457E-09
         0.71429E-09
         0.91110E-09
         0.64153E-09
         0.10254E-08
         0.89648E-09
         0.40070E-09
         0.61647E-09
         0.70032E-09
         0.74071E-09
         0.71632E-09
         0.56279E-09
         0.35353E-09
         0.58300E-09
         0.77282E-09
         0.62300E-09
         0.54710E-09
         0.35834E-09
         0.61266E-09
         0.83288E-09
         0.87543E-09
         0.70713E-09
         0.43387E-09
         0.75122E-09
         0.27499E-09
         0.35133E-09
         0.32617E-09
         0.38790E-09
         0.37964E-09
         0.36857E-09
         0.39437E-09
         0.41834E-09
         0.39314E-09
         0.30532E-09
         0.24834E-09
         0.32014E-09
         0.42716E-09
         0.47005E-09
         0.45032E-09
         0.40527E-09
         0.36781E-09
         0.29866E-09
         0.25105E-09
         0.32843E-09
         0.43513E-09
         0.44962E-09
         0.36244E-09
         0.29419E-09
         0.36210E-09
         0.42750E-09
         0.91246E-09
         0.72114E-09
         0.77705E-09
         0.13444E-08
         0.71767E-09
         0.91773E-09
         0.50662E-09
         0.60805E-09
         0.10173E-08
         0.73564E-09
         0.29700E-09
         0.56812E-09
         0.62616E-09
         0.49914E-09
         0.64663E-09
         0.12097E-08
         0.94766E-09
         0.12056E-08
         0.70348E-09
         0.80471E-09
         0.75796E-09
         0.84084E-09
         0.64414E-09
         0.40002E-09
         0.75635E-09
         0.63241E-09
         0.64603E-09
         0.66678E-09
         0.58433E-09
         0.71413E-09
         0.91120E-09
         0.64146E-09
         0.10259E-08
         0.89729E-09
         0.40070E-09
         0.61636E-09
         0.70023E-09
         0.74067E-09
         0.71637E-09
         0.56282E-09
         0.35353E-09
         0.58293E-09
         0.77279E-09
         0.62291E-09
         0.54698E-09
         0.35825E-09
         0.61261E-09
         0.83289E-09
         0.87557E-09
         0.70728E-09
         0.43389E-09
         0.75160E-09
         0.27491E-09
         0.35133E-09
         0.32601E-09
         0.38792E-09
         0.37972E-09
         0.36865E-09
         0.39454E-09
         0.41864E-09
         0.39337E-09
         0.30539E-09
         0.24836E-09
         0.32015E-09
         0.42722E-09
         0.47016E-09
         0.45038E-09
         0.40526E-09
         0.36779E-09
         0.29864E-09
         0.25101E-09
         0.32841E-09
         0.43512E-09
         0.44962E-09
         0.36237E-09
         0.29413E-09
         0.36215E-09
         0.42750E-09
         0.91249E-09
         0.72097E-09
         0.77710E-09
         0.13450E-08
         0.71777E-09
         0.91799E-09
         0.50634E-09
         0.60767E-09
         0.10176E-08
         0.73514E-09
         0.29670E-09
         0.56801E-09
         0.62610E-09
         0.49842E-09
         0.64648E-09
         0.12100E-08
         0.94806E-09
         0.12062E-08
         0.70349E-09
         0.80479E-09
         0.75791E-09
         0.84086E-09
         0.64406E-09
         0.39997E-09
         0.75600E-09
         0.63234E-09
         0.64503E-09
         0.66610E-09
         0.58407E-09
         0.71395E-09
         0.91127E-09
         0.64136E-09
         0.10264E-08
         0.89808E-09
         0.40069E-09
         0.61622E-09
         0.70012E-09
         0.74060E-09
         0.71641E-09
         0.56283E-09
         0.35352E-09
         0.58283E-09
         0.77273E-09
         0.62281E-09
         0.54684E-09
         0.35815E-09
         0.61255E-09
         0.83288E-09
         0.87569E-09
         0.70741E-09
         0.43389E-09
         0.75195E-09
         0.27482E-09
         0.35132E-09
         0.32584E-09
         0.38793E-09
         0.37980E-09
         0.36872E-09
         0.39470E-09
         0.41893E-09
         0.39360E-09
         0.30545E-09
         0.24837E-09
         0.32016E-09
         0.42727E-09
         0.47026E-09
         0.45042E-09
         0.40524E-09
         0.36776E-09
         0.29861E-09
         0.25097E-09
         0.32838E-09
         0.43510E-09
         0.44961E-09
         0.36229E-09
         0.29406E-09
         0.36218E-09
         0.42748E-09
         0.91256E-09
         0.72083E-09
         0.77718E-09
         0.13457E-08
         0.71789E-09
         0.91829E-09
         0.50608E-09
         0.60732E-09
         0.10180E-08
         0.73467E-09
         0.29642E-09
         0.56792E-09
         0.62607E-09
         0.49772E-09
         0.64636E-09
         0.12103E-08
         0.94850E-09
         0.12068E-08
         0.70352E-09
         0.80490E-09
         0.75789E-09
         0.84091E-09
         0.64401E-09
         0.39993E-09
         0.75569E-09
         0.63230E-09
         0.64405E-09
         0.66544E-09
         0.58382E-09
         0.71379E-09
         0.91137E-09
         0.64129E-09
         0.10270E-08
         0.89890E-09
         0.40069E-09
         0.61611E-09
         0.70004E-09
         0.74056E-09
         0.71646E-09
         0.56287E-09
         0.35353E-09
         0.58276E-09
         0.77271E-09
         0.62273E-09
         0.54672E-09
         0.35806E-09
         0.61251E-09
         0.83291E-09
         0.87583E-09
         0.70756E-09
         0.43391E-09
         0.75234E-09
         0.27474E-09
         0.35132E-09
         0.32569E-09
         0.38794E-09
         0.37990E-09
         0.36881E-09
         0.39488E-09
         0.41923E-09
         0.39383E-09
         0.30553E-09
         0.24840E-09
         0.32017E-09
         0.42734E-09
         0.47037E-09
         0.45048E-09
         0.40524E-09
         0.36774E-09
         0.29859E-09
         0.25093E-09
         0.32836E-09
         0.43510E-09
         0.44962E-09
         0.36222E-09
         0.29400E-09
         0.36223E-09
         0.42747E-09
         0.45631E-09
         0.36039E-09
         0.38862E-09
         0.67302E-09
         0.35899E-09
         0.45923E-09
         0.25298E-09
         0.30358E-09
         0.50909E-09
         0.36723E-09
         0.14815E-09
         0.28394E-09
         0.31303E-09
         0.24869E-09
         0.32316E-09
         0.60528E-09
         0.47437E-09
         0.60357E-09
         0.35178E-09
         0.40249E-09
         0.37895E-09
         0.42048E-09
         0.32200E-09
         0.19996E-09
         0.37777E-09
         0.31615E-09
         0.32179E-09
         0.33257E-09
         0.29186E-09
         0.35687E-09
         0.45572E-09
         0.32064E-09
         0.51365E-09
         0.44967E-09
         0.20035E-09
         0.30804E-09
         0.35001E-09
         0.37028E-09
         0.35826E-09
         0.28145E-09
         0.17677E-09
         0.29137E-09
         0.38636E-09
         0.31135E-09
         0.27333E-09
         0.17901E-09
         0.30625E-09
         0.41647E-09
         0.43797E-09
         0.35383E-09
         0.21697E-09
         0.37628E-09
         0.13735E-09
         0.17566E-09
         0.16281E-09
         0.19398E-09
         0.18998E-09
         0.18443E-09
         0.19749E-09
         0.20970E-09
         0.19698E-09
         0.15279E-09
         0.12421E-09
         0.16009E-09
         0.21369E-09
         0.23522E-09
         0.22526E-09
         0.20262E-09
         0.18387E-09
         0.14930E-09
         0.12546E-09
         0.16418E-09
         0.21756E-09
         0.22482E-09
         0.18110E-09
         0.14699E-09
         0.18113E-09
         0.21374E-09
  
SCALARS               pre_disp_force_x  double 1
LOOKUP_TABLE default
         0.00000E+00
         0.00000E+00
         0.00000E+00
         0.00000E+00
         0.00000E+00
         0.00000E+00
         0.00000E+00
         0.00000E+00
         0.00000E+00
         0.00000E+00
         0.00000E+00
         0.00000E+00
         0.00000E+00
         0.00000E+00
         0.00000E+00
         0.00000E+00
         0.00000E+00
         0.00000E+00
         0.00000E+00
         0.00000E+00
         0.00000E+00
         0.00000E+00
         0.00000E+00
         0.00000E+00
         0.00000E+00
         0.00000E+00
         0.00000E+00
         0.00000E+00
         0.00000E+00
         0.00000E+00
         0.00000E+00
         0.00000E+00
         0.00000E+00
         0.00000E+00
         0.00000E+00
         0.00000E+00
         0.00000E+00
         0.00000E+00
         0.00000E+00
         0.00000E+00
         0.00000E+00
         0.00000E+00
         0.00000E+00
         0.00000E+00
         0.00000E+00
         0.00000E+00
         0.00000E+00
         0.00000E+00
         0.00000E+00
         0.00000E+00
         0.00000E+00
         0.00000E+00
         0.00000E+00
         0.00000E+00
         0.00000E+00
         0.00000E+00
         0.00000E+00
         0.00000E+00
         0.00000E+00
         0.00000E+00
         0.00000E+00
         0.00000E+00
         0.00000E+00
         0.00000E+00
         0.00000E+00
         0.00000E+00
         0.00000E+00
         0.00000E+00
         0.00000E+00
         0.00000E+00
         0.00000E+00
         0.00000E+00
         0.00000E+00
         0.00000E+00
         0.00000E+00
         0.00000E+00
         0.00000E+00
         0.00000E+00
         0.00000E+00
         0.00000E+00
         0.00000E+00
         0.00000E+00
         0.00000E+00
         0.00000E+00
         0.00000E+00
         0.00000E+00
         0.00000E+00
         0.00000E+00
         0.00000E+00
         0.00000E+00
         0.00000E+00
         0.00000E+00
         0.00000E+00
         0.00000E+00
         0.00000E+00
         0.00000E+00
         0.00000E+00
         0.00000E+00
         0.00000E+00
         0.00000E+00
         0.00000E+00
         0.00000E+00
         0.00000E+00
         0.00000E+00
         0.00000E+00
         0.00000E+00
         0.00000E+00
         0.00000E+00
         0.00000E+00
         0.00000E+00
         0.00000E+00
         0.00000E+00
         0.00000E+00
         0.00000E+00
         0.00000E+00
         0.00000E+00
         0.00000E+00
         0.00000E+00
         0.00000E+00
         0.00000E+00
         0.00000E+00
         0.00000E+00
         0.00000E+00
         0.00000E+00
         0.00000E+00
         0.00000E+00
         0.00000E+00
         0.00000E+00
         0.00000E+00
         0.00000E+00
         0.00000E+00
         0.00000E+00
         0.00000E+00
         0.00000E+00
         0.00000E+00
         0.00000E+00
         0.00000E+00
         0.00000E+00
         0.00000E+00
         0.00000E+00
         0.00000E+00
         0.00000E+00
         0.00000E+00
         0.00000E+00
         0.00000E+00
         0.00000E+00
         0.00000E+00
         0.00000E+00
         0.00000E+00
         0.00000E+00
         0.00000E+00
         0.00000E+00
         0.00000E+00
         0.00000E+00
         0.00000E+00
         0.00000E+00
         0.00000E+00
         0.00000E+00
         0.00000E+00
         0.00000E+00
         0.00000E+00
         0.00000E+00
         0.00000E+00
         0.00000E+00
         0.00000E+00
         0.00000E+00
         0.00000E+00
         0.00000E+00
         0.00000E+00
         0.00000E+00
         0.00000E+00
         0.00000E+00
         0.00000E+00
         0.00000E+00
         0.00000E+00
         0.00000E+00
         0.00000E+00
         0.00000E+00
         0.00000E+00
         0.00000E+00
         0.00000E+00
         0.00000E+00
         0.00000E+00
         0.00000E+00
         0.00000E+00
         0.00000E+00
         0.00000E+00
         0.00000E+00
         0.00000E+00
         0.00000E+00
         0.00000E+00
         0.00000E+00
         0.00000E+00
         0.00000E+00
         0.00000E+00
         0.00000E+00
         0.00000E+00
         0.00000E+00
         0.00000E+00
         0.00000E+00
         0.00000E+00
         0.00000E+00
         0.00000E+00
         0.00000E+00
         0.00000E+00
         0.00000E+00
         0.00000E+00
         0.00000E+00
         0.00000E+00
         0.00000E+00
         0.00000E+00
         0.00000E+00
         0.00000E+00
         0.00000E+00
         0.00000E+00
         0.00000E+00
         0.00000E+00
         0.00000E+00
         0.00000E+00
         0.00000E+00
         0.00000E+00
         0.00000E+00
         0.00000E+00
         0.00000E+00
         0.00000E+00
         0.00000E+00
         0.00000E+00
         0.00000E+00
         0.00000E+00
         0.00000E+00
         0.00000E+00
         0.00000E+00
         0.00000E+00
         0.00000E+00
         0.00000E+00
         0.00000E+00
         0.00000E+00
         0.00000E+00
         0.00000E+00
         0.00000E+00
         0.00000E+00
         0.00000E+00
         0.00000E+00
         0.00000E+00
         0.00000E+00
         0.00000E+00
         0.00000E+00
         0.00000E+00
         0.00000E+00
         0.00000E+00
         0.00000E+00
         0.00000E+00
         0.00000E+00
         0.00000E+00
         0.00000E+00
         0.00000E+00
         0.00000E+00
         0.00000E+00
         0.00000E+00
         0.00000E+00
         0.00000E+00
         0.00000E+00
         0.00000E+00
         0.00000E+00
         0.00000E+00
         0.00000E+00
         0.00000E+00
         0.00000E+00
         0.00000E+00
         0.00000E+00
         0.00000E+00
         0.00000E+00
         0.00000E+00
         0.00000E+00
         0.00000E+00
         0.00000E+00
         0.00000E+00
         0.00000E+00
         0.00000E+00
         0.00000E+00
         0.00000E+00
         0.00000E+00
         0.00000E+00
         0.00000E+00
         0.00000E+00
         0.00000E+00
         0.00000E+00
         0.00000E+00
         0.00000E+00
         0.00000E+00
         0.00000E+00
         0.00000E+00
         0.00000E+00
         0.00000E+00
         0.00000E+00
         0.00000E+00
         0.00000E+00
         0.00000E+00
         0.00000E+00
         0.00000E+00
         0.00000E+00
         0.00000E+00
         0.00000E+00
         0.00000E+00
         0.00000E+00
         0.00000E+00
         0.00000E+00
         0.00000E+00
         0.00000E+00
         0.00000E+00
         0.00000E+00
         0.00000E+00
         0.00000E+00
         0.00000E+00
         0.00000E+00
         0.00000E+00
         0.00000E+00
         0.00000E+00
         0.00000E+00
         0.00000E+00
         0.00000E+00
         0.00000E+00
         0.00000E+00
         0.00000E+00
         0.00000E+00
         0.00000E+00
         0.00000E+00
         0.00000E+00
         0.00000E+00
         0.00000E+00
         0.00000E+00
         0.00000E+00
         0.00000E+00
         0.00000E+00
         0.00000E+00
         0.00000E+00
         0.00000E+00
         0.00000E+00
         0.00000E+00
         0.00000E+00
         0.00000E+00
         0.00000E+00
         0.00000E+00
         0.00000E+00
         0.00000E+00
         0.00000E+00
         0.00000E+00
         0.00000E+00
         0.00000E+00
         0.00000E+00
         0.00000E+00
         0.00000E+00
         0.00000E+00
         0.00000E+00
         0.00000E+00
         0.00000E+00
         0.00000E+00
         0.00000E+00
         0.00000E+00
         0.00000E+00
         0.00000E+00
         0.00000E+00
         0.00000E+00
         0.00000E+00
         0.00000E+00
         0.00000E+00
         0.00000E+00
         0.00000E+00
         0.00000E+00
         0.00000E+00
         0.00000E+00
         0.00000E+00
         0.00000E+00
         0.00000E+00
         0.00000E+00
         0.00000E+00
         0.00000E+00
         0.00000E+00
         0.00000E+00
         0.00000E+00
         0.00000E+00
         0.00000E+00
         0.00000E+00
         0.00000E+00
         0.00000E+00
         0.00000E+00
         0.00000E+00
         0.00000E+00
         0.00000E+00
         0.00000E+00
         0.00000E+00
         0.00000E+00
         0.00000E+00
         0.00000E+00
         0.00000E+00
         0.00000E+00
         0.00000E+00
         0.00000E+00
         0.00000E+00
         0.00000E+00
         0.00000E+00
         0.00000E+00
         0.00000E+00
         0.00000E+00
         0.00000E+00
         0.00000E+00
         0.00000E+00
         0.00000E+00
         0.00000E+00
         0.00000E+00
         0.00000E+00
         0.00000E+00
         0.00000E+00
         0.00000E+00
         0.00000E+00
         0.00000E+00
         0.00000E+00
         0.00000E+00
         0.00000E+00
         0.00000E+00
         0.00000E+00
         0.00000E+00
         0.00000E+00
         0.00000E+00
         0.00000E+00
         0.00000E+00
         0.00000E+00
         0.00000E+00
         0.00000E+00
         0.00000E+00
         0.00000E+00
         0.00000E+00
         0.00000E+00
         0.00000E+00
         0.00000E+00
         0.00000E+00
         0.00000E+00
         0.00000E+00
         0.00000E+00
         0.00000E+00
         0.00000E+00
         0.00000E+00
         0.00000E+00
         0.00000E+00
         0.00000E+00
         0.00000E+00
         0.00000E+00
         0.00000E+00
         0.00000E+00
         0.00000E+00
         0.00000E+00
         0.00000E+00
         0.00000E+00
         0.00000E+00
         0.00000E+00
         0.00000E+00
         0.00000E+00
         0.00000E+00
         0.00000E+00
         0.00000E+00
         0.00000E+00
         0.00000E+00
         0.00000E+00
         0.00000E+00
         0.00000E+00
         0.00000E+00
         0.00000E+00
         0.00000E+00
         0.00000E+00
         0.00000E+00
         0.00000E+00
         0.00000E+00
         0.00000E+00
         0.00000E+00
         0.00000E+00
         0.00000E+00
         0.00000E+00
         0.00000E+00
         0.00000E+00
         0.00000E+00
         0.00000E+00
         0.00000E+00
         0.00000E+00
         0.00000E+00
         0.00000E+00
         0.00000E+00
         0.00000E+00
         0.00000E+00
         0.00000E+00
         0.00000E+00
         0.00000E+00
         0.00000E+00
         0.00000E+00
         0.00000E+00
         0.00000E+00
         0.00000E+00
         0.00000E+00
         0.00000E+00
         0.00000E+00
         0.00000E+00
         0.00000E+00
         0.00000E+00
         0.00000E+00
         0.00000E+00
         0.00000E+00
         0.00000E+00
         0.00000E+00
         0.00000E+00
         0.00000E+00
         0.00000E+00
         0.00000E+00
         0.00000E+00
         0.00000E+00
         0.00000E+00
         0.00000E+00
         0.00000E+00
         0.00000E+00
         0.00000E+00
         0.00000E+00
         0.00000E+00
         0.00000E+00
         0.00000E+00
         0.00000E+00
         0.00000E+00
         0.00000E+00
         0.00000E+00
         0.00000E+00
         0.00000E+00
         0.00000E+00
         0.00000E+00
         0.00000E+00
         0.00000E+00
         0.00000E+00
         0.00000E+00
         0.00000E+00
         0.00000E+00
         0.00000E+00
         0.00000E+00
         0.00000E+00
         0.00000E+00
         0.00000E+00
         0.00000E+00
         0.00000E+00
         0.00000E+00
         0.00000E+00
         0.00000E+00
         0.00000E+00
         0.00000E+00
         0.00000E+00
         0.00000E+00
         0.00000E+00
         0.00000E+00
         0.00000E+00
         0.00000E+00
         0.00000E+00
         0.00000E+00
         0.00000E+00
         0.00000E+00
         0.00000E+00
         0.00000E+00
         0.00000E+00
         0.00000E+00
         0.00000E+00
         0.00000E+00
         0.00000E+00
         0.00000E+00
         0.00000E+00
         0.00000E+00
         0.00000E+00
         0.00000E+00
         0.00000E+00
         0.00000E+00
         0.00000E+00
         0.00000E+00
         0.00000E+00
         0.00000E+00
         0.00000E+00
         0.00000E+00
         0.00000E+00
         0.00000E+00
         0.00000E+00
         0.00000E+00
         0.00000E+00
         0.00000E+00
         0.00000E+00
         0.00000E+00
         0.00000E+00
         0.00000E+00
         0.00000E+00
         0.00000E+00
         0.00000E+00
         0.00000E+00
         0.00000E+00
         0.00000E+00
         0.00000E+00
         0.00000E+00
         0.00000E+00
         0.00000E+00
         0.00000E+00
         0.00000E+00
         0.00000E+00
         0.00000E+00
         0.00000E+00
         0.00000E+00
         0.00000E+00
         0.00000E+00
         0.00000E+00
         0.00000E+00
         0.00000E+00
         0.00000E+00
         0.00000E+00
         0.00000E+00
         0.00000E+00
         0.00000E+00
         0.00000E+00
         0.00000E+00
         0.00000E+00
         0.00000E+00
         0.00000E+00
         0.00000E+00
         0.00000E+00
         0.00000E+00
         0.00000E+00
         0.00000E+00
         0.00000E+00
         0.00000E+00
         0.00000E+00
         0.00000E+00
         0.00000E+00
         0.00000E+00
         0.00000E+00
         0.00000E+00
         0.00000E+00
         0.00000E+00
         0.00000E+00
         0.00000E+00
         0.00000E+00
         0.00000E+00
         0.00000E+00
         0.00000E+00
         0.00000E+00
         0.00000E+00
         0.00000E+00
         0.00000E+00
         0.00000E+00
         0.00000E+00
         0.00000E+00
         0.00000E+00
         0.00000E+00
         0.00000E+00
         0.00000E+00
         0.00000E+00
         0.00000E+00
         0.00000E+00
         0.00000E+00
         0.00000E+00
         0.00000E+00
         0.00000E+00
         0.00000E+00
         0.00000E+00
         0.00000E+00
         0.00000E+00
         0.00000E+00
         0.00000E+00
         0.00000E+00
         0.00000E+00
         0.00000E+00
         0.00000E+00
         0.00000E+00
         0.00000E+00
         0.00000E+00
         0.00000E+00
         0.00000E+00
         0.00000E+00
         0.00000E+00
         0.00000E+00
         0.00000E+00
         0.00000E+00
         0.00000E+00
         0.00000E+00
         0.00000E+00
         0.00000E+00
         0.00000E+00
         0.00000E+00
         0.00000E+00
         0.00000E+00
         0.00000E+00
         0.00000E+00
         0.00000E+00
         0.00000E+00
         0.00000E+00
         0.00000E+00
         0.00000E+00
         0.00000E+00
         0.00000E+00
         0.00000E+00
         0.00000E+00
         0.00000E+00
         0.00000E+00
         0.00000E+00
         0.00000E+00
         0.00000E+00
         0.00000E+00
         0.00000E+00
         0.00000E+00
         0.00000E+00
         0.00000E+00
         0.00000E+00
         0.00000E+00
         0.00000E+00
         0.00000E+00
         0.00000E+00
         0.00000E+00
         0.00000E+00
         0.00000E+00
         0.00000E+00
         0.00000E+00
         0.00000E+00
         0.00000E+00
         0.00000E+00
         0.00000E+00
         0.00000E+00
         0.00000E+00
         0.00000E+00
         0.00000E+00
         0.00000E+00
         0.00000E+00
         0.00000E+00
         0.00000E+00
         0.00000E+00
         0.00000E+00
         0.00000E+00
         0.00000E+00
         0.00000E+00
         0.00000E+00
         0.00000E+00
         0.00000E+00
         0.00000E+00
         0.00000E+00
         0.00000E+00
         0.00000E+00
         0.00000E+00
         0.00000E+00
         0.00000E+00
         0.00000E+00
         0.00000E+00
         0.00000E+00
         0.00000E+00
         0.00000E+00
         0.00000E+00
         0.00000E+00
         0.00000E+00
         0.00000E+00
         0.00000E+00
         0.00000E+00
         0.00000E+00
         0.00000E+00
         0.00000E+00
         0.00000E+00
         0.00000E+00
         0.00000E+00
         0.00000E+00
         0.00000E+00
         0.00000E+00
         0.00000E+00
         0.00000E+00
         0.00000E+00
         0.00000E+00
         0.00000E+00
         0.00000E+00
         0.00000E+00
         0.00000E+00
         0.00000E+00
         0.00000E+00
         0.00000E+00
         0.00000E+00
         0.00000E+00
         0.00000E+00
         0.00000E+00
         0.00000E+00
         0.00000E+00
         0.00000E+00
         0.00000E+00
         0.00000E+00
         0.00000E+00
         0.00000E+00
         0.00000E+00
         0.00000E+00
         0.00000E+00
         0.00000E+00
         0.00000E+00
         0.00000E+00
         0.00000E+00
         0.00000E+00
         0.00000E+00
         0.00000E+00
         0.00000E+00
         0.00000E+00
         0.00000E+00
         0.00000E+00
         0.00000E+00
         0.00000E+00
         0.00000E+00
         0.00000E+00
         0.00000E+00
         0.00000E+00
         0.00000E+00
         0.00000E+00
         0.00000E+00
         0.00000E+00
         0.00000E+00
         0.00000E+00
         0.00000E+00
         0.00000E+00
         0.00000E+00
         0.00000E+00
         0.00000E+00
         0.00000E+00
         0.00000E+00
         0.00000E+00
         0.00000E+00
         0.00000E+00
         0.00000E+00
         0.00000E+00
         0.00000E+00
         0.00000E+00
         0.00000E+00
         0.00000E+00
         0.00000E+00
         0.00000E+00
         0.00000E+00
         0.00000E+00
         0.00000E+00
         0.00000E+00
         0.00000E+00
         0.00000E+00
         0.00000E+00
         0.00000E+00
         0.00000E+00
         0.00000E+00
         0.00000E+00
         0.00000E+00
         0.00000E+00
         0.00000E+00
         0.00000E+00
         0.00000E+00
         0.00000E+00
         0.00000E+00
         0.00000E+00
         0.00000E+00
         0.00000E+00
         0.00000E+00
         0.00000E+00
         0.00000E+00
         0.00000E+00
         0.00000E+00
         0.00000E+00
         0.00000E+00
         0.00000E+00
         0.00000E+00
         0.00000E+00
         0.00000E+00
         0.00000E+00
         0.00000E+00
         0.00000E+00
         0.00000E+00
         0.00000E+00
         0.00000E+00
         0.00000E+00
         0.00000E+00
         0.00000E+00
         0.00000E+00
         0.00000E+00
         0.00000E+00
         0.00000E+00
         0.00000E+00
         0.00000E+00
         0.00000E+00
         0.00000E+00
         0.00000E+00
         0.00000E+00
         0.00000E+00
         0.00000E+00
         0.00000E+00
         0.00000E+00
         0.00000E+00
         0.00000E+00
         0.00000E+00
         0.00000E+00
         0.00000E+00
         0.00000E+00
         0.00000E+00
         0.00000E+00
         0.00000E+00
         0.00000E+00
         0.00000E+00
         0.00000E+00
         0.00000E+00
         0.00000E+00
         0.00000E+00
         0.00000E+00
         0.00000E+00
         0.00000E+00
         0.00000E+00
         0.00000E+00
         0.00000E+00
         0.00000E+00
         0.00000E+00
         0.00000E+00
         0.00000E+00
         0.00000E+00
         0.00000E+00
         0.00000E+00
         0.00000E+00
         0.00000E+00
         0.00000E+00
         0.00000E+00
         0.00000E+00
         0.00000E+00
         0.00000E+00
         0.00000E+00
         0.00000E+00
         0.00000E+00
         0.00000E+00
         0.00000E+00
         0.00000E+00
         0.00000E+00
         0.00000E+00
         0.00000E+00
         0.00000E+00
         0.00000E+00
         0.00000E+00
         0.00000E+00
         0.00000E+00
         0.00000E+00
         0.00000E+00
         0.00000E+00
         0.00000E+00
         0.00000E+00
         0.00000E+00
         0.00000E+00
         0.00000E+00
         0.00000E+00
         0.00000E+00
         0.00000E+00
         0.00000E+00
         0.00000E+00
         0.00000E+00
         0.00000E+00
         0.00000E+00
         0.00000E+00
         0.00000E+00
         0.00000E+00
         0.00000E+00
         0.00000E+00
         0.00000E+00
         0.00000E+00
         0.00000E+00
         0.00000E+00
         0.00000E+00
         0.00000E+00
         0.00000E+00
         0.00000E+00
         0.00000E+00
         0.00000E+00
         0.00000E+00
         0.00000E+00
         0.00000E+00
         0.00000E+00
         0.00000E+00
         0.00000E+00
         0.00000E+00
         0.00000E+00
         0.00000E+00
         0.00000E+00
         0.00000E+00
         0.00000E+00
         0.00000E+00
         0.00000E+00
         0.00000E+00
         0.00000E+00
         0.00000E+00
         0.00000E+00
         0.00000E+00
         0.00000E+00
         0.00000E+00
         0.00000E+00
         0.00000E+00
         0.00000E+00
         0.00000E+00
         0.00000E+00
         0.00000E+00
         0.00000E+00
         0.00000E+00
         0.00000E+00
         0.00000E+00
         0.00000E+00
         0.00000E+00
         0.00000E+00
         0.00000E+00
         0.00000E+00
         0.00000E+00
         0.00000E+00
         0.00000E+00
         0.00000E+00
         0.00000E+00
         0.00000E+00
         0.00000E+00
         0.00000E+00
         0.00000E+00
         0.00000E+00
         0.00000E+00
         0.00000E+00
         0.00000E+00
         0.00000E+00
         0.00000E+00
         0.00000E+00
         0.00000E+00
         0.00000E+00
         0.00000E+00
         0.00000E+00
         0.00000E+00
         0.00000E+00
         0.00000E+00
         0.00000E+00
         0.00000E+00
         0.00000E+00
         0.00000E+00
         0.00000E+00
         0.00000E+00
         0.00000E+00
         0.00000E+00
         0.00000E+00
         0.00000E+00
         0.00000E+00
         0.00000E+00
         0.00000E+00
         0.00000E+00
         0.00000E+00
         0.00000E+00
         0.00000E+00
         0.00000E+00
         0.00000E+00
         0.00000E+00
         0.00000E+00
         0.00000E+00
         0.00000E+00
         0.00000E+00
         0.00000E+00
         0.00000E+00
         0.00000E+00
         0.00000E+00
         0.00000E+00
         0.00000E+00
         0.00000E+00
         0.00000E+00
         0.00000E+00
         0.00000E+00
         0.00000E+00
         0.00000E+00
         0.00000E+00
         0.00000E+00
         0.00000E+00
         0.00000E+00
         0.00000E+00
         0.00000E+00
         0.00000E+00
         0.00000E+00
         0.00000E+00
         0.00000E+00
         0.00000E+00
         0.00000E+00
         0.00000E+00
         0.00000E+00
         0.00000E+00
         0.00000E+00
         0.00000E+00
         0.00000E+00
         0.00000E+00
         0.00000E+00
         0.00000E+00
         0.00000E+00
         0.00000E+00
         0.00000E+00
         0.00000E+00
         0.00000E+00
         0.00000E+00
         0.00000E+00
         0.00000E+00
         0.00000E+00
         0.00000E+00
         0.00000E+00
         0.00000E+00
         0.00000E+00
         0.00000E+00
         0.00000E+00
         0.00000E+00
         0.00000E+00
         0.00000E+00
         0.00000E+00
         0.00000E+00
         0.00000E+00
         0.00000E+00
         0.00000E+00
         0.00000E+00
         0.00000E+00
         0.00000E+00
         0.00000E+00
         0.00000E+00
         0.00000E+00
         0.00000E+00
         0.00000E+00
         0.00000E+00
         0.00000E+00
         0.00000E+00
         0.00000E+00
         0.00000E+00
         0.00000E+00
         0.00000E+00
         0.00000E+00
         0.00000E+00
         0.00000E+00
         0.00000E+00
         0.00000E+00
         0.00000E+00
         0.00000E+00
         0.00000E+00
         0.00000E+00
         0.00000E+00
         0.00000E+00
         0.00000E+00
         0.00000E+00
         0.00000E+00
         0.00000E+00
         0.00000E+00
         0.00000E+00
         0.00000E+00
         0.00000E+00
         0.00000E+00
         0.00000E+00
         0.00000E+00
         0.00000E+00
         0.00000E+00
         0.00000E+00
         0.00000E+00
         0.00000E+00
         0.00000E+00
         0.00000E+00
         0.00000E+00
         0.00000E+00
         0.00000E+00
         0.00000E+00
         0.00000E+00
         0.00000E+00
         0.00000E+00
         0.00000E+00
         0.00000E+00
         0.00000E+00
         0.00000E+00
         0.00000E+00
         0.00000E+00
         0.00000E+00
         0.00000E+00
         0.00000E+00
         0.00000E+00
         0.00000E+00
         0.00000E+00
         0.00000E+00
         0.00000E+00
         0.00000E+00
         0.00000E+00
         0.00000E+00
         0.00000E+00
         0.00000E+00
         0.00000E+00
         0.00000E+00
         0.00000E+00
         0.00000E+00
         0.00000E+00
         0.00000E+00
         0.00000E+00
         0.00000E+00
         0.00000E+00
         0.00000E+00
         0.00000E+00
         0.00000E+00
         0.00000E+00
         0.00000E+00
         0.00000E+00
         0.00000E+00
         0.00000E+00
         0.00000E+00
         0.00000E+00
         0.00000E+00
         0.00000E+00
         0.00000E+00
         0.00000E+00
         0.00000E+00
         0.00000E+00
         0.00000E+00
         0.00000E+00
         0.00000E+00
         0.00000E+00
         0.00000E+00
         0.00000E+00
         0.00000E+00
         0.00000E+00
         0.00000E+00
         0.00000E+00
         0.00000E+00
         0.00000E+00
         0.00000E+00
         0.00000E+00
         0.00000E+00
         0.00000E+00
         0.00000E+00
         0.00000E+00
         0.00000E+00
         0.00000E+00
         0.00000E+00
         0.00000E+00
         0.00000E+00
         0.00000E+00
         0.00000E+00
         0.00000E+00
         0.00000E+00
         0.00000E+00
         0.00000E+00
         0.00000E+00
         0.00000E+00
         0.00000E+00
         0.00000E+00
         0.00000E+00
         0.00000E+00
         0.00000E+00
         0.00000E+00
         0.00000E+00
         0.00000E+00
         0.00000E+00
         0.00000E+00
         0.00000E+00
         0.00000E+00
         0.00000E+00
         0.00000E+00
         0.00000E+00
         0.00000E+00
         0.00000E+00
         0.00000E+00
         0.00000E+00
         0.00000E+00
         0.00000E+00
         0.00000E+00
         0.00000E+00
         0.00000E+00
         0.00000E+00
         0.00000E+00
         0.00000E+00
         0.00000E+00
         0.00000E+00
         0.00000E+00
         0.00000E+00
         0.00000E+00
         0.00000E+00
         0.00000E+00
         0.00000E+00
         0.00000E+00
         0.00000E+00
         0.00000E+00
         0.00000E+00
         0.00000E+00
         0.00000E+00
         0.00000E+00
         0.00000E+00
         0.00000E+00
         0.00000E+00
         0.00000E+00
         0.00000E+00
         0.00000E+00
         0.00000E+00
         0.00000E+00
         0.00000E+00
         0.00000E+00
         0.00000E+00
         0.00000E+00
         0.00000E+00
         0.00000E+00
         0.00000E+00
         0.00000E+00
         0.00000E+00
         0.00000E+00
         0.00000E+00
         0.00000E+00
         0.00000E+00
         0.00000E+00
         0.00000E+00
         0.00000E+00
         0.00000E+00
         0.00000E+00
         0.00000E+00
         0.00000E+00
         0.00000E+00
         0.00000E+00
         0.00000E+00
         0.00000E+00
         0.00000E+00
         0.00000E+00
         0.00000E+00
         0.00000E+00
         0.00000E+00
         0.00000E+00
         0.00000E+00
         0.00000E+00
         0.00000E+00
         0.00000E+00
         0.00000E+00
         0.00000E+00
         0.00000E+00
         0.00000E+00
         0.00000E+00
         0.00000E+00
         0.00000E+00
         0.00000E+00
         0.00000E+00
         0.00000E+00
         0.00000E+00
         0.00000E+00
         0.00000E+00
         0.00000E+00
         0.00000E+00
         0.00000E+00
         0.00000E+00
         0.00000E+00
         0.00000E+00
         0.00000E+00
         0.00000E+00
         0.00000E+00
         0.00000E+00
         0.00000E+00
         0.00000E+00
         0.00000E+00
         0.00000E+00
         0.00000E+00
         0.00000E+00
         0.00000E+00
         0.00000E+00
         0.00000E+00
         0.00000E+00
         0.00000E+00
         0.00000E+00
         0.00000E+00
         0.00000E+00
         0.00000E+00
         0.00000E+00
         0.00000E+00
         0.00000E+00
         0.00000E+00
         0.00000E+00
         0.00000E+00
         0.00000E+00
         0.00000E+00
         0.00000E+00
         0.00000E+00
         0.00000E+00
         0.00000E+00
         0.00000E+00
         0.00000E+00
         0.00000E+00
         0.00000E+00
         0.00000E+00
         0.00000E+00
         0.00000E+00
         0.00000E+00
         0.00000E+00
         0.00000E+00
         0.00000E+00
         0.00000E+00
         0.00000E+00
         0.00000E+00
         0.00000E+00
         0.00000E+00
         0.00000E+00
         0.00000E+00
         0.00000E+00
         0.00000E+00
         0.00000E+00
         0.00000E+00
         0.00000E+00
         0.00000E+00
         0.00000E+00
         0.00000E+00
         0.00000E+00
         0.00000E+00
         0.00000E+00
         0.00000E+00
         0.00000E+00
         0.00000E+00
         0.00000E+00
         0.00000E+00
         0.00000E+00
         0.00000E+00
         0.00000E+00
         0.00000E+00
         0.00000E+00
         0.00000E+00
         0.00000E+00
         0.00000E+00
         0.00000E+00
         0.00000E+00
         0.00000E+00
         0.00000E+00
         0.00000E+00
         0.00000E+00
         0.00000E+00
         0.00000E+00
         0.00000E+00
         0.00000E+00
         0.00000E+00
         0.00000E+00
         0.00000E+00
         0.00000E+00
         0.00000E+00
         0.00000E+00
         0.00000E+00
         0.00000E+00
         0.00000E+00
         0.00000E+00
         0.00000E+00
         0.00000E+00
         0.00000E+00
         0.00000E+00
         0.00000E+00
         0.00000E+00
         0.00000E+00
         0.00000E+00
         0.00000E+00
         0.00000E+00
         0.00000E+00
         0.00000E+00
         0.00000E+00
         0.00000E+00
         0.00000E+00
         0.00000E+00
         0.00000E+00
         0.00000E+00
         0.00000E+00
         0.00000E+00
         0.00000E+00
         0.00000E+00
         0.00000E+00
         0.00000E+00
         0.00000E+00
         0.00000E+00
         0.00000E+00
         0.00000E+00
         0.00000E+00
         0.00000E+00
         0.00000E+00
         0.00000E+00
         0.00000E+00
         0.00000E+00
         0.00000E+00
         0.00000E+00
         0.00000E+00
         0.00000E+00
         0.00000E+00
         0.00000E+00
         0.00000E+00
         0.00000E+00
         0.00000E+00
         0.00000E+00
         0.00000E+00
         0.00000E+00
         0.00000E+00
         0.00000E+00
         0.00000E+00
         0.00000E+00
         0.00000E+00
         0.00000E+00
         0.00000E+00
         0.00000E+00
         0.00000E+00
         0.00000E+00
         0.00000E+00
         0.00000E+00
         0.00000E+00
         0.00000E+00
         0.00000E+00
         0.00000E+00
         0.00000E+00
         0.00000E+00
         0.00000E+00
         0.00000E+00
         0.00000E+00
         0.00000E+00
         0.00000E+00
         0.00000E+00
         0.00000E+00
         0.00000E+00
         0.00000E+00
         0.00000E+00
         0.00000E+00
         0.00000E+00
         0.00000E+00
         0.00000E+00
         0.00000E+00
         0.00000E+00
         0.00000E+00
         0.00000E+00
         0.00000E+00
         0.00000E+00
         0.00000E+00
         0.00000E+00
         0.00000E+00
         0.00000E+00
         0.00000E+00
         0.00000E+00
         0.00000E+00
         0.00000E+00
         0.00000E+00
         0.00000E+00
         0.00000E+00
         0.00000E+00
         0.00000E+00
         0.00000E+00
         0.00000E+00
         0.00000E+00
         0.00000E+00
         0.00000E+00
         0.00000E+00
         0.00000E+00
         0.00000E+00
         0.00000E+00
         0.00000E+00
         0.00000E+00
         0.00000E+00
         0.00000E+00
         0.00000E+00
         0.00000E+00
         0.00000E+00
         0.00000E+00
         0.00000E+00
         0.00000E+00
         0.00000E+00
         0.00000E+00
         0.00000E+00
         0.00000E+00
         0.00000E+00
         0.00000E+00
         0.00000E+00
         0.00000E+00
         0.00000E+00
         0.00000E+00
         0.00000E+00
         0.00000E+00
         0.00000E+00
         0.00000E+00
         0.00000E+00
         0.00000E+00
         0.00000E+00
         0.00000E+00
         0.00000E+00
         0.00000E+00
         0.00000E+00
         0.00000E+00
         0.00000E+00
         0.00000E+00
         0.00000E+00
         0.00000E+00
         0.00000E+00
         0.00000E+00
         0.00000E+00
         0.00000E+00
         0.00000E+00
         0.00000E+00
         0.00000E+00
         0.00000E+00
         0.00000E+00
         0.00000E+00
         0.00000E+00
         0.00000E+00
         0.00000E+00
         0.00000E+00
         0.00000E+00
         0.00000E+00
         0.00000E+00
         0.00000E+00
         0.00000E+00
         0.00000E+00
         0.00000E+00
         0.00000E+00
         0.00000E+00
         0.00000E+00
         0.00000E+00
         0.00000E+00
         0.00000E+00
         0.00000E+00
         0.00000E+00
         0.00000E+00
         0.00000E+00
         0.00000E+00
         0.00000E+00
         0.00000E+00
         0.00000E+00
         0.00000E+00
         0.00000E+00
         0.00000E+00
         0.00000E+00
         0.00000E+00
         0.00000E+00
         0.00000E+00
         0.00000E+00
         0.00000E+00
         0.00000E+00
         0.00000E+00
         0.00000E+00
         0.00000E+00
         0.00000E+00
         0.00000E+00
         0.00000E+00
         0.00000E+00
         0.00000E+00
         0.00000E+00
         0.00000E+00
         0.00000E+00
         0.00000E+00
         0.00000E+00
         0.00000E+00
         0.00000E+00
         0.00000E+00
         0.00000E+00
         0.00000E+00
         0.00000E+00
         0.00000E+00
         0.00000E+00
         0.00000E+00
         0.00000E+00
         0.00000E+00
         0.00000E+00
         0.00000E+00
         0.00000E+00
         0.00000E+00
         0.00000E+00
         0.00000E+00
         0.00000E+00
         0.00000E+00
         0.00000E+00
         0.00000E+00
         0.00000E+00
         0.00000E+00
         0.00000E+00
         0.00000E+00
         0.00000E+00
         0.00000E+00
         0.00000E+00
         0.00000E+00
         0.00000E+00
         0.00000E+00
         0.00000E+00
         0.00000E+00
         0.00000E+00
         0.00000E+00
         0.00000E+00
         0.00000E+00
         0.00000E+00
         0.00000E+00
         0.00000E+00
         0.00000E+00
         0.00000E+00
         0.00000E+00
         0.00000E+00
         0.00000E+00
         0.00000E+00
         0.00000E+00
         0.00000E+00
         0.00000E+00
         0.00000E+00
         0.00000E+00
         0.00000E+00
         0.00000E+00
         0.00000E+00
         0.00000E+00
         0.00000E+00
         0.00000E+00
         0.00000E+00
         0.00000E+00
         0.00000E+00
         0.00000E+00
         0.00000E+00
         0.00000E+00
         0.00000E+00
         0.00000E+00
         0.00000E+00
         0.00000E+00
         0.00000E+00
         0.00000E+00
         0.00000E+00
         0.00000E+00
         0.00000E+00
         0.00000E+00
         0.00000E+00
         0.00000E+00
         0.00000E+00
         0.00000E+00
         0.00000E+00
         0.00000E+00
         0.00000E+00
         0.00000E+00
         0.00000E+00
         0.00000E+00
         0.00000E+00
         0.00000E+00
         0.00000E+00
         0.00000E+00
         0.00000E+00
         0.00000E+00
         0.00000E+00
         0.00000E+00
         0.00000E+00
         0.00000E+00
         0.00000E+00
         0.00000E+00
         0.00000E+00
         0.00000E+00
         0.00000E+00
         0.00000E+00
         0.00000E+00
         0.00000E+00
         0.00000E+00
         0.00000E+00
         0.00000E+00
         0.00000E+00
         0.00000E+00
         0.00000E+00
         0.00000E+00
         0.00000E+00
         0.00000E+00
         0.00000E+00
         0.00000E+00
         0.00000E+00
         0.00000E+00
         0.00000E+00
         0.00000E+00
         0.00000E+00
         0.00000E+00
         0.00000E+00
         0.00000E+00
         0.00000E+00
         0.00000E+00
         0.00000E+00
         0.00000E+00
         0.00000E+00
         0.00000E+00
         0.00000E+00
         0.00000E+00
         0.00000E+00
         0.00000E+00
         0.00000E+00
         0.00000E+00
         0.00000E+00
         0.00000E+00
         0.00000E+00
         0.00000E+00
         0.00000E+00
         0.00000E+00
         0.00000E+00
         0.00000E+00
         0.00000E+00
         0.00000E+00
         0.00000E+00
         0.00000E+00
         0.00000E+00
         0.00000E+00
         0.00000E+00
         0.00000E+00
         0.00000E+00
         0.00000E+00
         0.00000E+00
         0.00000E+00
         0.00000E+00
         0.00000E+00
         0.00000E+00
         0.00000E+00
         0.00000E+00
         0.00000E+00
         0.00000E+00
         0.00000E+00
         0.00000E+00
         0.00000E+00
         0.00000E+00
         0.00000E+00
         0.00000E+00
         0.00000E+00
         0.00000E+00
         0.00000E+00
         0.00000E+00
         0.00000E+00
         0.00000E+00
         0.00000E+00
         0.00000E+00
         0.00000E+00
         0.00000E+00
         0.00000E+00
         0.00000E+00
         0.00000E+00
         0.00000E+00
         0.00000E+00
         0.00000E+00
         0.00000E+00
         0.00000E+00
         0.00000E+00
         0.00000E+00
         0.00000E+00
         0.00000E+00
         0.00000E+00
         0.00000E+00
         0.00000E+00
         0.00000E+00
         0.00000E+00
         0.00000E+00
         0.00000E+00
         0.00000E+00
         0.00000E+00
         0.00000E+00
         0.00000E+00
         0.00000E+00
         0.00000E+00
         0.00000E+00
         0.00000E+00
         0.00000E+00
         0.00000E+00
         0.00000E+00
         0.00000E+00
         0.00000E+00
         0.00000E+00
         0.00000E+00
         0.00000E+00
         0.00000E+00
         0.00000E+00
         0.00000E+00
         0.00000E+00
         0.00000E+00
         0.00000E+00
         0.00000E+00
         0.00000E+00
         0.00000E+00
         0.00000E+00
         0.00000E+00
         0.00000E+00
         0.00000E+00
         0.00000E+00
         0.00000E+00
         0.00000E+00
         0.00000E+00
         0.00000E+00
         0.00000E+00
         0.00000E+00
         0.00000E+00
         0.00000E+00
         0.00000E+00
         0.00000E+00
         0.00000E+00
         0.00000E+00
         0.00000E+00
         0.00000E+00
         0.00000E+00
         0.00000E+00
         0.00000E+00
         0.00000E+00
         0.00000E+00
         0.00000E+00
         0.00000E+00
         0.00000E+00
         0.00000E+00
         0.00000E+00
         0.00000E+00
         0.00000E+00
         0.00000E+00
         0.00000E+00
         0.00000E+00
         0.00000E+00
         0.00000E+00
         0.00000E+00
         0.00000E+00
         0.00000E+00
         0.00000E+00
         0.00000E+00
         0.00000E+00
         0.00000E+00
         0.00000E+00
         0.00000E+00
         0.00000E+00
         0.00000E+00
         0.00000E+00
         0.00000E+00
         0.00000E+00
         0.00000E+00
         0.00000E+00
         0.00000E+00
         0.00000E+00
         0.00000E+00
         0.00000E+00
         0.00000E+00
         0.00000E+00
         0.00000E+00
         0.00000E+00
         0.00000E+00
         0.00000E+00
         0.00000E+00
         0.00000E+00
         0.00000E+00
         0.00000E+00
         0.00000E+00
         0.00000E+00
         0.00000E+00
         0.00000E+00
         0.00000E+00
         0.00000E+00
         0.00000E+00
         0.00000E+00
         0.00000E+00
         0.00000E+00
         0.00000E+00
         0.00000E+00
         0.00000E+00
         0.00000E+00
         0.00000E+00
         0.00000E+00
         0.00000E+00
         0.00000E+00
         0.00000E+00
         0.00000E+00
         0.00000E+00
         0.00000E+00
         0.00000E+00
         0.00000E+00
         0.00000E+00
         0.00000E+00
         0.00000E+00
         0.00000E+00
         0.00000E+00
         0.00000E+00
         0.00000E+00
         0.00000E+00
         0.00000E+00
         0.00000E+00
         0.00000E+00
         0.00000E+00
         0.00000E+00
         0.00000E+00
         0.00000E+00
  
SCALARS               pre_disp_force_y  double 1
LOOKUP_TABLE default
         0.00000E+00
         0.00000E+00
         0.00000E+00
         0.00000E+00
         0.00000E+00
         0.00000E+00
         0.00000E+00
         0.00000E+00
         0.00000E+00
         0.00000E+00
         0.00000E+00
         0.00000E+00
         0.00000E+00
         0.00000E+00
         0.00000E+00
         0.00000E+00
         0.00000E+00
         0.00000E+00
         0.00000E+00
         0.00000E+00
         0.00000E+00
         0.00000E+00
         0.00000E+00
         0.00000E+00
         0.00000E+00
         0.00000E+00
         0.00000E+00
         0.00000E+00
         0.00000E+00
         0.00000E+00
         0.00000E+00
         0.00000E+00
         0.00000E+00
         0.00000E+00
         0.00000E+00
         0.00000E+00
         0.00000E+00
         0.00000E+00
         0.00000E+00
         0.00000E+00
         0.00000E+00
         0.00000E+00
         0.00000E+00
         0.00000E+00
         0.00000E+00
         0.00000E+00
         0.00000E+00
         0.00000E+00
         0.00000E+00
         0.00000E+00
         0.00000E+00
         0.00000E+00
         0.00000E+00
         0.00000E+00
         0.00000E+00
         0.00000E+00
         0.00000E+00
         0.00000E+00
         0.00000E+00
         0.00000E+00
         0.00000E+00
         0.00000E+00
         0.00000E+00
         0.00000E+00
         0.00000E+00
         0.00000E+00
         0.00000E+00
         0.00000E+00
         0.00000E+00
         0.00000E+00
         0.00000E+00
         0.00000E+00
         0.00000E+00
         0.00000E+00
         0.00000E+00
         0.00000E+00
         0.00000E+00
         0.00000E+00
         0.00000E+00
         0.00000E+00
         0.00000E+00
         0.00000E+00
         0.00000E+00
         0.00000E+00
         0.00000E+00
         0.00000E+00
         0.00000E+00
         0.00000E+00
         0.00000E+00
         0.00000E+00
         0.00000E+00
         0.00000E+00
         0.00000E+00
         0.00000E+00
         0.00000E+00
         0.00000E+00
         0.00000E+00
         0.00000E+00
         0.00000E+00
         0.00000E+00
         0.00000E+00
         0.00000E+00
         0.00000E+00
         0.00000E+00
         0.00000E+00
         0.00000E+00
         0.00000E+00
         0.00000E+00
         0.00000E+00
         0.00000E+00
         0.00000E+00
         0.00000E+00
         0.00000E+00
         0.00000E+00
         0.00000E+00
         0.00000E+00
         0.00000E+00
         0.00000E+00
         0.00000E+00
         0.00000E+00
         0.00000E+00
         0.00000E+00
         0.00000E+00
         0.00000E+00
         0.00000E+00
         0.00000E+00
         0.00000E+00
         0.00000E+00
         0.00000E+00
         0.00000E+00
         0.00000E+00
         0.00000E+00
         0.00000E+00
         0.00000E+00
         0.00000E+00
         0.00000E+00
         0.00000E+00
         0.00000E+00
         0.00000E+00
         0.00000E+00
         0.00000E+00
         0.00000E+00
         0.00000E+00
         0.00000E+00
         0.00000E+00
         0.00000E+00
         0.00000E+00
         0.00000E+00
         0.00000E+00
         0.00000E+00
         0.00000E+00
         0.00000E+00
         0.00000E+00
         0.00000E+00
         0.00000E+00
         0.00000E+00
         0.00000E+00
         0.00000E+00
         0.00000E+00
         0.00000E+00
         0.00000E+00
         0.00000E+00
         0.00000E+00
         0.00000E+00
         0.00000E+00
         0.00000E+00
         0.00000E+00
         0.00000E+00
         0.00000E+00
         0.00000E+00
         0.00000E+00
         0.00000E+00
         0.00000E+00
         0.00000E+00
         0.00000E+00
         0.00000E+00
         0.00000E+00
         0.00000E+00
         0.00000E+00
         0.00000E+00
         0.00000E+00
         0.00000E+00
         0.00000E+00
         0.00000E+00
         0.00000E+00
         0.00000E+00
         0.00000E+00
         0.00000E+00
         0.00000E+00
         0.00000E+00
         0.00000E+00
         0.00000E+00
         0.00000E+00
         0.00000E+00
         0.00000E+00
         0.00000E+00
         0.00000E+00
         0.00000E+00
         0.00000E+00
         0.00000E+00
         0.00000E+00
         0.00000E+00
         0.00000E+00
         0.00000E+00
         0.00000E+00
         0.00000E+00
         0.00000E+00
         0.00000E+00
         0.00000E+00
         0.00000E+00
         0.00000E+00
         0.00000E+00
         0.00000E+00
         0.00000E+00
         0.00000E+00
         0.00000E+00
         0.00000E+00
         0.00000E+00
         0.00000E+00
         0.00000E+00
         0.00000E+00
         0.00000E+00
         0.00000E+00
         0.00000E+00
         0.00000E+00
         0.00000E+00
         0.00000E+00
         0.00000E+00
         0.00000E+00
         0.00000E+00
         0.00000E+00
         0.00000E+00
         0.00000E+00
         0.00000E+00
         0.00000E+00
         0.00000E+00
         0.00000E+00
         0.00000E+00
         0.00000E+00
         0.00000E+00
         0.00000E+00
         0.00000E+00
         0.00000E+00
         0.00000E+00
         0.00000E+00
         0.00000E+00
         0.00000E+00
         0.00000E+00
         0.00000E+00
         0.00000E+00
         0.00000E+00
         0.00000E+00
         0.00000E+00
         0.00000E+00
         0.00000E+00
         0.00000E+00
         0.00000E+00
         0.00000E+00
         0.00000E+00
         0.00000E+00
         0.00000E+00
         0.00000E+00
         0.00000E+00
         0.00000E+00
         0.00000E+00
         0.00000E+00
         0.00000E+00
         0.00000E+00
         0.00000E+00
         0.00000E+00
         0.00000E+00
         0.00000E+00
         0.00000E+00
         0.00000E+00
         0.00000E+00
         0.00000E+00
         0.00000E+00
         0.00000E+00
         0.00000E+00
         0.00000E+00
         0.00000E+00
         0.00000E+00
         0.00000E+00
         0.00000E+00
         0.00000E+00
         0.00000E+00
         0.00000E+00
         0.00000E+00
         0.00000E+00
         0.00000E+00
         0.00000E+00
         0.00000E+00
         0.00000E+00
         0.00000E+00
         0.00000E+00
         0.00000E+00
         0.00000E+00
         0.00000E+00
         0.00000E+00
         0.00000E+00
         0.00000E+00
         0.00000E+00
         0.00000E+00
         0.00000E+00
         0.00000E+00
         0.00000E+00
         0.00000E+00
         0.00000E+00
         0.00000E+00
         0.00000E+00
         0.00000E+00
         0.00000E+00
         0.00000E+00
         0.00000E+00
         0.00000E+00
         0.00000E+00
         0.00000E+00
         0.00000E+00
         0.00000E+00
         0.00000E+00
         0.00000E+00
         0.00000E+00
         0.00000E+00
         0.00000E+00
         0.00000E+00
         0.00000E+00
         0.00000E+00
         0.00000E+00
         0.00000E+00
         0.00000E+00
         0.00000E+00
         0.00000E+00
         0.00000E+00
         0.00000E+00
         0.00000E+00
         0.00000E+00
         0.00000E+00
         0.00000E+00
         0.00000E+00
         0.00000E+00
         0.00000E+00
         0.00000E+00
         0.00000E+00
         0.00000E+00
         0.00000E+00
         0.00000E+00
         0.00000E+00
         0.00000E+00
         0.00000E+00
         0.00000E+00
         0.00000E+00
         0.00000E+00
         0.00000E+00
         0.00000E+00
         0.00000E+00
         0.00000E+00
         0.00000E+00
         0.00000E+00
         0.00000E+00
         0.00000E+00
         0.00000E+00
         0.00000E+00
         0.00000E+00
         0.00000E+00
         0.00000E+00
         0.00000E+00
         0.00000E+00
         0.00000E+00
         0.00000E+00
         0.00000E+00
         0.00000E+00
         0.00000E+00
         0.00000E+00
         0.00000E+00
         0.00000E+00
         0.00000E+00
         0.00000E+00
         0.00000E+00
         0.00000E+00
         0.00000E+00
         0.00000E+00
         0.00000E+00
         0.00000E+00
         0.00000E+00
         0.00000E+00
         0.00000E+00
         0.00000E+00
         0.00000E+00
         0.00000E+00
         0.00000E+00
         0.00000E+00
         0.00000E+00
         0.00000E+00
         0.00000E+00
         0.00000E+00
         0.00000E+00
         0.00000E+00
         0.00000E+00
         0.00000E+00
         0.00000E+00
         0.00000E+00
         0.00000E+00
         0.00000E+00
         0.00000E+00
         0.00000E+00
         0.00000E+00
         0.00000E+00
         0.00000E+00
         0.00000E+00
         0.00000E+00
         0.00000E+00
         0.00000E+00
         0.00000E+00
         0.00000E+00
         0.00000E+00
         0.00000E+00
         0.00000E+00
         0.00000E+00
         0.00000E+00
         0.00000E+00
         0.00000E+00
         0.00000E+00
         0.00000E+00
         0.00000E+00
         0.00000E+00
         0.00000E+00
         0.00000E+00
         0.00000E+00
         0.00000E+00
         0.00000E+00
         0.00000E+00
         0.00000E+00
         0.00000E+00
         0.00000E+00
         0.00000E+00
         0.00000E+00
         0.00000E+00
         0.00000E+00
         0.00000E+00
         0.00000E+00
         0.00000E+00
         0.00000E+00
         0.00000E+00
         0.00000E+00
         0.00000E+00
         0.00000E+00
         0.00000E+00
         0.00000E+00
         0.00000E+00
         0.00000E+00
         0.00000E+00
         0.00000E+00
         0.00000E+00
         0.00000E+00
         0.00000E+00
         0.00000E+00
         0.00000E+00
         0.00000E+00
         0.00000E+00
         0.00000E+00
         0.00000E+00
         0.00000E+00
         0.00000E+00
         0.00000E+00
         0.00000E+00
         0.00000E+00
         0.00000E+00
         0.00000E+00
         0.00000E+00
         0.00000E+00
         0.00000E+00
         0.00000E+00
         0.00000E+00
         0.00000E+00
         0.00000E+00
         0.00000E+00
         0.00000E+00
         0.00000E+00
         0.00000E+00
         0.00000E+00
         0.00000E+00
         0.00000E+00
         0.00000E+00
         0.00000E+00
         0.00000E+00
         0.00000E+00
         0.00000E+00
         0.00000E+00
         0.00000E+00
         0.00000E+00
         0.00000E+00
         0.00000E+00
         0.00000E+00
         0.00000E+00
         0.00000E+00
         0.00000E+00
         0.00000E+00
         0.00000E+00
         0.00000E+00
         0.00000E+00
         0.00000E+00
         0.00000E+00
         0.00000E+00
         0.00000E+00
         0.00000E+00
         0.00000E+00
         0.00000E+00
         0.00000E+00
         0.00000E+00
         0.00000E+00
         0.00000E+00
         0.00000E+00
         0.00000E+00
         0.00000E+00
         0.00000E+00
         0.00000E+00
         0.00000E+00
         0.00000E+00
         0.00000E+00
         0.00000E+00
         0.00000E+00
         0.00000E+00
         0.00000E+00
         0.00000E+00
         0.00000E+00
         0.00000E+00
         0.00000E+00
         0.00000E+00
         0.00000E+00
         0.00000E+00
         0.00000E+00
         0.00000E+00
         0.00000E+00
         0.00000E+00
         0.00000E+00
         0.00000E+00
         0.00000E+00
         0.00000E+00
         0.00000E+00
         0.00000E+00
         0.00000E+00
         0.00000E+00
         0.00000E+00
         0.00000E+00
         0.00000E+00
         0.00000E+00
         0.00000E+00
         0.00000E+00
         0.00000E+00
         0.00000E+00
         0.00000E+00
         0.00000E+00
         0.00000E+00
         0.00000E+00
         0.00000E+00
         0.00000E+00
         0.00000E+00
         0.00000E+00
         0.00000E+00
         0.00000E+00
         0.00000E+00
         0.00000E+00
         0.00000E+00
         0.00000E+00
         0.00000E+00
         0.00000E+00
         0.00000E+00
         0.00000E+00
         0.00000E+00
         0.00000E+00
         0.00000E+00
         0.00000E+00
         0.00000E+00
         0.00000E+00
         0.00000E+00
         0.00000E+00
         0.00000E+00
         0.00000E+00
         0.00000E+00
         0.00000E+00
         0.00000E+00
         0.00000E+00
         0.00000E+00
         0.00000E+00
         0.00000E+00
         0.00000E+00
         0.00000E+00
         0.00000E+00
         0.00000E+00
         0.00000E+00
         0.00000E+00
         0.00000E+00
         0.00000E+00
         0.00000E+00
         0.00000E+00
         0.00000E+00
         0.00000E+00
         0.00000E+00
         0.00000E+00
         0.00000E+00
         0.00000E+00
         0.00000E+00
         0.00000E+00
         0.00000E+00
         0.00000E+00
         0.00000E+00
         0.00000E+00
         0.00000E+00
         0.00000E+00
         0.00000E+00
         0.00000E+00
         0.00000E+00
         0.00000E+00
         0.00000E+00
         0.00000E+00
         0.00000E+00
         0.00000E+00
         0.00000E+00
         0.00000E+00
         0.00000E+00
         0.00000E+00
         0.00000E+00
         0.00000E+00
         0.00000E+00
         0.00000E+00
         0.00000E+00
         0.00000E+00
         0.00000E+00
         0.00000E+00
         0.00000E+00
         0.00000E+00
         0.00000E+00
         0.00000E+00
         0.00000E+00
         0.00000E+00
         0.00000E+00
         0.00000E+00
         0.00000E+00
         0.00000E+00
         0.00000E+00
         0.00000E+00
         0.00000E+00
         0.00000E+00
         0.00000E+00
         0.00000E+00
         0.00000E+00
         0.00000E+00
         0.00000E+00
         0.00000E+00
         0.00000E+00
         0.00000E+00
         0.00000E+00
         0.00000E+00
         0.00000E+00
         0.00000E+00
         0.00000E+00
         0.00000E+00
         0.00000E+00
         0.00000E+00
         0.00000E+00
         0.00000E+00
         0.00000E+00
         0.00000E+00
         0.00000E+00
         0.00000E+00
         0.00000E+00
         0.00000E+00
         0.00000E+00
         0.00000E+00
         0.00000E+00
         0.00000E+00
         0.00000E+00
         0.00000E+00
         0.00000E+00
         0.00000E+00
         0.00000E+00
         0.00000E+00
         0.00000E+00
         0.00000E+00
         0.00000E+00
         0.00000E+00
         0.00000E+00
         0.00000E+00
         0.00000E+00
         0.00000E+00
         0.00000E+00
         0.00000E+00
         0.00000E+00
         0.00000E+00
         0.00000E+00
         0.00000E+00
         0.00000E+00
         0.00000E+00
         0.00000E+00
         0.00000E+00
         0.00000E+00
         0.00000E+00
         0.00000E+00
         0.00000E+00
         0.00000E+00
         0.00000E+00
         0.00000E+00
         0.00000E+00
         0.00000E+00
         0.00000E+00
         0.00000E+00
         0.00000E+00
         0.00000E+00
         0.00000E+00
         0.00000E+00
         0.00000E+00
         0.00000E+00
         0.00000E+00
         0.00000E+00
         0.00000E+00
         0.00000E+00
         0.00000E+00
         0.00000E+00
         0.00000E+00
         0.00000E+00
         0.00000E+00
         0.00000E+00
         0.00000E+00
         0.00000E+00
         0.00000E+00
         0.00000E+00
         0.00000E+00
         0.00000E+00
         0.00000E+00
         0.00000E+00
         0.00000E+00
         0.00000E+00
         0.00000E+00
         0.00000E+00
         0.00000E+00
         0.00000E+00
         0.00000E+00
         0.00000E+00
         0.00000E+00
         0.00000E+00
         0.00000E+00
         0.00000E+00
         0.00000E+00
         0.00000E+00
         0.00000E+00
         0.00000E+00
         0.00000E+00
         0.00000E+00
         0.00000E+00
         0.00000E+00
         0.00000E+00
         0.00000E+00
         0.00000E+00
         0.00000E+00
         0.00000E+00
         0.00000E+00
         0.00000E+00
         0.00000E+00
         0.00000E+00
         0.00000E+00
         0.00000E+00
         0.00000E+00
         0.00000E+00
         0.00000E+00
         0.00000E+00
         0.00000E+00
         0.00000E+00
         0.00000E+00
         0.00000E+00
         0.00000E+00
         0.00000E+00
         0.00000E+00
         0.00000E+00
         0.00000E+00
         0.00000E+00
         0.00000E+00
         0.00000E+00
         0.00000E+00
         0.00000E+00
         0.00000E+00
         0.00000E+00
         0.00000E+00
         0.00000E+00
         0.00000E+00
         0.00000E+00
         0.00000E+00
         0.00000E+00
         0.00000E+00
         0.00000E+00
         0.00000E+00
         0.00000E+00
         0.00000E+00
         0.00000E+00
         0.00000E+00
         0.00000E+00
         0.00000E+00
         0.00000E+00
         0.00000E+00
         0.00000E+00
         0.00000E+00
         0.00000E+00
         0.00000E+00
         0.00000E+00
         0.00000E+00
         0.00000E+00
         0.00000E+00
         0.00000E+00
         0.00000E+00
         0.00000E+00
         0.00000E+00
         0.00000E+00
         0.00000E+00
         0.00000E+00
         0.00000E+00
         0.00000E+00
         0.00000E+00
         0.00000E+00
         0.00000E+00
         0.00000E+00
         0.00000E+00
         0.00000E+00
         0.00000E+00
         0.00000E+00
         0.00000E+00
         0.00000E+00
         0.00000E+00
         0.00000E+00
         0.00000E+00
         0.00000E+00
         0.00000E+00
         0.00000E+00
         0.00000E+00
         0.00000E+00
         0.00000E+00
         0.00000E+00
         0.00000E+00
         0.00000E+00
         0.00000E+00
         0.00000E+00
         0.00000E+00
         0.00000E+00
         0.00000E+00
         0.00000E+00
         0.00000E+00
         0.00000E+00
         0.00000E+00
         0.00000E+00
         0.00000E+00
         0.00000E+00
         0.00000E+00
         0.00000E+00
         0.00000E+00
         0.00000E+00
         0.00000E+00
         0.00000E+00
         0.00000E+00
         0.00000E+00
         0.00000E+00
         0.00000E+00
         0.00000E+00
         0.00000E+00
         0.00000E+00
         0.00000E+00
         0.00000E+00
         0.00000E+00
         0.00000E+00
         0.00000E+00
         0.00000E+00
         0.00000E+00
         0.00000E+00
         0.00000E+00
         0.00000E+00
         0.00000E+00
         0.00000E+00
         0.00000E+00
         0.00000E+00
         0.00000E+00
         0.00000E+00
         0.00000E+00
         0.00000E+00
         0.00000E+00
         0.00000E+00
         0.00000E+00
         0.00000E+00
         0.00000E+00
         0.00000E+00
         0.00000E+00
         0.00000E+00
         0.00000E+00
         0.00000E+00
         0.00000E+00
         0.00000E+00
         0.00000E+00
         0.00000E+00
         0.00000E+00
         0.00000E+00
         0.00000E+00
         0.00000E+00
         0.00000E+00
         0.00000E+00
         0.00000E+00
         0.00000E+00
         0.00000E+00
         0.00000E+00
         0.00000E+00
         0.00000E+00
         0.00000E+00
         0.00000E+00
         0.00000E+00
         0.00000E+00
         0.00000E+00
         0.00000E+00
         0.00000E+00
         0.00000E+00
         0.00000E+00
         0.00000E+00
         0.00000E+00
         0.00000E+00
         0.00000E+00
         0.00000E+00
         0.00000E+00
         0.00000E+00
         0.00000E+00
         0.00000E+00
         0.00000E+00
         0.00000E+00
         0.00000E+00
         0.00000E+00
         0.00000E+00
         0.00000E+00
         0.00000E+00
         0.00000E+00
         0.00000E+00
         0.00000E+00
         0.00000E+00
         0.00000E+00
         0.00000E+00
         0.00000E+00
         0.00000E+00
         0.00000E+00
         0.00000E+00
         0.00000E+00
         0.00000E+00
         0.00000E+00
         0.00000E+00
         0.00000E+00
         0.00000E+00
         0.00000E+00
         0.00000E+00
         0.00000E+00
         0.00000E+00
         0.00000E+00
         0.00000E+00
         0.00000E+00
         0.00000E+00
         0.00000E+00
         0.00000E+00
         0.00000E+00
         0.00000E+00
         0.00000E+00
         0.00000E+00
         0.00000E+00
         0.00000E+00
         0.00000E+00
         0.00000E+00
         0.00000E+00
         0.00000E+00
         0.00000E+00
         0.00000E+00
         0.00000E+00
         0.00000E+00
         0.00000E+00
         0.00000E+00
         0.00000E+00
         0.00000E+00
         0.00000E+00
         0.00000E+00
         0.00000E+00
         0.00000E+00
         0.00000E+00
         0.00000E+00
         0.00000E+00
         0.00000E+00
         0.00000E+00
         0.00000E+00
         0.00000E+00
         0.00000E+00
         0.00000E+00
         0.00000E+00
         0.00000E+00
         0.00000E+00
         0.00000E+00
         0.00000E+00
         0.00000E+00
         0.00000E+00
         0.00000E+00
         0.00000E+00
         0.00000E+00
         0.00000E+00
         0.00000E+00
         0.00000E+00
         0.00000E+00
         0.00000E+00
         0.00000E+00
         0.00000E+00
         0.00000E+00
         0.00000E+00
         0.00000E+00
         0.00000E+00
         0.00000E+00
         0.00000E+00
         0.00000E+00
         0.00000E+00
         0.00000E+00
         0.00000E+00
         0.00000E+00
         0.00000E+00
         0.00000E+00
         0.00000E+00
         0.00000E+00
         0.00000E+00
         0.00000E+00
         0.00000E+00
         0.00000E+00
         0.00000E+00
         0.00000E+00
         0.00000E+00
         0.00000E+00
         0.00000E+00
         0.00000E+00
         0.00000E+00
         0.00000E+00
         0.00000E+00
         0.00000E+00
         0.00000E+00
         0.00000E+00
         0.00000E+00
         0.00000E+00
         0.00000E+00
         0.00000E+00
         0.00000E+00
         0.00000E+00
         0.00000E+00
         0.00000E+00
         0.00000E+00
         0.00000E+00
         0.00000E+00
         0.00000E+00
         0.00000E+00
         0.00000E+00
         0.00000E+00
         0.00000E+00
         0.00000E+00
         0.00000E+00
         0.00000E+00
         0.00000E+00
         0.00000E+00
         0.00000E+00
         0.00000E+00
         0.00000E+00
         0.00000E+00
         0.00000E+00
         0.00000E+00
         0.00000E+00
         0.00000E+00
         0.00000E+00
         0.00000E+00
         0.00000E+00
         0.00000E+00
         0.00000E+00
         0.00000E+00
         0.00000E+00
         0.00000E+00
         0.00000E+00
         0.00000E+00
         0.00000E+00
         0.00000E+00
         0.00000E+00
         0.00000E+00
         0.00000E+00
         0.00000E+00
         0.00000E+00
         0.00000E+00
         0.00000E+00
         0.00000E+00
         0.00000E+00
         0.00000E+00
         0.00000E+00
         0.00000E+00
         0.00000E+00
         0.00000E+00
         0.00000E+00
         0.00000E+00
         0.00000E+00
         0.00000E+00
         0.00000E+00
         0.00000E+00
         0.00000E+00
         0.00000E+00
         0.00000E+00
         0.00000E+00
         0.00000E+00
         0.00000E+00
         0.00000E+00
         0.00000E+00
         0.00000E+00
         0.00000E+00
         0.00000E+00
         0.00000E+00
         0.00000E+00
         0.00000E+00
         0.00000E+00
         0.00000E+00
         0.00000E+00
         0.00000E+00
         0.00000E+00
         0.00000E+00
         0.00000E+00
         0.00000E+00
         0.00000E+00
         0.00000E+00
         0.00000E+00
         0.00000E+00
         0.00000E+00
         0.00000E+00
         0.00000E+00
         0.00000E+00
         0.00000E+00
         0.00000E+00
         0.00000E+00
         0.00000E+00
         0.00000E+00
         0.00000E+00
         0.00000E+00
         0.00000E+00
         0.00000E+00
         0.00000E+00
         0.00000E+00
         0.00000E+00
         0.00000E+00
         0.00000E+00
         0.00000E+00
         0.00000E+00
         0.00000E+00
         0.00000E+00
         0.00000E+00
         0.00000E+00
         0.00000E+00
         0.00000E+00
         0.00000E+00
         0.00000E+00
         0.00000E+00
         0.00000E+00
         0.00000E+00
         0.00000E+00
         0.00000E+00
         0.00000E+00
         0.00000E+00
         0.00000E+00
         0.00000E+00
         0.00000E+00
         0.00000E+00
         0.00000E+00
         0.00000E+00
         0.00000E+00
         0.00000E+00
         0.00000E+00
         0.00000E+00
         0.00000E+00
         0.00000E+00
         0.00000E+00
         0.00000E+00
         0.00000E+00
         0.00000E+00
         0.00000E+00
         0.00000E+00
         0.00000E+00
         0.00000E+00
         0.00000E+00
         0.00000E+00
         0.00000E+00
         0.00000E+00
         0.00000E+00
         0.00000E+00
         0.00000E+00
         0.00000E+00
         0.00000E+00
         0.00000E+00
         0.00000E+00
         0.00000E+00
         0.00000E+00
         0.00000E+00
         0.00000E+00
         0.00000E+00
         0.00000E+00
         0.00000E+00
         0.00000E+00
         0.00000E+00
         0.00000E+00
         0.00000E+00
         0.00000E+00
         0.00000E+00
         0.00000E+00
         0.00000E+00
         0.00000E+00
         0.00000E+00
         0.00000E+00
         0.00000E+00
         0.00000E+00
         0.00000E+00
         0.00000E+00
         0.00000E+00
         0.00000E+00
         0.00000E+00
         0.00000E+00
         0.00000E+00
         0.00000E+00
         0.00000E+00
         0.00000E+00
         0.00000E+00
         0.00000E+00
         0.00000E+00
         0.00000E+00
         0.00000E+00
         0.00000E+00
         0.00000E+00
         0.00000E+00
         0.00000E+00
         0.00000E+00
         0.00000E+00
         0.00000E+00
         0.00000E+00
         0.00000E+00
         0.00000E+00
         0.00000E+00
         0.00000E+00
         0.00000E+00
         0.00000E+00
         0.00000E+00
         0.00000E+00
         0.00000E+00
         0.00000E+00
         0.00000E+00
         0.00000E+00
         0.00000E+00
         0.00000E+00
         0.00000E+00
         0.00000E+00
         0.00000E+00
         0.00000E+00
         0.00000E+00
         0.00000E+00
         0.00000E+00
         0.00000E+00
         0.00000E+00
         0.00000E+00
         0.00000E+00
         0.00000E+00
         0.00000E+00
         0.00000E+00
         0.00000E+00
         0.00000E+00
         0.00000E+00
         0.00000E+00
         0.00000E+00
         0.00000E+00
         0.00000E+00
         0.00000E+00
         0.00000E+00
         0.00000E+00
         0.00000E+00
         0.00000E+00
         0.00000E+00
         0.00000E+00
         0.00000E+00
         0.00000E+00
         0.00000E+00
         0.00000E+00
         0.00000E+00
         0.00000E+00
         0.00000E+00
         0.00000E+00
         0.00000E+00
         0.00000E+00
         0.00000E+00
         0.00000E+00
         0.00000E+00
         0.00000E+00
         0.00000E+00
         0.00000E+00
         0.00000E+00
         0.00000E+00
         0.00000E+00
         0.00000E+00
         0.00000E+00
         0.00000E+00
         0.00000E+00
         0.00000E+00
         0.00000E+00
         0.00000E+00
         0.00000E+00
         0.00000E+00
         0.00000E+00
         0.00000E+00
         0.00000E+00
         0.00000E+00
         0.00000E+00
         0.00000E+00
         0.00000E+00
         0.00000E+00
         0.00000E+00
         0.00000E+00
         0.00000E+00
         0.00000E+00
         0.00000E+00
         0.00000E+00
         0.00000E+00
         0.00000E+00
         0.00000E+00
         0.00000E+00
         0.00000E+00
         0.00000E+00
         0.00000E+00
         0.00000E+00
         0.00000E+00
         0.00000E+00
         0.00000E+00
         0.00000E+00
         0.00000E+00
         0.00000E+00
         0.00000E+00
         0.00000E+00
         0.00000E+00
         0.00000E+00
         0.00000E+00
         0.00000E+00
         0.00000E+00
         0.00000E+00
         0.00000E+00
         0.00000E+00
         0.00000E+00
         0.00000E+00
         0.00000E+00
         0.00000E+00
         0.00000E+00
         0.00000E+00
         0.00000E+00
         0.00000E+00
         0.00000E+00
         0.00000E+00
         0.00000E+00
         0.00000E+00
         0.00000E+00
         0.00000E+00
         0.00000E+00
         0.00000E+00
         0.00000E+00
         0.00000E+00
         0.00000E+00
         0.00000E+00
         0.00000E+00
         0.00000E+00
         0.00000E+00
         0.00000E+00
         0.00000E+00
         0.00000E+00
         0.00000E+00
         0.00000E+00
         0.00000E+00
         0.00000E+00
         0.00000E+00
         0.00000E+00
         0.00000E+00
         0.00000E+00
         0.00000E+00
         0.00000E+00
         0.00000E+00
         0.00000E+00
         0.00000E+00
         0.00000E+00
         0.00000E+00
         0.00000E+00
         0.00000E+00
         0.00000E+00
         0.00000E+00
         0.00000E+00
         0.00000E+00
         0.00000E+00
         0.00000E+00
         0.00000E+00
         0.00000E+00
         0.00000E+00
         0.00000E+00
         0.00000E+00
         0.00000E+00
         0.00000E+00
         0.00000E+00
         0.00000E+00
         0.00000E+00
         0.00000E+00
         0.00000E+00
         0.00000E+00
         0.00000E+00
         0.00000E+00
         0.00000E+00
         0.00000E+00
         0.00000E+00
         0.00000E+00
         0.00000E+00
         0.00000E+00
         0.00000E+00
         0.00000E+00
         0.00000E+00
         0.00000E+00
         0.00000E+00
         0.00000E+00
         0.00000E+00
         0.00000E+00
         0.00000E+00
         0.00000E+00
         0.00000E+00
         0.00000E+00
         0.00000E+00
         0.00000E+00
         0.00000E+00
         0.00000E+00
         0.00000E+00
         0.00000E+00
         0.00000E+00
         0.00000E+00
         0.00000E+00
         0.00000E+00
         0.00000E+00
         0.00000E+00
         0.00000E+00
         0.00000E+00
         0.00000E+00
         0.00000E+00
         0.00000E+00
         0.00000E+00
         0.00000E+00
         0.00000E+00
         0.00000E+00
         0.00000E+00
         0.00000E+00
         0.00000E+00
         0.00000E+00
         0.00000E+00
         0.00000E+00
         0.00000E+00
         0.00000E+00
         0.00000E+00
         0.00000E+00
         0.00000E+00
         0.00000E+00
         0.00000E+00
         0.00000E+00
         0.00000E+00
         0.00000E+00
         0.00000E+00
         0.00000E+00
         0.00000E+00
         0.00000E+00
         0.00000E+00
         0.00000E+00
         0.00000E+00
         0.00000E+00
         0.00000E+00
         0.00000E+00
         0.00000E+00
         0.00000E+00
         0.00000E+00
         0.00000E+00
         0.00000E+00
         0.00000E+00
         0.00000E+00
         0.00000E+00
         0.00000E+00
         0.00000E+00
         0.00000E+00
         0.00000E+00
         0.00000E+00
         0.00000E+00
         0.00000E+00
         0.00000E+00
         0.00000E+00
         0.00000E+00
         0.00000E+00
         0.00000E+00
         0.00000E+00
         0.00000E+00
         0.00000E+00
         0.00000E+00
         0.00000E+00
         0.00000E+00
         0.00000E+00
         0.00000E+00
         0.00000E+00
         0.00000E+00
         0.00000E+00
         0.00000E+00
         0.00000E+00
         0.00000E+00
         0.00000E+00
         0.00000E+00
         0.00000E+00
         0.00000E+00
         0.00000E+00
         0.00000E+00
         0.00000E+00
         0.00000E+00
         0.00000E+00
         0.00000E+00
         0.00000E+00
         0.00000E+00
         0.00000E+00
         0.00000E+00
         0.00000E+00
         0.00000E+00
         0.00000E+00
         0.00000E+00
         0.00000E+00
         0.00000E+00
         0.00000E+00
         0.00000E+00
         0.00000E+00
         0.00000E+00
         0.00000E+00
         0.00000E+00
         0.00000E+00
         0.00000E+00
         0.00000E+00
         0.00000E+00
         0.00000E+00
         0.00000E+00
         0.00000E+00
         0.00000E+00
         0.00000E+00
         0.00000E+00
         0.00000E+00
         0.00000E+00
         0.00000E+00
         0.00000E+00
         0.00000E+00
         0.00000E+00
         0.00000E+00
         0.00000E+00
         0.00000E+00
         0.00000E+00
         0.00000E+00
         0.00000E+00
         0.00000E+00
         0.00000E+00
         0.00000E+00
         0.00000E+00
         0.00000E+00
         0.00000E+00
         0.00000E+00
         0.00000E+00
         0.00000E+00
         0.00000E+00
         0.00000E+00
         0.00000E+00
         0.00000E+00
         0.00000E+00
         0.00000E+00
         0.00000E+00
         0.00000E+00
         0.00000E+00
         0.00000E+00
         0.00000E+00
         0.00000E+00
         0.00000E+00
         0.00000E+00
         0.00000E+00
         0.00000E+00
         0.00000E+00
         0.00000E+00
         0.00000E+00
         0.00000E+00
         0.00000E+00
         0.00000E+00
         0.00000E+00
         0.00000E+00
         0.00000E+00
         0.00000E+00
         0.00000E+00
         0.00000E+00
         0.00000E+00
         0.00000E+00
         0.00000E+00
         0.00000E+00
         0.00000E+00
         0.00000E+00
         0.00000E+00
         0.00000E+00
         0.00000E+00
         0.00000E+00
         0.00000E+00
         0.00000E+00
         0.00000E+00
         0.00000E+00
         0.00000E+00
         0.00000E+00
         0.00000E+00
         0.00000E+00
         0.00000E+00
         0.00000E+00
         0.00000E+00
         0.00000E+00
         0.00000E+00
         0.00000E+00
         0.00000E+00
         0.00000E+00
         0.00000E+00
         0.00000E+00
         0.00000E+00
         0.00000E+00
         0.00000E+00
         0.00000E+00
         0.00000E+00
         0.00000E+00
         0.00000E+00
         0.00000E+00
         0.00000E+00
         0.00000E+00
         0.00000E+00
         0.00000E+00
         0.00000E+00
         0.00000E+00
         0.00000E+00
         0.00000E+00
         0.00000E+00
         0.00000E+00
         0.00000E+00
         0.00000E+00
         0.00000E+00
         0.00000E+00
         0.00000E+00
         0.00000E+00
         0.00000E+00
         0.00000E+00
         0.00000E+00
         0.00000E+00
         0.00000E+00
         0.00000E+00
         0.00000E+00
         0.00000E+00
         0.00000E+00
         0.00000E+00
         0.00000E+00
         0.00000E+00
         0.00000E+00
         0.00000E+00
         0.00000E+00
         0.00000E+00
         0.00000E+00
         0.00000E+00
         0.00000E+00
         0.00000E+00
         0.00000E+00
         0.00000E+00
         0.00000E+00
         0.00000E+00
         0.00000E+00
         0.00000E+00
         0.00000E+00
         0.00000E+00
         0.00000E+00
         0.00000E+00
         0.00000E+00
         0.00000E+00
         0.00000E+00
         0.00000E+00
         0.00000E+00
         0.00000E+00
         0.00000E+00
         0.00000E+00
         0.00000E+00
         0.00000E+00
         0.00000E+00
         0.00000E+00
         0.00000E+00
         0.00000E+00
         0.00000E+00
         0.00000E+00
         0.00000E+00
         0.00000E+00
         0.00000E+00
         0.00000E+00
         0.00000E+00
         0.00000E+00
         0.00000E+00
         0.00000E+00
         0.00000E+00
         0.00000E+00
         0.00000E+00
         0.00000E+00
         0.00000E+00
         0.00000E+00
         0.00000E+00
         0.00000E+00
         0.00000E+00
         0.00000E+00
         0.00000E+00
         0.00000E+00
         0.00000E+00
         0.00000E+00
         0.00000E+00
         0.00000E+00
         0.00000E+00
         0.00000E+00
         0.00000E+00
         0.00000E+00
         0.00000E+00
         0.00000E+00
         0.00000E+00
         0.00000E+00
         0.00000E+00
         0.00000E+00
         0.00000E+00
         0.00000E+00
         0.00000E+00
         0.00000E+00
         0.00000E+00
         0.00000E+00
         0.00000E+00
         0.00000E+00
         0.00000E+00
         0.00000E+00
         0.00000E+00
         0.00000E+00
         0.00000E+00
         0.00000E+00
         0.00000E+00
         0.00000E+00
         0.00000E+00
         0.00000E+00
         0.00000E+00
         0.00000E+00
         0.00000E+00
         0.00000E+00
         0.00000E+00
         0.00000E+00
         0.00000E+00
         0.00000E+00
         0.00000E+00
         0.00000E+00
         0.00000E+00
         0.00000E+00
         0.00000E+00
         0.00000E+00
         0.00000E+00
         0.00000E+00
         0.00000E+00
         0.00000E+00
         0.00000E+00
         0.00000E+00
         0.00000E+00
         0.00000E+00
         0.00000E+00
         0.00000E+00
         0.00000E+00
         0.00000E+00
         0.00000E+00
         0.00000E+00
         0.00000E+00
         0.00000E+00
         0.00000E+00
         0.00000E+00
         0.00000E+00
         0.00000E+00
         0.00000E+00
         0.00000E+00
         0.00000E+00
         0.00000E+00
         0.00000E+00
         0.00000E+00
         0.00000E+00
         0.00000E+00
         0.00000E+00
         0.00000E+00
         0.00000E+00
         0.00000E+00
         0.00000E+00
         0.00000E+00
         0.00000E+00
         0.00000E+00
         0.00000E+00
         0.00000E+00
         0.00000E+00
         0.00000E+00
         0.00000E+00
         0.00000E+00
         0.00000E+00
         0.00000E+00
         0.00000E+00
         0.00000E+00
         0.00000E+00
         0.00000E+00
         0.00000E+00
         0.00000E+00
         0.00000E+00
         0.00000E+00
         0.00000E+00
         0.00000E+00
         0.00000E+00
         0.00000E+00
         0.00000E+00
         0.00000E+00
         0.00000E+00
         0.00000E+00
         0.00000E+00
         0.00000E+00
         0.00000E+00
         0.00000E+00
         0.00000E+00
         0.00000E+00
         0.00000E+00
         0.00000E+00
         0.00000E+00
         0.00000E+00
         0.00000E+00
         0.00000E+00
         0.00000E+00
         0.00000E+00
         0.00000E+00
         0.00000E+00
         0.00000E+00
         0.00000E+00
         0.00000E+00
         0.00000E+00
         0.00000E+00
         0.00000E+00
         0.00000E+00
         0.00000E+00
         0.00000E+00
         0.00000E+00
         0.00000E+00
         0.00000E+00
         0.00000E+00
         0.00000E+00
         0.00000E+00
         0.00000E+00
         0.00000E+00
         0.00000E+00
         0.00000E+00
         0.00000E+00
         0.00000E+00
         0.00000E+00
         0.00000E+00
         0.00000E+00
         0.00000E+00
         0.00000E+00
         0.00000E+00
         0.00000E+00
         0.00000E+00
         0.00000E+00
         0.00000E+00
         0.00000E+00
         0.00000E+00
         0.00000E+00
         0.00000E+00
         0.00000E+00
         0.00000E+00
         0.00000E+00
         0.00000E+00
         0.00000E+00
         0.00000E+00
         0.00000E+00
         0.00000E+00
         0.00000E+00
         0.00000E+00
         0.00000E+00
         0.00000E+00
         0.00000E+00
         0.00000E+00
         0.00000E+00
         0.00000E+00
         0.00000E+00
         0.00000E+00
         0.00000E+00
         0.00000E+00
         0.00000E+00
         0.00000E+00
         0.00000E+00
         0.00000E+00
         0.00000E+00
         0.00000E+00
         0.00000E+00
         0.00000E+00
         0.00000E+00
         0.00000E+00
         0.00000E+00
         0.00000E+00
         0.00000E+00
         0.00000E+00
         0.00000E+00
         0.00000E+00
         0.00000E+00
         0.00000E+00
         0.00000E+00
         0.00000E+00
         0.00000E+00
         0.00000E+00
         0.00000E+00
         0.00000E+00
         0.00000E+00
         0.00000E+00
         0.00000E+00
         0.00000E+00
         0.00000E+00
         0.00000E+00
         0.00000E+00
         0.00000E+00
         0.00000E+00
         0.00000E+00
         0.00000E+00
         0.00000E+00
         0.00000E+00
         0.00000E+00
         0.00000E+00
         0.00000E+00
         0.00000E+00
         0.00000E+00
         0.00000E+00
         0.00000E+00
         0.00000E+00
         0.00000E+00
         0.00000E+00
         0.00000E+00
         0.00000E+00
         0.00000E+00
         0.00000E+00
         0.00000E+00
         0.00000E+00
         0.00000E+00
         0.00000E+00
         0.00000E+00
         0.00000E+00
         0.00000E+00
         0.00000E+00
         0.00000E+00
         0.00000E+00
         0.00000E+00
         0.00000E+00
         0.00000E+00
         0.00000E+00
         0.00000E+00
         0.00000E+00
  
SCALARS               pre_disp_force_z  double 1
LOOKUP_TABLE default
         0.00000E+00
         0.00000E+00
         0.00000E+00
         0.00000E+00
        -0.00000E+00
        -0.00000E+00
        -0.00000E+00
        -0.00000E+00
         0.00000E+00
         0.00000E+00
        -0.00000E+00
        -0.00000E+00
         0.00000E+00
         0.00000E+00
        -0.00000E+00
        -0.00000E+00
         0.00000E+00
         0.00000E+00
        -0.00000E+00
        -0.00000E+00
         0.00000E+00
         0.00000E+00
         0.00000E+00
        -0.00000E+00
        -0.00000E+00
        -0.00000E+00
         0.00000E+00
         0.00000E+00
        -0.00000E+00
        -0.00000E+00
         0.00000E+00
         0.00000E+00
         0.00000E+00
        -0.00000E+00
        -0.00000E+00
        -0.00000E+00
         0.00000E+00
         0.00000E+00
        -0.00000E+00
        -0.00000E+00
         0.00000E+00
         0.00000E+00
        -0.00000E+00
        -0.00000E+00
         0.00000E+00
         0.00000E+00
        -0.00000E+00
        -0.00000E+00
         0.00000E+00
        -0.00000E+00
         0.00000E+00
        -0.00000E+00
         0.00000E+00
        -0.00000E+00
         0.00000E+00
        -0.00000E+00
         0.00000E+00
         0.00000E+00
        -0.00000E+00
        -0.00000E+00
         0.00000E+00
         0.00000E+00
        -0.00000E+00
        -0.00000E+00
         0.00000E+00
        -0.00000E+00
         0.00000E+00
        -0.00000E+00
         0.00000E+00
         0.00000E+00
        -0.00000E+00
        -0.00000E+00
         0.00000E+00
        -0.00000E+00
         0.00000E+00
        -0.00000E+00
         0.00000E+00
        -0.00000E+00
         0.00000E+00
        -0.00000E+00
         0.00000E+00
         0.00000E+00
        -0.00000E+00
        -0.00000E+00
         0.00000E+00
        -0.00000E+00
         0.00000E+00
        -0.00000E+00
         0.00000E+00
        -0.00000E+00
         0.00000E+00
         0.00000E+00
        -0.00000E+00
        -0.00000E+00
         0.00000E+00
        -0.00000E+00
         0.00000E+00
        -0.00000E+00
         0.00000E+00
        -0.00000E+00
         0.00000E+00
         0.00000E+00
        -0.00000E+00
        -0.00000E+00
         0.00000E+00
         0.00000E+00
        -0.00000E+00
        -0.00000E+00
         0.00000E+00
        -0.00000E+00
         0.00000E+00
        -0.00000E+00
         0.00000E+00
        -0.00000E+00
         0.00000E+00
        -0.00000E+00
         0.00000E+00
        -0.00000E+00
         0.00000E+00
        -0.00000E+00
         0.00000E+00
        -0.00000E+00
         0.00000E+00
        -0.00000E+00
         0.00000E+00
        -0.00000E+00
         0.00000E+00
        -0.00000E+00
         0.00000E+00
        -0.00000E+00
         0.00000E+00
        -0.00000E+00
         0.00000E+00
        -0.00000E+00
         0.00000E+00
        -0.00000E+00
         0.00000E+00
        -0.00000E+00
         0.00000E+00
        -0.00000E+00
         0.00000E+00
        -0.00000E+00
         0.00000E+00
        -0.00000E+00
         0.00000E+00
        -0.00000E+00
         0.00000E+00
        -0.00000E+00
         0.00000E+00
        -0.00000E+00
         0.00000E+00
        -0.00000E+00
         0.00000E+00
        -0.00000E+00
         0.00000E+00
        -0.00000E+00
         0.00000E+00
         0.00000E+00
         0.00000E+00
         0.00000E+00
         0.00000E+00
         0.00000E+00
         0.00000E+00
         0.00000E+00
         0.00000E+00
         0.00000E+00
         0.00000E+00
         0.00000E+00
         0.00000E+00
         0.00000E+00
         0.00000E+00
         0.00000E+00
         0.00000E+00
         0.00000E+00
         0.00000E+00
         0.00000E+00
         0.00000E+00
         0.00000E+00
         0.00000E+00
         0.00000E+00
         0.00000E+00
         0.00000E+00
         0.00000E+00
         0.00000E+00
         0.00000E+00
         0.00000E+00
         0.00000E+00
         0.00000E+00
         0.00000E+00
         0.00000E+00
         0.00000E+00
         0.00000E+00
         0.00000E+00
         0.00000E+00
         0.00000E+00
         0.00000E+00
         0.00000E+00
         0.00000E+00
         0.00000E+00
         0.00000E+00
         0.00000E+00
         0.00000E+00
         0.00000E+00
         0.00000E+00
         0.00000E+00
         0.00000E+00
         0.00000E+00
         0.00000E+00
         0.00000E+00
         0.00000E+00
         0.00000E+00
         0.00000E+00
         0.00000E+00
         0.00000E+00
         0.00000E+00
         0.00000E+00
         0.00000E+00
         0.00000E+00
         0.00000E+00
         0.00000E+00
         0.00000E+00
         0.00000E+00
         0.00000E+00
         0.00000E+00
         0.00000E+00
         0.00000E+00
         0.00000E+00
         0.00000E+00
         0.00000E+00
         0.00000E+00
         0.00000E+00
         0.00000E+00
         0.00000E+00
         0.00000E+00
         0.00000E+00
         0.00000E+00
         0.00000E+00
         0.00000E+00
         0.00000E+00
         0.00000E+00
         0.00000E+00
         0.00000E+00
         0.00000E+00
         0.00000E+00
         0.00000E+00
         0.00000E+00
         0.00000E+00
         0.00000E+00
         0.00000E+00
         0.00000E+00
         0.00000E+00
         0.00000E+00
         0.00000E+00
         0.00000E+00
         0.00000E+00
         0.00000E+00
         0.00000E+00
         0.00000E+00
         0.00000E+00
         0.00000E+00
         0.00000E+00
         0.00000E+00
         0.00000E+00
         0.00000E+00
         0.00000E+00
         0.00000E+00
         0.00000E+00
         0.00000E+00
         0.00000E+00
         0.00000E+00
         0.00000E+00
         0.00000E+00
         0.00000E+00
         0.00000E+00
         0.00000E+00
         0.00000E+00
         0.00000E+00
         0.00000E+00
         0.00000E+00
         0.00000E+00
         0.00000E+00
         0.00000E+00
         0.00000E+00
         0.00000E+00
         0.00000E+00
         0.00000E+00
         0.00000E+00
         0.00000E+00
         0.00000E+00
         0.00000E+00
         0.00000E+00
         0.00000E+00
         0.00000E+00
         0.00000E+00
         0.00000E+00
         0.00000E+00
         0.00000E+00
         0.00000E+00
         0.00000E+00
         0.00000E+00
         0.00000E+00
         0.00000E+00
         0.00000E+00
         0.00000E+00
         0.00000E+00
         0.00000E+00
         0.00000E+00
         0.00000E+00
         0.00000E+00
         0.00000E+00
         0.00000E+00
         0.00000E+00
         0.00000E+00
         0.00000E+00
         0.00000E+00
         0.00000E+00
         0.00000E+00
         0.00000E+00
         0.00000E+00
         0.00000E+00
         0.00000E+00
         0.00000E+00
         0.00000E+00
         0.00000E+00
         0.00000E+00
         0.00000E+00
         0.00000E+00
         0.00000E+00
         0.00000E+00
         0.00000E+00
         0.00000E+00
         0.00000E+00
         0.00000E+00
         0.00000E+00
         0.00000E+00
         0.00000E+00
         0.00000E+00
         0.00000E+00
         0.00000E+00
         0.00000E+00
         0.00000E+00
         0.00000E+00
         0.00000E+00
         0.00000E+00
         0.00000E+00
         0.00000E+00
         0.00000E+00
         0.00000E+00
         0.00000E+00
         0.00000E+00
         0.00000E+00
         0.00000E+00
         0.00000E+00
         0.00000E+00
         0.00000E+00
         0.00000E+00
         0.00000E+00
         0.00000E+00
         0.00000E+00
         0.00000E+00
         0.00000E+00
         0.00000E+00
         0.00000E+00
         0.00000E+00
         0.00000E+00
         0.00000E+00
         0.00000E+00
         0.00000E+00
         0.00000E+00
         0.00000E+00
         0.00000E+00
         0.00000E+00
         0.00000E+00
         0.00000E+00
         0.00000E+00
         0.00000E+00
         0.00000E+00
         0.00000E+00
         0.00000E+00
         0.00000E+00
         0.00000E+00
         0.00000E+00
         0.00000E+00
         0.00000E+00
         0.00000E+00
         0.00000E+00
         0.00000E+00
         0.00000E+00
         0.00000E+00
         0.00000E+00
         0.00000E+00
         0.00000E+00
         0.00000E+00
         0.00000E+00
         0.00000E+00
         0.00000E+00
         0.00000E+00
         0.00000E+00
         0.00000E+00
         0.00000E+00
         0.00000E+00
         0.00000E+00
         0.00000E+00
         0.00000E+00
         0.00000E+00
         0.00000E+00
         0.00000E+00
         0.00000E+00
         0.00000E+00
         0.00000E+00
         0.00000E+00
         0.00000E+00
         0.00000E+00
         0.00000E+00
         0.00000E+00
         0.00000E+00
         0.00000E+00
         0.00000E+00
         0.00000E+00
         0.00000E+00
         0.00000E+00
         0.00000E+00
         0.00000E+00
         0.00000E+00
         0.00000E+00
         0.00000E+00
         0.00000E+00
         0.00000E+00
         0.00000E+00
         0.00000E+00
         0.00000E+00
         0.00000E+00
         0.00000E+00
         0.00000E+00
         0.00000E+00
         0.00000E+00
         0.00000E+00
         0.00000E+00
         0.00000E+00
         0.00000E+00
         0.00000E+00
         0.00000E+00
         0.00000E+00
         0.00000E+00
         0.00000E+00
         0.00000E+00
         0.00000E+00
         0.00000E+00
         0.00000E+00
         0.00000E+00
         0.00000E+00
         0.00000E+00
         0.00000E+00
         0.00000E+00
         0.00000E+00
         0.00000E+00
         0.00000E+00
         0.00000E+00
         0.00000E+00
         0.00000E+00
         0.00000E+00
         0.00000E+00
         0.00000E+00
         0.00000E+00
         0.00000E+00
         0.00000E+00
         0.00000E+00
         0.00000E+00
         0.00000E+00
         0.00000E+00
         0.00000E+00
         0.00000E+00
         0.00000E+00
         0.00000E+00
         0.00000E+00
         0.00000E+00
         0.00000E+00
         0.00000E+00
         0.00000E+00
         0.00000E+00
         0.00000E+00
         0.00000E+00
         0.00000E+00
         0.00000E+00
         0.00000E+00
         0.00000E+00
         0.00000E+00
         0.00000E+00
         0.00000E+00
         0.00000E+00
         0.00000E+00
         0.00000E+00
         0.00000E+00
         0.00000E+00
         0.00000E+00
         0.00000E+00
         0.00000E+00
         0.00000E+00
         0.00000E+00
         0.00000E+00
         0.00000E+00
         0.00000E+00
         0.00000E+00
         0.00000E+00
         0.00000E+00
         0.00000E+00
         0.00000E+00
         0.00000E+00
         0.00000E+00
         0.00000E+00
         0.00000E+00
         0.00000E+00
         0.00000E+00
         0.00000E+00
         0.00000E+00
         0.00000E+00
         0.00000E+00
         0.00000E+00
         0.00000E+00
         0.00000E+00
         0.00000E+00
         0.00000E+00
         0.00000E+00
         0.00000E+00
         0.00000E+00
         0.00000E+00
         0.00000E+00
         0.00000E+00
         0.00000E+00
         0.00000E+00
         0.00000E+00
         0.00000E+00
         0.00000E+00
         0.00000E+00
         0.00000E+00
         0.00000E+00
         0.00000E+00
         0.00000E+00
         0.00000E+00
         0.00000E+00
         0.00000E+00
         0.00000E+00
         0.00000E+00
         0.00000E+00
         0.00000E+00
         0.00000E+00
         0.00000E+00
         0.00000E+00
         0.00000E+00
         0.00000E+00
         0.00000E+00
         0.00000E+00
         0.00000E+00
         0.00000E+00
         0.00000E+00
         0.00000E+00
         0.00000E+00
         0.00000E+00
         0.00000E+00
         0.00000E+00
         0.00000E+00
         0.00000E+00
         0.00000E+00
         0.00000E+00
         0.00000E+00
         0.00000E+00
         0.00000E+00
         0.00000E+00
         0.00000E+00
         0.00000E+00
         0.00000E+00
         0.00000E+00
         0.00000E+00
         0.00000E+00
         0.00000E+00
         0.00000E+00
         0.00000E+00
         0.00000E+00
         0.00000E+00
         0.00000E+00
         0.00000E+00
         0.00000E+00
         0.00000E+00
         0.00000E+00
         0.00000E+00
         0.00000E+00
         0.00000E+00
         0.00000E+00
         0.00000E+00
         0.00000E+00
         0.00000E+00
         0.00000E+00
         0.00000E+00
         0.00000E+00
         0.00000E+00
         0.00000E+00
         0.00000E+00
         0.00000E+00
         0.00000E+00
         0.00000E+00
         0.00000E+00
         0.00000E+00
         0.00000E+00
         0.00000E+00
         0.00000E+00
         0.00000E+00
         0.00000E+00
         0.00000E+00
         0.00000E+00
         0.00000E+00
         0.00000E+00
         0.00000E+00
         0.00000E+00
         0.00000E+00
         0.00000E+00
         0.00000E+00
         0.00000E+00
         0.00000E+00
         0.00000E+00
         0.00000E+00
         0.00000E+00
         0.00000E+00
         0.00000E+00
         0.00000E+00
         0.00000E+00
         0.00000E+00
         0.00000E+00
         0.00000E+00
         0.00000E+00
         0.00000E+00
         0.00000E+00
         0.00000E+00
         0.00000E+00
         0.00000E+00
         0.00000E+00
         0.00000E+00
         0.00000E+00
         0.00000E+00
         0.00000E+00
         0.00000E+00
         0.00000E+00
         0.00000E+00
         0.00000E+00
         0.00000E+00
         0.00000E+00
         0.00000E+00
         0.00000E+00
         0.00000E+00
         0.00000E+00
         0.00000E+00
         0.00000E+00
         0.00000E+00
         0.00000E+00
         0.00000E+00
         0.00000E+00
         0.00000E+00
         0.00000E+00
         0.00000E+00
         0.00000E+00
         0.00000E+00
         0.00000E+00
         0.00000E+00
         0.00000E+00
         0.00000E+00
         0.00000E+00
         0.00000E+00
         0.00000E+00
         0.00000E+00
         0.00000E+00
         0.00000E+00
         0.00000E+00
         0.00000E+00
         0.00000E+00
         0.00000E+00
         0.00000E+00
         0.00000E+00
         0.00000E+00
         0.00000E+00
         0.00000E+00
         0.00000E+00
         0.00000E+00
         0.00000E+00
         0.00000E+00
         0.00000E+00
         0.00000E+00
         0.00000E+00
         0.00000E+00
         0.00000E+00
         0.00000E+00
         0.00000E+00
         0.00000E+00
         0.00000E+00
         0.00000E+00
         0.00000E+00
         0.00000E+00
         0.00000E+00
         0.00000E+00
         0.00000E+00
         0.00000E+00
         0.00000E+00
         0.00000E+00
         0.00000E+00
         0.00000E+00
         0.00000E+00
         0.00000E+00
         0.00000E+00
         0.00000E+00
         0.00000E+00
         0.00000E+00
         0.00000E+00
         0.00000E+00
         0.00000E+00
         0.00000E+00
         0.00000E+00
         0.00000E+00
         0.00000E+00
         0.00000E+00
         0.00000E+00
         0.00000E+00
         0.00000E+00
         0.00000E+00
         0.00000E+00
         0.00000E+00
         0.00000E+00
         0.00000E+00
         0.00000E+00
         0.00000E+00
         0.00000E+00
         0.00000E+00
         0.00000E+00
         0.00000E+00
         0.00000E+00
         0.00000E+00
         0.00000E+00
         0.00000E+00
         0.00000E+00
         0.00000E+00
         0.00000E+00
         0.00000E+00
         0.00000E+00
         0.00000E+00
         0.00000E+00
         0.00000E+00
         0.00000E+00
         0.00000E+00
         0.00000E+00
         0.00000E+00
         0.00000E+00
         0.00000E+00
         0.00000E+00
         0.00000E+00
         0.00000E+00
         0.00000E+00
         0.00000E+00
         0.00000E+00
         0.00000E+00
         0.00000E+00
         0.00000E+00
         0.00000E+00
         0.00000E+00
         0.00000E+00
         0.00000E+00
         0.00000E+00
         0.00000E+00
         0.00000E+00
         0.00000E+00
         0.00000E+00
         0.00000E+00
         0.00000E+00
         0.00000E+00
         0.00000E+00
         0.00000E+00
         0.00000E+00
         0.00000E+00
         0.00000E+00
         0.00000E+00
         0.00000E+00
         0.00000E+00
         0.00000E+00
         0.00000E+00
         0.00000E+00
         0.00000E+00
         0.00000E+00
         0.00000E+00
         0.00000E+00
         0.00000E+00
         0.00000E+00
         0.00000E+00
         0.00000E+00
         0.00000E+00
         0.00000E+00
         0.00000E+00
         0.00000E+00
         0.00000E+00
         0.00000E+00
         0.00000E+00
         0.00000E+00
         0.00000E+00
         0.00000E+00
         0.00000E+00
         0.00000E+00
         0.00000E+00
         0.00000E+00
         0.00000E+00
         0.00000E+00
         0.00000E+00
         0.00000E+00
         0.00000E+00
         0.00000E+00
         0.00000E+00
         0.00000E+00
         0.00000E+00
         0.00000E+00
         0.00000E+00
         0.00000E+00
         0.00000E+00
         0.00000E+00
         0.00000E+00
         0.00000E+00
         0.00000E+00
         0.00000E+00
         0.00000E+00
         0.00000E+00
         0.00000E+00
         0.00000E+00
         0.00000E+00
         0.00000E+00
         0.00000E+00
         0.00000E+00
         0.00000E+00
         0.00000E+00
         0.00000E+00
         0.00000E+00
         0.00000E+00
         0.00000E+00
         0.00000E+00
         0.00000E+00
         0.00000E+00
         0.00000E+00
         0.00000E+00
         0.00000E+00
         0.00000E+00
         0.00000E+00
         0.00000E+00
         0.00000E+00
         0.00000E+00
         0.00000E+00
         0.00000E+00
         0.00000E+00
         0.00000E+00
         0.00000E+00
         0.00000E+00
         0.00000E+00
         0.00000E+00
         0.00000E+00
         0.00000E+00
         0.00000E+00
         0.00000E+00
         0.00000E+00
         0.00000E+00
         0.00000E+00
         0.00000E+00
         0.00000E+00
         0.00000E+00
         0.00000E+00
         0.00000E+00
         0.00000E+00
         0.00000E+00
         0.00000E+00
         0.00000E+00
         0.00000E+00
         0.00000E+00
         0.00000E+00
         0.00000E+00
         0.00000E+00
         0.00000E+00
         0.00000E+00
         0.00000E+00
         0.00000E+00
         0.00000E+00
         0.00000E+00
         0.00000E+00
         0.00000E+00
         0.00000E+00
         0.00000E+00
         0.00000E+00
         0.00000E+00
         0.00000E+00
         0.00000E+00
         0.00000E+00
         0.00000E+00
         0.00000E+00
         0.00000E+00
         0.00000E+00
         0.00000E+00
         0.00000E+00
         0.00000E+00
         0.00000E+00
         0.00000E+00
         0.00000E+00
         0.00000E+00
         0.00000E+00
         0.00000E+00
         0.00000E+00
         0.00000E+00
         0.00000E+00
         0.00000E+00
         0.00000E+00
         0.00000E+00
         0.00000E+00
         0.00000E+00
         0.00000E+00
         0.00000E+00
         0.00000E+00
         0.00000E+00
         0.00000E+00
         0.00000E+00
         0.00000E+00
         0.00000E+00
         0.00000E+00
         0.00000E+00
         0.00000E+00
         0.00000E+00
         0.00000E+00
         0.00000E+00
         0.00000E+00
         0.00000E+00
         0.00000E+00
         0.00000E+00
         0.00000E+00
         0.00000E+00
         0.00000E+00
         0.00000E+00
         0.00000E+00
         0.00000E+00
         0.00000E+00
         0.00000E+00
         0.00000E+00
         0.00000E+00
         0.00000E+00
         0.00000E+00
         0.00000E+00
         0.00000E+00
         0.00000E+00
         0.00000E+00
         0.00000E+00
         0.00000E+00
         0.00000E+00
         0.00000E+00
         0.00000E+00
         0.00000E+00
         0.00000E+00
         0.00000E+00
         0.00000E+00
         0.00000E+00
         0.00000E+00
         0.00000E+00
         0.00000E+00
         0.00000E+00
         0.00000E+00
         0.00000E+00
         0.00000E+00
         0.00000E+00
         0.00000E+00
         0.00000E+00
         0.00000E+00
         0.00000E+00
         0.00000E+00
         0.00000E+00
         0.00000E+00
         0.00000E+00
         0.00000E+00
         0.00000E+00
         0.00000E+00
         0.00000E+00
         0.00000E+00
         0.00000E+00
         0.00000E+00
         0.00000E+00
         0.00000E+00
         0.00000E+00
         0.00000E+00
         0.00000E+00
         0.00000E+00
         0.00000E+00
         0.00000E+00
         0.00000E+00
         0.00000E+00
         0.00000E+00
         0.00000E+00
         0.00000E+00
         0.00000E+00
         0.00000E+00
         0.00000E+00
         0.00000E+00
         0.00000E+00
         0.00000E+00
         0.00000E+00
         0.00000E+00
         0.00000E+00
         0.00000E+00
         0.00000E+00
         0.00000E+00
         0.00000E+00
         0.00000E+00
         0.00000E+00
         0.00000E+00
         0.00000E+00
         0.00000E+00
         0.00000E+00
         0.00000E+00
         0.00000E+00
         0.00000E+00
         0.00000E+00
         0.00000E+00
         0.00000E+00
         0.00000E+00
         0.00000E+00
         0.00000E+00
         0.00000E+00
         0.00000E+00
         0.00000E+00
         0.00000E+00
         0.00000E+00
         0.00000E+00
         0.00000E+00
         0.00000E+00
         0.00000E+00
         0.00000E+00
         0.00000E+00
         0.00000E+00
         0.00000E+00
         0.00000E+00
         0.00000E+00
         0.00000E+00
         0.00000E+00
         0.00000E+00
         0.00000E+00
         0.00000E+00
         0.00000E+00
         0.00000E+00
         0.00000E+00
         0.00000E+00
         0.00000E+00
         0.00000E+00
         0.00000E+00
         0.00000E+00
         0.00000E+00
         0.00000E+00
         0.00000E+00
         0.00000E+00
         0.00000E+00
         0.00000E+00
         0.00000E+00
         0.00000E+00
         0.00000E+00
         0.00000E+00
         0.00000E+00
         0.00000E+00
         0.00000E+00
         0.00000E+00
         0.00000E+00
         0.00000E+00
         0.00000E+00
         0.00000E+00
         0.00000E+00
         0.00000E+00
         0.00000E+00
         0.00000E+00
         0.00000E+00
         0.00000E+00
         0.00000E+00
         0.00000E+00
         0.00000E+00
         0.00000E+00
         0.00000E+00
         0.00000E+00
         0.00000E+00
         0.00000E+00
         0.00000E+00
         0.00000E+00
         0.00000E+00
         0.00000E+00
         0.00000E+00
         0.00000E+00
         0.00000E+00
         0.00000E+00
         0.00000E+00
         0.00000E+00
         0.00000E+00
         0.00000E+00
         0.00000E+00
         0.00000E+00
         0.00000E+00
         0.00000E+00
         0.00000E+00
         0.00000E+00
         0.00000E+00
         0.00000E+00
         0.00000E+00
         0.00000E+00
         0.00000E+00
         0.00000E+00
         0.00000E+00
         0.00000E+00
         0.00000E+00
         0.00000E+00
         0.00000E+00
         0.00000E+00
         0.00000E+00
         0.00000E+00
         0.00000E+00
         0.00000E+00
         0.00000E+00
         0.00000E+00
         0.00000E+00
         0.00000E+00
         0.00000E+00
         0.00000E+00
         0.00000E+00
         0.00000E+00
         0.00000E+00
         0.00000E+00
         0.00000E+00
         0.00000E+00
         0.00000E+00
         0.00000E+00
         0.00000E+00
         0.00000E+00
         0.00000E+00
         0.00000E+00
         0.00000E+00
         0.00000E+00
         0.00000E+00
         0.00000E+00
         0.00000E+00
         0.00000E+00
         0.00000E+00
         0.00000E+00
         0.00000E+00
         0.00000E+00
         0.00000E+00
         0.00000E+00
         0.00000E+00
         0.00000E+00
         0.00000E+00
         0.00000E+00
         0.00000E+00
         0.00000E+00
         0.00000E+00
         0.00000E+00
         0.00000E+00
         0.00000E+00
         0.00000E+00
         0.00000E+00
         0.00000E+00
         0.00000E+00
         0.00000E+00
         0.00000E+00
         0.00000E+00
         0.00000E+00
         0.00000E+00
         0.00000E+00
         0.00000E+00
         0.00000E+00
         0.00000E+00
         0.00000E+00
         0.00000E+00
         0.00000E+00
         0.00000E+00
         0.00000E+00
         0.00000E+00
         0.00000E+00
         0.00000E+00
         0.00000E+00
         0.00000E+00
         0.00000E+00
         0.00000E+00
         0.00000E+00
         0.00000E+00
         0.00000E+00
         0.00000E+00
         0.00000E+00
         0.00000E+00
         0.00000E+00
         0.00000E+00
         0.00000E+00
         0.00000E+00
         0.00000E+00
         0.00000E+00
         0.00000E+00
         0.00000E+00
         0.00000E+00
         0.00000E+00
         0.00000E+00
         0.00000E+00
         0.00000E+00
         0.00000E+00
         0.00000E+00
         0.00000E+00
         0.00000E+00
         0.00000E+00
         0.00000E+00
         0.00000E+00
         0.00000E+00
         0.00000E+00
         0.00000E+00
         0.00000E+00
         0.00000E+00
         0.00000E+00
         0.00000E+00
         0.00000E+00
         0.00000E+00
         0.00000E+00
         0.00000E+00
         0.00000E+00
         0.00000E+00
         0.00000E+00
         0.00000E+00
         0.00000E+00
         0.00000E+00
         0.00000E+00
         0.00000E+00
         0.00000E+00
         0.00000E+00
         0.00000E+00
         0.00000E+00
         0.00000E+00
         0.00000E+00
         0.00000E+00
         0.00000E+00
         0.00000E+00
         0.00000E+00
         0.00000E+00
         0.00000E+00
         0.00000E+00
         0.00000E+00
         0.00000E+00
         0.00000E+00
         0.00000E+00
         0.00000E+00
         0.00000E+00
         0.00000E+00
         0.00000E+00
         0.00000E+00
         0.00000E+00
         0.00000E+00
         0.00000E+00
         0.00000E+00
         0.00000E+00
         0.00000E+00
         0.00000E+00
         0.00000E+00
         0.00000E+00
         0.00000E+00
         0.00000E+00
         0.00000E+00
         0.00000E+00
         0.00000E+00
         0.00000E+00
         0.00000E+00
         0.00000E+00
         0.00000E+00
         0.00000E+00
         0.00000E+00
         0.00000E+00
         0.00000E+00
         0.00000E+00
         0.00000E+00
         0.00000E+00
         0.00000E+00
         0.00000E+00
         0.00000E+00
         0.00000E+00
         0.00000E+00
         0.00000E+00
         0.00000E+00
         0.00000E+00
         0.00000E+00
         0.00000E+00
         0.00000E+00
         0.00000E+00
         0.00000E+00
         0.00000E+00
         0.00000E+00
         0.00000E+00
         0.00000E+00
         0.00000E+00
         0.00000E+00
         0.00000E+00
         0.00000E+00
         0.00000E+00
         0.00000E+00
         0.00000E+00
         0.00000E+00
         0.00000E+00
         0.00000E+00
         0.00000E+00
         0.00000E+00
         0.00000E+00
         0.00000E+00
         0.00000E+00
         0.00000E+00
         0.00000E+00
         0.00000E+00
         0.00000E+00
         0.00000E+00
         0.00000E+00
         0.00000E+00
         0.00000E+00
         0.00000E+00
         0.00000E+00
         0.00000E+00
         0.00000E+00
         0.00000E+00
         0.00000E+00
         0.00000E+00
         0.00000E+00
         0.00000E+00
         0.00000E+00
         0.00000E+00
         0.00000E+00
         0.00000E+00
         0.00000E+00
         0.00000E+00
         0.00000E+00
         0.00000E+00
         0.00000E+00
         0.00000E+00
         0.00000E+00
         0.00000E+00
         0.00000E+00
         0.00000E+00
         0.00000E+00
         0.00000E+00
         0.00000E+00
         0.00000E+00
         0.00000E+00
         0.00000E+00
         0.00000E+00
         0.00000E+00
         0.00000E+00
         0.00000E+00
         0.00000E+00
         0.00000E+00
         0.00000E+00
         0.00000E+00
         0.00000E+00
         0.00000E+00
         0.00000E+00
         0.00000E+00
         0.00000E+00
         0.00000E+00
         0.00000E+00
         0.00000E+00
         0.00000E+00
         0.00000E+00
         0.00000E+00
         0.00000E+00
         0.00000E+00
         0.00000E+00
         0.00000E+00
         0.00000E+00
         0.00000E+00
         0.00000E+00
         0.00000E+00
         0.00000E+00
         0.00000E+00
         0.00000E+00
         0.00000E+00
         0.00000E+00
         0.00000E+00
         0.00000E+00
         0.00000E+00
         0.00000E+00
         0.00000E+00
         0.00000E+00
         0.00000E+00
         0.00000E+00
         0.00000E+00
         0.00000E+00
         0.00000E+00
         0.00000E+00
         0.00000E+00
         0.00000E+00
         0.00000E+00
         0.00000E+00
         0.00000E+00
         0.00000E+00
         0.00000E+00
         0.00000E+00
         0.00000E+00
         0.00000E+00
         0.00000E+00
         0.00000E+00
         0.00000E+00
         0.00000E+00
         0.00000E+00
         0.00000E+00
         0.00000E+00
         0.00000E+00
         0.00000E+00
         0.00000E+00
         0.00000E+00
         0.00000E+00
         0.00000E+00
         0.00000E+00
         0.00000E+00
         0.00000E+00
         0.00000E+00
         0.00000E+00
         0.00000E+00
         0.00000E+00
         0.00000E+00
         0.00000E+00
         0.00000E+00
         0.00000E+00
         0.00000E+00
         0.00000E+00
         0.00000E+00
         0.00000E+00
         0.00000E+00
         0.00000E+00
         0.00000E+00
         0.00000E+00
         0.00000E+00
         0.00000E+00
         0.00000E+00
         0.00000E+00
         0.00000E+00
         0.00000E+00
         0.00000E+00
         0.00000E+00
         0.00000E+00
         0.00000E+00
         0.00000E+00
         0.00000E+00
         0.00000E+00
         0.00000E+00
         0.00000E+00
         0.00000E+00
         0.00000E+00
         0.00000E+00
         0.00000E+00
         0.00000E+00
         0.00000E+00
         0.00000E+00
         0.00000E+00
         0.00000E+00
         0.00000E+00
         0.00000E+00
         0.00000E+00
         0.00000E+00
         0.00000E+00
         0.00000E+00
         0.00000E+00
         0.00000E+00
         0.00000E+00
         0.00000E+00
         0.00000E+00
         0.00000E+00
         0.00000E+00
         0.00000E+00
         0.00000E+00
         0.00000E+00
         0.00000E+00
         0.00000E+00
         0.00000E+00
         0.00000E+00
         0.00000E+00
         0.00000E+00
         0.00000E+00
         0.00000E+00
         0.00000E+00
         0.00000E+00
         0.00000E+00
         0.00000E+00
         0.00000E+00
         0.00000E+00
         0.00000E+00
         0.00000E+00
         0.00000E+00
         0.00000E+00
         0.00000E+00
         0.00000E+00
         0.00000E+00
         0.00000E+00
         0.00000E+00
         0.00000E+00
         0.00000E+00
         0.00000E+00
         0.00000E+00
         0.00000E+00
         0.00000E+00
         0.00000E+00
         0.00000E+00
         0.00000E+00
         0.00000E+00
         0.00000E+00
         0.00000E+00
         0.00000E+00
         0.00000E+00
         0.00000E+00
         0.00000E+00
         0.00000E+00
         0.00000E+00
         0.00000E+00
         0.00000E+00
         0.00000E+00
         0.00000E+00
         0.00000E+00
         0.00000E+00
         0.00000E+00
         0.00000E+00
         0.00000E+00
         0.00000E+00
         0.00000E+00
         0.00000E+00
         0.00000E+00
         0.00000E+00
         0.00000E+00
         0.00000E+00
         0.00000E+00
         0.00000E+00
         0.00000E+00
         0.00000E+00
         0.00000E+00
         0.00000E+00
         0.00000E+00
         0.00000E+00
         0.00000E+00
         0.00000E+00
         0.00000E+00
         0.00000E+00
         0.00000E+00
         0.00000E+00
         0.00000E+00
         0.00000E+00
         0.00000E+00
         0.00000E+00
         0.00000E+00
         0.00000E+00
         0.00000E+00
         0.00000E+00
         0.00000E+00
         0.00000E+00
         0.00000E+00
         0.00000E+00
         0.00000E+00
         0.00000E+00
         0.00000E+00
         0.00000E+00
         0.00000E+00
         0.00000E+00
         0.00000E+00
         0.00000E+00
         0.00000E+00
         0.00000E+00
         0.00000E+00
         0.00000E+00
         0.00000E+00
         0.00000E+00
         0.00000E+00
         0.00000E+00
         0.00000E+00
         0.00000E+00
         0.00000E+00
         0.00000E+00
         0.00000E+00
         0.00000E+00
         0.00000E+00
         0.00000E+00
         0.00000E+00
         0.00000E+00
         0.00000E+00
         0.00000E+00
         0.00000E+00
         0.00000E+00
         0.00000E+00
         0.00000E+00
         0.00000E+00
         0.00000E+00
         0.00000E+00
         0.00000E+00
         0.00000E+00
         0.00000E+00
         0.00000E+00
         0.00000E+00
         0.00000E+00
         0.00000E+00
         0.00000E+00
         0.00000E+00
         0.00000E+00
         0.00000E+00
         0.00000E+00
         0.00000E+00
         0.00000E+00
         0.00000E+00
         0.00000E+00
         0.00000E+00
         0.00000E+00
         0.00000E+00
         0.00000E+00
         0.00000E+00
         0.00000E+00
         0.00000E+00
         0.00000E+00
         0.00000E+00
         0.00000E+00
         0.00000E+00
         0.00000E+00
         0.00000E+00
         0.00000E+00
         0.00000E+00
         0.00000E+00
         0.00000E+00
         0.00000E+00
         0.00000E+00
         0.00000E+00
         0.00000E+00
         0.00000E+00
         0.00000E+00
         0.00000E+00
         0.00000E+00
         0.00000E+00
         0.00000E+00
         0.00000E+00
         0.00000E+00
         0.00000E+00
         0.00000E+00
         0.00000E+00
         0.00000E+00
         0.00000E+00
         0.00000E+00
         0.00000E+00
         0.00000E+00
         0.00000E+00
         0.00000E+00
         0.00000E+00
         0.00000E+00
         0.00000E+00
         0.00000E+00
         0.00000E+00
         0.00000E+00
         0.00000E+00
         0.00000E+00
         0.00000E+00
         0.00000E+00
         0.00000E+00
         0.00000E+00
         0.00000E+00
         0.00000E+00
         0.00000E+00
         0.00000E+00
         0.00000E+00
         0.00000E+00
         0.00000E+00
         0.00000E+00
         0.00000E+00
         0.00000E+00
         0.00000E+00
         0.00000E+00
         0.00000E+00
         0.00000E+00
         0.00000E+00
         0.00000E+00
         0.00000E+00
         0.00000E+00
         0.00000E+00
         0.00000E+00
         0.00000E+00
         0.00000E+00
         0.00000E+00
         0.00000E+00
         0.00000E+00
         0.00000E+00
         0.00000E+00
         0.00000E+00
         0.00000E+00
         0.00000E+00
         0.00000E+00
         0.00000E+00
         0.00000E+00
         0.00000E+00
         0.00000E+00
         0.00000E+00
         0.00000E+00
         0.00000E+00
         0.00000E+00
         0.00000E+00
         0.00000E+00
         0.00000E+00
         0.00000E+00
         0.00000E+00
         0.00000E+00
         0.00000E+00
         0.00000E+00
         0.00000E+00
         0.00000E+00
         0.00000E+00
         0.00000E+00
         0.00000E+00
         0.00000E+00
         0.00000E+00
         0.00000E+00
         0.00000E+00
         0.00000E+00
         0.00000E+00
         0.00000E+00
         0.00000E+00
         0.00000E+00
         0.00000E+00
         0.00000E+00
         0.00000E+00
         0.00000E+00
         0.00000E+00
         0.00000E+00
         0.00000E+00
         0.00000E+00
         0.00000E+00
         0.00000E+00
         0.00000E+00
         0.00000E+00
         0.00000E+00
         0.00000E+00
         0.00000E+00
         0.00000E+00
         0.00000E+00
         0.00000E+00
         0.00000E+00
         0.00000E+00
         0.00000E+00
         0.00000E+00
         0.00000E+00
         0.00000E+00
         0.00000E+00
         0.00000E+00
         0.00000E+00
         0.00000E+00
         0.00000E+00
         0.00000E+00
         0.00000E+00
         0.00000E+00
         0.00000E+00
         0.00000E+00
         0.00000E+00
         0.00000E+00
         0.00000E+00
         0.00000E+00
         0.00000E+00
         0.00000E+00
         0.00000E+00
         0.00000E+00
         0.00000E+00
         0.00000E+00
         0.00000E+00
         0.00000E+00
         0.00000E+00
         0.00000E+00
         0.00000E+00
         0.00000E+00
         0.00000E+00
         0.00000E+00
         0.00000E+00
         0.00000E+00
         0.00000E+00
         0.00000E+00
         0.00000E+00
         0.00000E+00
         0.00000E+00
         0.00000E+00
         0.00000E+00
         0.00000E+00
         0.00000E+00
         0.00000E+00
         0.00000E+00
         0.00000E+00
         0.00000E+00
         0.00000E+00
         0.00000E+00
         0.00000E+00
         0.00000E+00
         0.00000E+00
         0.00000E+00
         0.00000E+00
         0.00000E+00
         0.00000E+00
         0.00000E+00
         0.00000E+00
         0.00000E+00
         0.00000E+00
         0.00000E+00
         0.00000E+00
         0.00000E+00
         0.00000E+00
         0.00000E+00
         0.00000E+00
         0.00000E+00
         0.00000E+00
         0.00000E+00
         0.00000E+00
         0.00000E+00
         0.00000E+00
         0.00000E+00
         0.00000E+00
         0.00000E+00
         0.00000E+00
         0.00000E+00
         0.00000E+00
         0.00000E+00
         0.00000E+00
         0.00000E+00
         0.00000E+00
         0.00000E+00
         0.00000E+00
         0.00000E+00
         0.00000E+00
         0.00000E+00
         0.00000E+00
         0.00000E+00
         0.00000E+00
         0.00000E+00
         0.00000E+00
         0.00000E+00
         0.00000E+00
         0.00000E+00
         0.00000E+00
         0.00000E+00
         0.00000E+00
         0.00000E+00
         0.00000E+00
         0.00000E+00
         0.00000E+00
         0.00000E+00
         0.00000E+00
         0.00000E+00
         0.00000E+00
         0.00000E+00
         0.00000E+00
         0.00000E+00
         0.00000E+00
         0.00000E+00
         0.00000E+00
         0.00000E+00
         0.00000E+00
         0.00000E+00
         0.00000E+00
         0.00000E+00
         0.00000E+00
         0.00000E+00
         0.00000E+00
         0.00000E+00
         0.00000E+00
         0.00000E+00
         0.00000E+00
         0.00000E+00
         0.00000E+00
         0.00000E+00
         0.00000E+00
         0.00000E+00
         0.00000E+00
         0.00000E+00
         0.00000E+00
         0.00000E+00
         0.00000E+00
         0.00000E+00
         0.00000E+00
         0.00000E+00
         0.00000E+00
         0.00000E+00
         0.00000E+00
         0.00000E+00
         0.00000E+00
         0.00000E+00
         0.00000E+00
         0.00000E+00
         0.00000E+00
         0.00000E+00
         0.00000E+00
         0.00000E+00
         0.00000E+00
         0.00000E+00
         0.00000E+00
         0.00000E+00
         0.00000E+00
         0.00000E+00
         0.00000E+00
         0.00000E+00
         0.00000E+00
         0.00000E+00
         0.00000E+00
         0.00000E+00
         0.00000E+00
         0.00000E+00
         0.00000E+00
         0.00000E+00
         0.00000E+00
         0.00000E+00
         0.00000E+00
         0.00000E+00
         0.00000E+00
         0.00000E+00
         0.00000E+00
         0.00000E+00
         0.00000E+00
         0.00000E+00
         0.00000E+00
         0.00000E+00
         0.00000E+00
         0.00000E+00
         0.00000E+00
         0.00000E+00
         0.00000E+00
         0.00000E+00
         0.00000E+00
         0.00000E+00
         0.00000E+00
         0.00000E+00
         0.00000E+00
         0.00000E+00
         0.00000E+00
         0.00000E+00
         0.00000E+00
         0.00000E+00
         0.00000E+00
         0.00000E+00
         0.00000E+00
         0.00000E+00
         0.00000E+00
         0.00000E+00
         0.00000E+00
         0.00000E+00
         0.00000E+00
         0.00000E+00
         0.00000E+00
         0.00000E+00
         0.00000E+00
         0.00000E+00
         0.00000E+00
         0.00000E+00
         0.00000E+00
         0.00000E+00
         0.00000E+00
         0.00000E+00
         0.00000E+00
         0.00000E+00
         0.00000E+00
         0.00000E+00
         0.00000E+00
         0.00000E+00
  
SCALARS                      stress_xx  double 1
LOOKUP_TABLE default
         0.10591E+11
         0.97506E+10
         0.10284E+11
         0.11242E+11
        -0.55288E+02
        -0.61997E+02
        -0.59364E+02
        -0.53930E+02
         0.97213E+10
         0.10006E+11
        -0.55751E+02
        -0.53953E+02
         0.85365E+10
         0.84918E+10
        -0.66244E+02
        -0.62286E+02
         0.11101E+11
         0.85573E+10
        -0.48947E+02
        -0.54290E+02
         0.76273E+10
         0.69075E+10
         0.80539E+10
        -0.65655E+02
        -0.57337E+02
        -0.59208E+02
         0.69353E+10
         0.58870E+10
        -0.62987E+02
        -0.53118E+02
         0.11055E+11
         0.99461E+10
         0.12133E+11
        -0.53750E+02
        -0.49969E+02
        -0.48583E+02
         0.10413E+11
         0.90033E+10
        -0.56865E+02
        -0.51890E+02
         0.98541E+10
         0.87676E+10
        -0.49148E+02
        -0.43510E+02
         0.10776E+11
         0.11186E+11
        -0.53859E+02
        -0.60180E+02
         0.78990E+10
        -0.52616E+02
         0.11106E+11
        -0.61826E+02
         0.66327E+10
        -0.55564E+02
         0.63031E+10
        -0.53297E+02
         0.63083E+10
         0.74815E+10
        -0.54304E+02
        -0.52886E+02
         0.11032E+11
         0.10606E+11
        -0.54453E+02
        -0.61558E+02
         0.11299E+11
        -0.52543E+02
         0.10792E+11
        -0.57344E+02
         0.94596E+10
         0.93267E+10
        -0.55200E+02
        -0.57839E+02
         0.90266E+10
        -0.58324E+02
         0.55154E+10
        -0.46080E+02
         0.53323E+10
        -0.44728E+02
         0.54234E+10
        -0.47162E+02
         0.59290E+10
         0.64557E+10
        -0.44934E+02
        -0.46847E+02
         0.75193E+10
        -0.43631E+02
         0.10755E+11
        -0.57216E+02
         0.10248E+11
        -0.58560E+02
         0.98326E+10
         0.96050E+10
        -0.56236E+02
        -0.56893E+02
         0.98857E+10
        -0.51675E+02
         0.10085E+11
        -0.50938E+02
         0.99049E+10
        -0.54530E+02
         0.98411E+10
         0.10024E+11
        -0.53474E+02
        -0.55043E+02
         0.88410E+10
         0.93200E+10
        -0.41517E+02
        -0.39049E+02
         0.87502E+10
        -0.39644E+02
         0.93032E+10
        -0.38012E+02
         0.87574E+10
        -0.37482E+02
         0.75525E+10
        -0.35421E+02
         0.63887E+10
        -0.31468E+02
         0.56941E+10
        -0.28335E+02
         0.56233E+10
        -0.28138E+02
         0.56453E+10
        -0.30514E+02
         0.63989E+10
        -0.32069E+02
         0.78118E+10
        -0.29283E+02
         0.93711E+10
        -0.26395E+02
         0.10288E+11
        -0.26365E+02
         0.11196E+11
        -0.29470E+02
         0.11797E+11
        -0.33602E+02
         0.11775E+11
        -0.36099E+02
         0.10316E+11
        -0.38987E+02
         0.93034E+10
        -0.41769E+02
         0.89560E+10
        -0.38263E+02
         0.94981E+10
        -0.33567E+02
         0.97814E+10
        -0.33463E+02
         0.93067E+10
        -0.36613E+02
         0.93141E+10
        -0.39032E+02
         0.96719E+10
        -0.37041E+02
         0.10139E+11
        -0.35810E+02
        -0.20745E+11
        -0.21050E+11
        -0.21010E+11
        -0.20612E+11
        -0.21338E+11
        -0.20975E+11
        -0.21424E+11
        -0.21191E+11
        -0.20676E+11
        -0.20999E+11
        -0.21668E+11
        -0.21742E+11
        -0.21545E+11
        -0.21531E+11
        -0.21659E+11
        -0.20632E+11
        -0.20706E+11
        -0.20496E+11
        -0.21083E+11
        -0.20978E+11
        -0.21128E+11
        -0.21029E+11
        -0.21211E+11
        -0.21164E+11
        -0.20987E+11
        -0.20999E+11
        -0.21301E+11
        -0.21274E+11
        -0.21493E+11
        -0.21160E+11
        -0.20669E+11
        -0.21055E+11
        -0.20671E+11
        -0.20926E+11
        -0.21793E+11
        -0.21521E+11
        -0.21390E+11
        -0.21544E+11
        -0.21564E+11
        -0.21812E+11
        -0.21989E+11
        -0.21553E+11
        -0.21122E+11
        -0.21181E+11
        -0.21403E+11
        -0.21783E+11
        -0.21459E+11
        -0.21103E+11
        -0.21128E+11
        -0.21404E+11
        -0.21680E+11
        -0.21307E+11
        -0.22408E+11
        -0.22094E+11
        -0.22147E+11
        -0.22073E+11
        -0.22092E+11
        -0.22262E+11
        -0.22434E+11
        -0.22489E+11
        -0.22465E+11
        -0.22483E+11
        -0.22555E+11
        -0.22108E+11
        -0.21936E+11
        -0.21869E+11
        -0.21754E+11
        -0.21666E+11
        -0.21670E+11
        -0.21820E+11
        -0.22304E+11
        -0.22190E+11
        -0.22024E+11
        -0.22026E+11
        -0.22055E+11
        -0.22214E+11
        -0.21979E+11
        -0.21891E+11
         0.30735E+06
         0.15270E+06
         0.19678E+06
         0.30021E+06
        -0.17537E+05
         0.17665E+06
        -0.11688E+06
        -0.29966E+06
         0.42973E+06
        -0.31853E+06
        -0.35389E+06
        -0.23782E+05
        -0.17022E+06
        -0.10447E+07
        -0.40886E+06
        -0.11408E+06
         0.17088E+06
         0.29152E+06
         0.27794E+03
         0.13069E+05
        -0.72540E+06
        -0.51653E+06
        -0.86892E+06
        -0.13566E+06
        -0.32713E+06
        -0.42081E+05
        -0.13006E+07
        -0.82450E+06
        -0.44950E+06
        -0.31950E+06
        -0.32303E+05
        -0.64721E+05
         0.26234E+06
         0.45063E+06
        -0.63562E+06
        -0.29321E+06
        -0.25592E+06
        -0.52784E+06
        -0.27212E+06
        -0.19909E+06
        -0.55724E+06
        -0.79327E+06
        -0.70977E+06
        -0.65484E+06
        -0.46057E+06
        -0.18282E+06
        -0.12426E+06
        -0.13927E+06
         0.17963E+06
         0.28846E+06
        -0.73440E+05
        -0.47631E+05
        -0.16215E+07
        -0.81282E+06
        -0.10333E+07
        -0.17657E+06
         0.59224E+06
         0.11565E+07
         0.97729E+06
         0.10360E+07
         0.79650E+06
         0.31289E+06
        -0.33459E+06
        -0.78972E+06
        -0.10256E+07
        -0.70549E+06
        -0.12642E+07
        -0.15768E+07
        -0.12841E+07
        -0.10746E+07
        -0.48290E+06
         0.20206E+06
         0.16801E+06
        -0.24306E+05
        -0.43623E+06
        -0.88192E+06
        -0.91403E+06
        -0.61213E+06
         0.28693E+06
         0.13248E+06
         0.17677E+06
         0.28216E+06
        -0.41726E+05
         0.15546E+06
        -0.13922E+06
        -0.32251E+06
         0.40895E+06
        -0.34332E+06
        -0.37854E+06
        -0.59598E+05
        -0.20013E+06
        -0.10678E+07
        -0.44435E+06
        -0.13570E+06
         0.14736E+06
         0.27380E+06
        -0.23365E+05
        -0.11570E+05
        -0.75490E+06
        -0.54505E+06
        -0.89892E+06
        -0.15978E+06
        -0.35409E+06
        -0.65102E+05
        -0.13245E+07
        -0.84920E+06
        -0.47654E+06
        -0.34727E+06
        -0.53152E+05
        -0.86478E+05
         0.24432E+06
         0.43230E+06
        -0.66552E+06
        -0.31573E+06
        -0.28000E+06
        -0.56319E+06
        -0.30353E+06
        -0.22960E+06
        -0.59207E+06
        -0.82691E+06
        -0.74145E+06
        -0.68265E+06
        -0.48604E+06
        -0.21310E+06
        -0.14910E+06
        -0.16234E+06
         0.15867E+06
         0.26748E+06
        -0.10039E+06
        -0.68404E+05
        -0.16833E+07
        -0.87305E+06
        -0.10926E+07
        -0.23350E+06
         0.53197E+06
         0.10892E+07
         0.91010E+06
         0.96826E+06
         0.72822E+06
         0.24290E+06
        -0.40425E+06
        -0.85406E+06
        -0.10790E+07
        -0.75522E+06
        -0.13165E+07
        -0.16329E+07
        -0.13413E+07
        -0.11347E+07
        -0.54306E+06
         0.13831E+06
         0.10813E+06
        -0.78314E+05
        -0.49033E+06
        -0.93739E+06
        -0.97020E+06
        -0.66936E+06
         0.29164E+06
         0.13644E+06
         0.18099E+06
         0.28690E+06
        -0.34900E+05
         0.16174E+06
        -0.13495E+06
        -0.31683E+06
         0.41235E+06
        -0.34228E+06
        -0.37337E+06
        -0.52852E+05
        -0.19466E+06
        -0.10603E+07
        -0.43537E+06
        -0.14047E+06
         0.14582E+06
         0.27876E+06
        -0.29181E+05
        -0.16150E+05
        -0.75961E+06
        -0.54681E+06
        -0.91858E+06
        -0.17719E+06
        -0.36573E+06
        -0.81242E+05
        -0.13200E+07
        -0.85229E+06
        -0.48768E+06
        -0.36670E+06
        -0.53547E+05
        -0.91406E+05
         0.24978E+06
         0.43829E+06
        -0.65810E+06
        -0.30970E+06
        -0.27449E+06
        -0.55750E+06
        -0.29888E+06
        -0.22833E+06
        -0.59314E+06
        -0.83936E+06
        -0.75852E+06
        -0.70123E+06
        -0.49025E+06
        -0.20886E+06
        -0.14453E+06
        -0.15731E+06
         0.16450E+06
         0.27403E+06
        -0.92494E+05
        -0.60773E+05
        -0.16648E+07
        -0.85644E+06
        -0.10741E+07
        -0.21939E+06
         0.54254E+06
         0.10996E+07
         0.92340E+06
         0.98150E+06
         0.74179E+06
         0.25696E+06
        -0.39601E+06
        -0.85434E+06
        -0.10781E+07
        -0.74602E+06
        -0.13105E+07
        -0.16442E+07
        -0.13536E+07
        -0.11315E+07
        -0.52644E+06
         0.15747E+06
         0.12529E+06
        -0.61036E+05
        -0.47077E+06
        -0.92105E+06
        -0.95695E+06
        -0.65662E+06
         0.28868E+06
         0.13471E+06
         0.17929E+06
         0.28397E+06
        -0.36824E+05
         0.16035E+06
        -0.13710E+06
        -0.31945E+06
         0.40632E+06
        -0.35291E+06
        -0.37579E+06
        -0.56636E+05
        -0.19723E+06
        -0.10617E+07
        -0.43960E+06
        -0.15783E+06
         0.13181E+06
         0.27569E+06
        -0.49843E+05
        -0.36867E+05
        -0.78197E+06
        -0.56651E+06
        -0.96443E+06
        -0.21611E+06
        -0.39773E+06
        -0.11797E+06
        -0.13266E+07
        -0.87226E+06
        -0.52083E+06
        -0.41316E+06
        -0.63931E+05
        -0.11103E+06
         0.24741E+06
         0.43530E+06
        -0.66221E+06
        -0.31170E+06
        -0.27629E+06
        -0.56432E+06
        -0.30687E+06
        -0.24242E+06
        -0.61294E+06
        -0.87747E+06
        -0.80488E+06
        -0.74518E+06
        -0.51125E+06
        -0.22100E+06
        -0.15249E+06
        -0.16171E+06
         0.16100E+06
         0.27012E+06
        -0.96384E+05
        -0.61821E+05
        -0.16734E+07
        -0.86230E+06
        -0.10834E+07
        -0.22761E+06
         0.53707E+06
         0.10932E+07
         0.91268E+06
         0.96986E+06
         0.73071E+06
         0.24345E+06
        -0.41746E+06
        -0.88894E+06
        -0.11104E+07
        -0.76130E+06
        -0.13278E+07
        -0.16919E+07
        -0.14041E+07
        -0.11552E+07
        -0.53764E+06
         0.14672E+06
         0.11721E+06
        -0.70614E+05
        -0.48067E+06
        -0.92783E+06
        -0.96215E+06
        -0.66184E+06
         0.28335E+06
         0.13122E+06
         0.17635E+06
         0.28096E+06
        -0.39111E+05
         0.15824E+06
        -0.14031E+06
        -0.32407E+06
         0.39911E+06
        -0.36397E+06
        -0.37839E+06
        -0.59025E+05
        -0.20008E+06
        -0.10634E+07
        -0.44151E+06
        -0.16980E+06
         0.12064E+06
         0.27286E+06
        -0.63438E+05
        -0.51751E+05
        -0.79631E+06
        -0.58065E+06
        -0.99261E+06
        -0.24023E+06
        -0.42083E+06
        -0.14150E+06
        -0.13323E+07
        -0.88659E+06
        -0.54383E+06
        -0.44404E+06
        -0.74783E+05
        -0.12530E+06
         0.24232E+06
         0.43112E+06
        -0.66646E+06
        -0.31435E+06
        -0.27905E+06
        -0.56949E+06
        -0.31357E+06
        -0.25322E+06
        -0.62695E+06
        -0.90326E+06
        -0.83535E+06
        -0.77305E+06
        -0.52498E+06
        -0.22898E+06
        -0.15954E+06
        -0.16871E+06
         0.15485E+06
         0.26430E+06
        -0.10258E+06
        -0.64385E+05
        -0.16811E+07
        -0.86741E+06
        -0.10913E+07
        -0.23400E+06
         0.53456E+06
         0.10913E+07
         0.90808E+06
         0.96214E+06
         0.72132E+06
         0.23511E+06
        -0.43051E+06
        -0.91286E+06
        -0.11325E+07
        -0.77311E+06
        -0.13401E+07
        -0.17228E+07
        -0.14394E+07
        -0.11722E+07
        -0.54269E+06
         0.13695E+06
         0.10647E+06
        -0.81608E+05
        -0.49346E+06
        -0.93889E+06
        -0.96902E+06
        -0.66706E+06
         0.27052E+06
         0.12454E+06
         0.17345E+06
         0.28338E+06
        -0.35398E+05
         0.16277E+06
        -0.14263E+06
        -0.33247E+06
         0.38902E+06
        -0.37896E+06
        -0.37614E+06
        -0.51128E+05
        -0.19730E+06
        -0.10608E+07
        -0.43123E+06
        -0.16835E+06
         0.11775E+06
         0.27794E+06
        -0.60647E+05
        -0.49439E+05
        -0.79195E+06
        -0.57562E+06
        -0.99202E+06
        -0.24071E+06
        -0.43078E+06
        -0.14481E+06
        -0.13337E+07
        -0.88802E+06
        -0.54298E+06
        -0.44523E+06
        -0.87654E+05
        -0.13282E+06
         0.23346E+06
         0.43009E+06
        -0.66337E+06
        -0.31377E+06
        -0.27945E+06
        -0.56369E+06
        -0.30883E+06
        -0.24806E+06
        -0.62038E+06
        -0.89971E+06
        -0.83220E+06
        -0.77468E+06
        -0.52653E+06
        -0.23024E+06
        -0.16563E+06
        -0.18262E+06
         0.13965E+06
         0.25635E+06
        -0.10448E+06
        -0.61188E+05
        -0.16659E+07
        -0.85168E+06
        -0.10784E+07
        -0.22545E+06
         0.54362E+06
         0.11036E+07
         0.92191E+06
         0.97531E+06
         0.73660E+06
         0.25530E+06
        -0.41290E+06
        -0.90221E+06
        -0.11208E+07
        -0.76097E+06
        -0.13284E+07
        -0.17134E+07
        -0.14325E+07
        -0.11653E+07
        -0.53444E+06
         0.14260E+06
         0.10532E+06
        -0.89245E+05
        -0.49837E+06
        -0.93626E+06
        -0.96145E+06
        -0.65624E+06
         0.25100E+06
         0.11273E+06
         0.16655E+06
         0.28153E+06
        -0.37655E+05
         0.16298E+06
        -0.15182E+06
        -0.34926E+06
         0.37201E+06
        -0.40113E+06
        -0.38196E+06
        -0.54270E+05
        -0.20230E+06
        -0.10672E+07
        -0.43319E+06
        -0.17238E+06
         0.10852E+06
         0.27718E+06
        -0.63028E+05
        -0.52795E+05
        -0.79382E+06
        -0.57698E+06
        -0.99428E+06
        -0.24363E+06
        -0.44478E+06
        -0.15076E+06
        -0.13435E+07
        -0.89524E+06
        -0.54584E+06
        -0.44901E+06
        -0.10543E+06
        -0.14512E+06
         0.21970E+06
         0.42452E+06
        -0.66830E+06
        -0.31830E+06
        -0.28503E+06
        -0.56909E+06
        -0.31379E+06
        -0.25094E+06
        -0.62173E+06
        -0.90071E+06
        -0.83260E+06
        -0.77882E+06
        -0.53404E+06
        -0.24158E+06
        -0.17972E+06
        -0.20347E+06
         0.11795E+06
         0.24241E+06
        -0.11285E+06
        -0.62523E+05
        -0.16722E+07
        -0.85652E+06
        -0.10821E+07
        -0.22976E+06
         0.53744E+06
         0.10960E+07
         0.91569E+06
         0.96993E+06
         0.73136E+06
         0.25136E+06
        -0.41606E+06
        -0.90604E+06
        -0.11215E+07
        -0.76189E+06
        -0.13310E+07
        -0.17149E+07
        -0.14354E+07
        -0.11760E+07
        -0.55032E+06
         0.12499E+06
         0.85684E+05
        -0.11350E+06
        -0.51959E+06
        -0.94752E+06
        -0.96755E+06
        -0.66109E+06
         0.24527E+06
         0.10833E+06
         0.16370E+06
         0.27905E+06
        -0.40124E+05
         0.16095E+06
        -0.15664E+06
        -0.35477E+06
         0.36698E+06
        -0.40780E+06
        -0.38607E+06
        -0.58654E+05
        -0.20722E+06
        -0.10700E+07
        -0.43667E+06
        -0.17606E+06
         0.10458E+06
         0.27502E+06
        -0.65209E+05
        -0.55401E+05
        -0.79686E+06
        -0.58021E+06
        -0.99724E+06
        -0.24587E+06
        -0.44984E+06
        -0.15415E+06
        -0.13477E+07
        -0.89898E+06
        -0.55045E+06
        -0.45262E+06
        -0.11154E+06
        -0.14997E+06
         0.21561E+06
         0.42140E+06
        -0.67253E+06
        -0.32067E+06
        -0.28839E+06
        -0.57581E+06
        -0.31947E+06
        -0.25659E+06
        -0.62772E+06
        -0.90570E+06
        -0.83561E+06
        -0.78252E+06
        -0.53845E+06
        -0.24686E+06
        -0.18430E+06
        -0.20875E+06
         0.11262E+06
         0.23761E+06
        -0.11796E+06
        -0.64561E+05
        -0.16808E+07
        -0.86498E+06
        -0.10878E+07
        -0.23571E+06
         0.53028E+06
         0.10897E+07
         0.90914E+06
         0.96085E+06
         0.71955E+06
         0.23889E+06
        -0.42736E+06
        -0.91113E+06
        -0.11255E+07
        -0.77047E+06
        -0.13402E+07
        -0.17236E+07
        -0.14466E+07
        -0.11868E+07
        -0.55933E+06
         0.11763E+06
         0.79759E+05
        -0.12156E+06
        -0.53018E+06
        -0.95747E+06
        -0.97598E+06
        -0.66949E+06
         0.24880E+06
         0.11127E+06
         0.16585E+06
         0.27976E+06
        -0.36674E+05
         0.16218E+06
        -0.15387E+06
        -0.34996E+06
         0.37019E+06
        -0.40361E+06
        -0.38297E+06
        -0.54413E+05
        -0.20436E+06
        -0.10640E+07
        -0.42957E+06
        -0.17270E+06
         0.10764E+06
         0.27742E+06
        -0.61111E+05
        -0.51721E+05
        -0.79240E+06
        -0.57617E+06
        -0.99299E+06
        -0.24189E+06
        -0.44645E+06
        -0.15043E+06
        -0.13419E+07
        -0.89411E+06
        -0.54753E+06
        -0.44938E+06
        -0.10869E+06
        -0.14714E+06
         0.21841E+06
         0.42248E+06
        -0.66843E+06
        -0.31747E+06
        -0.28557E+06
        -0.57157E+06
        -0.31636E+06
        -0.25396E+06
        -0.62392E+06
        -0.90189E+06
        -0.83136E+06
        -0.77867E+06
        -0.53524E+06
        -0.24339E+06
        -0.18116E+06
        -0.20532E+06
         0.11625E+06
         0.24039E+06
        -0.11557E+06
        -0.62428E+05
        -0.16678E+07
        -0.85218E+06
        -0.10800E+07
        -0.23259E+06
         0.53670E+06
         0.10996E+07
         0.92015E+06
         0.96862E+06
         0.72265E+06
         0.24357E+06
        -0.41899E+06
        -0.89924E+06
        -0.11152E+07
        -0.76378E+06
        -0.13339E+07
        -0.17164E+07
        -0.14391E+07
        -0.11776E+07
        -0.55053E+06
         0.12787E+06
         0.90372E+05
        -0.11214E+06
        -0.52216E+06
        -0.95045E+06
        -0.96899E+06
        -0.66198E+06
         0.24781E+06
         0.11099E+06
         0.16526E+06
         0.27810E+06
        -0.36889E+05
         0.16130E+06
        -0.15473E+06
        -0.35110E+06
         0.36767E+06
        -0.40621E+06
        -0.38467E+06
        -0.57103E+05
        -0.20527E+06
        -0.10647E+07
        -0.43324E+06
        -0.17521E+06
         0.10496E+06
         0.27509E+06
        -0.62911E+05
        -0.53722E+05
        -0.79389E+06
        -0.57822E+06
        -0.99453E+06
        -0.24337E+06
        -0.44804E+06
        -0.15183E+06
        -0.13433E+07
        -0.89434E+06
        -0.54909E+06
        -0.45112E+06
        -0.11090E+06
        -0.14860E+06
         0.21642E+06
         0.42018E+06
        -0.67018E+06
        -0.31843E+06
        -0.28626E+06
        -0.57742E+06
        -0.31971E+06
        -0.25703E+06
        -0.62692E+06
        -0.90409E+06
        -0.83394E+06
        -0.77963E+06
        -0.53611E+06
        -0.24503E+06
        -0.18324E+06
        -0.20782E+06
         0.11420E+06
         0.23855E+06
        -0.11749E+06
        -0.63037E+05
        -0.16715E+07
        -0.85506E+06
        -0.10860E+07
        -0.23776E+06
         0.53606E+06
         0.10959E+07
         0.91164E+06
         0.95910E+06
         0.71721E+06
         0.23529E+06
        -0.42805E+06
        -0.90373E+06
        -0.11205E+07
        -0.76666E+06
        -0.13367E+07
        -0.17190E+07
        -0.14394E+07
        -0.11794E+07
        -0.55306E+06
         0.12093E+06
         0.81896E+05
        -0.11868E+06
        -0.52535E+06
        -0.95203E+06
        -0.97278E+06
        -0.66737E+06
         0.24513E+06
         0.10873E+06
         0.16361E+06
         0.27713E+06
        -0.38514E+05
         0.16089E+06
        -0.15689E+06
        -0.35301E+06
         0.36539E+06
        -0.40881E+06
        -0.38658E+06
        -0.60648E+05
        -0.20761E+06
        -0.10649E+07
        -0.43700E+06
        -0.17847E+06
         0.10277E+06
         0.27381E+06
        -0.65125E+05
        -0.55199E+05
        -0.79586E+06
        -0.58030E+06
        -0.99687E+06
        -0.24567E+06
        -0.44961E+06
        -0.15447E+06
        -0.13444E+07
        -0.89512E+06
        -0.55082E+06
        -0.45242E+06
        -0.11389E+06
        -0.15101E+06
         0.21551E+06
         0.41978E+06
        -0.67395E+06
        -0.32023E+06
        -0.28801E+06
        -0.58310E+06
        -0.32342E+06
        -0.25976E+06
        -0.62871E+06
        -0.90603E+06
        -0.83631E+06
        -0.78156E+06
        -0.53781E+06
        -0.24727E+06
        -0.18518E+06
        -0.21000E+06
         0.11225E+06
         0.23693E+06
        -0.11930E+06
        -0.62591E+05
        -0.16790E+07
        -0.86123E+06
        -0.10905E+07
        -0.23932E+06
         0.53409E+06
         0.10885E+07
         0.90096E+06
         0.95049E+06
         0.71157E+06
         0.22935E+06
        -0.43175E+06
        -0.90816E+06
        -0.11269E+07
        -0.77096E+06
        -0.13414E+07
        -0.17243E+07
        -0.14428E+07
        -0.11836E+07
        -0.55811E+06
         0.11521E+06
         0.75478E+05
        -0.12537E+06
        -0.53003E+06
        -0.95657E+06
        -0.97855E+06
        -0.67351E+06
         0.24677E+06
         0.10963E+06
         0.16439E+06
         0.27846E+06
        -0.36063E+05
         0.16323E+06
        -0.15522E+06
        -0.34953E+06
         0.36685E+06
        -0.40705E+06
        -0.38366E+06
        -0.57774E+05
        -0.20687E+06
        -0.10593E+07
        -0.43041E+06
        -0.17685E+06
         0.10377E+06
         0.27621E+06
        -0.62657E+05
        -0.52232E+05
        -0.79227E+06
        -0.57668E+06
        -0.99401E+06
        -0.24322E+06
        -0.44809E+06
        -0.15211E+06
        -0.13407E+07
        -0.89194E+06
        -0.54748E+06
        -0.44887E+06
        -0.11173E+06
        -0.14907E+06
         0.21878E+06
         0.42241E+06
        -0.67155E+06
        -0.31811E+06
        -0.28676E+06
        -0.57976E+06
        -0.32033E+06
        -0.25571E+06
        -0.62445E+06
        -0.90323E+06
        -0.83291E+06
        -0.77915E+06
        -0.53578E+06
        -0.24531E+06
        -0.18323E+06
        -0.20798E+06
         0.11467E+06
         0.23931E+06
        -0.11679E+06
        -0.59016E+05
        -0.16695E+07
        -0.85090E+06
        -0.10807E+07
        -0.23459E+06
         0.53262E+06
         0.10890E+07
         0.90858E+06
         0.95884E+06
         0.71734E+06
         0.23804E+06
        -0.42352E+06
        -0.90423E+06
        -0.11200E+07
        -0.76396E+06
        -0.13351E+07
        -0.17194E+07
        -0.14394E+07
        -0.11793E+07
        -0.55408E+06
         0.12137E+06
         0.82822E+05
        -0.11835E+06
        -0.52382E+06
        -0.95138E+06
        -0.97096E+06
        -0.66468E+06
         0.24550E+06
         0.10782E+06
         0.16280E+06
         0.27659E+06
        -0.37720E+05
         0.16178E+06
        -0.15786E+06
        -0.35123E+06
         0.36501E+06
        -0.41024E+06
        -0.38647E+06
        -0.62162E+05
        -0.21141E+06
        -0.10606E+07
        -0.43302E+06
        -0.17960E+06
         0.10105E+06
         0.27371E+06
        -0.65371E+05
        -0.54609E+05
        -0.79596E+06
        -0.58048E+06
        -0.99798E+06
        -0.24588E+06
        -0.45115E+06
        -0.15444E+06
        -0.13443E+07
        -0.89551E+06
        -0.55107E+06
        -0.45111E+06
        -0.11455E+06
        -0.15135E+06
         0.21626E+06
         0.42033E+06
        -0.67515E+06
        -0.32027E+06
        -0.28972E+06
        -0.58591E+06
        -0.32606E+06
        -0.26066E+06
        -0.63006E+06
        -0.90863E+06
        -0.83687E+06
        -0.78322E+06
        -0.53910E+06
        -0.24859E+06
        -0.18603E+06
        -0.21132E+06
         0.11212E+06
         0.23749E+06
        -0.11925E+06
        -0.59897E+05
        -0.16768E+07
        -0.85722E+06
        -0.10879E+07
        -0.24302E+06
         0.52284E+06
         0.10796E+07
         0.90279E+06
         0.95137E+06
         0.70773E+06
         0.22846E+06
        -0.43522E+06
        -0.91577E+06
        -0.11276E+07
        -0.77182E+06
        -0.13419E+07
        -0.17273E+07
        -0.14514E+07
        -0.11902E+07
        -0.55945E+06
         0.11381E+06
         0.75155E+05
        -0.12228E+06
        -0.52637E+06
        -0.95701E+06
        -0.97873E+06
        -0.67248E+06
         0.24522E+06
         0.10721E+06
         0.16230E+06
         0.27598E+06
        -0.37593E+05
         0.16170E+06
        -0.15858E+06
        -0.35093E+06
         0.36509E+06
        -0.41036E+06
        -0.38683E+06
        -0.62834E+05
        -0.21230E+06
        -0.10588E+07
        -0.43259E+06
        -0.18063E+06
         0.10079E+06
         0.27331E+06
        -0.65630E+05
        -0.54695E+05
        -0.79661E+06
        -0.58102E+06
        -0.99889E+06
        -0.24638E+06
        -0.45157E+06
        -0.15511E+06
        -0.13437E+07
        -0.89581E+06
        -0.55237E+06
        -0.45167E+06
        -0.11625E+06
        -0.15223E+06
         0.21554E+06
         0.41992E+06
        -0.67625E+06
        -0.32080E+06
        -0.29053E+06
        -0.58903E+06
        -0.32950E+06
        -0.26291E+06
        -0.63083E+06
        -0.90951E+06
        -0.83751E+06
        -0.78380E+06
        -0.53953E+06
        -0.24932E+06
        -0.18687E+06
        -0.21271E+06
         0.11117E+06
         0.23716E+06
        -0.11959E+06
        -0.59131E+05
        -0.16770E+07
        -0.85700E+06
        -0.10898E+07
        -0.24627E+06
         0.52271E+06
         0.10794E+07
         0.90043E+06
         0.94512E+06
         0.70082E+06
         0.22464E+06
        -0.43559E+06
        -0.91687E+06
        -0.11295E+07
        -0.77486E+06
        -0.13455E+07
        -0.17299E+07
        -0.14529E+07
        -0.11916E+07
        -0.56091E+06
         0.11108E+06
         0.71816E+05
        -0.12442E+06
        -0.52644E+06
        -0.95768E+06
        -0.98220E+06
        -0.67568E+06
         0.25052E+06
         0.11281E+06
         0.16700E+06
         0.27953E+06
        -0.31132E+05
         0.16650E+06
        -0.15231E+06
        -0.34411E+06
         0.36892E+06
        -0.40550E+06
        -0.37999E+06
        -0.53563E+05
        -0.20466E+06
        -0.10503E+07
        -0.42286E+06
        -0.17642E+06
         0.10510E+06
         0.27765E+06
        -0.60229E+05
        -0.48710E+05
        -0.78885E+06
        -0.57391E+06
        -0.99182E+06
        -0.24109E+06
        -0.44589E+06
        -0.14985E+06
        -0.13363E+07
        -0.88771E+06
        -0.54537E+06
        -0.44502E+06
        -0.11145E+06
        -0.14683E+06
         0.22032E+06
         0.42341E+06
        -0.66924E+06
        -0.31509E+06
        -0.28447E+06
        -0.58355E+06
        -0.32300E+06
        -0.25603E+06
        -0.62358E+06
        -0.90261E+06
        -0.83108E+06
        -0.77662E+06
        -0.53248E+06
        -0.24176E+06
        -0.18083E+06
        -0.20737E+06
         0.11598E+06
         0.24140E+06
        -0.11454E+06
        -0.53882E+05
        -0.16597E+07
        -0.83980E+06
        -0.10752E+07
        -0.23581E+06
         0.53557E+06
         0.10956E+07
         0.91400E+06
         0.95531E+06
         0.71246E+06
         0.23735E+06
        -0.42415E+06
        -0.90346E+06
        -0.11190E+07
        -0.76315E+06
        -0.13323E+07
        -0.17159E+07
        -0.14371E+07
        -0.11746E+07
        -0.54625E+06
         0.12631E+06
         0.84848E+05
        -0.11477E+06
        -0.51564E+06
        -0.94497E+06
        -0.96847E+06
        -0.66187E+06
         0.24822E+06
         0.11118E+06
         0.16552E+06
         0.27723E+06
        -0.33309E+05
         0.16498E+06
        -0.15470E+06
        -0.34644E+06
         0.36631E+06
        -0.40948E+06
        -0.38276E+06
        -0.56952E+05
        -0.20677E+06
        -0.10518E+07
        -0.42672E+06
        -0.17978E+06
         0.10176E+06
         0.27564E+06
        -0.63813E+05
        -0.51663E+05
        -0.79126E+06
        -0.57737E+06
        -0.99428E+06
        -0.24429E+06
        -0.44947E+06
        -0.15314E+06
        -0.13396E+07
        -0.89008E+06
        -0.54649E+06
        -0.44663E+06
        -0.11363E+06
        -0.14942E+06
         0.21873E+06
         0.42088E+06
        -0.67380E+06
        -0.31702E+06
        -0.28585E+06
        -0.59047E+06
        -0.32774E+06
        -0.25844E+06
        -0.62717E+06
        -0.90689E+06
        -0.83563E+06
        -0.77961E+06
        -0.53535E+06
        -0.24484E+06
        -0.18315E+06
        -0.20931E+06
         0.11385E+06
         0.23863E+06
        -0.11752E+06
        -0.54828E+05
        -0.16706E+07
        -0.84895E+06
        -0.10835E+07
        -0.24026E+06
         0.53412E+06
         0.10914E+07
         0.90471E+06
         0.94413E+06
         0.70180E+06
         0.22780E+06
        -0.43543E+06
        -0.91636E+06
        -0.11280E+07
        -0.76763E+06
        -0.13344E+07
        -0.17173E+07
        -0.14414E+07
        -0.11822E+07
        -0.55188E+06
         0.11952E+06
         0.78721E+05
        -0.12169E+06
        -0.52296E+06
        -0.94965E+06
        -0.97290E+06
        -0.66924E+06
         0.24439E+06
         0.10704E+06
         0.16150E+06
         0.27418E+06
        -0.37026E+05
         0.16171E+06
        -0.15848E+06
        -0.34930E+06
         0.36257E+06
        -0.41653E+06
        -0.38615E+06
        -0.62393E+05
        -0.21122E+06
        -0.10534E+07
        -0.43166E+06
        -0.18378E+06
         0.96870E+05
         0.27328E+06
        -0.66751E+05
        -0.53008E+05
        -0.79428E+06
        -0.58141E+06
        -0.99725E+06
        -0.24705E+06
        -0.45572E+06
        -0.15636E+06
        -0.13469E+07
        -0.89411E+06
        -0.53819E+06
        -0.44192E+06
        -0.11720E+06
        -0.15309E+06
         0.21716E+06
         0.41914E+06
        -0.67889E+06
        -0.32035E+06
        -0.28935E+06
        -0.60053E+06
        -0.33243E+06
        -0.25213E+06
        -0.62762E+06
        -0.91150E+06
        -0.84168E+06
        -0.78288E+06
        -0.53904E+06
        -0.24982E+06
        -0.18726E+06
        -0.21265E+06
         0.11138E+06
         0.23642E+06
        -0.12014E+06
        -0.56312E+05
        -0.16779E+07
        -0.85558E+06
        -0.10892E+07
        -0.24528E+06
         0.52718E+06
         0.10799E+07
         0.89164E+06
         0.93165E+06
         0.69106E+06
         0.22533E+06
        -0.45512E+06
        -0.94730E+06
        -0.11408E+07
        -0.77467E+06
        -0.13408E+07
        -0.17231E+07
        -0.14483E+07
        -0.11903E+07
        -0.56117E+06
         0.10889E+06
         0.71679E+05
        -0.12831E+06
        -0.53042E+06
        -0.95523E+06
        -0.98159E+06
        -0.67905E+06
         0.24945E+06
         0.11219E+06
         0.16660E+06
         0.27850E+06
        -0.30190E+05
         0.16686E+06
        -0.15302E+06
        -0.34258E+06
         0.36520E+06
        -0.41770E+06
        -0.38000E+06
        -0.55487E+05
        -0.20561E+06
        -0.10453E+07
        -0.42294E+06
        -0.17952E+06
         0.99709E+05
         0.27737E+06
        -0.60519E+05
        -0.43266E+05
        -0.78779E+06
        -0.57520E+06
        -0.99158E+06
        -0.24134E+06
        -0.45441E+06
        -0.15064E+06
        -0.13482E+07
        -0.88897E+06
        -0.51136E+06
        -0.42118E+06
        -0.11318E+06
        -0.14760E+06
         0.22184E+06
         0.42378E+06
        -0.67135E+06
        -0.31401E+06
        -0.28362E+06
        -0.60033E+06
        -0.32491E+06
        -0.22717E+06
        -0.61348E+06
        -0.90445E+06
        -0.83795E+06
        -0.77669E+06
        -0.53214E+06
        -0.24141E+06
        -0.18097E+06
        -0.20778E+06
         0.11665E+06
         0.24217E+06
        -0.11347E+06
        -0.50337E+05
        -0.16601E+07
        -0.83811E+06
        -0.10712E+07
        -0.23281E+06
         0.53524E+06
         0.10891E+07
         0.90435E+06
         0.94443E+06
         0.70527E+06
         0.25296E+06
        -0.46148E+06
        -0.97220E+06
        -0.11399E+07
        -0.76496E+06
        -0.13327E+07
        -0.17163E+07
        -0.14397E+07
        -0.11760E+07
        -0.54367E+06
         0.12520E+06
         0.85806E+05
        -0.11382E+06
        -0.51393E+06
        -0.94007E+06
        -0.96934E+06
        -0.66626E+06
         0.23030E+06
         0.93162E+05
         0.14812E+06
         0.26078E+06
        -0.52807E+05
         0.14669E+06
        -0.17420E+06
        -0.36437E+06
         0.34516E+06
        -0.44501E+06
        -0.40333E+06
        -0.88788E+05
        -0.23550E+06
        -0.10681E+07
        -0.45680E+06
        -0.19848E+06
         0.77954E+05
         0.25971E+06
        -0.81438E+05
        -0.62925E+05
        -0.81554E+06
        -0.60220E+06
        -0.10182E+07
        -0.26150E+06
        -0.47967E+06
        -0.16976E+06
        -0.13771E+07
        -0.91274E+06
        -0.52266E+06
        -0.43540E+06
        -0.13191E+06
        -0.16740E+06
         0.20369E+06
         0.40413E+06
        -0.70055E+06
        -0.33630E+06
        -0.30829E+06
        -0.63888E+06
        -0.35403E+06
        -0.24416E+06
        -0.64158E+06
        -0.93452E+06
        -0.86784E+06
        -0.80154E+06
        -0.55721E+06
        -0.27266E+06
        -0.20499E+06
        -0.22919E+06
         0.95809E+05
         0.21964E+06
        -0.14245E+06
        -0.71788E+05
        -0.17217E+07
        -0.89789E+06
        -0.11335E+07
        -0.29630E+06
         0.47191E+06
         0.10279E+07
         0.84218E+06
         0.87789E+06
         0.64306E+06
         0.19615E+06
        -0.54060E+06
        -0.10583E+07
        -0.12004E+07
        -0.81507E+06
        -0.13856E+07
        -0.17713E+07
        -0.14965E+07
        -0.12398E+07
        -0.60906E+06
         0.62380E+05
         0.27841E+05
        -0.16924E+06
        -0.57068E+06
        -0.99845E+06
        -0.10255E+07
        -0.72209E+06
         0.24116E+06
         0.94455E+05
         0.15155E+06
         0.26744E+06
        -0.44734E+05
         0.15386E+06
        -0.17152E+06
        -0.35039E+06
         0.35818E+06
        -0.42533E+06
        -0.39683E+06
        -0.88243E+05
        -0.24327E+06
        -0.10510E+07
        -0.44118E+06
        -0.18481E+06
         0.91510E+05
         0.26950E+06
        -0.70143E+05
        -0.51058E+05
        -0.80273E+06
        -0.59286E+06
        -0.99913E+06
        -0.24640E+06
        -0.45782E+06
        -0.15571E+06
        -0.13524E+07
        -0.88500E+06
        -0.50034E+06
        -0.41445E+06
        -0.12110E+06
        -0.15863E+06
         0.20944E+06
         0.40128E+06
        -0.69650E+06
        -0.33780E+06
        -0.31520E+06
        -0.62148E+06
        -0.33392E+06
        -0.22696E+06
        -0.62906E+06
        -0.91802E+06
        -0.85006E+06
        -0.78444E+06
        -0.54781E+06
        -0.26780E+06
        -0.20127E+06
        -0.22026E+06
         0.10289E+06
         0.22009E+06
        -0.14043E+06
        -0.70078E+05
        -0.16980E+07
        -0.86696E+06
        -0.11256E+07
        -0.30999E+06
         0.44350E+06
         0.10105E+07
         0.87059E+06
         0.90693E+06
         0.66629E+06
         0.20997E+06
        -0.53671E+06
        -0.10465E+07
        -0.11775E+07
        -0.80373E+06
        -0.13617E+07
        -0.17370E+07
        -0.14671E+07
        -0.12172E+07
        -0.59926E+06
         0.61242E+05
         0.40820E+05
        -0.15079E+06
        -0.54122E+06
        -0.96285E+06
        -0.99748E+06
        -0.69313E+06
         0.75869E+08
         0.74048E+08
         0.73538E+08
         0.67237E+08
         0.91434E+08
         0.79381E+08
         0.79876E+08
         0.86032E+08
         0.70045E+08
         0.85581E+08
         0.88744E+08
         0.12737E+09
         0.10884E+09
         0.90988E+08
         0.13201E+09
         0.67938E+08
         0.73388E+08
         0.64319E+08
         0.76338E+08
         0.79876E+08
         0.10001E+09
         0.99662E+08
         0.93907E+08
         0.72866E+08
         0.81103E+08
         0.69885E+08
         0.89789E+08
         0.87482E+08
         0.87939E+08
         0.83951E+08
         0.68728E+08
         0.72283E+08
         0.67624E+08
         0.70774E+08
         0.10864E+09
         0.84290E+08
         0.91186E+08
         0.12138E+09
         0.11157E+09
         0.10772E+09
         0.11839E+09
         0.10948E+09
         0.10373E+09
         0.88016E+08
         0.89309E+08
         0.11148E+09
         0.90544E+08
         0.79839E+08
         0.78257E+08
         0.81431E+08
         0.10269E+09
         0.83208E+08
         0.22371E+09
         0.21939E+09
         0.22399E+09
         0.21706E+09
         0.22464E+09
         0.23635E+09
         0.23709E+09
         0.23361E+09
         0.23519E+09
         0.24207E+09
         0.23409E+09
         0.22027E+09
         0.19393E+09
         0.18267E+09
         0.18606E+09
         0.19097E+09
         0.19394E+09
         0.21213E+09
         0.22732E+09
         0.22871E+09
         0.20900E+09
         0.20119E+09
         0.20867E+09
         0.20584E+09
         0.20434E+09
         0.20470E+09
         0.10022E+10
         0.10477E+10
         0.10318E+10
         0.93667E+09
         0.11669E+10
         0.10916E+10
         0.11353E+10
         0.11488E+10
         0.97568E+09
         0.11479E+10
         0.12511E+10
         0.14153E+10
         0.12782E+10
         0.12896E+10
         0.14662E+10
         0.95613E+09
         0.10281E+10
         0.89062E+09
         0.10638E+10
         0.11204E+10
         0.11692E+10
         0.11945E+10
         0.11202E+10
         0.10208E+10
         0.11593E+10
         0.98273E+09
         0.12848E+10
         0.12605E+10
         0.12667E+10
         0.12017E+10
         0.96589E+09
         0.10160E+10
         0.94442E+09
         0.98956E+09
         0.12826E+10
         0.11707E+10
         0.11765E+10
         0.14170E+10
         0.13776E+10
         0.13600E+10
         0.13878E+10
         0.13158E+10
         0.12434E+10
         0.10913E+10
         0.11363E+10
         0.12830E+10
         0.11809E+10
         0.11074E+10
         0.10836E+10
         0.11257E+10
         0.12286E+10
         0.11297E+10
         0.20615E+10
         0.20098E+10
         0.20525E+10
         0.19891E+10
         0.20490E+10
         0.21542E+10
         0.21877E+10
         0.21807E+10
         0.21953E+10
         0.22459E+10
         0.21813E+10
         0.20521E+10
         0.18383E+10
         0.17373E+10
         0.17438E+10
         0.17673E+10
         0.17852E+10
         0.19359E+10
         0.20717E+10
         0.20807E+10
         0.19257E+10
         0.18658E+10
         0.19279E+10
         0.19135E+10
         0.18924E+10
         0.18869E+10
  
SCALARS                      stress_yy  double 1
LOOKUP_TABLE default
         0.10591E+11
         0.97506E+10
         0.10284E+11
         0.11242E+11
        -0.55288E+02
        -0.61997E+02
        -0.59364E+02
        -0.53930E+02
         0.97213E+10
         0.10006E+11
        -0.55751E+02
        -0.53953E+02
         0.85365E+10
         0.84918E+10
        -0.66244E+02
        -0.62286E+02
         0.11101E+11
         0.85573E+10
        -0.48947E+02
        -0.54290E+02
         0.76273E+10
         0.69075E+10
         0.80539E+10
        -0.65655E+02
        -0.57337E+02
        -0.59208E+02
         0.69353E+10
         0.58870E+10
        -0.62987E+02
        -0.53118E+02
         0.11055E+11
         0.99461E+10
         0.12133E+11
        -0.53750E+02
        -0.49969E+02
        -0.48583E+02
         0.10413E+11
         0.90033E+10
        -0.56865E+02
        -0.51890E+02
         0.98541E+10
         0.87676E+10
        -0.49148E+02
        -0.43510E+02
         0.10776E+11
         0.11186E+11
        -0.53859E+02
        -0.60180E+02
         0.78990E+10
        -0.52616E+02
         0.11106E+11
        -0.61826E+02
         0.66327E+10
        -0.55564E+02
         0.63031E+10
        -0.53297E+02
         0.63083E+10
         0.74815E+10
        -0.54304E+02
        -0.52886E+02
         0.11032E+11
         0.10606E+11
        -0.54453E+02
        -0.61558E+02
         0.11299E+11
        -0.52543E+02
         0.10792E+11
        -0.57344E+02
         0.94596E+10
         0.93267E+10
        -0.55200E+02
        -0.57839E+02
         0.90266E+10
        -0.58324E+02
         0.55154E+10
        -0.46080E+02
         0.53323E+10
        -0.44728E+02
         0.54234E+10
        -0.47162E+02
         0.59290E+10
         0.64557E+10
        -0.44934E+02
        -0.46847E+02
         0.75193E+10
        -0.43631E+02
         0.10755E+11
        -0.57216E+02
         0.10248E+11
        -0.58560E+02
         0.98326E+10
         0.96050E+10
        -0.56236E+02
        -0.56893E+02
         0.98857E+10
        -0.51675E+02
         0.10085E+11
        -0.50938E+02
         0.99049E+10
        -0.54530E+02
         0.98411E+10
         0.10024E+11
        -0.53474E+02
        -0.55043E+02
         0.88410E+10
         0.93200E+10
        -0.41517E+02
        -0.39049E+02
         0.87502E+10
        -0.39644E+02
         0.93032E+10
        -0.38012E+02
         0.87574E+10
        -0.37482E+02
         0.75525E+10
        -0.35421E+02
         0.63887E+10
        -0.31468E+02
         0.56941E+10
        -0.28335E+02
         0.56233E+10
        -0.28138E+02
         0.56453E+10
        -0.30514E+02
         0.63989E+10
        -0.32069E+02
         0.78118E+10
        -0.29283E+02
         0.93711E+10
        -0.26395E+02
         0.10288E+11
        -0.26365E+02
         0.11196E+11
        -0.29470E+02
         0.11797E+11
        -0.33602E+02
         0.11775E+11
        -0.36099E+02
         0.10316E+11
        -0.38987E+02
         0.93034E+10
        -0.41769E+02
         0.89560E+10
        -0.38263E+02
         0.94981E+10
        -0.33567E+02
         0.97814E+10
        -0.33463E+02
         0.93067E+10
        -0.36613E+02
         0.93141E+10
        -0.39032E+02
         0.96719E+10
        -0.37041E+02
         0.10139E+11
        -0.35810E+02
        -0.20745E+11
        -0.21050E+11
        -0.21010E+11
        -0.20612E+11
        -0.21338E+11
        -0.20975E+11
        -0.21424E+11
        -0.21191E+11
        -0.20676E+11
        -0.20999E+11
        -0.21668E+11
        -0.21742E+11
        -0.21545E+11
        -0.21531E+11
        -0.21659E+11
        -0.20632E+11
        -0.20706E+11
        -0.20496E+11
        -0.21083E+11
        -0.20978E+11
        -0.21128E+11
        -0.21029E+11
        -0.21211E+11
        -0.21164E+11
        -0.20987E+11
        -0.20999E+11
        -0.21301E+11
        -0.21274E+11
        -0.21493E+11
        -0.21160E+11
        -0.20669E+11
        -0.21055E+11
        -0.20671E+11
        -0.20926E+11
        -0.21793E+11
        -0.21521E+11
        -0.21390E+11
        -0.21544E+11
        -0.21564E+11
        -0.21812E+11
        -0.21989E+11
        -0.21553E+11
        -0.21122E+11
        -0.21181E+11
        -0.21403E+11
        -0.21783E+11
        -0.21459E+11
        -0.21103E+11
        -0.21128E+11
        -0.21404E+11
        -0.21680E+11
        -0.21307E+11
        -0.22408E+11
        -0.22094E+11
        -0.22147E+11
        -0.22073E+11
        -0.22092E+11
        -0.22262E+11
        -0.22434E+11
        -0.22489E+11
        -0.22465E+11
        -0.22483E+11
        -0.22555E+11
        -0.22108E+11
        -0.21936E+11
        -0.21869E+11
        -0.21754E+11
        -0.21666E+11
        -0.21670E+11
        -0.21820E+11
        -0.22304E+11
        -0.22190E+11
        -0.22024E+11
        -0.22026E+11
        -0.22055E+11
        -0.22214E+11
        -0.21979E+11
        -0.21891E+11
        -0.10325E+06
        -0.51683E+05
         0.28755E+05
         0.36790E+06
         0.63237E+04
         0.35480E+06
        -0.13464E+06
        -0.63390E+06
         0.25030E+06
        -0.63086E+06
        -0.46522E+06
        -0.81577E+06
        -0.30513E+06
        -0.75869E+06
        -0.10283E+07
         0.42591E+05
         0.23575E+06
         0.31099E+06
        -0.11528E+06
         0.44261E+05
        -0.10354E+06
         0.12091E+06
        -0.20801E+06
        -0.81583E+05
        -0.49238E+06
        -0.43907E+05
        -0.10196E+07
        -0.82201E+06
        -0.42429E+06
        -0.44630E+06
         0.17445E+05
        -0.13539E+05
         0.28352E+06
         0.46608E+06
         0.17024E+05
        -0.34464E+05
        -0.79862E+05
        -0.91066E+06
        -0.89456E+06
        -0.66436E+06
        -0.15379E+06
        -0.95946E+05
        -0.90981E+05
        -0.28254E+06
        -0.34980E+06
        -0.72891E+06
        -0.32394E+06
        -0.81002E+05
        -0.73739E+05
        -0.64424E+05
         0.61146E+05
         0.40686E+06
        -0.54889E+06
         0.19488E+06
        -0.58846E+06
        -0.22899E+06
        -0.32163E+05
         0.69867E+05
        -0.19576E+06
        -0.29564E+05
        -0.19111E+06
        -0.37317E+06
         0.67840E+05
         0.28176E+06
         0.68520E+05
         0.38065E+06
        -0.14404E+06
        -0.61311E+06
        -0.79282E+06
        -0.99096E+06
        -0.12923E+07
        -0.93890E+06
        -0.83965E+06
        -0.10035E+07
        -0.11590E+07
        -0.70761E+06
        -0.16730E+05
         0.30542E+06
        -0.12372E+06
        -0.71959E+05
         0.86068E+04
         0.34981E+06
        -0.18452E+05
         0.33308E+06
        -0.15682E+06
        -0.65828E+06
         0.22885E+06
        -0.65783E+06
        -0.49015E+06
        -0.85140E+06
        -0.33484E+06
        -0.78328E+06
        -0.10648E+07
         0.21439E+05
         0.21242E+06
         0.29315E+06
        -0.13911E+06
         0.19549E+05
        -0.13349E+06
         0.92248E+05
        -0.23805E+06
        -0.10569E+06
        -0.52094E+06
        -0.66854E+05
        -0.10434E+07
        -0.84693E+06
        -0.45080E+06
        -0.47478E+06
        -0.30363E+04
        -0.35284E+05
         0.26486E+06
         0.44770E+06
        -0.12511E+05
        -0.57352E+05
        -0.10412E+06
        -0.94633E+06
        -0.92680E+06
        -0.69490E+06
        -0.18855E+06
        -0.12919E+06
        -0.12282E+06
        -0.31061E+06
        -0.37550E+06
        -0.75932E+06
        -0.34891E+06
        -0.10373E+06
        -0.94059E+05
        -0.84491E+05
         0.34004E+05
         0.38480E+06
        -0.61062E+06
         0.13451E+06
        -0.64808E+06
        -0.28592E+06
        -0.92569E+05
         0.25980E+04
        -0.26284E+06
        -0.97121E+05
        -0.25953E+06
        -0.44322E+06
        -0.17692E+04
         0.21735E+06
         0.15144E+05
         0.33086E+06
        -0.19635E+06
        -0.66920E+06
        -0.85030E+06
        -0.10511E+07
        -0.13526E+07
        -0.10026E+07
        -0.89967E+06
        -0.10576E+07
        -0.12134E+07
        -0.76299E+06
        -0.72738E+05
         0.24845E+06
        -0.11905E+06
        -0.68064E+05
         0.12679E+05
         0.35449E+06
        -0.12225E+05
         0.33883E+06
        -0.15238E+06
        -0.65412E+06
         0.23156E+06
        -0.65896E+06
        -0.48526E+06
        -0.84446E+06
        -0.32917E+06
        -0.77718E+06
        -0.10568E+07
         0.17162E+05
         0.21107E+06
         0.29798E+06
        -0.14511E+06
         0.14900E+05
        -0.13865E+06
         0.90343E+05
        -0.25776E+06
        -0.12308E+06
        -0.53416E+06
        -0.82912E+05
        -0.10387E+07
        -0.85023E+06
        -0.46139E+06
        -0.49489E+06
        -0.30477E+04
        -0.40190E+05
         0.26968E+06
         0.45364E+06
        -0.47319E+04
        -0.51668E+05
        -0.98769E+05
        -0.94095E+06
        -0.92298E+06
        -0.69367E+06
        -0.18955E+06
        -0.14124E+06
        -0.14000E+06
        -0.32946E+06
        -0.37997E+06
        -0.75520E+06
        -0.34445E+06
        -0.98350E+05
        -0.87611E+05
        -0.77014E+05
         0.41720E+05
         0.39116E+06
        -0.59215E+06
         0.15099E+06
        -0.62988E+06
        -0.27182E+06
        -0.82143E+05
         0.13118E+05
        -0.24942E+06
        -0.83668E+05
        -0.24611E+06
        -0.42920E+06
         0.65112E+04
         0.21700E+06
         0.16009E+05
         0.33998E+06
        -0.19023E+06
        -0.68061E+06
        -0.86281E+06
        -0.10479E+07
        -0.13362E+07
        -0.98342E+06
        -0.88265E+06
        -0.10404E+07
        -0.11941E+07
        -0.74656E+06
        -0.59313E+05
         0.26145E+06
        -0.12206E+06
        -0.69848E+05
         0.10833E+05
         0.35152E+06
        -0.14750E+05
         0.33690E+06
        -0.15437E+06
        -0.65827E+06
         0.22485E+06
        -0.67177E+06
        -0.48795E+06
        -0.84806E+06
        -0.33154E+06
        -0.78005E+06
        -0.10621E+07
         0.32523E+03
         0.19727E+06
         0.29480E+06
        -0.16597E+06
        -0.58877E+04
        -0.16144E+06
         0.70532E+05
        -0.30363E+06
        -0.16197E+06
        -0.56767E+06
        -0.11954E+06
        -0.10452E+07
        -0.87041E+06
        -0.49398E+06
        -0.54197E+06
        -0.13001E+05
        -0.59762E+05
         0.26667E+06
         0.45059E+06
        -0.84894E+04
        -0.54031E+05
        -0.10072E+06
        -0.94810E+06
        -0.93183E+06
        -0.70785E+06
        -0.20934E+06
        -0.17888E+06
        -0.18642E+06
        -0.37379E+06
        -0.40134E+06
        -0.76750E+06
        -0.35255E+06
        -0.10241E+06
        -0.90490E+05
        -0.80005E+05
         0.37646E+05
         0.38882E+06
        -0.60073E+06
         0.14500E+06
        -0.63943E+06
        -0.28003E+06
        -0.87747E+05
         0.67985E+04
        -0.26003E+06
        -0.95098E+05
        -0.25733E+06
        -0.44277E+06
        -0.14923E+05
         0.18232E+06
        -0.16345E+05
         0.32463E+06
        -0.20748E+06
        -0.72833E+06
        -0.91356E+06
        -0.10717E+07
        -0.13475E+07
        -0.99414E+06
        -0.89088E+06
        -0.10501E+07
        -0.12043E+07
        -0.75326E+06
        -0.64349E+05
         0.25648E+06
        -0.12744E+06
        -0.73395E+05
         0.77530E+04
         0.34846E+06
        -0.17623E+05
         0.33426E+06
        -0.15742E+06
        -0.66441E+06
         0.21694E+06
        -0.68502E+06
        -0.49082E+06
        -0.85026E+06
        -0.33418E+06
        -0.78323E+06
        -0.10650E+07
        -0.11077E+05
         0.18631E+06
         0.29184E+06
        -0.17977E+06
        -0.20841E+05
        -0.17621E+06
         0.56294E+05
        -0.33183E+06
        -0.18605E+06
        -0.59221E+06
        -0.14294E+06
        -0.10509E+07
        -0.88495E+06
        -0.51639E+06
        -0.57340E+06
        -0.23382E+05
        -0.73946E+05
         0.26094E+06
         0.44636E+06
        -0.12374E+05
        -0.57036E+05
        -0.10366E+06
        -0.95360E+06
        -0.93939E+06
        -0.71876E+06
        -0.22339E+06
        -0.20415E+06
        -0.21688E+06
        -0.40212E+06
        -0.41555E+06
        -0.77569E+06
        -0.35977E+06
        -0.10906E+06
        -0.96030E+05
        -0.84896E+05
         0.31276E+05
         0.38498E+06
        -0.60843E+06
         0.13976E+06
        -0.64758E+06
        -0.28642E+06
        -0.90396E+05
         0.49789E+04
        -0.26451E+06
        -0.10261E+06
        -0.26686E+06
        -0.45116E+06
        -0.27976E+05
         0.15830E+06
        -0.38403E+05
         0.31276E+06
        -0.21966E+06
        -0.75928E+06
        -0.94928E+06
        -0.10888E+07
        -0.13527E+07
        -0.10039E+07
        -0.90176E+06
        -0.10612E+07
        -0.12173E+07
        -0.76423E+06
        -0.71063E+05
         0.25152E+06
        -0.14032E+06
        -0.80103E+05
         0.47093E+04
         0.35082E+06
        -0.14504E+05
         0.33825E+06
        -0.15956E+06
        -0.67429E+06
         0.20615E+06
        -0.70213E+06
        -0.48886E+06
        -0.84217E+06
        -0.33121E+06
        -0.78217E+06
        -0.10557E+07
        -0.90577E+04
         0.18364E+06
         0.29679E+06
        -0.17719E+06
        -0.18591E+05
        -0.17227E+06
         0.61245E+05
        -0.33125E+06
        -0.18648E+06
        -0.60356E+06
        -0.14612E+06
        -0.10522E+07
        -0.88659E+06
        -0.51494E+06
        -0.57510E+06
        -0.35771E+05
        -0.81378E+05
         0.25143E+06
         0.44527E+06
        -0.89166E+04
        -0.56801E+05
        -0.10422E+06
        -0.94815E+06
        -0.93553E+06
        -0.71375E+06
        -0.21686E+06
        -0.20006E+06
        -0.21369E+06
        -0.40424E+06
        -0.41761E+06
        -0.77716E+06
        -0.36606E+06
        -0.12267E+06
        -0.11065E+06
        -0.91937E+05
         0.29198E+05
         0.38693E+06
        -0.59324E+06
         0.15536E+06
        -0.63496E+06
        -0.27788E+06
        -0.81470E+05
         0.17294E+05
        -0.25057E+06
        -0.89219E+05
        -0.25173E+06
        -0.43102E+06
        -0.10376E+05
         0.16885E+06
        -0.26760E+05
         0.32483E+06
        -0.20790E+06
        -0.74996E+06
        -0.94271E+06
        -0.10821E+07
        -0.13446E+07
        -0.99819E+06
        -0.90306E+06
        -0.10689E+07
        -0.12225E+07
        -0.76151E+06
        -0.63319E+05
         0.26260E+06
        -0.15986E+06
        -0.91876E+05
        -0.23444E+04
         0.34891E+06
        -0.17347E+05
         0.33794E+06
        -0.16854E+06
        -0.69249E+06
         0.18842E+06
        -0.72633E+06
        -0.49499E+06
        -0.84514E+06
        -0.33605E+06
        -0.79004E+06
        -0.10587E+07
        -0.12522E+05
         0.17461E+06
         0.29591E+06
        -0.17978E+06
        -0.22007E+05
        -0.17457E+06
         0.59810E+05
        -0.33352E+06
        -0.18936E+06
        -0.61895E+06
        -0.15194E+06
        -0.10618E+07
        -0.89403E+06
        -0.51720E+06
        -0.57936E+06
        -0.53090E+05
        -0.93614E+05
         0.23701E+06
         0.43963E+06
        -0.13479E+05
        -0.61651E+05
        -0.10997E+06
        -0.95391E+06
        -0.94137E+06
        -0.71675E+06
        -0.21828E+06
        -0.20052E+06
        -0.21405E+06
        -0.40886E+06
        -0.42564E+06
        -0.78873E+06
        -0.38045E+06
        -0.14331E+06
        -0.13189E+06
        -0.10500E+06
         0.20710E+05
         0.38435E+06
        -0.59951E+06
         0.15039E+06
        -0.63890E+06
        -0.28219E+06
        -0.87788E+05
         0.98563E+04
        -0.25668E+06
        -0.94386E+05
        -0.25710E+06
        -0.43501E+06
        -0.13552E+05
         0.16492E+06
        -0.27439E+05
         0.32384E+06
        -0.21047E+06
        -0.75151E+06
        -0.94596E+06
        -0.10930E+07
        -0.13606E+07
        -0.10158E+07
        -0.92286E+06
        -0.10933E+07
        -0.12440E+07
        -0.77267E+06
        -0.69255E+05
         0.25801E+06
        -0.16564E+06
        -0.96221E+05
        -0.53444E+04
         0.34636E+06
        -0.20386E+05
         0.33537E+06
        -0.17313E+06
        -0.69937E+06
         0.18266E+06
        -0.73499E+06
        -0.49944E+06
        -0.84935E+06
        -0.34081E+06
        -0.79435E+06
        -0.10632E+07
        -0.15649E+05
         0.17085E+06
         0.29362E+06
        -0.18217E+06
        -0.24666E+05
        -0.17804E+06
         0.56495E+05
        -0.33648E+06
        -0.19155E+06
        -0.62541E+06
        -0.15520E+06
        -0.10660E+07
        -0.89798E+06
        -0.52119E+06
        -0.58345E+06
        -0.58741E+05
        -0.98401E+05
         0.23226E+06
         0.43643E+06
        -0.17326E+05
        -0.64324E+05
        -0.11350E+06
        -0.96101E+06
        -0.94792E+06
        -0.72254E+06
        -0.22432E+06
        -0.20496E+06
        -0.21700E+06
        -0.41303E+06
        -0.43056E+06
        -0.79423E+06
        -0.38538E+06
        -0.14843E+06
        -0.13679E+06
        -0.10894E+06
         0.15473E+05
         0.38110E+06
        -0.60813E+06
         0.14180E+06
        -0.64485E+06
        -0.28816E+06
        -0.95091E+05
         0.35596E+04
        -0.26312E+06
        -0.10326E+06
        -0.26905E+06
        -0.44752E+06
        -0.24876E+05
         0.15973E+06
        -0.31483E+05
         0.31519E+06
        -0.21952E+06
        -0.76025E+06
        -0.95748E+06
        -0.11039E+07
        -0.13698E+07
        -0.10231E+07
        -0.92895E+06
        -0.11014E+07
        -0.12548E+07
        -0.78252E+06
        -0.77524E+05
         0.24986E+06
        -0.16214E+06
        -0.93232E+05
        -0.33485E+04
         0.34701E+06
        -0.17517E+05
         0.33606E+06
        -0.17013E+06
        -0.69594E+06
         0.18514E+06
        -0.73276E+06
        -0.49666E+06
        -0.84493E+06
        -0.33779E+06
        -0.78985E+06
        -0.10571E+07
        -0.11725E+05
         0.17410E+06
         0.29590E+06
        -0.17829E+06
        -0.21042E+05
        -0.17401E+06
         0.60450E+05
        -0.33223E+06
        -0.18752E+06
        -0.62341E+06
        -0.15136E+06
        -0.10601E+07
        -0.89333E+06
        -0.51765E+06
        -0.58068E+06
        -0.55437E+05
        -0.95506E+05
         0.23439E+06
         0.43742E+06
        -0.12850E+05
        -0.61437E+05
        -0.11084E+06
        -0.95715E+06
        -0.94569E+06
        -0.72004E+06
        -0.22057E+06
        -0.20061E+06
        -0.21270E+06
        -0.40965E+06
        -0.42785E+06
        -0.79099E+06
        -0.38257E+06
        -0.14484E+06
        -0.13274E+06
        -0.10531E+06
         0.17749E+05
         0.38200E+06
        -0.59515E+06
         0.15448E+06
        -0.63740E+06
        -0.28504E+06
        -0.88807E+05
         0.13548E+05
        -0.25199E+06
        -0.95274E+05
        -0.26609E+06
        -0.44288E+06
        -0.16515E+05
         0.17152E+06
        -0.21192E+05
         0.32181E+06
        -0.21320E+06
        -0.75304E+06
        -0.95031E+06
        -0.10948E+07
        -0.13611E+07
        -0.10128E+07
        -0.91850E+06
        -0.10921E+07
        -0.12471E+07
        -0.77539E+06
        -0.70366E+05
         0.25763E+06
        -0.16316E+06
        -0.93449E+05
        -0.40855E+04
         0.34527E+06
        -0.18308E+05
         0.33465E+06
        -0.17077E+06
        -0.69845E+06
         0.18190E+06
        -0.73732E+06
        -0.49868E+06
        -0.84745E+06
        -0.33855E+06
        -0.79199E+06
        -0.10618E+07
        -0.13680E+05
         0.17161E+06
         0.29345E+06
        -0.18029E+06
        -0.23096E+05
        -0.17593E+06
         0.58321E+05
        -0.33378E+06
        -0.18894E+06
        -0.62639E+06
        -0.15264E+06
        -0.10614E+07
        -0.89377E+06
        -0.51860E+06
        -0.58290E+06
        -0.57195E+05
        -0.96905E+05
         0.23174E+06
         0.43505E+06
        -0.14226E+05
        -0.62689E+05
        -0.11170E+06
        -0.96339E+06
        -0.94992E+06
        -0.72323E+06
        -0.22363E+06
        -0.20227E+06
        -0.21523E+06
        -0.41108E+06
        -0.42922E+06
        -0.79285E+06
        -0.38500E+06
        -0.14719E+06
        -0.13436E+06
        -0.10629E+06
         0.15719E+05
         0.38016E+06
        -0.59883E+06
         0.15146E+06
        -0.64362E+06
        -0.29021E+06
        -0.89592E+05
         0.99524E+04
        -0.26038E+06
        -0.10459E+06
        -0.27168E+06
        -0.45120E+06
        -0.25589E+05
         0.16694E+06
        -0.26508E+05
         0.31887E+06
        -0.21593E+06
        -0.75570E+06
        -0.95097E+06
        -0.10968E+07
        -0.13638E+07
        -0.10197E+07
        -0.92714E+06
        -0.10987E+07
        -0.12505E+07
        -0.77687E+06
        -0.73992E+05
         0.25250E+06
        -0.16586E+06
        -0.95643E+05
        -0.58773E+04
         0.34423E+06
        -0.20498E+05
         0.33372E+06
        -0.17270E+06
        -0.70172E+06
         0.17888E+06
        -0.74186E+06
        -0.50092E+06
        -0.85081E+06
        -0.34072E+06
        -0.79365E+06
        -0.10666E+07
        -0.16382E+05
         0.16960E+06
         0.29205E+06
        -0.18272E+06
        -0.24631E+05
        -0.17833E+06
         0.56161E+05
        -0.33613E+06
        -0.19119E+06
        -0.62935E+06
        -0.15516E+06
        -0.10623E+07
        -0.89476E+06
        -0.51971E+06
        -0.58468E+06
        -0.59727E+05
        -0.99263E+05
         0.23017E+06
         0.43456E+06
        -0.17616E+05
        -0.64802E+05
        -0.11363E+06
        -0.96945E+06
        -0.95449E+06
        -0.72609E+06
        -0.22548E+06
        -0.20366E+06
        -0.21755E+06
        -0.41348E+06
        -0.43144E+06
        -0.79531E+06
        -0.38729E+06
        -0.14920E+06
        -0.13591E+06
        -0.10705E+06
         0.13792E+05
         0.37939E+06
        -0.60627E+06
         0.14517E+06
        -0.64839E+06
        -0.29179E+06
        -0.91701E+05
         0.26219E+04
        -0.27095E+06
        -0.11298E+06
        -0.27746E+06
        -0.45719E+06
        -0.29296E+05
         0.16241E+06
        -0.32891E+05
         0.31450E+06
        -0.22047E+06
        -0.76110E+06
        -0.95475E+06
        -0.11011E+07
        -0.13690E+07
        -0.10254E+07
        -0.93372E+06
        -0.11055E+07
        -0.12555E+07
        -0.78130E+06
        -0.79596E+05
         0.24662E+06
        -0.16425E+06
        -0.94683E+05
        -0.52527E+04
         0.34549E+06
        -0.18625E+05
         0.33553E+06
        -0.17080E+06
        -0.69960E+06
         0.17960E+06
        -0.74205E+06
        -0.49832E+06
        -0.84776E+06
        -0.33982E+06
        -0.78951E+06
        -0.10610E+07
        -0.14211E+05
         0.17078E+06
         0.29433E+06
        -0.18046E+06
        -0.21718E+05
        -0.17517E+06
         0.59694E+05
        -0.33327E+06
        -0.18870E+06
        -0.62924E+06
        -0.15268E+06
        -0.10586E+07
        -0.89178E+06
        -0.51575E+06
        -0.58159E+06
        -0.57115E+05
        -0.97262E+05
         0.23279E+06
         0.43711E+06
        -0.14834E+05
        -0.62987E+05
        -0.11254E+06
        -0.96649E+06
        -0.95226E+06
        -0.72216E+06
        -0.22127E+06
        -0.20033E+06
        -0.21409E+06
        -0.41154E+06
        -0.42991E+06
        -0.79358E+06
        -0.38568E+06
        -0.14704E+06
        -0.13307E+06
        -0.10382E+06
         0.16173E+05
         0.38174E+06
        -0.59676E+06
         0.15537E+06
        -0.63888E+06
        -0.28706E+06
        -0.93314E+05
         0.31954E+04
        -0.26321E+06
        -0.10442E+06
        -0.27183E+06
        -0.44854E+06
        -0.21078E+05
         0.16624E+06
        -0.26011E+05
         0.32144E+06
        -0.21409E+06
        -0.75625E+06
        -0.95168E+06
        -0.10970E+07
        -0.13651E+07
        -0.10192E+07
        -0.92654E+06
        -0.10986E+07
        -0.12495E+07
        -0.77601E+06
        -0.71844E+05
         0.25571E+06
        -0.16556E+06
        -0.96435E+05
        -0.69951E+04
         0.34354E+06
        -0.20859E+05
         0.33355E+06
        -0.17321E+06
        -0.70264E+06
         0.17702E+06
        -0.74717E+06
        -0.50146E+06
        -0.85197E+06
        -0.34421E+06
        -0.79228E+06
        -0.10647E+07
        -0.16403E+05
         0.16824E+06
         0.29171E+06
        -0.18338E+06
        -0.24153E+05
        -0.17929E+06
         0.55824E+05
        -0.33725E+06
        -0.19130E+06
        -0.63370E+06
        -0.15488E+06
        -0.10621E+07
        -0.89555E+06
        -0.51872E+06
        -0.58431E+06
        -0.59472E+05
        -0.99485E+05
         0.22961E+06
         0.43495E+06
        -0.18071E+05
        -0.65445E+05
        -0.11567E+06
        -0.97303E+06
        -0.95886E+06
        -0.72722E+06
        -0.22693E+06
        -0.20520E+06
        -0.21801E+06
        -0.41608E+06
        -0.43374E+06
        -0.79708E+06
        -0.38884E+06
        -0.15021E+06
        -0.13521E+06
        -0.10479E+06
         0.13595E+05
         0.37962E+06
        -0.60410E+06
         0.14892E+06
        -0.64634E+06
        -0.29550E+06
        -0.10323E+06
        -0.61784E+04
        -0.26889E+06
        -0.11168E+06
        -0.28158E+06
        -0.45816E+06
        -0.32788E+05
         0.15460E+06
        -0.33641E+05
         0.31351E+06
        -0.22089E+06
        -0.76417E+06
        -0.96404E+06
        -0.11080E+07
        -0.13706E+07
        -0.10268E+07
        -0.93438E+06
        -0.11026E+07
        -0.12523E+07
        -0.78154E+06
        -0.79460E+05
         0.24817E+06
        -0.16586E+06
        -0.96995E+05
        -0.76430E+04
         0.34285E+06
        -0.21296E+05
         0.33294E+06
        -0.17370E+06
        -0.70369E+06
         0.17637E+06
        -0.74922E+06
        -0.50213E+06
        -0.85247E+06
        -0.34493E+06
        -0.79196E+06
        -0.10653E+07
        -0.16867E+05
         0.16816E+06
         0.29118E+06
        -0.18384E+06
        -0.24293E+05
        -0.18038E+06
         0.55194E+05
        -0.33816E+06
        -0.19175E+06
        -0.63554E+06
        -0.15543E+06
        -0.10614E+07
        -0.89604E+06
        -0.51941E+06
        -0.58535E+06
        -0.60719E+05
        -0.10031E+06
         0.22824E+06
         0.43445E+06
        -0.18795E+05
        -0.66280E+05
        -0.11664E+06
        -0.97656E+06
        -0.96316E+06
        -0.72957E+06
        -0.22776E+06
        -0.20555E+06
        -0.21859E+06
        -0.41712E+06
        -0.43468E+06
        -0.79804E+06
        -0.39003E+06
        -0.15145E+06
        -0.13573E+06
        -0.10427E+06
         0.13139E+05
         0.37918E+06
        -0.60423E+06
         0.14901E+06
        -0.64846E+06
        -0.29876E+06
        -0.10349E+06
        -0.62824E+04
        -0.27114E+06
        -0.11772E+06
        -0.28863E+06
        -0.46202E+06
        -0.33165E+05
         0.15340E+06
        -0.35560E+05
         0.31040E+06
        -0.22443E+06
        -0.76677E+06
        -0.96594E+06
        -0.11096E+07
        -0.13722E+07
        -0.10295E+07
        -0.93788E+06
        -0.11048E+07
        -0.12526E+07
        -0.78211E+06
        -0.82770E+05
         0.24523E+06
        -0.16057E+06
        -0.91331E+05
        -0.30960E+04
         0.34632E+06
        -0.15409E+05
         0.33721E+06
        -0.16720E+06
        -0.69822E+06
         0.17946E+06
        -0.74628E+06
        -0.49560E+06
        -0.84301E+06
        -0.33714E+06
        -0.78493E+06
        -0.10565E+07
        -0.12104E+05
         0.17265E+06
         0.29540E+06
        -0.17865E+06
        -0.18366E+05
        -0.17305E+06
         0.62226E+05
        -0.33109E+06
        -0.18641E+06
        -0.63128E+06
        -0.15006E+06
        -0.10539E+07
        -0.88813E+06
        -0.51178E+06
        -0.57917E+06
        -0.55465E+05
        -0.94853E+05
         0.23236E+06
         0.43786E+06
        -0.11419E+05
        -0.60860E+05
        -0.11075E+06
        -0.97149E+06
        -0.95751E+06
        -0.72281E+06
        -0.22056E+06
        -0.19812E+06
        -0.21211E+06
        -0.41041E+06
        -0.42814E+06
        -0.79070E+06
        -0.38433E+06
        -0.14596E+06
        -0.13050E+06
        -0.99173E+05
         0.18064E+05
         0.38320E+06
        -0.58700E+06
         0.16609E+06
        -0.63416E+06
        -0.28831E+06
        -0.90772E+05
         0.10028E+05
        -0.25745E+06
        -0.10732E+06
        -0.27714E+06
        -0.44935E+06
        -0.21741E+05
         0.16671E+06
        -0.25045E+05
         0.32204E+06
        -0.21106E+06
        -0.75291E+06
        -0.95044E+06
        -0.10927E+07
        -0.13577E+07
        -0.10142E+07
        -0.92501E+06
        -0.10953E+07
        -0.12421E+07
        -0.76930E+06
        -0.68883E+05
         0.25930E+06
        -0.16290E+06
        -0.92895E+05
        -0.47244E+04
         0.34395E+06
        -0.18161E+05
         0.33517E+06
        -0.16936E+06
        -0.70189E+06
         0.17609E+06
        -0.75218E+06
        -0.49868E+06
        -0.84623E+06
        -0.33910E+06
        -0.78788E+06
        -0.10614E+07
        -0.14909E+05
         0.16948E+06
         0.29327E+06
        -0.18244E+06
        -0.21374E+05
        -0.17590E+06
         0.58693E+05
        -0.33356E+06
        -0.18957E+06
        -0.63628E+06
        -0.15322E+06
        -0.10571E+07
        -0.89070E+06
        -0.51229E+06
        -0.58126E+06
        -0.57183E+05
        -0.97390E+05
         0.23013E+06
         0.43525E+06
        -0.15603E+05
        -0.63089E+05
        -0.11229E+06
        -0.97882E+06
        -0.96311E+06
        -0.72532E+06
        -0.22422E+06
        -0.20188E+06
        -0.21662E+06
        -0.41387E+06
        -0.43152E+06
        -0.79400E+06
        -0.38700E+06
        -0.14773E+06
        -0.13221E+06
        -0.10109E+06
         0.14970E+05
         0.38102E+06
        -0.59787E+06
         0.15682E+06
        -0.64276E+06
        -0.29277E+06
        -0.92361E+05
         0.58911E+04
        -0.26662E+06
        -0.11829E+06
        -0.28793E+06
        -0.45893E+06
        -0.33028E+05
         0.15372E+06
        -0.34127E+05
         0.31750E+06
        -0.21316E+06
        -0.75435E+06
        -0.95510E+06
        -0.11005E+07
        -0.13635E+07
        -0.10210E+07
        -0.93131E+06
        -0.11023E+07
        -0.12497E+07
        -0.77388E+06
        -0.73151E+05
         0.25218E+06
        -0.16675E+06
        -0.96970E+05
        -0.89005E+04
         0.34080E+06
        -0.22442E+05
         0.33137E+06
        -0.17290E+06
        -0.70609E+06
         0.17160E+06
        -0.76115E+06
        -0.50238E+06
        -0.85149E+06
        -0.34338E+06
        -0.79090E+06
        -0.10674E+07
        -0.18338E+05
         0.16477E+06
         0.29080E+06
        -0.18559E+06
        -0.22778E+05
        -0.17936E+06
         0.54568E+05
        -0.33653E+06
        -0.19227E+06
        -0.64396E+06
        -0.15631E+06
        -0.10644E+07
        -0.89491E+06
        -0.50336E+06
        -0.57702E+06
        -0.60291E+05
        -0.10099E+06
         0.22791E+06
         0.43343E+06
        -0.20319E+05
        -0.66726E+05
        -0.11595E+06
        -0.98931E+06
        -0.96863E+06
        -0.71909E+06
        -0.22474E+06
        -0.20597E+06
        -0.22262E+06
        -0.41760E+06
        -0.43573E+06
        -0.79920E+06
        -0.39146E+06
        -0.15092E+06
        -0.13427E+06
        -0.10246E+06
         0.12225E+05
         0.37833E+06
        -0.60510E+06
         0.15006E+06
        -0.64865E+06
        -0.29780E+06
        -0.99444E+05
        -0.54922E+04
        -0.27957E+06
        -0.13056E+06
        -0.29881E+06
        -0.46143E+06
        -0.52734E+05
         0.12268E+06
        -0.46892E+05
         0.31039E+06
        -0.21949E+06
        -0.76013E+06
        -0.96240E+06
        -0.11087E+07
        -0.13729E+07
        -0.10316E+07
        -0.93851E+06
        -0.11090E+07
        -0.12574E+07
        -0.77935E+06
        -0.81694E+05
         0.24263E+06
        -0.16171E+06
        -0.91759E+05
        -0.39503E+04
         0.34504E+06
        -0.16178E+05
         0.33599E+06
        -0.16721E+06
        -0.70069E+06
         0.17347E+06
        -0.76425E+06
        -0.49654E+06
        -0.84440E+06
        -0.33761E+06
        -0.78425E+06
        -0.10597E+07
        -0.13522E+05
         0.16777E+06
         0.29477E+06
        -0.17956E+06
        -0.13093E+05
        -0.17330E+06
         0.60710E+05
        -0.33086E+06
        -0.18651E+06
        -0.64410E+06
        -0.15048E+06
        -0.10656E+07
        -0.88996E+06
        -0.47591E+06
        -0.55671E+06
        -0.55806E+05
        -0.95454E+05
         0.23194E+06
         0.43798E+06
        -0.12418E+05
        -0.60677E+05
        -0.11039E+06
        -0.98955E+06
        -0.96194E+06
        -0.69419E+06
        -0.21070E+06
        -0.19843E+06
        -0.21887E+06
        -0.41188E+06
        -0.42934E+06
        -0.79103E+06
        -0.38551E+06
        -0.14589E+06
        -0.12858E+06
        -0.95856E+05
         0.18775E+05
         0.38307E+06
        -0.58736E+06
         0.16741E+06
        -0.63097E+06
        -0.28534E+06
        -0.91526E+05
         0.38004E+04
        -0.26674E+06
        -0.11757E+06
        -0.28474E+06
        -0.43383E+06
        -0.59137E+05
         0.97691E+05
        -0.45967E+05
         0.32003E+06
        -0.21132E+06
        -0.75337E+06
        -0.95413E+06
        -0.10945E+07
        -0.13556E+07
        -0.10152E+07
        -0.92455E+06
        -0.10946E+07
        -0.12411E+07
        -0.76409E+06
        -0.69288E+05
         0.25568E+06
        -0.18088E+06
        -0.11073E+06
        -0.22574E+05
         0.32723E+06
        -0.39368E+05
         0.31530E+06
        -0.18815E+06
        -0.72380E+06
         0.15265E+06
        -0.79352E+06
        -0.52017E+06
        -0.87752E+06
        -0.36735E+06
        -0.80854E+06
        -0.10946E+07
        -0.31920E+05
         0.14618E+06
         0.27699E+06
        -0.20069E+06
        -0.32814E+05
        -0.20149E+06
         0.33626E+05
        -0.35748E+06
        -0.20662E+06
        -0.67082E+06
        -0.16948E+06
        -0.10945E+07
        -0.91392E+06
        -0.48659E+06
        -0.57133E+06
        -0.74074E+05
        -0.11520E+06
         0.21314E+06
         0.41825E+06
        -0.41240E+05
        -0.83264E+05
        -0.13522E+06
        -0.10286E+07
        -0.99187E+06
        -0.71121E+06
        -0.23892E+06
        -0.22803E+06
        -0.24875E+06
        -0.43720E+06
        -0.45493E+06
        -0.82250E+06
        -0.40988E+06
        -0.16714E+06
        -0.14901E+06
        -0.11753E+06
        -0.10328E+05
         0.36039E+06
        -0.64895E+06
         0.10750E+06
        -0.69349E+06
        -0.34883E+06
        -0.15499E+06
        -0.57326E+05
        -0.32880E+06
        -0.18390E+06
        -0.34708E+06
        -0.49066E+06
        -0.13832E+06
         0.11534E+05
        -0.10651E+06
         0.26986E+06
        -0.26407E+06
        -0.80844E+06
        -0.10113E+07
        -0.11584E+07
        -0.14211E+07
        -0.10780E+07
        -0.98268E+06
        -0.11501E+07
        -0.12981E+07
        -0.82236E+06
        -0.12531E+06
         0.20011E+06
        -0.17004E+06
        -0.10938E+06
        -0.19311E+05
         0.33382E+06
        -0.31868E+05
         0.32195E+06
        -0.18524E+06
        -0.71113E+06
         0.16488E+06
        -0.77580E+06
        -0.51397E+06
        -0.87680E+06
        -0.37497E+06
        -0.79281E+06
        -0.10800E+07
        -0.17698E+05
         0.15990E+06
         0.28667E+06
        -0.18960E+06
        -0.21008E+05
        -0.18912E+06
         0.42881E+05
        -0.33842E+06
        -0.19147E+06
        -0.65044E+06
        -0.15530E+06
        -0.10698E+07
        -0.88636E+06
        -0.46365E+06
        -0.55077E+06
        -0.62802E+05
        -0.10637E+06
         0.21825E+06
         0.41531E+06
        -0.36820E+05
        -0.85052E+05
        -0.14228E+06
        -0.10117E+07
        -0.97256E+06
        -0.69404E+06
        -0.22653E+06
        -0.21109E+06
        -0.23098E+06
        -0.42055E+06
        -0.44603E+06
        -0.81786E+06
        -0.40650E+06
        -0.15804E+06
        -0.14152E+06
        -0.11624E+06
        -0.84199E+04
         0.36090E+06
        -0.62518E+06
         0.13831E+06
        -0.68581E+06
        -0.36253E+06
        -0.18354E+06
        -0.74661E+05
        -0.30028E+06
        -0.15465E+06
        -0.32398E+06
        -0.47687E+06
        -0.13450E+06
         0.23267E+05
        -0.83615E+05
         0.28112E+06
        -0.24010E+06
        -0.77419E+06
        -0.98221E+06
        -0.11361E+07
        -0.14115E+07
        -0.10791E+07
        -0.96986E+06
        -0.11317E+07
        -0.12689E+07
        -0.78666E+06
        -0.97133E+05
         0.22932E+06
         0.75474E+08
         0.73843E+08
         0.73365E+08
         0.67303E+08
         0.91445E+08
         0.79549E+08
         0.79862E+08
         0.85689E+08
         0.69850E+08
         0.85248E+08
         0.88626E+08
         0.12661E+09
         0.10872E+09
         0.91246E+08
         0.13139E+09
         0.68107E+08
         0.73457E+08
         0.64336E+08
         0.76217E+08
         0.79906E+08
         0.10060E+09
         0.10028E+09
         0.94546E+08
         0.72921E+08
         0.80908E+08
         0.69885E+08
         0.90073E+08
         0.87481E+08
         0.87977E+08
         0.83814E+08
         0.68788E+08
         0.72336E+08
         0.67632E+08
         0.70788E+08
         0.10927E+09
         0.84544E+08
         0.91349E+08
         0.12101E+09
         0.11097E+09
         0.10728E+09
         0.11878E+09
         0.11016E+09
         0.10433E+09
         0.88365E+08
         0.89405E+08
         0.11095E+09
         0.90351E+08
         0.79902E+08
         0.78012E+08
         0.81094E+08
         0.10282E+09
         0.83624E+08
         0.22477E+09
         0.22038E+09
         0.22442E+09
         0.21701E+09
         0.22402E+09
         0.23528E+09
         0.23593E+09
         0.23256E+09
         0.23422E+09
         0.24139E+09
         0.23448E+09
         0.22133E+09
         0.19501E+09
         0.18375E+09
         0.18717E+09
         0.19192E+09
         0.19442E+09
         0.21221E+09
         0.22651E+09
         0.22758E+09
         0.20800E+09
         0.20022E+09
         0.20795E+09
         0.20601E+09
         0.20523E+09
         0.20561E+09
         0.10020E+10
         0.10477E+10
         0.10318E+10
         0.93670E+09
         0.11669E+10
         0.10917E+10
         0.11353E+10
         0.11487E+10
         0.97561E+09
         0.11478E+10
         0.12511E+10
         0.14150E+10
         0.12782E+10
         0.12897E+10
         0.14660E+10
         0.95619E+09
         0.10281E+10
         0.89063E+09
         0.10637E+10
         0.11204E+10
         0.11694E+10
         0.11947E+10
         0.11205E+10
         0.10208E+10
         0.11593E+10
         0.98273E+09
         0.12849E+10
         0.12605E+10
         0.12667E+10
         0.12017E+10
         0.96591E+09
         0.10160E+10
         0.94443E+09
         0.98957E+09
         0.12828E+10
         0.11708E+10
         0.11765E+10
         0.14168E+10
         0.13774E+10
         0.13598E+10
         0.13880E+10
         0.13161E+10
         0.12436E+10
         0.10914E+10
         0.11363E+10
         0.12828E+10
         0.11808E+10
         0.11074E+10
         0.10836E+10
         0.11256E+10
         0.12287E+10
         0.11298E+10
         0.20622E+10
         0.20105E+10
         0.20527E+10
         0.19891E+10
         0.20485E+10
         0.21534E+10
         0.21869E+10
         0.21800E+10
         0.21946E+10
         0.22455E+10
         0.21815E+10
         0.20528E+10
         0.18390E+10
         0.17380E+10
         0.17446E+10
         0.17680E+10
         0.17855E+10
         0.19360E+10
         0.20712E+10
         0.20800E+10
         0.19250E+10
         0.18652E+10
         0.19274E+10
         0.19136E+10
         0.18930E+10
         0.18875E+10
  
SCALARS                      stress_zz  double 1
LOOKUP_TABLE default
         0.11049E+11
         0.10207E+11
         0.10741E+11
         0.11699E+11
        -0.12901E+03
        -0.14466E+03
        -0.13852E+03
        -0.12584E+03
         0.10178E+11
         0.10462E+11
        -0.13009E+03
        -0.12589E+03
         0.89923E+10
         0.89476E+10
        -0.15457E+03
        -0.14533E+03
         0.11559E+11
         0.90131E+10
        -0.11421E+03
        -0.12668E+03
         0.80826E+10
         0.73622E+10
         0.85094E+10
        -0.15320E+03
        -0.13379E+03
        -0.13815E+03
         0.73901E+10
         0.63412E+10
        -0.14697E+03
        -0.12394E+03
         0.11512E+11
         0.10403E+11
         0.12591E+11
        -0.12542E+03
        -0.11659E+03
        -0.11336E+03
         0.10870E+11
         0.94594E+10
        -0.13269E+03
        -0.12108E+03
         0.10311E+11
         0.92236E+10
        -0.11468E+03
        -0.10152E+03
         0.11234E+11
         0.11644E+11
        -0.12567E+03
        -0.14042E+03
         0.83544E+10
        -0.12277E+03
         0.11564E+11
        -0.14426E+03
         0.70874E+10
        -0.12965E+03
         0.67575E+10
        -0.12436E+03
         0.67627E+10
         0.79366E+10
        -0.12671E+03
        -0.12340E+03
         0.11490E+11
         0.11063E+11
        -0.12706E+03
        -0.14364E+03
         0.11757E+11
        -0.12260E+03
         0.11249E+11
        -0.13380E+03
         0.99159E+10
         0.97830E+10
        -0.12880E+03
        -0.13496E+03
         0.94827E+10
        -0.13609E+03
         0.59692E+10
        -0.10752E+03
         0.57860E+10
        -0.10437E+03
         0.58772E+10
        -0.11004E+03
         0.63831E+10
         0.69102E+10
        -0.10485E+03
        -0.10931E+03
         0.79745E+10
        -0.10181E+03
         0.11212E+11
        -0.13350E+03
         0.10705E+11
        -0.13664E+03
         0.10289E+11
         0.10061E+11
        -0.13122E+03
        -0.13275E+03
         0.10342E+11
        -0.12057E+03
         0.10542E+11
        -0.11885E+03
         0.10362E+11
        -0.12724E+03
         0.10298E+11
         0.10480E+11
        -0.12477E+03
        -0.12843E+03
         0.92968E+10
         0.97761E+10
        -0.96874E+02
        -0.91115E+02
         0.92059E+10
        -0.92502E+02
         0.97592E+10
        -0.88694E+02
         0.92131E+10
        -0.87458E+02
         0.80074E+10
        -0.82649E+02
         0.68428E+10
        -0.73424E+02
         0.61478E+10
        -0.66115E+02
         0.60769E+10
        -0.65655E+02
         0.60989E+10
        -0.71200E+02
         0.68530E+10
        -0.74829E+02
         0.82668E+10
        -0.68326E+02
         0.98271E+10
        -0.61589E+02
         0.10744E+11
        -0.61519E+02
         0.11653E+11
        -0.68763E+02
         0.12255E+11
        -0.78406E+02
         0.12232E+11
        -0.84232E+02
         0.10773E+11
        -0.90970E+02
         0.97595E+10
        -0.97460E+02
         0.94118E+10
        -0.89280E+02
         0.99542E+10
        -0.78323E+02
         0.10238E+11
        -0.78081E+02
         0.97628E+10
        -0.85430E+02
         0.97702E+10
        -0.91074E+02
         0.10128E+11
        -0.86429E+02
         0.10595E+11
        -0.83556E+02
        -0.21149E+11
        -0.21454E+11
        -0.21414E+11
        -0.21016E+11
        -0.21743E+11
        -0.21379E+11
        -0.21829E+11
        -0.21596E+11
        -0.21079E+11
        -0.21403E+11
        -0.22073E+11
        -0.22147E+11
        -0.21949E+11
        -0.21936E+11
        -0.22064E+11
        -0.21035E+11
        -0.21110E+11
        -0.20899E+11
        -0.21487E+11
        -0.21382E+11
        -0.21532E+11
        -0.21433E+11
        -0.21616E+11
        -0.21568E+11
        -0.21391E+11
        -0.21403E+11
        -0.21705E+11
        -0.21678E+11
        -0.21898E+11
        -0.21564E+11
        -0.21072E+11
        -0.21459E+11
        -0.21075E+11
        -0.21330E+11
        -0.22198E+11
        -0.21926E+11
        -0.21795E+11
        -0.21949E+11
        -0.21969E+11
        -0.22217E+11
        -0.22394E+11
        -0.21957E+11
        -0.21526E+11
        -0.21585E+11
        -0.21807E+11
        -0.22188E+11
        -0.21864E+11
        -0.21507E+11
        -0.21532E+11
        -0.21809E+11
        -0.22085E+11
        -0.21711E+11
        -0.22813E+11
        -0.22499E+11
        -0.22551E+11
        -0.22477E+11
        -0.22496E+11
        -0.22666E+11
        -0.22839E+11
        -0.22895E+11
        -0.22871E+11
        -0.22888E+11
        -0.22960E+11
        -0.22513E+11
        -0.22341E+11
        -0.22274E+11
        -0.22158E+11
        -0.22070E+11
        -0.22074E+11
        -0.22224E+11
        -0.22709E+11
        -0.22595E+11
        -0.22429E+11
        -0.22431E+11
        -0.22460E+11
        -0.22619E+11
        -0.22384E+11
        -0.22295E+11
         0.12913E+07
         0.57164E+06
         0.66686E+06
         0.96931E+06
         0.10841E+07
         0.12680E+07
        -0.16719E+06
         0.49539E+05
         0.12704E+07
        -0.50744E+05
        -0.69899E+06
         0.81865E+06
         0.90262E+06
        -0.14166E+07
         0.40666E+06
         0.58021E+06
         0.64472E+06
         0.77225E+06
         0.16671E+06
         0.15507E+06
         0.63281E+06
         0.94921E+06
         0.33249E+06
        -0.86854E+05
        -0.50651E+06
        -0.54864E+05
        -0.20951E+07
        -0.19048E+07
        -0.93735E+06
        -0.36449E+06
         0.46696E+06
         0.45716E+05
         0.84001E+06
         0.12215E+07
         0.69801E+06
         0.42885E+06
         0.74631E+06
         0.21166E+06
         0.15125E+06
         0.35312E+06
         0.81214E+06
         0.58338E+06
         0.66328E+06
         0.28616E+06
         0.28137E+06
         0.51839E+06
         0.54912E+06
         0.57492E+06
         0.68923E+06
         0.10502E+07
         0.12192E+07
         0.14132E+07
         0.54539E+06
         0.14621E+07
         0.89320E+06
         0.15969E+07
         0.21718E+07
         0.25683E+07
         0.23055E+07
         0.24129E+07
         0.21738E+07
         0.18023E+07
         0.16770E+07
         0.15328E+07
         0.12064E+07
         0.15702E+07
         0.95316E+06
         0.51928E+06
         0.60185E+06
         0.64569E+06
         0.79824E+06
         0.14105E+07
         0.14155E+07
         0.11881E+07
         0.87746E+06
         0.87190E+06
         0.12694E+07
         0.16329E+07
         0.12479E+07
         0.52459E+06
         0.62047E+06
         0.92769E+06
         0.10327E+07
         0.12172E+07
        -0.21835E+06
        -0.36715E+03
         0.12228E+07
        -0.10505E+06
        -0.75685E+06
         0.76450E+06
         0.85212E+06
        -0.14755E+07
         0.35395E+06
         0.53137E+06
         0.59102E+06
         0.73042E+06
         0.11168E+06
         0.97108E+05
         0.58306E+06
         0.89974E+06
         0.27983E+06
        -0.14313E+06
        -0.56739E+06
        -0.10851E+06
        -0.21504E+07
        -0.19630E+07
        -0.99904E+06
        -0.42825E+06
         0.41967E+06
        -0.51256E+04
         0.79654E+06
         0.11790E+07
         0.64523E+06
         0.37541E+06
         0.69567E+06
         0.15598E+06
         0.95521E+05
         0.29626E+06
         0.75690E+06
         0.52784E+06
         0.61034E+06
         0.23276E+06
         0.22866E+06
         0.46629E+06
         0.49401E+06
         0.52138E+06
         0.63947E+06
         0.10002E+07
         0.11695E+07
         0.13602E+07
         0.47289E+06
         0.13916E+07
         0.82416E+06
         0.15307E+07
         0.21022E+07
         0.24913E+07
         0.22284E+07
         0.23340E+07
         0.20938E+07
         0.17211E+07
         0.15960E+07
         0.14578E+07
         0.11424E+07
         0.15101E+07
         0.89094E+06
         0.45339E+06
         0.53478E+06
         0.57625E+06
         0.72816E+06
         0.13366E+07
         0.13450E+07
         0.11241E+07
         0.81366E+06
         0.80636E+06
         0.12034E+07
         0.15657E+07
         0.12583E+07
         0.53397E+06
         0.63060E+06
         0.93922E+06
         0.10460E+07
         0.12305E+07
        -0.20742E+06
         0.11624E+05
         0.12316E+07
        -0.10086E+06
        -0.74512E+06
         0.77484E+06
         0.86192E+06
        -0.14628E+07
         0.36747E+06
         0.52192E+06
         0.58862E+06
         0.74149E+06
         0.98248E+05
         0.85960E+05
         0.57487E+06
         0.89651E+06
         0.24529E+06
        -0.18374E+06
        -0.59255E+06
        -0.14610E+06
        -0.21392E+07
        -0.19708E+07
        -0.10236E+07
        -0.47258E+06
         0.42014E+06
        -0.16688E+05
         0.80784E+06
         0.11932E+07
         0.65923E+06
         0.38867E+06
         0.70679E+06
         0.16657E+06
         0.10602E+06
         0.30022E+06
         0.75578E+06
         0.50782E+06
         0.58187E+06
         0.19702E+06
         0.21956E+06
         0.47344E+06
         0.50401E+06
         0.53341E+06
         0.65220E+06
         0.10144E+07
         0.11834E+07
         0.13735E+07
         0.49436E+06
         0.14109E+07
         0.84543E+06
         0.15471E+07
         0.21143E+07
         0.25032E+07
         0.22436E+07
         0.23495E+07
         0.21095E+07
         0.17373E+07
         0.16056E+07
         0.14575E+07
         0.11434E+07
         0.15212E+07
         0.89822E+06
         0.44010E+06
         0.52040E+06
         0.58001E+06
         0.74738E+06
         0.13588E+07
         0.13651E+07
         0.11445E+07
         0.83632E+06
         0.82540E+06
         0.12189E+07
         0.15807E+07
         0.12523E+07
         0.53008E+06
         0.62693E+06
         0.93290E+06
         0.10411E+07
         0.12259E+07
        -0.21147E+06
         0.56092E+04
         0.12184E+07
        -0.12307E+06
        -0.75108E+06
         0.76923E+06
         0.85803E+06
        -0.14709E+07
         0.36133E+06
         0.48321E+06
         0.55720E+06
         0.73385E+06
         0.50193E+05
         0.37141E+05
         0.53716E+06
         0.86233E+06
         0.16496E+06
        -0.27456E+06
        -0.66517E+06
        -0.23173E+06
        -0.21542E+07
        -0.20179E+07
        -0.10996E+07
        -0.58006E+06
         0.39740E+06
        -0.62487E+05
         0.80088E+06
         0.11864E+07
         0.65258E+06
         0.38312E+06
         0.70267E+06
         0.15696E+06
         0.93381E+05
         0.27488E+06
         0.72464E+06
         0.44494E+06
         0.50457E+06
         0.11282E+06
         0.17595E+06
         0.45246E+06
         0.48632E+06
         0.52345E+06
         0.64316E+06
         0.10042E+07
         0.11758E+07
         0.13665E+07
         0.48415E+06
         0.14039E+07
         0.83451E+06
         0.15376E+07
         0.21078E+07
         0.24959E+07
         0.22313E+07
         0.23360E+07
         0.20964E+07
         0.17215E+07
         0.15806E+07
         0.14172E+07
         0.11047E+07
         0.15027E+07
         0.87771E+06
         0.38409E+06
         0.46128E+06
         0.55261E+06
         0.73425E+06
         0.13464E+07
         0.13555E+07
         0.11331E+07
         0.82440E+06
         0.81719E+06
         0.12127E+07
         0.15745E+07
         0.12412E+07
         0.52207E+06
         0.62037E+06
         0.92636E+06
         0.10354E+07
         0.12196E+07
        -0.21800E+06
        -0.47345E+04
         0.12024E+07
        -0.14628E+06
        -0.75744E+06
         0.76573E+06
         0.85367E+06
        -0.14798E+07
         0.35865E+06
         0.45723E+06
         0.53243E+06
         0.72675E+06
         0.18623E+05
         0.19246E+04
         0.51291E+06
         0.83778E+06
         0.11564E+06
        -0.33083E+06
        -0.71703E+06
        -0.28654E+06
        -0.21672E+07
        -0.20519E+07
        -0.11518E+07
        -0.65129E+06
         0.37366E+06
        -0.95742E+05
         0.78756E+06
         0.11769E+07
         0.64572E+06
         0.37608E+06
         0.69652E+06
         0.15003E+06
         0.83169E+05
         0.25592E+06
         0.70280E+06
         0.40278E+06
         0.45393E+06
         0.59400E+05
         0.14723E+06
         0.43864E+06
         0.47065E+06
         0.50751E+06
         0.62795E+06
         0.98948E+06
         0.11640E+07
         0.13559E+07
         0.47495E+06
         0.13978E+07
         0.82521E+06
         0.15302E+07
         0.21048E+07
         0.24937E+07
         0.22260E+07
         0.23271E+07
         0.20853E+07
         0.17117E+07
         0.15654E+07
         0.13893E+07
         0.10782E+07
         0.14884E+07
         0.86324E+06
         0.34784E+06
         0.41981E+06
         0.53304E+06
         0.72827E+06
         0.13351E+07
         0.13427E+07
         0.11200E+07
         0.80908E+06
         0.80396E+06
         0.12045E+07
         0.15684E+07
         0.12140E+07
         0.50661E+06
         0.61388E+06
         0.93248E+06
         0.10423E+07
         0.12288E+07
        -0.22244E+06
        -0.23291E+05
         0.11797E+07
        -0.17824E+06
        -0.75247E+06
         0.77782E+06
         0.85888E+06
        -0.14788E+07
         0.37407E+06
         0.46259E+06
         0.52701E+06
         0.73810E+06
         0.25288E+05
         0.68531E+04
         0.52003E+06
         0.84641E+06
         0.11679E+06
        -0.33195E+06
        -0.73822E+06
        -0.29419E+06
        -0.21700E+07
        -0.20557E+07
        -0.11485E+07
        -0.65321E+06
         0.34519E+06
        -0.11326E+06
         0.76545E+06
         0.11747E+07
         0.65199E+06
         0.37666E+06
         0.69534E+06
         0.16076E+06
         0.93883E+05
         0.26743E+06
         0.71393E+06
         0.40976E+06
         0.45946E+06
         0.56131E+05
         0.14356E+06
         0.43638E+06
         0.45710E+06
         0.47542E+06
         0.59167E+06
         0.96989E+06
         0.11600E+07
         0.13590E+07
         0.49259E+06
         0.14160E+07
         0.84001E+06
         0.15401E+07
         0.21152E+07
         0.25077E+07
         0.22418E+07
         0.23425E+07
         0.21030E+07
         0.17350E+07
         0.15858E+07
         0.14016E+07
         0.10922E+07
         0.15030E+07
         0.87724E+06
         0.35900E+06
         0.42786E+06
         0.54097E+06
         0.73775E+06
         0.13416E+07
         0.13412E+07
         0.11108E+07
         0.80301E+06
         0.80684E+06
         0.12133E+07
         0.15811E+07
         0.11726E+07
         0.47912E+06
         0.59802E+06
         0.92865E+06
         0.10366E+07
         0.12280E+07
        -0.24291E+06
        -0.60061E+05
         0.11409E+07
        -0.22623E+06
        -0.76629E+06
         0.77320E+06
         0.85087E+06
        -0.14985E+07
         0.37131E+06
         0.45518E+06
         0.50675E+06
         0.73583E+06
         0.19897E+05
        -0.14350E+04
         0.51669E+06
         0.84400E+06
         0.11296E+06
        -0.33876E+06
        -0.76896E+06
        -0.30800E+06
        -0.21923E+07
        -0.20730E+07
        -0.11537E+07
        -0.66117E+06
         0.30517E+06
        -0.14203E+06
         0.73187E+06
         0.11619E+07
         0.64393E+06
         0.36540E+06
         0.68336E+06
         0.15346E+06
         0.86905E+05
         0.26364E+06
         0.71237E+06
         0.40913E+06
         0.45908E+06
         0.48095E+05
         0.12770E+06
         0.41687E+06
         0.42583E+06
         0.42723E+06
         0.54028E+06
         0.93637E+06
         0.11443E+07
         0.13514E+07
         0.48508E+06
         0.14102E+07
         0.83559E+06
         0.15351E+07
         0.21079E+07
         0.24991E+07
         0.22346E+07
         0.23363E+07
         0.20967E+07
         0.17303E+07
         0.15821E+07
         0.13971E+07
         0.10913E+07
         0.15018E+07
         0.87420E+06
         0.35736E+06
         0.42442E+06
         0.52859E+06
         0.71918E+06
         0.13212E+07
         0.13180E+07
         0.10820E+07
         0.77780E+06
         0.79337E+06
         0.12061E+07
         0.15754E+07
         0.11607E+07
         0.46893E+06
         0.59162E+06
         0.92335E+06
         0.10306E+07
         0.12219E+07
        -0.25316E+06
        -0.72472E+05
         0.11300E+07
        -0.23944E+06
        -0.77609E+06
         0.76669E+06
         0.84299E+06
        -0.15100E+07
         0.36629E+06
         0.44857E+06
         0.49881E+06
         0.73027E+06
         0.14965E+05
        -0.79470E+04
         0.51141E+06
         0.83834E+06
         0.10789E+06
        -0.34397E+06
        -0.77888E+06
        -0.31584E+06
        -0.22017E+07
        -0.20822E+07
        -0.11630E+07
        -0.66873E+06
         0.29236E+06
        -0.15343E+06
         0.72087E+06
         0.11548E+07
         0.63716E+06
         0.35928E+06
         0.67605E+06
         0.14406E+06
         0.78633E+05
         0.25458E+06
         0.70339E+06
         0.40186E+06
         0.45435E+06
         0.40937E+05
         0.11825E+06
         0.40779E+06
         0.41557E+06
         0.41535E+06
         0.52717E+06
         0.92420E+06
         0.11345E+07
         0.13424E+07
         0.47480E+06
         0.14001E+07
         0.82883E+06
         0.15282E+07
         0.20995E+07
         0.24918E+07
         0.22271E+07
         0.23258E+07
         0.20828E+07
         0.17157E+07
         0.15689E+07
         0.13912E+07
         0.10865E+07
         0.14914E+07
         0.86345E+06
         0.34725E+06
         0.41129E+06
         0.51611E+06
         0.70858E+06
         0.13127E+07
         0.13109E+07
         0.10724E+07
         0.76508E+06
         0.78144E+06
         0.11961E+07
         0.15655E+07
         0.11685E+07
         0.47584E+06
         0.59686E+06
         0.92549E+06
         0.10369E+07
         0.12234E+07
        -0.24572E+06
        -0.62597E+05
         0.11384E+07
        -0.22836E+06
        -0.76908E+06
         0.77325E+06
         0.84834E+06
        -0.15008E+07
         0.37698E+06
         0.45841E+06
         0.50722E+06
         0.73539E+06
         0.24684E+05
         0.19504E+03
         0.51868E+06
         0.84525E+06
         0.11547E+06
        -0.33466E+06
        -0.76907E+06
        -0.30710E+06
        -0.21877E+07
        -0.20713E+07
        -0.11548E+07
        -0.66027E+06
         0.30044E+06
        -0.14691E+06
         0.72595E+06
         0.11575E+07
         0.64527E+06
         0.36609E+06
         0.68164E+06
         0.15225E+06
         0.86374E+05
         0.26125E+06
         0.71009E+06
         0.40929E+06
         0.46175E+06
         0.48216E+05
         0.12447E+06
         0.41371E+06
         0.42240E+06
         0.42379E+06
         0.53496E+06
         0.92974E+06
         0.11385E+07
         0.13430E+07
         0.48985E+06
         0.14149E+07
         0.83763E+06
         0.15318E+07
         0.21068E+07
         0.25031E+07
         0.22397E+07
         0.23349E+07
         0.20863E+07
         0.17211E+07
         0.15786E+07
         0.14050E+07
         0.10988E+07
         0.14994E+07
         0.87098E+06
         0.35593E+06
         0.42005E+06
         0.52679E+06
         0.71870E+06
         0.13245E+07
         0.13233E+07
         0.10835E+07
         0.77420E+06
         0.78951E+06
         0.12042E+07
         0.15744E+07
         0.11667E+07
         0.47524E+06
         0.59572E+06
         0.92209E+06
         0.10356E+07
         0.12200E+07
        -0.24674E+06
        -0.65559E+05
         0.11334E+07
        -0.23245E+06
        -0.77322E+06
         0.76931E+06
         0.84729E+06
        -0.15072E+07
         0.37168E+06
         0.45453E+06
         0.50224E+06
         0.72946E+06
         0.20636E+05
        -0.49088E+04
         0.51598E+06
         0.84164E+06
         0.11287E+06
        -0.33807E+06
        -0.77087E+06
        -0.31031E+06
        -0.21906E+07
        -0.20722E+07
        -0.11569E+07
        -0.66346E+06
         0.29670E+06
        -0.15040E+06
         0.71985E+06
         0.11523E+07
         0.64292E+06
         0.36329E+06
         0.67991E+06
         0.14424E+06
         0.82364E+05
         0.25712E+06
         0.70590E+06
         0.40667E+06
         0.45772E+06
         0.46291E+05
         0.12230E+06
         0.41086E+06
         0.41768E+06
         0.41843E+06
         0.52948E+06
         0.92446E+06
         0.11345E+07
         0.13372E+07
         0.48536E+06
         0.14114E+07
         0.83056E+06
         0.15258E+07
         0.21060E+07
         0.24989E+07
         0.22299E+07
         0.23239E+07
         0.20798E+07
         0.17113E+07
         0.15680E+07
         0.13997E+07
         0.10924E+07
         0.14959E+07
         0.86775E+06
         0.35298E+06
         0.41963E+06
         0.52473E+06
         0.71565E+06
         0.13165E+07
         0.13132E+07
         0.10757E+07
         0.77017E+06
         0.78745E+06
         0.11996E+07
         0.15680E+07
         0.11613E+07
         0.47004E+06
         0.59213E+06
         0.92030E+06
         0.10313E+07
         0.12177E+07
        -0.25078E+06
        -0.70187E+05
         0.11289E+07
        -0.23650E+06
        -0.77787E+06
         0.76408E+06
         0.84381E+06
        -0.15124E+07
         0.36625E+06
         0.44891E+06
         0.49840E+06
         0.72599E+06
         0.15633E+05
        -0.88033E+04
         0.51247E+06
         0.83797E+06
         0.10890E+06
        -0.34341E+06
        -0.77262E+06
        -0.31642E+06
        -0.21926E+07
        -0.20745E+07
        -0.11595E+07
        -0.66563E+06
         0.29117E+06
        -0.15614E+06
         0.71628E+06
         0.11515E+07
         0.63698E+06
         0.35845E+06
         0.67595E+06
         0.13651E+06
         0.77720E+05
         0.25361E+06
         0.70364E+06
         0.40448E+06
         0.45406E+06
         0.42512E+05
         0.11840E+06
         0.40700E+06
         0.41328E+06
         0.41379E+06
         0.52424E+06
         0.91975E+06
         0.11308E+07
         0.13340E+07
         0.47648E+06
         0.14041E+07
         0.82517E+06
         0.15240E+07
         0.21036E+07
         0.24904E+07
         0.22176E+07
         0.23139E+07
         0.20730E+07
         0.17043E+07
         0.15636E+07
         0.13945E+07
         0.10848E+07
         0.14907E+07
         0.86236E+06
         0.34681E+06
         0.41557E+06
         0.51995E+06
         0.70966E+06
         0.13098E+07
         0.13055E+07
         0.10677E+07
         0.76437E+06
         0.78189E+06
         0.11928E+07
         0.15608E+07
         0.11651E+07
         0.47220E+06
         0.59418E+06
         0.92389E+06
         0.10356E+07
         0.12218E+07
        -0.24589E+06
        -0.63177E+05
         0.11332E+07
        -0.23089E+06
        -0.77123E+06
         0.76857E+06
         0.84556E+06
        -0.15041E+07
         0.37618E+06
         0.45466E+06
         0.50201E+06
         0.73109E+06
         0.21549E+05
        -0.23117E+04
         0.51829E+06
         0.84415E+06
         0.11405E+06
        -0.33768E+06
        -0.76718E+06
        -0.31086E+06
        -0.21835E+07
        -0.20675E+07
        -0.11502E+07
        -0.65644E+06
         0.29763E+06
        -0.15170E+06
         0.72248E+06
         0.11578E+07
         0.64207E+06
         0.36279E+06
         0.67826E+06
         0.14325E+06
         0.85401E+05
         0.26297E+06
         0.71106E+06
         0.41020E+06
         0.46003E+06
         0.47020E+05
         0.12218E+06
         0.41033E+06
         0.41747E+06
         0.41897E+06
         0.52920E+06
         0.92435E+06
         0.11350E+07
         0.13380E+07
         0.48746E+06
         0.14160E+07
         0.83636E+06
         0.15295E+07
         0.21018E+07
         0.24909E+07
         0.22264E+07
         0.23237E+07
         0.20797E+07
         0.17143E+07
         0.15731E+07
         0.13991E+07
         0.10930E+07
         0.14991E+07
         0.86997E+06
         0.35270E+06
         0.41953E+06
         0.52486E+06
         0.71424E+06
         0.13170E+07
         0.13140E+07
         0.10759E+07
         0.77139E+06
         0.78780E+06
         0.12016E+07
         0.15712E+07
         0.11627E+07
         0.46803E+06
         0.59070E+06
         0.92000E+06
         0.10312E+07
         0.12171E+07
        -0.25106E+06
        -0.67312E+05
         0.11298E+07
        -0.23626E+06
        -0.77795E+06
         0.76206E+06
         0.83834E+06
        -0.15119E+07
         0.37246E+06
         0.45022E+06
         0.49694E+06
         0.72477E+06
         0.15376E+05
        -0.82994E+04
         0.51191E+06
         0.83753E+06
         0.10720E+06
        -0.34385E+06
        -0.77240E+06
        -0.31621E+06
        -0.21915E+07
        -0.20762E+07
        -0.11571E+07
        -0.66079E+06
         0.29250E+06
        -0.15711E+06
         0.71515E+06
         0.11531E+07
         0.63640E+06
         0.35718E+06
         0.67178E+06
         0.13477E+06
         0.77102E+05
         0.25528E+06
         0.70272E+06
         0.40221E+06
         0.45371E+06
         0.39176E+05
         0.11500E+06
         0.40466E+06
         0.41116E+06
         0.41163E+06
         0.52258E+06
         0.91914E+06
         0.11300E+07
         0.13316E+07
         0.47868E+06
         0.14085E+07
         0.82785E+06
         0.15196E+07
         0.20904E+07
         0.24801E+07
         0.22197E+07
         0.23151E+07
         0.20683E+07
         0.17031E+07
         0.15595E+07
         0.13856E+07
         0.10839E+07
         0.14895E+07
         0.86190E+06
         0.34357E+06
         0.40543E+06
         0.51231E+06
         0.70789E+06
         0.13082E+07
         0.13049E+07
         0.10712E+07
         0.76809E+06
         0.78096E+06
         0.11923E+07
         0.15620E+07
         0.11625E+07
         0.46666E+06
         0.58978E+06
         0.91906E+06
         0.10306E+07
         0.12156E+07
        -0.25172E+06
        -0.67167E+05
         0.11309E+07
        -0.23483E+06
        -0.77892E+06
         0.76118E+06
         0.83733E+06
        -0.15125E+07
         0.37323E+06
         0.44982E+06
         0.49761E+06
         0.72333E+06
         0.14936E+05
        -0.89287E+04
         0.51061E+06
         0.83651E+06
         0.10574E+06
        -0.34498E+06
        -0.77148E+06
        -0.31772E+06
        -0.21895E+07
        -0.20773E+07
        -0.11586E+07
        -0.66124E+06
         0.28995E+06
        -0.15925E+06
         0.71205E+06
         0.11523E+07
         0.63523E+06
         0.35533E+06
         0.66980E+06
         0.13113E+06
         0.72972E+05
         0.25270E+06
         0.70208E+06
         0.40178E+06
         0.45295E+06
         0.37984E+05
         0.11372E+06
         0.40338E+06
         0.40919E+06
         0.40883E+06
         0.51968E+06
         0.91742E+06
         0.11290E+07
         0.13291E+07
         0.47836E+06
         0.14086E+07
         0.82553E+06
         0.15159E+07
         0.20901E+07
         0.24799E+07
         0.22169E+07
         0.23079E+07
         0.20600E+07
         0.16986E+07
         0.15590E+07
         0.13843E+07
         0.10816E+07
         0.14858E+07
         0.85771E+06
         0.34069E+06
         0.40357E+06
         0.51070E+06
         0.70607E+06
         0.13051E+07
         0.13008E+07
         0.10686E+07
         0.76772E+06
         0.77996E+06
         0.11882E+07
         0.15583E+07
         0.11741E+07
         0.47981E+06
         0.60098E+06
         0.92783E+06
         0.10433E+07
         0.12254E+07
        -0.23608E+06
        -0.52972E+05
         0.11407E+07
        -0.22242E+06
        -0.76310E+06
         0.77538E+06
         0.85080E+06
        -0.14974E+07
         0.38780E+06
         0.46162E+06
         0.50895E+06
         0.73298E+06
         0.27695E+05
         0.45939E+04
         0.52342E+06
         0.84873E+06
         0.11823E+06
        -0.33260E+06
        -0.75631E+06
        -0.30540E+06
        -0.21720E+07
        -0.20588E+07
        -0.11407E+07
        -0.64484E+06
         0.30258E+06
        -0.14676E+06
         0.72177E+06
         0.11607E+07
         0.64850E+06
         0.36811E+06
         0.68216E+06
         0.14126E+06
         0.86790E+05
         0.26737E+06
         0.71426E+06
         0.41434E+06
         0.46396E+06
         0.51598E+05
         0.12778E+06
         0.41632E+06
         0.42241E+06
         0.42176E+06
         0.53022E+06
         0.92636E+06
         0.11378E+07
         0.13370E+07
         0.49839E+06
         0.14285E+07
         0.84228E+06
         0.15280E+07
         0.21048E+07
         0.24984E+07
         0.22325E+07
         0.23198E+07
         0.20735E+07
         0.17132E+07
         0.15722E+07
         0.13998E+07
         0.10942E+07
         0.14999E+07
         0.87362E+06
         0.35719E+06
         0.42207E+06
         0.53042E+06
         0.72301E+06
         0.13227E+07
         0.13160E+07
         0.10799E+07
         0.78011E+06
         0.79473E+06
         0.12042E+07
         0.15745E+07
         0.11695E+07
         0.47605E+06
         0.59776E+06
         0.92295E+06
         0.10378E+07
         0.12206E+07
        -0.24066E+06
        -0.58475E+05
         0.11355E+07
        -0.22951E+06
        -0.76969E+06
         0.77038E+06
         0.84771E+06
        -0.15056E+07
         0.38223E+06
         0.45576E+06
         0.50246E+06
         0.72781E+06
         0.19493E+05
        -0.27231E+04
         0.51917E+06
         0.84269E+06
         0.11405E+06
        -0.34004E+06
        -0.76273E+06
        -0.31300E+06
        -0.21791E+07
        -0.20647E+07
        -0.11418E+07
        -0.64772E+06
         0.29894E+06
        -0.15290E+06
         0.71666E+06
         0.11549E+07
         0.64116E+06
         0.36300E+06
         0.67899E+06
         0.13156E+06
         0.80288E+05
         0.26447E+06
         0.70912E+06
         0.40821E+06
         0.45665E+06
         0.45781E+05
         0.12153E+06
         0.41100E+06
         0.41717E+06
         0.41770E+06
         0.52459E+06
         0.91895E+06
         0.11320E+07
         0.13305E+07
         0.48548E+06
         0.14177E+07
         0.83244E+06
         0.15228E+07
         0.21030E+07
         0.24936E+07
         0.22218E+07
         0.23069E+07
         0.20609E+07
         0.17020E+07
         0.15591E+07
         0.13848E+07
         0.10833E+07
         0.14945E+07
         0.87114E+06
         0.35567E+06
         0.41697E+06
         0.52158E+06
         0.71635E+06
         0.13148E+07
         0.13087E+07
         0.10717E+07
         0.77123E+06
         0.78901E+06
         0.11989E+07
         0.15658E+07
         0.11617E+07
         0.46647E+06
         0.58860E+06
         0.91629E+06
         0.10292E+07
         0.12116E+07
        -0.24845E+06
        -0.65108E+05
         0.11277E+07
        -0.24336E+06
        -0.77772E+06
         0.76228E+06
         0.84065E+06
        -0.15140E+07
         0.37505E+06
         0.44845E+06
         0.49234E+06
         0.72184E+06
         0.12799E+05
        -0.63000E+04
         0.51391E+06
         0.83561E+06
         0.10897E+06
        -0.34643E+06
        -0.77540E+06
        -0.32045E+06
        -0.21959E+07
        -0.20744E+07
        -0.11209E+07
        -0.63588E+06
         0.29205E+06
        -0.16153E+06
         0.71159E+06
         0.11511E+07
         0.63288E+06
         0.35462E+06
         0.67138E+06
         0.11683E+06
         0.73920E+05
         0.27805E+06
         0.70897E+06
         0.40155E+06
         0.44684E+06
         0.39491E+05
         0.11356E+06
         0.40246E+06
         0.40798E+06
         0.41037E+06
         0.51816E+06
         0.91284E+06
         0.11267E+07
         0.13228E+07
         0.47684E+06
         0.14098E+07
         0.82575E+06
         0.15170E+07
         0.20949E+07
         0.24804E+07
         0.22067E+07
         0.22924E+07
         0.20482E+07
         0.16990E+07
         0.15361E+07
         0.13487E+07
         0.10680E+07
         0.14859E+07
         0.86363E+06
         0.34905E+06
         0.40880E+06
         0.51230E+06
         0.70543E+06
         0.13025E+07
         0.13003E+07
         0.10638E+07
         0.76217E+06
         0.78222E+06
         0.11886E+07
         0.15543E+07
         0.11727E+07
         0.47855E+06
         0.60074E+06
         0.92687E+06
         0.10427E+07
         0.12223E+07
        -0.23469E+06
        -0.51141E+05
         0.11347E+07
        -0.24429E+06
        -0.76348E+06
         0.77289E+06
         0.85067E+06
        -0.14998E+07
         0.38810E+06
         0.46037E+06
         0.50025E+06
         0.73088E+06
         0.27512E+05
         0.16014E+05
         0.52458E+06
         0.84629E+06
         0.11904E+06
        -0.33307E+06
        -0.77045E+06
        -0.30705E+06
        -0.21985E+07
        -0.20628E+07
        -0.10568E+07
        -0.58666E+06
         0.30288E+06
        -0.14883E+06
         0.72110E+06
         0.11621E+07
         0.64708E+06
         0.36887E+06
         0.68306E+06
         0.11849E+06
         0.89519E+05
         0.32671E+06
         0.73204E+06
         0.41423E+06
         0.45330E+06
         0.51195E+05
         0.12732E+06
         0.41683E+06
         0.42176E+06
         0.42222E+06
         0.52978E+06
         0.92532E+06
         0.11386E+07
         0.13324E+07
         0.49746E+06
         0.14301E+07
         0.84641E+06
         0.15315E+07
         0.21041E+07
         0.24910E+07
         0.22213E+07
         0.23073E+07
         0.20647E+07
         0.17310E+07
         0.15287E+07
         0.13197E+07
         0.10691E+07
         0.14976E+07
         0.87335E+06
         0.35718E+06
         0.41883E+06
         0.52881E+06
         0.72568E+06
         0.13214E+07
         0.13168E+07
         0.10809E+07
         0.78125E+06
         0.79990E+06
         0.12029E+07
         0.15693E+07
         0.11323E+07
         0.43420E+06
         0.55787E+06
         0.88599E+06
         0.99429E+06
         0.11739E+07
        -0.28307E+06
        -0.98432E+05
         0.10888E+07
        -0.30255E+06
        -0.81803E+06
         0.72257E+06
         0.80040E+06
        -0.15578E+07
         0.33812E+06
         0.41812E+06
         0.45078E+06
         0.68921E+06
        -0.21136E+05
        -0.30281E+05
         0.47793E+06
         0.79952E+06
         0.72567E+05
        -0.38008E+06
        -0.82753E+06
        -0.35160E+06
        -0.22657E+07
        -0.21186E+07
        -0.10815E+07
        -0.61904E+06
         0.26062E+06
        -0.19514E+06
         0.67736E+06
         0.11164E+07
         0.59585E+06
         0.31627E+06
         0.63119E+06
         0.58307E+05
         0.39273E+05
         0.29626E+06
         0.68772E+06
         0.36497E+06
         0.40369E+06
         0.37411E+04
         0.75545E+05
         0.36327E+06
         0.36860E+06
         0.37271E+06
         0.48049E+06
         0.87180E+06
         0.10850E+07
         0.12780E+07
         0.42507E+06
         0.13601E+07
         0.77399E+06
         0.14577E+07
         0.20310E+07
         0.24210E+07
         0.21499E+07
         0.22298E+07
         0.19918E+07
         0.16650E+07
         0.14366E+07
         0.12195E+07
         0.99657E+06
         0.14370E+07
         0.81065E+06
         0.29259E+06
         0.35235E+06
         0.45509E+06
         0.64951E+06
         0.12486E+07
         0.12485E+07
         0.10151E+07
         0.71429E+06
         0.73083E+06
         0.11368E+07
         0.15037E+07
         0.11557E+07
         0.43729E+06
         0.56611E+06
         0.90203E+06
         0.10104E+07
         0.11893E+07
        -0.27579E+06
        -0.68860E+05
         0.11201E+07
        -0.25786E+06
        -0.80294E+06
         0.72353E+06
         0.78771E+06
        -0.15225E+07
         0.36138E+06
         0.45199E+06
         0.48370E+06
         0.71158E+06
         0.53828E+04
        -0.30034E+04
         0.49916E+06
         0.81557E+06
         0.10604E+06
        -0.34481E+06
        -0.77466E+06
        -0.31874E+06
        -0.22081E+07
        -0.20543E+07
        -0.10279E+07
        -0.56937E+06
         0.28730E+06
        -0.17475E+06
         0.68939E+06
         0.11099E+07
         0.60387E+06
         0.31222E+06
         0.61645E+06
         0.87373E+05
         0.77463E+05
         0.33014E+06
         0.70811E+06
         0.39331E+06
         0.43350E+06
         0.36270E+05
         0.94434E+05
         0.37157E+06
         0.37671E+06
         0.39405E+06
         0.49635E+06
         0.87190E+06
         0.10883E+07
         0.12778E+07
         0.45277E+06
         0.13961E+07
         0.78304E+06
         0.14418E+07
         0.19981E+07
         0.24011E+07
         0.21825E+07
         0.22637E+07
         0.20188E+07
         0.16809E+07
         0.14410E+07
         0.12333E+07
         0.10240E+07
         0.14507E+07
         0.83917E+06
         0.33306E+06
         0.38670E+06
         0.48115E+06
         0.66079E+06
         0.12473E+07
         0.12636E+07
         0.10369E+07
         0.74860E+06
         0.77262E+06
         0.11696E+07
         0.15377E+07
         0.15711E+09
         0.17300E+09
         0.17180E+09
         0.15717E+09
         0.18586E+09
         0.18606E+09
         0.18650E+09
         0.17839E+09
         0.16373E+09
         0.17998E+09
         0.20719E+09
         0.19196E+09
         0.18288E+09
         0.21324E+09
         0.19453E+09
         0.15941E+09
         0.17151E+09
         0.15016E+09
         0.17829E+09
         0.18649E+09
         0.16698E+09
         0.17134E+09
         0.16363E+09
         0.17025E+09
         0.18954E+09
         0.16311E+09
         0.21046E+09
         0.20414E+09
         0.20533E+09
         0.19629E+09
         0.16094E+09
         0.16886E+09
         0.15799E+09
         0.16531E+09
         0.19101E+09
         0.19778E+09
         0.18487E+09
         0.19193E+09
         0.19590E+09
         0.19755E+09
         0.18790E+09
         0.18158E+09
         0.17232E+09
         0.16548E+09
         0.17829E+09
         0.18838E+09
         0.19140E+09
         0.18721E+09
         0.18286E+09
         0.19037E+09
         0.18529E+09
         0.18960E+09
         0.26440E+09
         0.25839E+09
         0.26173E+09
         0.25366E+09
         0.26012E+09
         0.27111E+09
         0.27328E+09
         0.27330E+09
         0.27612E+09
         0.28182E+09
         0.27382E+09
         0.25850E+09
         0.23434E+09
         0.22268E+09
         0.22336E+09
         0.22669E+09
         0.22871E+09
         0.24689E+09
         0.26541E+09
         0.26592E+09
         0.24668E+09
         0.23930E+09
         0.24621E+09
         0.24440E+09
         0.24201E+09
         0.24272E+09
         0.12837E+10
         0.13487E+10
         0.13333E+10
         0.12402E+10
         0.14587E+10
         0.13914E+10
         0.14455E+10
         0.14395E+10
         0.12727E+10
         0.14397E+10
         0.15620E+10
         0.16866E+10
         0.15579E+10
         0.15961E+10
         0.17353E+10
         0.12480E+10
         0.13346E+10
         0.11969E+10
         0.13687E+10
         0.14315E+10
         0.14400E+10
         0.14706E+10
         0.13936E+10
         0.13277E+10
         0.14629E+10
         0.12917E+10
         0.15911E+10
         0.15756E+10
         0.15805E+10
         0.15060E+10
         0.12627E+10
         0.13235E+10
         0.12485E+10
         0.12958E+10
         0.15688E+10
         0.14706E+10
         0.14682E+10
         0.16952E+10
         0.16669E+10
         0.16524E+10
         0.16642E+10
         0.15941E+10
         0.15171E+10
         0.13714E+10
         0.14249E+10
         0.15654E+10
         0.14759E+10
         0.14041E+10
         0.13847E+10
         0.14246E+10
         0.15144E+10
         0.14259E+10
         0.22838E+10
         0.22258E+10
         0.22651E+10
         0.21979E+10
         0.22543E+10
         0.23576E+10
         0.23971E+10
         0.24024E+10
         0.24211E+10
         0.24678E+10
         0.24014E+10
         0.22656E+10
         0.20587E+10
         0.19558E+10
         0.19529E+10
         0.19709E+10
         0.19858E+10
         0.21375E+10
         0.22876E+10
         0.22937E+10
         0.21397E+10
         0.20812E+10
         0.21412E+10
         0.21291E+10
         0.21036E+10
         0.20991E+10
  
SCALARS                      stress_yz  double 1
LOOKUP_TABLE default
         0.28776E+06
        -0.95728E+05
        -0.24870E+06
        -0.12789E+06
        -0.28513E+01
        -0.78587E+00
        -0.35336E+01
        -0.26952E+01
        -0.93225E+06
         0.61313E+06
        -0.52587E+01
        -0.46296E+01
        -0.81794E+06
        -0.41592E+05
         0.37634E+01
        -0.24129E+00
         0.28111E+06
         0.10481E+07
         0.55369E-01
         0.56653E+00
        -0.54397E+06
        -0.20478E+07
        -0.21284E+07
         0.86270E+01
         0.14899E+02
         0.12453E+02
        -0.20185E+06
        -0.20765E+07
         0.62056E+01
         0.12039E+02
         0.32126E+06
         0.28008E+06
        -0.23782E+06
         0.32171E+01
         0.32841E+01
        -0.68181E-01
         0.95484E+06
         0.92033E+06
         0.59200E+01
         0.46060E+01
         0.93871E+06
         0.59762E+06
         0.44740E+01
         0.40887E+01
         0.85122E+06
         0.29345E+06
        -0.14841E+00
         0.22956E+01
         0.79072E+06
         0.10808E+01
         0.77892E+05
        -0.87540E-01
         0.46595E+05
         0.41808E+01
        -0.30882E+06
         0.24321E+01
        -0.10072E+07
         0.17881E+06
         0.65980E-01
        -0.13392E+00
         0.38960E+06
         0.14216E+07
        -0.89897E+00
        -0.33626E+01
         0.23525E+06
        -0.18146E+01
         0.10100E+07
        -0.22106E+01
        -0.82048E+06
        -0.43460E+06
        -0.27319E+00
         0.36070E+01
        -0.15196E+07
         0.79206E+01
        -0.26360E+07
         0.76691E+01
        -0.26603E+07
         0.58216E+01
        -0.21914E+07
         0.48795E+01
        -0.32137E+07
        -0.24663E+07
         0.31302E+01
        -0.69402E+00
        -0.34487E+06
        -0.77657E-01
         0.13303E+07
        -0.48647E+01
         0.31442E+07
        -0.85163E+01
         0.43940E+07
         0.27238E+07
        -0.12631E+02
        -0.10224E+02
         0.19156E+07
        -0.79364E+01
         0.17188E+07
        -0.81194E+01
         0.16726E+07
        -0.87301E+01
         0.27833E+07
         0.23130E+07
        -0.81185E+01
        -0.38900E+01
        -0.18674E+07
         0.70681E+06
         0.28546E+01
        -0.35474E+01
        -0.45910E+07
         0.94966E+01
        -0.65716E+07
         0.13891E+02
        -0.80465E+07
         0.17156E+02
        -0.94387E+07
         0.17017E+02
        -0.11114E+08
         0.13467E+02
        -0.11362E+08
         0.10422E+02
        -0.10699E+08
         0.96931E+01
        -0.95200E+07
         0.92223E+01
        -0.69420E+07
         0.58937E+01
        -0.46871E+07
         0.19459E+01
        -0.23508E+07
         0.12573E+01
         0.16908E+06
         0.18899E+01
         0.22425E+07
         0.97610E+00
         0.40227E+07
        -0.29519E+01
         0.62255E+07
        -0.83321E+01
         0.70062E+07
        -0.13011E+02
         0.76648E+07
        -0.17057E+02
         0.97926E+07
        -0.17042E+02
         0.10142E+08
        -0.14877E+02
         0.93721E+07
        -0.14499E+02
         0.76230E+07
        -0.14590E+02
         0.51827E+07
        -0.11537E+02
         0.36706E+07
        -0.68223E+01
         0.26395E+07
        -0.52751E+01
        -0.27584E+07
        -0.14272E+07
        -0.12459E+07
        -0.38676E+06
        -0.12764E+07
        -0.13573E+07
        -0.14309E+06
        -0.21994E+07
        -0.18871E+07
        -0.27687E+07
         0.14455E+07
         0.61663E+07
         0.42137E+07
         0.48874E+06
         0.62297E+07
         0.73063E+06
        -0.64733E+06
         0.41676E+06
         0.54403E+06
        -0.41124E+06
         0.37758E+06
         0.31135E+06
        -0.10461E+07
         0.88171E+05
        -0.18903E+07
         0.27946E+06
         0.14468E+05
         0.25296E+06
         0.30690E+06
        -0.14817E+07
         0.71318E+06
        -0.77357E+06
         0.51865E+06
        -0.12632E+06
         0.20831E+06
         0.11296E+07
         0.25336E+07
         0.54755E+07
         0.50030E+07
         0.42258E+07
         0.39776E+07
         0.98881E+06
        -0.80951E+06
        -0.22202E+07
        -0.36671E+07
        -0.59852E+07
        -0.39300E+07
        -0.28202E+07
        -0.30088E+07
        -0.31949E+07
        -0.37453E+07
        -0.17129E+07
         0.32186E+07
        -0.38712E+07
         0.10483E+08
         0.14485E+08
         0.18464E+08
         0.21916E+08
         0.22029E+08
         0.19943E+08
         0.18978E+08
         0.17935E+08
         0.11586E+08
         0.50907E+07
         0.22409E+07
         0.98806E+06
        -0.15134E+07
        -0.59835E+07
        -0.10996E+08
        -0.14346E+08
        -0.17350E+08
        -0.19897E+08
        -0.18748E+08
        -0.17724E+08
        -0.16488E+08
        -0.11465E+08
        -0.66991E+07
        -0.58826E+07
        -0.15926E+09
        -0.11195E+09
        -0.10360E+09
        -0.24572E+08
        -0.11643E+09
        -0.60515E+08
        -0.47987E+08
        -0.15294E+09
        -0.11001E+09
        -0.15229E+09
         0.83420E+08
         0.17199E+09
         0.13217E+09
         0.30737E+08
         0.16223E+09
         0.67314E+08
        -0.20399E+08
         0.19475E+08
         0.87781E+08
         0.16971E+08
         0.45228E+08
         0.34115E+08
        -0.20282E+08
         0.26286E+08
        -0.10625E+09
         0.26281E+08
         0.65948E+07
         0.12260E+08
        -0.19583E+08
        -0.10599E+09
         0.72545E+08
         0.19110E+08
         0.46890E+08
         0.40713E+08
        -0.13148E+08
         0.59176E+08
         0.97648E+08
         0.14944E+09
         0.16904E+09
         0.15952E+09
         0.83981E+08
        -0.22772E+08
        -0.46611E+08
        -0.74268E+08
        -0.10655E+09
        -0.16147E+09
        -0.14059E+09
        -0.99316E+08
        -0.12482E+09
        -0.14736E+09
        -0.10699E+09
        -0.11456E+08
         0.33486E+08
        -0.46870E+08
         0.10473E+09
         0.13625E+09
         0.16583E+09
         0.18645E+09
         0.18966E+09
         0.18447E+09
         0.18103E+09
         0.16829E+09
         0.10765E+09
         0.35930E+08
         0.17056E+08
         0.15313E+08
        -0.65037E+07
        -0.51792E+08
        -0.10028E+09
        -0.12873E+09
        -0.17362E+09
        -0.18786E+09
        -0.18164E+09
        -0.18011E+09
        -0.16926E+09
        -0.12168E+09
        -0.61570E+08
        -0.58754E+08
        -0.15924E+09
        -0.11197E+09
        -0.10365E+09
        -0.24752E+08
        -0.11650E+09
        -0.60562E+08
        -0.48047E+08
        -0.15305E+09
        -0.11021E+09
        -0.15243E+09
         0.83470E+08
         0.17198E+09
         0.13215E+09
         0.30738E+08
         0.16228E+09
         0.67318E+08
        -0.20585E+08
         0.19446E+08
         0.87841E+08
         0.16877E+08
         0.45336E+08
         0.34150E+08
        -0.20288E+08
         0.26274E+08
        -0.10673E+09
         0.26233E+08
         0.66725E+07
         0.12328E+08
        -0.19453E+08
        -0.10621E+09
         0.72558E+08
         0.19068E+08
         0.46993E+08
         0.40780E+08
        -0.13019E+08
         0.59215E+08
         0.97665E+08
         0.14945E+09
         0.16904E+09
         0.15949E+09
         0.83993E+08
        -0.22699E+08
        -0.46653E+08
        -0.74307E+08
        -0.10657E+09
        -0.16148E+09
        -0.14060E+09
        -0.99257E+08
        -0.12466E+09
        -0.14716E+09
        -0.10700E+09
        -0.11283E+08
         0.33466E+08
        -0.46883E+08
         0.10475E+09
         0.13625E+09
         0.16584E+09
         0.18644E+09
         0.18966E+09
         0.18446E+09
         0.18103E+09
         0.16829E+09
         0.10764E+09
         0.35945E+08
         0.17056E+08
         0.15345E+08
        -0.64500E+07
        -0.51808E+08
        -0.10031E+09
        -0.12874E+09
        -0.17362E+09
        -0.18785E+09
        -0.18165E+09
        -0.18012E+09
        -0.16927E+09
        -0.12167E+09
        -0.61534E+08
        -0.58705E+08
        -0.15923E+09
        -0.11199E+09
        -0.10370E+09
        -0.24934E+08
        -0.11656E+09
        -0.60612E+08
        -0.48107E+08
        -0.15317E+09
        -0.11041E+09
        -0.15256E+09
         0.83519E+08
         0.17197E+09
         0.13213E+09
         0.30734E+08
         0.16233E+09
         0.67322E+08
        -0.20772E+08
         0.19417E+08
         0.87901E+08
         0.16780E+08
         0.45445E+08
         0.34184E+08
        -0.20297E+08
         0.26257E+08
        -0.10721E+09
         0.26178E+08
         0.67556E+07
         0.12401E+08
        -0.19312E+08
        -0.10643E+09
         0.72569E+08
         0.19017E+08
         0.47098E+08
         0.40845E+08
        -0.12890E+08
         0.59255E+08
         0.97681E+08
         0.14946E+09
         0.16905E+09
         0.15947E+09
         0.84007E+08
        -0.22620E+08
        -0.46692E+08
        -0.74353E+08
        -0.10660E+09
        -0.16149E+09
        -0.14061E+09
        -0.99195E+08
        -0.12449E+09
        -0.14696E+09
        -0.10701E+09
        -0.11110E+08
         0.33446E+08
        -0.46896E+08
         0.10477E+09
         0.13625E+09
         0.16584E+09
         0.18644E+09
         0.18965E+09
         0.18445E+09
         0.18104E+09
         0.16829E+09
         0.10764E+09
         0.35962E+08
         0.17056E+08
         0.15377E+08
        -0.63960E+07
        -0.51825E+08
        -0.10033E+09
        -0.12874E+09
        -0.17363E+09
        -0.18785E+09
        -0.18165E+09
        -0.18012E+09
        -0.16928E+09
        -0.12166E+09
        -0.61498E+08
        -0.58657E+08
        -0.15921E+09
        -0.11201E+09
        -0.10375E+09
        -0.25117E+08
        -0.11663E+09
        -0.60661E+08
        -0.48171E+08
        -0.15329E+09
        -0.11061E+09
        -0.15270E+09
         0.83569E+08
         0.17196E+09
         0.13212E+09
         0.30735E+08
         0.16238E+09
         0.67328E+08
        -0.20963E+08
         0.19386E+08
         0.87966E+08
         0.16678E+08
         0.45555E+08
         0.34215E+08
        -0.20314E+08
         0.26232E+08
        -0.10767E+09
         0.26107E+08
         0.68414E+07
         0.12497E+08
        -0.19138E+08
        -0.10663E+09
         0.72574E+08
         0.18949E+08
         0.47201E+08
         0.40912E+08
        -0.12761E+08
         0.59294E+08
         0.97697E+08
         0.14947E+09
         0.16905E+09
         0.15944E+09
         0.84028E+08
        -0.22522E+08
        -0.46721E+08
        -0.74418E+08
        -0.10665E+09
        -0.16150E+09
        -0.14063E+09
        -0.99135E+08
        -0.12432E+09
        -0.14676E+09
        -0.10702E+09
        -0.10938E+08
         0.33426E+08
        -0.46909E+08
         0.10479E+09
         0.13625E+09
         0.16585E+09
         0.18643E+09
         0.18964E+09
         0.18444E+09
         0.18104E+09
         0.16829E+09
         0.10764E+09
         0.35981E+08
         0.17058E+08
         0.15409E+08
        -0.63416E+07
        -0.51842E+08
        -0.10036E+09
        -0.12875E+09
        -0.17364E+09
        -0.18785E+09
        -0.18166E+09
        -0.18012E+09
        -0.16929E+09
        -0.12164E+09
        -0.61463E+08
        -0.58608E+08
        -0.15919E+09
        -0.11203E+09
        -0.10380E+09
        -0.25299E+08
        -0.11669E+09
        -0.60709E+08
        -0.48230E+08
        -0.15340E+09
        -0.11081E+09
        -0.15284E+09
         0.83619E+08
         0.17195E+09
         0.13210E+09
         0.30737E+08
         0.16243E+09
         0.67334E+08
        -0.21157E+08
         0.19356E+08
         0.88033E+08
         0.16571E+08
         0.45665E+08
         0.34241E+08
        -0.20340E+08
         0.26195E+08
        -0.10811E+09
         0.26016E+08
         0.69369E+07
         0.12616E+08
        -0.18928E+08
        -0.10680E+09
         0.72575E+08
         0.18859E+08
         0.47304E+08
         0.40978E+08
        -0.12631E+08
         0.59333E+08
         0.97713E+08
         0.14948E+09
         0.16905E+09
         0.15942E+09
         0.84057E+08
        -0.22405E+08
        -0.46739E+08
        -0.74503E+08
        -0.10670E+09
        -0.16151E+09
        -0.14064E+09
        -0.99081E+08
        -0.12416E+09
        -0.14656E+09
        -0.10703E+09
        -0.10764E+08
         0.33405E+08
        -0.46922E+08
         0.10481E+09
         0.13625E+09
         0.16585E+09
         0.18643E+09
         0.18963E+09
         0.18443E+09
         0.18104E+09
         0.16829E+09
         0.10763E+09
         0.36004E+08
         0.17060E+08
         0.15439E+08
        -0.62870E+07
        -0.51859E+08
        -0.10039E+09
        -0.12876E+09
        -0.17364E+09
        -0.18785E+09
        -0.18166E+09
        -0.18012E+09
        -0.16930E+09
        -0.12163E+09
        -0.61427E+08
        -0.58559E+08
        -0.15918E+09
        -0.11205E+09
        -0.10386E+09
        -0.25484E+08
        -0.11675E+09
        -0.60757E+08
        -0.48283E+08
        -0.15351E+09
        -0.11101E+09
        -0.15298E+09
         0.83676E+08
         0.17194E+09
         0.13209E+09
         0.30742E+08
         0.16248E+09
         0.67342E+08
        -0.21355E+08
         0.19326E+08
         0.88101E+08
         0.16461E+08
         0.45775E+08
         0.34265E+08
        -0.20369E+08
         0.26154E+08
        -0.10854E+09
         0.25920E+08
         0.70396E+07
         0.12746E+08
        -0.18703E+08
        -0.10697E+09
         0.72571E+08
         0.18760E+08
         0.47410E+08
         0.41047E+08
        -0.12501E+08
         0.59376E+08
         0.97731E+08
         0.14949E+09
         0.16906E+09
         0.15940E+09
         0.84087E+08
        -0.22281E+08
        -0.46752E+08
        -0.74593E+08
        -0.10677E+09
        -0.16152E+09
        -0.14066E+09
        -0.99037E+08
        -0.12401E+09
        -0.14637E+09
        -0.10704E+09
        -0.10591E+08
         0.33385E+08
        -0.46935E+08
         0.10483E+09
         0.13625E+09
         0.16586E+09
         0.18642E+09
         0.18963E+09
         0.18442E+09
         0.18105E+09
         0.16829E+09
         0.10763E+09
         0.36029E+08
         0.17063E+08
         0.15470E+08
        -0.62324E+07
        -0.51877E+08
        -0.10042E+09
        -0.12877E+09
        -0.17365E+09
        -0.18785E+09
        -0.18167E+09
        -0.18013E+09
        -0.16931E+09
        -0.12162E+09
        -0.61391E+08
        -0.58511E+08
        -0.15916E+09
        -0.11204E+09
        -0.10391E+09
        -0.25673E+08
        -0.11682E+09
        -0.60807E+08
        -0.48325E+08
        -0.15362E+09
        -0.11121E+09
        -0.15311E+09
         0.83745E+08
         0.17193E+09
         0.13208E+09
         0.30766E+08
         0.16253E+09
         0.67353E+08
        -0.21557E+08
         0.19296E+08
         0.88169E+08
         0.16351E+08
         0.45885E+08
         0.34290E+08
        -0.20398E+08
         0.26115E+08
        -0.10897E+09
         0.25824E+08
         0.71606E+07
         0.12885E+08
        -0.18474E+08
        -0.10713E+09
         0.72564E+08
         0.18653E+08
         0.47519E+08
         0.41120E+08
        -0.12370E+08
         0.59421E+08
         0.97750E+08
         0.14951E+09
         0.16906E+09
         0.15938E+09
         0.84118E+08
        -0.22154E+08
        -0.46764E+08
        -0.74683E+08
        -0.10683E+09
        -0.16154E+09
        -0.14069E+09
        -0.99021E+08
        -0.12388E+09
        -0.14618E+09
        -0.10705E+09
        -0.10415E+08
         0.33365E+08
        -0.46948E+08
         0.10484E+09
         0.13625E+09
         0.16586E+09
         0.18642E+09
         0.18962E+09
         0.18441E+09
         0.18105E+09
         0.16829E+09
         0.10763E+09
         0.36053E+08
         0.17066E+08
         0.15501E+08
        -0.61778E+07
        -0.51895E+08
        -0.10045E+09
        -0.12878E+09
        -0.17365E+09
        -0.18785E+09
        -0.18167E+09
        -0.18013E+09
        -0.16932E+09
        -0.12160E+09
        -0.61356E+08
        -0.58462E+08
        -0.15915E+09
        -0.11204E+09
        -0.10396E+09
        -0.25864E+08
        -0.11688E+09
        -0.60856E+08
        -0.48357E+08
        -0.15373E+09
        -0.11142E+09
        -0.15323E+09
         0.83820E+08
         0.17192E+09
         0.13206E+09
         0.30793E+08
         0.16257E+09
         0.67366E+08
        -0.21762E+08
         0.19266E+08
         0.88237E+08
         0.16241E+08
         0.45996E+08
         0.34316E+08
        -0.20426E+08
         0.26077E+08
        -0.10938E+09
         0.25727E+08
         0.72864E+07
         0.13027E+08
        -0.18244E+08
        -0.10729E+09
         0.72557E+08
         0.18542E+08
         0.47629E+08
         0.41196E+08
        -0.12238E+08
         0.59470E+08
         0.97770E+08
         0.14952E+09
         0.16907E+09
         0.15935E+09
         0.84150E+08
        -0.22027E+08
        -0.46775E+08
        -0.74772E+08
        -0.10689E+09
        -0.16155E+09
        -0.14072E+09
        -0.99013E+08
        -0.12376E+09
        -0.14600E+09
        -0.10705E+09
        -0.10240E+08
         0.33344E+08
        -0.46961E+08
         0.10486E+09
         0.13625E+09
         0.16587E+09
         0.18641E+09
         0.18961E+09
         0.18440E+09
         0.18106E+09
         0.16829E+09
         0.10763E+09
         0.36077E+08
         0.17069E+08
         0.15532E+08
        -0.61230E+07
        -0.51913E+08
        -0.10048E+09
        -0.12879E+09
        -0.17366E+09
        -0.18784E+09
        -0.18168E+09
        -0.18014E+09
        -0.16933E+09
        -0.12159E+09
        -0.61320E+08
        -0.58413E+08
        -0.15914E+09
        -0.11203E+09
        -0.10401E+09
        -0.26056E+08
        -0.11694E+09
        -0.60905E+08
        -0.48390E+08
        -0.15384E+09
        -0.11163E+09
        -0.15335E+09
         0.83891E+08
         0.17191E+09
         0.13205E+09
         0.30825E+08
         0.16262E+09
         0.67379E+08
        -0.21969E+08
         0.19235E+08
         0.88305E+08
         0.16130E+08
         0.46106E+08
         0.34342E+08
        -0.20454E+08
         0.26039E+08
        -0.10980E+09
         0.25632E+08
         0.74154E+07
         0.13168E+08
        -0.18015E+08
        -0.10745E+09
         0.72548E+08
         0.18432E+08
         0.47740E+08
         0.41270E+08
        -0.12105E+08
         0.59516E+08
         0.97788E+08
         0.14954E+09
         0.16907E+09
         0.15933E+09
         0.84181E+08
        -0.21902E+08
        -0.46786E+08
        -0.74861E+08
        -0.10696E+09
        -0.16156E+09
        -0.14075E+09
        -0.99007E+08
        -0.12364E+09
        -0.14582E+09
        -0.10706E+09
        -0.10064E+08
         0.33324E+08
        -0.46973E+08
         0.10488E+09
         0.13625E+09
         0.16587E+09
         0.18640E+09
         0.18960E+09
         0.18438E+09
         0.18106E+09
         0.16829E+09
         0.10763E+09
         0.36102E+08
         0.17072E+08
         0.15564E+08
        -0.60685E+07
        -0.51931E+08
        -0.10051E+09
        -0.12880E+09
        -0.17367E+09
        -0.18784E+09
        -0.18169E+09
        -0.18014E+09
        -0.16933E+09
        -0.12157E+09
        -0.61284E+08
        -0.58364E+08
        -0.15912E+09
        -0.11202E+09
        -0.10405E+09
        -0.26246E+08
        -0.11701E+09
        -0.60952E+08
        -0.48423E+08
        -0.15395E+09
        -0.11183E+09
        -0.15348E+09
         0.83967E+08
         0.17190E+09
         0.13204E+09
         0.30852E+08
         0.16267E+09
         0.67392E+08
        -0.22176E+08
         0.19204E+08
         0.88372E+08
         0.16019E+08
         0.46215E+08
         0.34367E+08
        -0.20481E+08
         0.26001E+08
        -0.11022E+09
         0.25536E+08
         0.75408E+07
         0.13308E+08
        -0.17787E+08
        -0.10761E+09
         0.72540E+08
         0.18322E+08
         0.47849E+08
         0.41345E+08
        -0.11973E+08
         0.59565E+08
         0.97808E+08
         0.14955E+09
         0.16908E+09
         0.15931E+09
         0.84212E+08
        -0.21776E+08
        -0.46798E+08
        -0.74949E+08
        -0.10702E+09
        -0.16157E+09
        -0.14078E+09
        -0.99004E+08
        -0.12352E+09
        -0.14563E+09
        -0.10706E+09
        -0.98882E+07
         0.33303E+08
        -0.46986E+08
         0.10490E+09
         0.13625E+09
         0.16588E+09
         0.18640E+09
         0.18960E+09
         0.18437E+09
         0.18107E+09
         0.16829E+09
         0.10763E+09
         0.36125E+08
         0.17076E+08
         0.15595E+08
        -0.60141E+07
        -0.51949E+08
        -0.10055E+09
        -0.12882E+09
        -0.17367E+09
        -0.18784E+09
        -0.18169E+09
        -0.18014E+09
        -0.16934E+09
        -0.12156E+09
        -0.61249E+08
        -0.58314E+08
        -0.15911E+09
        -0.11201E+09
        -0.10410E+09
        -0.26437E+08
        -0.11707E+09
        -0.61001E+08
        -0.48459E+08
        -0.15405E+09
        -0.11204E+09
        -0.15360E+09
         0.84042E+08
         0.17189E+09
         0.13202E+09
         0.30882E+08
         0.16272E+09
         0.67405E+08
        -0.22383E+08
         0.19174E+08
         0.88440E+08
         0.15907E+08
         0.46325E+08
         0.34391E+08
        -0.20510E+08
         0.25963E+08
        -0.11063E+09
         0.25441E+08
         0.76685E+07
         0.13445E+08
        -0.17559E+08
        -0.10777E+09
         0.72532E+08
         0.18212E+08
         0.47959E+08
         0.41420E+08
        -0.11840E+08
         0.59612E+08
         0.97828E+08
         0.14957E+09
         0.16908E+09
         0.15929E+09
         0.84243E+08
        -0.21651E+08
        -0.46809E+08
        -0.75037E+08
        -0.10708E+09
        -0.16158E+09
        -0.14081E+09
        -0.98997E+08
        -0.12341E+09
        -0.14545E+09
        -0.10707E+09
        -0.97122E+07
         0.33283E+08
        -0.46998E+08
         0.10492E+09
         0.13625E+09
         0.16588E+09
         0.18639E+09
         0.18959E+09
         0.18436E+09
         0.18107E+09
         0.16829E+09
         0.10763E+09
         0.36149E+08
         0.17079E+08
         0.15627E+08
        -0.59595E+07
        -0.51967E+08
        -0.10058E+09
        -0.12883E+09
        -0.17368E+09
        -0.18784E+09
        -0.18170E+09
        -0.18015E+09
        -0.16935E+09
        -0.12154E+09
        -0.61213E+08
        -0.58265E+08
        -0.15910E+09
        -0.11200E+09
        -0.10415E+09
        -0.26629E+08
        -0.11713E+09
        -0.61049E+08
        -0.48491E+08
        -0.15416E+09
        -0.11225E+09
        -0.15372E+09
         0.84117E+08
         0.17188E+09
         0.13201E+09
         0.30912E+08
         0.16277E+09
         0.67419E+08
        -0.22591E+08
         0.19142E+08
         0.88507E+08
         0.15796E+08
         0.46436E+08
         0.34416E+08
        -0.20538E+08
         0.25926E+08
        -0.11105E+09
         0.25346E+08
         0.77933E+07
         0.13582E+08
        -0.17330E+08
        -0.10793E+09
         0.72523E+08
         0.18102E+08
         0.48068E+08
         0.41496E+08
        -0.11706E+08
         0.59660E+08
         0.97847E+08
         0.14958E+09
         0.16908E+09
         0.15927E+09
         0.84274E+08
        -0.21527E+08
        -0.46820E+08
        -0.75125E+08
        -0.10715E+09
        -0.16160E+09
        -0.14084E+09
        -0.98995E+08
        -0.12329E+09
        -0.14527E+09
        -0.10707E+09
        -0.95365E+07
         0.33262E+08
        -0.47011E+08
         0.10494E+09
         0.13625E+09
         0.16589E+09
         0.18639E+09
         0.18958E+09
         0.18435E+09
         0.18107E+09
         0.16829E+09
         0.10762E+09
         0.36173E+08
         0.17082E+08
         0.15658E+08
        -0.59047E+07
        -0.51985E+08
        -0.10061E+09
        -0.12884E+09
        -0.17368E+09
        -0.18784E+09
        -0.18171E+09
        -0.18015E+09
        -0.16936E+09
        -0.12153E+09
        -0.61178E+08
        -0.58216E+08
        -0.15908E+09
        -0.11199E+09
        -0.10420E+09
        -0.26821E+08
        -0.11719E+09
        -0.61098E+08
        -0.48524E+08
        -0.15426E+09
        -0.11246E+09
        -0.15384E+09
         0.84192E+08
         0.17187E+09
         0.13200E+09
         0.30938E+08
         0.16282E+09
         0.67431E+08
        -0.22799E+08
         0.19111E+08
         0.88574E+08
         0.15685E+08
         0.46546E+08
         0.34440E+08
        -0.20566E+08
         0.25889E+08
        -0.11146E+09
         0.25250E+08
         0.79217E+07
         0.13717E+08
        -0.17103E+08
        -0.10809E+09
         0.72515E+08
         0.17990E+08
         0.48177E+08
         0.41571E+08
        -0.11573E+08
         0.59709E+08
         0.97866E+08
         0.14960E+09
         0.16909E+09
         0.15924E+09
         0.84305E+08
        -0.21402E+08
        -0.46831E+08
        -0.75213E+08
        -0.10721E+09
        -0.16161E+09
        -0.14087E+09
        -0.98989E+08
        -0.12317E+09
        -0.14509E+09
        -0.10708E+09
        -0.93612E+07
         0.33242E+08
        -0.47023E+08
         0.10496E+09
         0.13625E+09
         0.16589E+09
         0.18638E+09
         0.18957E+09
         0.18434E+09
         0.18108E+09
         0.16828E+09
         0.10762E+09
         0.36197E+08
         0.17085E+08
         0.15689E+08
        -0.58501E+07
        -0.52002E+08
        -0.10064E+09
        -0.12885E+09
        -0.17369E+09
        -0.18784E+09
        -0.18171E+09
        -0.18015E+09
        -0.16937E+09
        -0.12152E+09
        -0.61143E+08
        -0.58167E+08
        -0.15907E+09
        -0.11199E+09
        -0.10425E+09
        -0.27014E+08
        -0.11725E+09
        -0.61146E+08
        -0.48561E+08
        -0.15437E+09
        -0.11266E+09
        -0.15396E+09
         0.84267E+08
         0.17186E+09
         0.13199E+09
         0.30968E+08
         0.16287E+09
         0.67444E+08
        -0.23008E+08
         0.19079E+08
         0.88641E+08
         0.15574E+08
         0.46655E+08
         0.34464E+08
        -0.20594E+08
         0.25852E+08
        -0.11188E+09
         0.25155E+08
         0.80468E+07
         0.13850E+08
        -0.16876E+08
        -0.10825E+09
         0.72506E+08
         0.17880E+08
         0.48286E+08
         0.41647E+08
        -0.11440E+08
         0.59756E+08
         0.97884E+08
         0.14961E+09
         0.16909E+09
         0.15922E+09
         0.84336E+08
        -0.21277E+08
        -0.46842E+08
        -0.75301E+08
        -0.10727E+09
        -0.16162E+09
        -0.14091E+09
        -0.98984E+08
        -0.12305E+09
        -0.14490E+09
        -0.10708E+09
        -0.91869E+07
         0.33221E+08
        -0.47035E+08
         0.10498E+09
         0.13625E+09
         0.16590E+09
         0.18638E+09
         0.18957E+09
         0.18433E+09
         0.18108E+09
         0.16828E+09
         0.10762E+09
         0.36221E+08
         0.17089E+08
         0.15721E+08
        -0.57957E+07
        -0.52020E+08
        -0.10067E+09
        -0.12886E+09
        -0.17370E+09
        -0.18783E+09
        -0.18172E+09
        -0.18016E+09
        -0.16938E+09
        -0.12150E+09
        -0.61108E+08
        -0.58118E+08
        -0.15906E+09
        -0.11198E+09
        -0.10430E+09
        -0.27206E+08
        -0.11732E+09
        -0.61193E+08
        -0.48594E+08
        -0.15447E+09
        -0.11287E+09
        -0.15407E+09
         0.84342E+08
         0.17185E+09
         0.13197E+09
         0.30993E+08
         0.16292E+09
         0.67457E+08
        -0.23218E+08
         0.19049E+08
         0.88708E+08
         0.15463E+08
         0.46765E+08
         0.34488E+08
        -0.20621E+08
         0.25816E+08
        -0.11229E+09
         0.25059E+08
         0.81740E+07
         0.13981E+08
        -0.16650E+08
        -0.10840E+09
         0.72497E+08
         0.17769E+08
         0.48396E+08
         0.41722E+08
        -0.11306E+08
         0.59805E+08
         0.97903E+08
         0.14963E+09
         0.16910E+09
         0.15920E+09
         0.84367E+08
        -0.21153E+08
        -0.46854E+08
        -0.75388E+08
        -0.10734E+09
        -0.16163E+09
        -0.14094E+09
        -0.98982E+08
        -0.12293E+09
        -0.14472E+09
        -0.10709E+09
        -0.90115E+07
         0.33200E+08
        -0.47047E+08
         0.10500E+09
         0.13625E+09
         0.16590E+09
         0.18637E+09
         0.18956E+09
         0.18432E+09
         0.18109E+09
         0.16828E+09
         0.10762E+09
         0.36245E+08
         0.17092E+08
         0.15752E+08
        -0.57412E+07
        -0.52037E+08
        -0.10071E+09
        -0.12887E+09
        -0.17370E+09
        -0.18783E+09
        -0.18173E+09
        -0.18016E+09
        -0.16939E+09
        -0.12149E+09
        -0.61073E+08
        -0.58068E+08
        -0.15904E+09
        -0.11197E+09
        -0.10435E+09
        -0.27397E+08
        -0.11738E+09
        -0.61242E+08
        -0.48628E+08
        -0.15457E+09
        -0.11308E+09
        -0.15419E+09
         0.84418E+08
         0.17184E+09
         0.13196E+09
         0.31022E+08
         0.16297E+09
         0.67470E+08
        -0.23429E+08
         0.19017E+08
         0.88776E+08
         0.15351E+08
         0.46875E+08
         0.34511E+08
        -0.20649E+08
         0.25781E+08
        -0.11270E+09
         0.24963E+08
         0.82979E+07
         0.14111E+08
        -0.16425E+08
        -0.10856E+09
         0.72489E+08
         0.17659E+08
         0.48504E+08
         0.41799E+08
        -0.11172E+08
         0.59852E+08
         0.97922E+08
         0.14965E+09
         0.16910E+09
         0.15917E+09
         0.84398E+08
        -0.21029E+08
        -0.46866E+08
        -0.75476E+08
        -0.10740E+09
        -0.16164E+09
        -0.14097E+09
        -0.98976E+08
        -0.12282E+09
        -0.14454E+09
        -0.10709E+09
        -0.88361E+07
         0.33179E+08
        -0.47059E+08
         0.10502E+09
         0.13625E+09
         0.16591E+09
         0.18636E+09
         0.18955E+09
         0.18431E+09
         0.18109E+09
         0.16828E+09
         0.10762E+09
         0.36269E+08
         0.17095E+08
         0.15783E+08
        -0.56866E+07
        -0.52055E+08
        -0.10074E+09
        -0.12888E+09
        -0.17371E+09
        -0.18783E+09
        -0.18173E+09
        -0.18016E+09
        -0.16940E+09
        -0.12147E+09
        -0.61038E+08
        -0.58019E+08
        -0.15903E+09
        -0.11196E+09
        -0.10440E+09
        -0.27589E+08
        -0.11744E+09
        -0.61290E+08
        -0.48664E+08
        -0.15468E+09
        -0.11329E+09
        -0.15431E+09
         0.84493E+08
         0.17183E+09
         0.13195E+09
         0.31046E+08
         0.16302E+09
         0.67483E+08
        -0.23641E+08
         0.18985E+08
         0.88843E+08
         0.15242E+08
         0.46985E+08
         0.34534E+08
        -0.20677E+08
         0.25745E+08
        -0.11312E+09
         0.24867E+08
         0.84251E+07
         0.14239E+08
        -0.16200E+08
        -0.10872E+09
         0.72479E+08
         0.17548E+08
         0.48613E+08
         0.41875E+08
        -0.11037E+08
         0.59900E+08
         0.97940E+08
         0.14966E+09
         0.16910E+09
         0.15915E+09
         0.84430E+08
        -0.20906E+08
        -0.46878E+08
        -0.75563E+08
        -0.10746E+09
        -0.16166E+09
        -0.14100E+09
        -0.98973E+08
        -0.12270E+09
        -0.14435E+09
        -0.10710E+09
        -0.86621E+07
         0.33158E+08
        -0.47071E+08
         0.10504E+09
         0.13625E+09
         0.16591E+09
         0.18636E+09
         0.18954E+09
         0.18430E+09
         0.18110E+09
         0.16828E+09
         0.10762E+09
         0.36293E+08
         0.17097E+08
         0.15814E+08
        -0.56324E+07
        -0.52072E+08
        -0.10077E+09
        -0.12889E+09
        -0.17371E+09
        -0.18783E+09
        -0.18174E+09
        -0.18017E+09
        -0.16941E+09
        -0.12146E+09
        -0.61004E+08
        -0.57969E+08
        -0.15901E+09
        -0.11195E+09
        -0.10445E+09
        -0.27782E+08
        -0.11750E+09
        -0.61337E+08
        -0.48698E+08
        -0.15478E+09
        -0.11350E+09
        -0.15442E+09
         0.84568E+08
         0.17182E+09
         0.13194E+09
         0.31073E+08
         0.16307E+09
         0.67496E+08
        -0.23855E+08
         0.18953E+08
         0.88910E+08
         0.15137E+08
         0.47094E+08
         0.34556E+08
        -0.20705E+08
         0.25709E+08
        -0.11353E+09
         0.24772E+08
         0.85511E+07
         0.14366E+08
        -0.15975E+08
        -0.10886E+09
         0.72470E+08
         0.17436E+08
         0.48721E+08
         0.41951E+08
        -0.10903E+08
         0.59950E+08
         0.97959E+08
         0.14968E+09
         0.16911E+09
         0.15913E+09
         0.84463E+08
        -0.20784E+08
        -0.46892E+08
        -0.75650E+08
        -0.10753E+09
        -0.16167E+09
        -0.14103E+09
        -0.98968E+08
        -0.12258E+09
        -0.14417E+09
        -0.10710E+09
        -0.84879E+07
         0.33138E+08
        -0.47083E+08
         0.10505E+09
         0.13625E+09
         0.16592E+09
         0.18635E+09
         0.18954E+09
         0.18429E+09
         0.18110E+09
         0.16828E+09
         0.10762E+09
         0.36317E+08
         0.17098E+08
         0.15844E+08
        -0.55782E+07
        -0.52090E+08
        -0.10080E+09
        -0.12891E+09
        -0.17372E+09
        -0.18783E+09
        -0.18174E+09
        -0.18017E+09
        -0.16942E+09
        -0.12144E+09
        -0.60970E+08
        -0.57920E+08
        -0.15900E+09
        -0.11194E+09
        -0.10450E+09
        -0.27975E+08
        -0.11756E+09
        -0.61384E+08
        -0.48731E+08
        -0.15488E+09
        -0.11372E+09
        -0.15455E+09
         0.84643E+08
         0.17181E+09
         0.13193E+09
         0.31101E+08
         0.16312E+09
         0.67508E+08
        -0.24073E+08
         0.18921E+08
         0.88977E+08
         0.15036E+08
         0.47203E+08
         0.34578E+08
        -0.20732E+08
         0.25673E+08
        -0.11395E+09
         0.24676E+08
         0.86825E+07
         0.14492E+08
        -0.15751E+08
        -0.10900E+09
         0.72460E+08
         0.17325E+08
         0.48828E+08
         0.42027E+08
        -0.10767E+08
         0.59997E+08
         0.97977E+08
         0.14970E+09
         0.16911E+09
         0.15910E+09
         0.84499E+08
        -0.20662E+08
        -0.46909E+08
        -0.75737E+08
        -0.10759E+09
        -0.16168E+09
        -0.14106E+09
        -0.98963E+08
        -0.12247E+09
        -0.14399E+09
        -0.10711E+09
        -0.83124E+07
         0.33117E+08
        -0.47095E+08
         0.10507E+09
         0.13625E+09
         0.16592E+09
         0.18635E+09
         0.18953E+09
         0.18428E+09
         0.18110E+09
         0.16828E+09
         0.10762E+09
         0.36339E+08
         0.17097E+08
         0.15875E+08
        -0.55237E+07
        -0.52107E+08
        -0.10083E+09
        -0.12892E+09
        -0.17373E+09
        -0.18783E+09
        -0.18175E+09
        -0.18018E+09
        -0.16942E+09
        -0.12143E+09
        -0.60936E+08
        -0.57870E+08
        -0.15899E+09
        -0.11193E+09
        -0.10455E+09
        -0.28167E+08
        -0.11763E+09
        -0.61432E+08
        -0.48769E+08
        -0.15498E+09
        -0.11393E+09
        -0.15466E+09
         0.84719E+08
         0.17181E+09
         0.13191E+09
         0.31125E+08
         0.16316E+09
         0.67522E+08
        -0.24292E+08
         0.18889E+08
         0.89046E+08
         0.14939E+08
         0.47313E+08
         0.34600E+08
        -0.20758E+08
         0.25641E+08
        -0.11436E+09
         0.24583E+08
         0.88105E+07
         0.14612E+08
        -0.15530E+08
        -0.10914E+09
         0.72452E+08
         0.17217E+08
         0.48937E+08
         0.42105E+08
        -0.10633E+08
         0.60043E+08
         0.97994E+08
         0.14973E+09
         0.16911E+09
         0.15908E+09
         0.84534E+08
        -0.20543E+08
        -0.46927E+08
        -0.75822E+08
        -0.10765E+09
        -0.16169E+09
        -0.14109E+09
        -0.98959E+08
        -0.12235E+09
        -0.14380E+09
        -0.10711E+09
        -0.81382E+07
         0.33095E+08
        -0.47107E+08
         0.10509E+09
         0.13626E+09
         0.16593E+09
         0.18634E+09
         0.18952E+09
         0.18427E+09
         0.18111E+09
         0.16828E+09
         0.10762E+09
         0.36361E+08
         0.17096E+08
         0.15906E+08
        -0.54693E+07
        -0.52124E+08
        -0.10087E+09
        -0.12893E+09
        -0.17373E+09
        -0.18782E+09
        -0.18176E+09
        -0.18018E+09
        -0.16943E+09
        -0.12142E+09
        -0.60902E+08
        -0.57821E+08
        -0.15295E+09
        -0.11227E+09
        -0.10492E+09
        -0.28437E+08
        -0.11167E+09
        -0.61646E+08
        -0.48949E+08
        -0.14742E+09
        -0.11447E+09
        -0.14677E+09
         0.85012E+08
         0.16803E+09
         0.12797E+09
         0.31229E+08
         0.15990E+09
         0.67741E+08
        -0.24568E+08
         0.18915E+08
         0.89361E+08
         0.14893E+08
         0.46284E+08
         0.33662E+08
        -0.20224E+08
         0.25698E+08
        -0.11507E+09
         0.24593E+08
         0.89508E+07
         0.14743E+08
        -0.15392E+08
        -0.10958E+09
         0.72671E+08
         0.17190E+08
         0.49186E+08
         0.42304E+08
        -0.10123E+08
         0.60223E+08
         0.93075E+08
         0.14576E+09
         0.16241E+09
         0.15182E+09
         0.82406E+08
        -0.19883E+08
        -0.45779E+08
        -0.73349E+08
        -0.10284E+09
        -0.15645E+09
        -0.13275E+09
        -0.99185E+08
        -0.12256E+09
        -0.14401E+09
        -0.10306E+09
        -0.76878E+07
         0.32843E+08
        -0.46832E+08
         0.10449E+09
         0.13550E+09
         0.16507E+09
         0.18541E+09
         0.18847E+09
         0.18301E+09
         0.17980E+09
         0.16715E+09
         0.10692E+09
         0.36160E+08
         0.16972E+08
         0.15825E+08
        -0.53865E+07
        -0.51862E+08
        -0.10039E+09
        -0.12830E+09
        -0.17266E+09
        -0.18671E+09
        -0.18064E+09
        -0.17903E+09
        -0.16841E+09
        -0.12064E+09
        -0.60515E+08
        -0.57430E+08
        -0.74138E+08
        -0.47418E+08
        -0.44756E+08
        -0.13440E+08
        -0.48257E+08
        -0.24217E+08
        -0.19708E+08
        -0.64501E+08
        -0.50683E+08
        -0.63051E+08
         0.30824E+08
         0.98775E+08
         0.67754E+08
         0.10818E+08
         0.96477E+08
         0.30134E+08
        -0.10734E+08
         0.93698E+07
         0.37063E+08
         0.59984E+07
         0.26418E+08
         0.18277E+08
        -0.11136E+08
         0.11213E+08
        -0.44618E+08
         0.11267E+08
         0.31613E+07
         0.54797E+07
        -0.56447E+07
        -0.41122E+08
         0.32530E+08
         0.75659E+07
         0.23053E+08
         0.19100E+08
        -0.48776E+07
         0.22150E+08
         0.40444E+08
         0.80397E+08
         0.77611E+08
         0.68849E+08
         0.46175E+08
        -0.10784E+08
        -0.25754E+08
        -0.37107E+08
        -0.46496E+08
        -0.80141E+08
        -0.54028E+08
        -0.38127E+08
        -0.48964E+08
        -0.54946E+08
        -0.50006E+08
        -0.29487E+07
         0.26045E+08
        -0.37872E+08
         0.85373E+08
         0.11173E+09
         0.13758E+09
         0.15570E+09
         0.15599E+09
         0.14601E+09
         0.14154E+09
         0.13354E+09
         0.85817E+08
         0.29529E+08
         0.13466E+08
         0.12610E+08
        -0.43859E+07
        -0.43174E+08
        -0.84240E+08
        -0.10773E+09
        -0.13959E+09
        -0.15228E+09
        -0.14630E+09
        -0.14415E+09
        -0.13676E+09
        -0.97313E+08
        -0.49470E+08
        -0.46780E+08
  
SCALARS                      stress_xz  double 1
LOOKUP_TABLE default
         0.47485E+05
        -0.33492E+06
        -0.11056E+07
         0.75941E+05
        -0.29512E+01
         0.10464E+01
         0.34990E+01
         0.69880E+00
        -0.31111E+07
        -0.20785E+07
         0.10466E+02
         0.94269E+01
         0.13267E+06
        -0.54136E+06
        -0.12908E+01
        -0.60467E+01
        -0.11103E+06
        -0.51952E+06
        -0.43677E+01
        -0.65050E+01
        -0.76148E+06
        -0.12832E+07
        -0.12150E+07
        -0.43437E+01
        -0.20030E+01
         0.34994E+01
        -0.13555E+07
        -0.11008E+07
        -0.81309E+01
        -0.64499E+01
         0.25980E+06
        -0.57720E+06
         0.55223E+05
         0.82783E+00
        -0.31991E+01
        -0.19709E+01
         0.77086E+06
         0.37163E+06
        -0.47496E+01
        -0.50571E+01
         0.15366E+07
         0.21775E+07
        -0.10714E+02
        -0.79008E+01
         0.16438E+07
         0.87539E+06
        -0.11765E+02
        -0.56630E+01
        -0.47205E+06
        -0.35547E+01
         0.11237E+07
        -0.98949E+00
        -0.49251E+06
        -0.69459E+01
         0.36794E+06
        -0.18374E+01
         0.16098E+07
         0.44154E+06
        -0.15740E+01
        -0.38045E+01
        -0.27741E+05
         0.76534E+06
         0.31481E+01
         0.21588E+01
        -0.19875E+06
        -0.31666E+00
        -0.66536E+06
         0.20828E+01
        -0.43783E+07
        -0.30003E+07
         0.13018E+02
         0.94417E+01
        -0.19298E+07
         0.68748E+01
         0.45507E+06
        -0.47557E+01
         0.14241E+07
        -0.93337E+00
         0.30190E+07
        -0.14481E+01
         0.39942E+07
         0.28361E+07
        -0.53069E+01
        -0.60693E+01
         0.25047E+07
        -0.65272E+01
         0.19934E+07
        -0.93976E+01
         0.12415E+07
        -0.59940E+01
         0.19545E+07
         0.14375E+07
        -0.25582E+01
         0.35082E+01
        -0.32859E+06
         0.41150E+01
        -0.90196E+06
         0.17278E+01
        -0.21657E+07
         0.42667E+01
        -0.32015E+07
        -0.21971E+07
         0.98380E+01
         0.10266E+02
        -0.78420E+07
        -0.86827E+07
         0.18178E+02
         0.17914E+02
        -0.77670E+07
         0.15530E+02
        -0.70782E+07
         0.11606E+02
        -0.50785E+07
         0.63778E+01
        -0.36906E+07
         0.68200E+00
        -0.13696E+07
        -0.24291E+01
         0.17648E+07
        -0.19434E+01
         0.42117E+07
        -0.19101E+01
         0.62578E+07
        -0.43075E+01
         0.84166E+07
        -0.81950E+01
         0.10225E+08
        -0.97793E+01
         0.10867E+08
        -0.92270E+01
         0.10349E+08
        -0.10034E+02
         0.94838E+07
        -0.13022E+02
         0.85288E+07
        -0.15356E+02
         0.75222E+07
        -0.14275E+02
         0.59830E+07
        -0.11601E+02
         0.35110E+07
        -0.54767E+01
         0.30100E+06
         0.10458E+01
        -0.19634E+07
         0.25390E+01
        -0.30729E+07
         0.41519E+01
        -0.46219E+07
         0.81255E+01
        -0.60938E+07
         0.13333E+02
        -0.80090E+07
         0.16019E+02
        -0.92008E+07
         0.16385E+02
        -0.85422E+06
         0.44490E+06
         0.52191E+06
        -0.10505E+07
         0.40696E+07
         0.31468E+07
         0.47532E+06
        -0.69807E+06
        -0.35993E+06
        -0.64068E+06
         0.35187E+06
         0.15236E+07
         0.31820E+07
        -0.10179E+07
        -0.12246E+07
         0.13980E+07
         0.11732E+07
        -0.54388E+06
        -0.84667E+06
        -0.91068E+06
        -0.49789E+07
        -0.53006E+07
        -0.47883E+07
        -0.14881E+07
         0.59654E+06
        -0.44454E+06
        -0.14286E+07
        -0.16018E+06
        -0.16393E+07
        -0.11268E+07
         0.12482E+07
         0.24505E+06
        -0.58817E+06
        -0.19024E+06
         0.60210E+07
         0.38355E+07
         0.34707E+07
        -0.24298E+07
        -0.13841E+07
        -0.29613E+07
        -0.60940E+07
        -0.56784E+07
        -0.56046E+07
        -0.41201E+07
        -0.29560E+07
        -0.23132E+07
         0.43435E+06
         0.18137E+07
         0.52450E+06
         0.16631E+07
         0.44433E+07
         0.37416E+07
         0.17584E+08
         0.18458E+08
         0.16498E+08
         0.14035E+08
         0.10450E+08
         0.53229E+07
        -0.31583E+06
        -0.37921E+07
        -0.57779E+07
        -0.99194E+07
        -0.16169E+08
        -0.19675E+08
        -0.18024E+08
        -0.17286E+08
        -0.18259E+08
        -0.18254E+08
        -0.16582E+08
        -0.14520E+08
        -0.73566E+07
         0.11628E+07
         0.44693E+07
         0.49823E+07
         0.84368E+07
         0.13474E+08
         0.17477E+08
         0.18369E+08
        -0.54077E+08
         0.12372E+08
        -0.23554E+08
        -0.68582E+08
         0.12174E+09
         0.12022E+09
         0.35027E+08
        -0.69707E+08
        -0.35133E+08
        -0.70161E+08
        -0.14685E+08
         0.25524E+08
         0.10892E+09
        -0.13517E+09
        -0.63857E+08
         0.11841E+09
         0.65919E+08
        -0.39482E+08
        -0.26571E+08
        -0.46662E+08
        -0.16551E+09
        -0.16758E+09
        -0.16958E+09
        -0.62979E+08
         0.35771E+08
         0.24085E+08
        -0.13062E+09
         0.17343E+08
        -0.43714E+08
        -0.59612E+08
         0.90973E+08
         0.58867E+08
        -0.59003E+08
        -0.50923E+08
         0.16993E+09
         0.13847E+09
         0.13728E+09
        -0.85830E+08
        -0.18433E+08
        -0.57227E+08
        -0.15066E+09
        -0.17007E+09
        -0.16520E+09
        -0.15236E+09
        -0.13073E+09
        -0.56744E+08
         0.91764E+08
         0.11573E+09
        -0.15298E+08
         0.18419E+08
         0.13229E+09
         0.16631E+09
         0.18452E+09
         0.18196E+09
         0.15683E+09
         0.13022E+09
         0.91632E+08
         0.39541E+08
        -0.10195E+08
        -0.36792E+08
        -0.49630E+08
        -0.85481E+08
        -0.15467E+09
        -0.18477E+09
        -0.18459E+09
        -0.18400E+09
        -0.18590E+09
        -0.17972E+09
        -0.15854E+09
        -0.13832E+09
        -0.73033E+08
         0.18523E+08
         0.45108E+08
         0.47931E+08
         0.80322E+08
         0.14200E+09
         0.17704E+09
         0.17786E+09
        -0.54140E+08
         0.12418E+08
        -0.23599E+08
        -0.68628E+08
         0.12167E+09
         0.12011E+09
         0.35249E+08
        -0.69467E+08
        -0.35172E+08
        -0.69908E+08
        -0.14388E+08
         0.25587E+08
         0.10894E+09
        -0.13484E+09
        -0.63760E+08
         0.11853E+09
         0.66064E+08
        -0.39373E+08
        -0.26557E+08
        -0.46580E+08
        -0.16548E+09
        -0.16757E+09
        -0.16958E+09
        -0.62982E+08
         0.35852E+08
         0.24125E+08
        -0.13066E+09
         0.17017E+08
        -0.44021E+08
        -0.59650E+08
         0.91106E+08
         0.58859E+08
        -0.58757E+08
        -0.50946E+08
         0.16994E+09
         0.13841E+09
         0.13726E+09
        -0.85841E+08
        -0.18570E+08
        -0.57331E+08
        -0.15066E+09
        -0.17008E+09
        -0.16518E+09
        -0.15234E+09
        -0.13071E+09
        -0.56718E+08
         0.91745E+08
         0.11577E+09
        -0.15186E+08
         0.18356E+08
         0.13228E+09
         0.16607E+09
         0.18452E+09
         0.18195E+09
         0.15682E+09
         0.13022E+09
         0.91617E+08
         0.39542E+08
        -0.10211E+08
        -0.36824E+08
        -0.49600E+08
        -0.85471E+08
        -0.15467E+09
        -0.18477E+09
        -0.18458E+09
        -0.18400E+09
        -0.18590E+09
        -0.17972E+09
        -0.15853E+09
        -0.13832E+09
        -0.73017E+08
         0.18532E+08
         0.45079E+08
         0.47915E+08
         0.80288E+08
         0.14200E+09
         0.17704E+09
         0.17786E+09
        -0.54203E+08
         0.12463E+08
        -0.23643E+08
        -0.68674E+08
         0.12161E+09
         0.12000E+09
         0.35473E+08
        -0.69226E+08
        -0.35208E+08
        -0.69654E+08
        -0.14091E+08
         0.25650E+08
         0.10897E+09
        -0.13450E+09
        -0.63665E+08
         0.11866E+09
         0.66211E+08
        -0.39263E+08
        -0.26544E+08
        -0.46501E+08
        -0.16545E+09
        -0.16756E+09
        -0.16957E+09
        -0.62985E+08
         0.35938E+08
         0.24169E+08
        -0.13070E+09
         0.16695E+08
        -0.44330E+08
        -0.59687E+08
         0.91242E+08
         0.58855E+08
        -0.58510E+08
        -0.50969E+08
         0.16996E+09
         0.13835E+09
         0.13725E+09
        -0.85852E+08
        -0.18706E+08
        -0.57436E+08
        -0.15066E+09
        -0.17010E+09
        -0.16517E+09
        -0.15232E+09
        -0.13068E+09
        -0.56692E+08
         0.91727E+08
         0.11581E+09
        -0.15072E+08
         0.18291E+08
         0.13227E+09
         0.16582E+09
         0.18452E+09
         0.18194E+09
         0.15680E+09
         0.13022E+09
         0.91603E+08
         0.39542E+08
        -0.10227E+08
        -0.36855E+08
        -0.49570E+08
        -0.85460E+08
        -0.15467E+09
        -0.18476E+09
        -0.18458E+09
        -0.18400E+09
        -0.18590E+09
        -0.17972E+09
        -0.15852E+09
        -0.13832E+09
        -0.73000E+08
         0.18541E+08
         0.45051E+08
         0.47899E+08
         0.80254E+08
         0.14200E+09
         0.17704E+09
         0.17787E+09
        -0.54266E+08
         0.12510E+08
        -0.23686E+08
        -0.68719E+08
         0.12154E+09
         0.11989E+09
         0.35694E+08
        -0.68987E+08
        -0.35240E+08
        -0.69396E+08
        -0.13796E+08
         0.25714E+08
         0.10899E+09
        -0.13417E+09
        -0.63569E+08
         0.11880E+09
         0.66365E+08
        -0.39152E+08
        -0.26533E+08
        -0.46418E+08
        -0.16542E+09
        -0.16755E+09
        -0.16957E+09
        -0.62989E+08
         0.36040E+08
         0.24223E+08
        -0.13073E+09
         0.16383E+08
        -0.44638E+08
        -0.59722E+08
         0.91389E+08
         0.58861E+08
        -0.58262E+08
        -0.50992E+08
         0.16997E+09
         0.13829E+09
         0.13724E+09
        -0.85862E+08
        -0.18840E+08
        -0.57536E+08
        -0.15066E+09
        -0.17012E+09
        -0.16517E+09
        -0.15229E+09
        -0.13064E+09
        -0.56662E+08
         0.91707E+08
         0.11585E+09
        -0.14957E+08
         0.18226E+08
         0.13225E+09
         0.16558E+09
         0.18452E+09
         0.18194E+09
         0.15679E+09
         0.13022E+09
         0.91589E+08
         0.39542E+08
        -0.10242E+08
        -0.36887E+08
        -0.49540E+08
        -0.85450E+08
        -0.15467E+09
        -0.18476E+09
        -0.18458E+09
        -0.18399E+09
        -0.18591E+09
        -0.17972E+09
        -0.15851E+09
        -0.13832E+09
        -0.72983E+08
         0.18551E+08
         0.45022E+08
         0.47883E+08
         0.80221E+08
         0.14200E+09
         0.17705E+09
         0.17788E+09
        -0.54329E+08
         0.12557E+08
        -0.23730E+08
        -0.68764E+08
         0.12147E+09
         0.11978E+09
         0.35918E+08
        -0.68746E+08
        -0.35267E+08
        -0.69133E+08
        -0.13499E+08
         0.25777E+08
         0.10902E+09
        -0.13384E+09
        -0.63473E+08
         0.11894E+09
         0.66526E+08
        -0.39041E+08
        -0.26518E+08
        -0.46334E+08
        -0.16539E+09
        -0.16755E+09
        -0.16957E+09
        -0.62993E+08
         0.36159E+08
         0.24284E+08
        -0.13075E+09
         0.16081E+08
        -0.44945E+08
        -0.59755E+08
         0.91545E+08
         0.58875E+08
        -0.58013E+08
        -0.51014E+08
         0.16998E+09
         0.13822E+09
         0.13722E+09
        -0.85871E+08
        -0.18973E+08
        -0.57634E+08
        -0.15065E+09
        -0.17014E+09
        -0.16517E+09
        -0.15225E+09
        -0.13060E+09
        -0.56627E+08
         0.91686E+08
         0.11589E+09
        -0.14843E+08
         0.18162E+08
         0.13224E+09
         0.16533E+09
         0.18452E+09
         0.18193E+09
         0.15678E+09
         0.13022E+09
         0.91574E+08
         0.39542E+08
        -0.10258E+08
        -0.36919E+08
        -0.49509E+08
        -0.85439E+08
        -0.15466E+09
        -0.18476E+09
        -0.18458E+09
        -0.18399E+09
        -0.18591E+09
        -0.17972E+09
        -0.15850E+09
        -0.13831E+09
        -0.72966E+08
         0.18560E+08
         0.44994E+08
         0.47867E+08
         0.80187E+08
         0.14199E+09
         0.17705E+09
         0.17789E+09
        -0.54389E+08
         0.12608E+08
        -0.23769E+08
        -0.68808E+08
         0.12141E+09
         0.11967E+09
         0.36142E+08
        -0.68507E+08
        -0.35293E+08
        -0.68874E+08
        -0.13202E+08
         0.25839E+08
         0.10904E+09
        -0.13351E+09
        -0.63377E+08
         0.11909E+09
         0.66687E+08
        -0.38929E+08
        -0.26503E+08
        -0.46255E+08
        -0.16536E+09
        -0.16754E+09
        -0.16957E+09
        -0.62998E+08
         0.36277E+08
         0.24347E+08
        -0.13078E+09
         0.15781E+08
        -0.45254E+08
        -0.59794E+08
         0.91701E+08
         0.58888E+08
        -0.57761E+08
        -0.51034E+08
         0.17000E+09
         0.13817E+09
         0.13721E+09
        -0.85879E+08
        -0.19104E+08
        -0.57728E+08
        -0.15064E+09
        -0.17016E+09
        -0.16516E+09
        -0.15221E+09
        -0.13055E+09
        -0.56594E+08
         0.91661E+08
         0.11593E+09
        -0.14726E+08
         0.18103E+08
         0.13222E+09
         0.16509E+09
         0.18451E+09
         0.18192E+09
         0.15676E+09
         0.13022E+09
         0.91560E+08
         0.39543E+08
        -0.10273E+08
        -0.36951E+08
        -0.49479E+08
        -0.85429E+08
        -0.15466E+09
        -0.18475E+09
        -0.18458E+09
        -0.18399E+09
        -0.18592E+09
        -0.17972E+09
        -0.15848E+09
        -0.13831E+09
        -0.72949E+08
         0.18569E+08
         0.44965E+08
         0.47851E+08
         0.80153E+08
         0.14199E+09
         0.17705E+09
         0.17789E+09
        -0.54444E+08
         0.12668E+08
        -0.23799E+08
        -0.68851E+08
         0.12134E+09
         0.11956E+09
         0.36370E+08
        -0.68273E+08
        -0.35321E+08
        -0.68628E+08
        -0.12904E+08
         0.25902E+08
         0.10906E+09
        -0.13317E+09
        -0.63280E+08
         0.11924E+09
         0.66841E+08
        -0.38817E+08
        -0.26491E+08
        -0.46176E+08
        -0.16533E+09
        -0.16754E+09
        -0.16956E+09
        -0.63005E+08
         0.36381E+08
         0.24403E+08
        -0.13081E+09
         0.15474E+08
        -0.45566E+08
        -0.59838E+08
         0.91848E+08
         0.58890E+08
        -0.57503E+08
        -0.51049E+08
         0.17001E+09
         0.13812E+09
         0.13719E+09
        -0.85885E+08
        -0.19236E+08
        -0.57827E+08
        -0.15064E+09
        -0.17018E+09
        -0.16516E+09
        -0.15217E+09
        -0.13049E+09
        -0.56561E+08
         0.91621E+08
         0.11597E+09
        -0.14599E+08
         0.18058E+08
         0.13221E+09
         0.16485E+09
         0.18451E+09
         0.18192E+09
         0.15675E+09
         0.13022E+09
         0.91545E+08
         0.39543E+08
        -0.10288E+08
        -0.36982E+08
        -0.49449E+08
        -0.85419E+08
        -0.15466E+09
        -0.18475E+09
        -0.18458E+09
        -0.18398E+09
        -0.18592E+09
        -0.17972E+09
        -0.15847E+09
        -0.13830E+09
        -0.72933E+08
         0.18576E+08
         0.44934E+08
         0.47835E+08
         0.80121E+08
         0.14199E+09
         0.17706E+09
         0.17790E+09
        -0.54497E+08
         0.12733E+08
        -0.23825E+08
        -0.68892E+08
         0.12128E+09
         0.11945E+09
         0.36600E+08
        -0.68042E+08
        -0.35350E+08
        -0.68390E+08
        -0.12605E+08
         0.25964E+08
         0.10909E+09
        -0.13284E+09
        -0.63183E+08
         0.11939E+09
         0.66992E+08
        -0.38704E+08
        -0.26477E+08
        -0.46103E+08
        -0.16530E+09
        -0.16753E+09
        -0.16956E+09
        -0.63012E+08
         0.36479E+08
         0.24455E+08
        -0.13084E+09
         0.15165E+08
        -0.45883E+08
        -0.59886E+08
         0.91992E+08
         0.58887E+08
        -0.57243E+08
        -0.51061E+08
         0.17002E+09
         0.13807E+09
         0.13718E+09
        -0.85890E+08
        -0.19367E+08
        -0.57923E+08
        -0.15063E+09
        -0.17020E+09
        -0.16516E+09
        -0.15213E+09
        -0.13044E+09
        -0.56531E+08
         0.91575E+08
         0.11601E+09
        -0.14467E+08
         0.18018E+08
         0.13221E+09
         0.16462E+09
         0.18451E+09
         0.18191E+09
         0.15674E+09
         0.13022E+09
         0.91531E+08
         0.39543E+08
        -0.10304E+08
        -0.37014E+08
        -0.49418E+08
        -0.85410E+08
        -0.15466E+09
        -0.18475E+09
        -0.18458E+09
        -0.18398E+09
        -0.18592E+09
        -0.17972E+09
        -0.15846E+09
        -0.13830E+09
        -0.72916E+08
         0.18583E+08
         0.44902E+08
         0.47818E+08
         0.80090E+08
         0.14199E+09
         0.17706E+09
         0.17791E+09
        -0.54550E+08
         0.12797E+08
        -0.23850E+08
        -0.68934E+08
         0.12121E+09
         0.11934E+09
         0.36830E+08
        -0.67811E+08
        -0.35379E+08
        -0.68155E+08
        -0.12308E+08
         0.26027E+08
         0.10911E+09
        -0.13250E+09
        -0.63085E+08
         0.11954E+09
         0.67143E+08
        -0.38592E+08
        -0.26463E+08
        -0.46027E+08
        -0.16527E+09
        -0.16753E+09
        -0.16956E+09
        -0.63020E+08
         0.36576E+08
         0.24506E+08
        -0.13087E+09
         0.14856E+08
        -0.46198E+08
        -0.59933E+08
         0.92135E+08
         0.58883E+08
        -0.56984E+08
        -0.51074E+08
         0.17004E+09
         0.13802E+09
         0.13716E+09
        -0.85895E+08
        -0.19498E+08
        -0.58019E+08
        -0.15062E+09
        -0.17022E+09
        -0.16516E+09
        -0.15208E+09
        -0.13039E+09
        -0.56501E+08
         0.91531E+08
         0.11604E+09
        -0.14336E+08
         0.17981E+08
         0.13220E+09
         0.16438E+09
         0.18451E+09
         0.18190E+09
         0.15672E+09
         0.13022E+09
         0.91516E+08
         0.39543E+08
        -0.10319E+08
        -0.37046E+08
        -0.49388E+08
        -0.85400E+08
        -0.15466E+09
        -0.18474E+09
        -0.18458E+09
        -0.18398E+09
        -0.18593E+09
        -0.17972E+09
        -0.15844E+09
        -0.13829E+09
        -0.72899E+08
         0.18590E+08
         0.44871E+08
         0.47802E+08
         0.80058E+08
         0.14199E+09
         0.17706E+09
         0.17792E+09
        -0.54603E+08
         0.12863E+08
        -0.23876E+08
        -0.68976E+08
         0.12115E+09
         0.11923E+09
         0.37060E+08
        -0.67581E+08
        -0.35408E+08
        -0.67920E+08
        -0.12010E+08
         0.26089E+08
         0.10913E+09
        -0.13217E+09
        -0.62989E+08
         0.11969E+09
         0.67295E+08
        -0.38481E+08
        -0.26449E+08
        -0.45952E+08
        -0.16525E+09
        -0.16752E+09
        -0.16956E+09
        -0.63029E+08
         0.36673E+08
         0.24558E+08
        -0.13090E+09
         0.14549E+08
        -0.46513E+08
        -0.59980E+08
         0.92278E+08
         0.58879E+08
        -0.56724E+08
        -0.51086E+08
         0.17005E+09
         0.13798E+09
         0.13715E+09
        -0.85899E+08
        -0.19629E+08
        -0.58117E+08
        -0.15061E+09
        -0.17025E+09
        -0.16516E+09
        -0.15204E+09
        -0.13034E+09
        -0.56470E+08
         0.91486E+08
         0.11608E+09
        -0.14205E+08
         0.17940E+08
         0.13219E+09
         0.16414E+09
         0.18451E+09
         0.18190E+09
         0.15671E+09
         0.13022E+09
         0.91502E+08
         0.39543E+08
        -0.10334E+08
        -0.37077E+08
        -0.49357E+08
        -0.85391E+08
        -0.15465E+09
        -0.18474E+09
        -0.18458E+09
        -0.18398E+09
        -0.18593E+09
        -0.17972E+09
        -0.15843E+09
        -0.13829E+09
        -0.72882E+08
         0.18597E+08
         0.44839E+08
         0.47785E+08
         0.80026E+08
         0.14199E+09
         0.17707E+09
         0.17792E+09
        -0.54656E+08
         0.12928E+08
        -0.23902E+08
        -0.69017E+08
         0.12109E+09
         0.11912E+09
         0.37289E+08
        -0.67351E+08
        -0.35437E+08
        -0.67687E+08
        -0.11711E+08
         0.26152E+08
         0.10915E+09
        -0.13184E+09
        -0.62891E+08
         0.11984E+09
         0.67445E+08
        -0.38370E+08
        -0.26437E+08
        -0.45875E+08
        -0.16522E+09
        -0.16752E+09
        -0.16955E+09
        -0.63038E+08
         0.36769E+08
         0.24609E+08
        -0.13093E+09
         0.14242E+08
        -0.46827E+08
        -0.60026E+08
         0.92420E+08
         0.58874E+08
        -0.56465E+08
        -0.51099E+08
         0.17006E+09
         0.13793E+09
         0.13713E+09
        -0.85904E+08
        -0.19759E+08
        -0.58213E+08
        -0.15060E+09
        -0.17027E+09
        -0.16516E+09
        -0.15200E+09
        -0.13029E+09
        -0.56441E+08
         0.91440E+08
         0.11612E+09
        -0.14074E+08
         0.17900E+08
         0.13218E+09
         0.16391E+09
         0.18450E+09
         0.18189E+09
         0.15670E+09
         0.13022E+09
         0.91487E+08
         0.39544E+08
        -0.10349E+08
        -0.37109E+08
        -0.49327E+08
        -0.85381E+08
        -0.15465E+09
        -0.18473E+09
        -0.18458E+09
        -0.18397E+09
        -0.18594E+09
        -0.17972E+09
        -0.15841E+09
        -0.13828E+09
        -0.72866E+08
         0.18604E+08
         0.44807E+08
         0.47769E+08
         0.79995E+08
         0.14199E+09
         0.17707E+09
         0.17793E+09
        -0.54708E+08
         0.12992E+08
        -0.23927E+08
        -0.69058E+08
         0.12102E+09
         0.11901E+09
         0.37518E+08
        -0.67121E+08
        -0.35466E+08
        -0.67456E+08
        -0.11414E+08
         0.26215E+08
         0.10917E+09
        -0.13151E+09
        -0.62794E+08
         0.11999E+09
         0.67596E+08
        -0.38257E+08
        -0.26424E+08
        -0.45801E+08
        -0.16519E+09
        -0.16751E+09
        -0.16955E+09
        -0.63047E+08
         0.36865E+08
         0.24662E+08
        -0.13096E+09
         0.13937E+08
        -0.47139E+08
        -0.60075E+08
         0.92563E+08
         0.58870E+08
        -0.56204E+08
        -0.51111E+08
         0.17008E+09
         0.13789E+09
         0.13712E+09
        -0.85907E+08
        -0.19889E+08
        -0.58311E+08
        -0.15059E+09
        -0.17029E+09
        -0.16516E+09
        -0.15196E+09
        -0.13024E+09
        -0.56411E+08
         0.91396E+08
         0.11615E+09
        -0.13942E+08
         0.17862E+08
         0.13217E+09
         0.16367E+09
         0.18450E+09
         0.18188E+09
         0.15668E+09
         0.13022E+09
         0.91473E+08
         0.39544E+08
        -0.10364E+08
        -0.37140E+08
        -0.49297E+08
        -0.85371E+08
        -0.15465E+09
        -0.18473E+09
        -0.18458E+09
        -0.18397E+09
        -0.18594E+09
        -0.17972E+09
        -0.15840E+09
        -0.13828E+09
        -0.72849E+08
         0.18610E+08
         0.44776E+08
         0.47752E+08
         0.79963E+08
         0.14199E+09
         0.17707E+09
         0.17794E+09
        -0.54762E+08
         0.13058E+08
        -0.23951E+08
        -0.69098E+08
         0.12096E+09
         0.11890E+09
         0.37748E+08
        -0.66891E+08
        -0.35494E+08
        -0.67224E+08
        -0.11117E+08
         0.26277E+08
         0.10919E+09
        -0.13118E+09
        -0.62697E+08
         0.12013E+09
         0.67746E+08
        -0.38145E+08
        -0.26411E+08
        -0.45725E+08
        -0.16516E+09
        -0.16751E+09
        -0.16955E+09
        -0.63057E+08
         0.36959E+08
         0.24713E+08
        -0.13099E+09
         0.13630E+08
        -0.47453E+08
        -0.60121E+08
         0.92706E+08
         0.58866E+08
        -0.55943E+08
        -0.51123E+08
         0.17009E+09
         0.13784E+09
         0.13710E+09
        -0.85911E+08
        -0.20019E+08
        -0.58407E+08
        -0.15058E+09
        -0.17031E+09
        -0.16516E+09
        -0.15192E+09
        -0.13019E+09
        -0.56380E+08
         0.91349E+08
         0.11619E+09
        -0.13809E+08
         0.17822E+08
         0.13216E+09
         0.16343E+09
         0.18450E+09
         0.18187E+09
         0.15667E+09
         0.13022E+09
         0.91458E+08
         0.39544E+08
        -0.10380E+08
        -0.37171E+08
        -0.49266E+08
        -0.85362E+08
        -0.15465E+09
        -0.18473E+09
        -0.18457E+09
        -0.18397E+09
        -0.18594E+09
        -0.17972E+09
        -0.15839E+09
        -0.13827E+09
        -0.72832E+08
         0.18617E+08
         0.44744E+08
         0.47736E+08
         0.79932E+08
         0.14199E+09
         0.17708E+09
         0.17795E+09
        -0.54815E+08
         0.13122E+08
        -0.23976E+08
        -0.69139E+08
         0.12089E+09
         0.11879E+09
         0.37974E+08
        -0.66662E+08
        -0.35522E+08
        -0.66994E+08
        -0.10821E+08
         0.26339E+08
         0.10921E+09
        -0.13085E+09
        -0.62600E+08
         0.12028E+09
         0.67897E+08
        -0.38034E+08
        -0.26400E+08
        -0.45652E+08
        -0.16513E+09
        -0.16750E+09
        -0.16955E+09
        -0.63066E+08
         0.37054E+08
         0.24765E+08
        -0.13102E+09
         0.13326E+08
        -0.47766E+08
        -0.60167E+08
         0.92848E+08
         0.58861E+08
        -0.55682E+08
        -0.51135E+08
         0.17010E+09
         0.13780E+09
         0.13709E+09
        -0.85912E+08
        -0.20148E+08
        -0.58505E+08
        -0.15057E+09
        -0.17033E+09
        -0.16516E+09
        -0.15188E+09
        -0.13014E+09
        -0.56350E+08
         0.91303E+08
         0.11623E+09
        -0.13677E+08
         0.17783E+08
         0.13215E+09
         0.16320E+09
         0.18450E+09
         0.18187E+09
         0.15666E+09
         0.13022E+09
         0.91444E+08
         0.39545E+08
        -0.10395E+08
        -0.37202E+08
        -0.49236E+08
        -0.85352E+08
        -0.15465E+09
        -0.18472E+09
        -0.18457E+09
        -0.18396E+09
        -0.18595E+09
        -0.17972E+09
        -0.15837E+09
        -0.13826E+09
        -0.72815E+08
         0.18624E+08
         0.44713E+08
         0.47720E+08
         0.79900E+08
         0.14199E+09
         0.17708E+09
         0.17795E+09
        -0.54869E+08
         0.13186E+08
        -0.24001E+08
        -0.69180E+08
         0.12083E+09
         0.11868E+09
         0.38203E+08
        -0.66433E+08
        -0.35550E+08
        -0.66766E+08
        -0.10525E+08
         0.26403E+08
         0.10924E+09
        -0.13052E+09
        -0.62502E+08
         0.12043E+09
         0.68047E+08
        -0.37922E+08
        -0.26386E+08
        -0.45575E+08
        -0.16510E+09
        -0.16750E+09
        -0.16954E+09
        -0.63075E+08
         0.37148E+08
         0.24816E+08
        -0.13105E+09
         0.13022E+08
        -0.48080E+08
        -0.60213E+08
         0.92990E+08
         0.58856E+08
        -0.55421E+08
        -0.51147E+08
         0.17012E+09
         0.13775E+09
         0.13708E+09
        -0.85913E+08
        -0.20277E+08
        -0.58602E+08
        -0.15057E+09
        -0.17035E+09
        -0.16516E+09
        -0.15184E+09
        -0.13009E+09
        -0.56321E+08
         0.91258E+08
         0.11626E+09
        -0.13543E+08
         0.17744E+08
         0.13214E+09
         0.16296E+09
         0.18450E+09
         0.18186E+09
         0.15664E+09
         0.13022E+09
         0.91429E+08
         0.39545E+08
        -0.10410E+08
        -0.37233E+08
        -0.49205E+08
        -0.85343E+08
        -0.15464E+09
        -0.18472E+09
        -0.18457E+09
        -0.18396E+09
        -0.18595E+09
        -0.17972E+09
        -0.15836E+09
        -0.13826E+09
        -0.72798E+08
         0.18630E+08
         0.44681E+08
         0.47704E+08
         0.79869E+08
         0.14199E+09
         0.17708E+09
         0.17796E+09
        -0.54922E+08
         0.13251E+08
        -0.24026E+08
        -0.69220E+08
         0.12076E+09
         0.11857E+09
         0.38430E+08
        -0.66204E+08
        -0.35579E+08
        -0.66538E+08
        -0.10228E+08
         0.26465E+08
         0.10926E+09
        -0.13019E+09
        -0.62405E+08
         0.12058E+09
         0.68198E+08
        -0.37812E+08
        -0.26373E+08
        -0.45501E+08
        -0.16507E+09
        -0.16749E+09
        -0.16954E+09
        -0.63084E+08
         0.37240E+08
         0.24868E+08
        -0.13107E+09
         0.12718E+08
        -0.48392E+08
        -0.60258E+08
         0.93132E+08
         0.58852E+08
        -0.55160E+08
        -0.51160E+08
         0.17013E+09
         0.13771E+09
         0.13706E+09
        -0.85914E+08
        -0.20406E+08
        -0.58699E+08
        -0.15056E+09
        -0.17037E+09
        -0.16516E+09
        -0.15180E+09
        -0.13004E+09
        -0.56290E+08
         0.91212E+08
         0.11630E+09
        -0.13411E+08
         0.17704E+08
         0.13213E+09
         0.16272E+09
         0.18449E+09
         0.18185E+09
         0.15663E+09
         0.13021E+09
         0.91415E+08
         0.39545E+08
        -0.10425E+08
        -0.37264E+08
        -0.49175E+08
        -0.85334E+08
        -0.15464E+09
        -0.18472E+09
        -0.18457E+09
        -0.18396E+09
        -0.18596E+09
        -0.17972E+09
        -0.15834E+09
        -0.13825E+09
        -0.72781E+08
         0.18636E+08
         0.44649E+08
         0.47688E+08
         0.79837E+08
         0.14199E+09
         0.17709E+09
         0.17797E+09
        -0.54975E+08
         0.13316E+08
        -0.24051E+08
        -0.69260E+08
         0.12070E+09
         0.11846E+09
         0.38658E+08
        -0.65976E+08
        -0.35606E+08
        -0.66309E+08
        -0.99324E+07
         0.26528E+08
         0.10928E+09
        -0.12986E+09
        -0.62307E+08
         0.12073E+09
         0.68348E+08
        -0.37702E+08
        -0.26361E+08
        -0.45424E+08
        -0.16504E+09
        -0.16749E+09
        -0.16954E+09
        -0.63095E+08
         0.37330E+08
         0.24919E+08
        -0.13110E+09
         0.12411E+08
        -0.48702E+08
        -0.60304E+08
         0.93275E+08
         0.58848E+08
        -0.54900E+08
        -0.51173E+08
         0.17014E+09
         0.13766E+09
         0.13705E+09
        -0.85914E+08
        -0.20536E+08
        -0.58798E+08
        -0.15055E+09
        -0.17039E+09
        -0.16515E+09
        -0.15176E+09
        -0.12998E+09
        -0.56260E+08
         0.91167E+08
         0.11634E+09
        -0.13278E+08
         0.17664E+08
         0.13212E+09
         0.16249E+09
         0.18449E+09
         0.18185E+09
         0.15662E+09
         0.13021E+09
         0.91400E+08
         0.39545E+08
        -0.10440E+08
        -0.37295E+08
        -0.49145E+08
        -0.85325E+08
        -0.15464E+09
        -0.18471E+09
        -0.18457E+09
        -0.18396E+09
        -0.18596E+09
        -0.17972E+09
        -0.15833E+09
        -0.13825E+09
        -0.72764E+08
         0.18643E+08
         0.44617E+08
         0.47671E+08
         0.79806E+08
         0.14198E+09
         0.17709E+09
         0.17798E+09
        -0.55029E+08
         0.13380E+08
        -0.24075E+08
        -0.69300E+08
         0.12064E+09
         0.11835E+09
         0.38885E+08
        -0.65749E+08
        -0.35630E+08
        -0.66074E+08
        -0.96367E+07
         0.26591E+08
         0.10930E+09
        -0.12953E+09
        -0.62210E+08
         0.12087E+09
         0.68497E+08
        -0.37590E+08
        -0.26352E+08
        -0.45352E+08
        -0.16501E+09
        -0.16748E+09
        -0.16954E+09
        -0.63103E+08
         0.37415E+08
         0.24972E+08
        -0.13112E+09
         0.12096E+08
        -0.49014E+08
        -0.60352E+08
         0.93418E+08
         0.58843E+08
        -0.54638E+08
        -0.51186E+08
         0.17016E+09
         0.13762E+09
         0.13703E+09
        -0.85910E+08
        -0.20671E+08
        -0.58896E+08
        -0.15054E+09
        -0.17041E+09
        -0.16515E+09
        -0.15172E+09
        -0.12993E+09
        -0.56229E+08
         0.91122E+08
         0.11638E+09
        -0.13147E+08
         0.17624E+08
         0.13211E+09
         0.16225E+09
         0.18449E+09
         0.18184E+09
         0.15661E+09
         0.13021E+09
         0.91386E+08
         0.39546E+08
        -0.10455E+08
        -0.37326E+08
        -0.49115E+08
        -0.85316E+08
        -0.15464E+09
        -0.18471E+09
        -0.18457E+09
        -0.18395E+09
        -0.18596E+09
        -0.17972E+09
        -0.15832E+09
        -0.13824E+09
        -0.72747E+08
         0.18649E+08
         0.44586E+08
         0.47654E+08
         0.79775E+08
         0.14198E+09
         0.17709E+09
         0.17799E+09
        -0.55082E+08
         0.13444E+08
        -0.24099E+08
        -0.69340E+08
         0.12057E+09
         0.11824E+09
         0.39113E+08
        -0.65521E+08
        -0.35652E+08
        -0.65834E+08
        -0.93419E+07
         0.26654E+08
         0.10932E+09
        -0.12919E+09
        -0.62111E+08
         0.12102E+09
         0.68645E+08
        -0.37479E+08
        -0.26340E+08
        -0.45276E+08
        -0.16498E+09
        -0.16748E+09
        -0.16954E+09
        -0.63113E+08
         0.37493E+08
         0.25022E+08
        -0.13112E+09
         0.11772E+08
        -0.49325E+08
        -0.60399E+08
         0.93561E+08
         0.58838E+08
        -0.54376E+08
        -0.51199E+08
         0.17017E+09
         0.13757E+09
         0.13702E+09
        -0.85904E+08
        -0.20811E+08
        -0.58997E+08
        -0.15052E+09
        -0.17043E+09
        -0.16515E+09
        -0.15167E+09
        -0.12988E+09
        -0.56199E+08
         0.91076E+08
         0.11641E+09
        -0.13013E+08
         0.17585E+08
         0.13210E+09
         0.16201E+09
         0.18449E+09
         0.18183E+09
         0.15659E+09
         0.13021E+09
         0.91371E+08
         0.39546E+08
        -0.10469E+08
        -0.37356E+08
        -0.49086E+08
        -0.85308E+08
        -0.15463E+09
        -0.18471E+09
        -0.18457E+09
        -0.18395E+09
        -0.18597E+09
        -0.17972E+09
        -0.15830E+09
        -0.13824E+09
        -0.72730E+08
         0.18656E+08
         0.44554E+08
         0.47638E+08
         0.79743E+08
         0.14198E+09
         0.17709E+09
         0.17799E+09
        -0.55135E+08
         0.13509E+08
        -0.24124E+08
        -0.69380E+08
         0.12051E+09
         0.11813E+09
         0.39337E+08
        -0.65295E+08
        -0.35673E+08
        -0.65594E+08
        -0.90493E+07
         0.26715E+08
         0.10934E+09
        -0.12886E+09
        -0.62012E+08
         0.12117E+09
         0.68793E+08
        -0.37370E+08
        -0.26328E+08
        -0.45203E+08
        -0.16495E+09
        -0.16747E+09
        -0.16953E+09
        -0.63123E+08
         0.37568E+08
         0.25073E+08
        -0.13112E+09
         0.11447E+08
        -0.49635E+08
        -0.60444E+08
         0.93703E+08
         0.58833E+08
        -0.54116E+08
        -0.51212E+08
         0.17018E+09
         0.13753E+09
         0.13700E+09
        -0.85896E+08
        -0.20951E+08
        -0.59096E+08
        -0.15051E+09
        -0.17045E+09
        -0.16515E+09
        -0.15163E+09
        -0.12983E+09
        -0.56170E+08
         0.91032E+08
         0.11645E+09
        -0.12881E+08
         0.17544E+08
         0.13210E+09
         0.16177E+09
         0.18449E+09
         0.18183E+09
         0.15658E+09
         0.13021E+09
         0.91357E+08
         0.39546E+08
        -0.10484E+08
        -0.37386E+08
        -0.49057E+08
        -0.85299E+08
        -0.15463E+09
        -0.18471E+09
        -0.18457E+09
        -0.18395E+09
        -0.18597E+09
        -0.17972E+09
        -0.15829E+09
        -0.13823E+09
        -0.72713E+08
         0.18663E+08
         0.44523E+08
         0.47622E+08
         0.79713E+08
         0.14198E+09
         0.17710E+09
         0.17800E+09
        -0.53093E+08
         0.13599E+08
        -0.24220E+08
        -0.69619E+08
         0.11426E+09
         0.11834E+09
         0.39645E+08
        -0.61884E+08
        -0.35793E+08
        -0.62001E+08
        -0.88179E+07
         0.26175E+08
         0.10610E+09
        -0.12889E+09
        -0.60667E+08
         0.12165E+09
         0.69128E+08
        -0.37378E+08
        -0.26382E+08
        -0.45243E+08
        -0.16097E+09
        -0.16282E+09
        -0.16507E+09
        -0.63305E+08
         0.37739E+08
         0.25190E+08
        -0.13149E+09
         0.11173E+08
        -0.50050E+08
        -0.60647E+08
         0.94108E+08
         0.58990E+08
        -0.54036E+08
        -0.51375E+08
         0.16387E+09
         0.13784E+09
         0.13011E+09
        -0.83612E+08
        -0.20242E+08
        -0.56489E+08
        -0.14666E+09
        -0.16573E+09
        -0.16100E+09
        -0.14654E+09
        -0.12393E+09
        -0.54319E+08
         0.85614E+08
         0.11681E+09
        -0.12799E+08
         0.17550E+08
         0.12708E+09
         0.15590E+09
         0.18323E+09
         0.18069E+09
         0.15566E+09
         0.12949E+09
         0.90865E+08
         0.39342E+08
        -0.10443E+08
        -0.37155E+08
        -0.48672E+08
        -0.84716E+08
        -0.15362E+09
        -0.18361E+09
        -0.18330E+09
        -0.18269E+09
        -0.18490E+09
        -0.17878E+09
        -0.15749E+09
        -0.13754E+09
        -0.72247E+08
         0.18563E+08
         0.44226E+08
         0.47304E+08
         0.79203E+08
         0.14109E+09
         0.17606E+09
         0.17694E+09
        -0.25748E+08
         0.57617E+07
        -0.10332E+08
        -0.32738E+08
         0.49321E+08
         0.46414E+08
         0.15999E+08
        -0.27027E+08
        -0.15830E+08
        -0.26593E+08
        -0.31505E+07
         0.15392E+08
         0.56170E+08
        -0.44568E+08
        -0.36573E+08
         0.54129E+08
         0.30034E+08
        -0.18512E+08
        -0.10936E+08
        -0.18259E+08
        -0.91710E+08
        -0.88357E+08
        -0.90932E+08
        -0.27623E+08
         0.14611E+08
         0.11551E+08
        -0.46000E+08
         0.40713E+07
        -0.18520E+08
        -0.22738E+08
         0.42152E+08
         0.25988E+08
        -0.25204E+08
        -0.23174E+08
         0.80004E+08
         0.50677E+08
         0.56537E+08
        -0.46138E+08
        -0.97068E+07
        -0.25641E+08
        -0.82165E+08
        -0.90052E+08
        -0.90486E+08
        -0.74110E+08
        -0.56023E+08
        -0.27819E+08
         0.34837E+08
         0.44956E+08
        -0.50845E+07
         0.66926E+07
         0.61644E+08
         0.60674E+08
         0.14541E+09
         0.14605E+09
         0.12717E+09
         0.10678E+09
         0.75726E+08
         0.33028E+08
        -0.86566E+07
        -0.29652E+08
        -0.38298E+08
        -0.67672E+08
        -0.12329E+09
        -0.14993E+09
        -0.14551E+09
        -0.14541E+09
        -0.15153E+09
        -0.14882E+09
        -0.13213E+09
        -0.11549E+09
        -0.58398E+08
         0.15151E+08
         0.35813E+08
         0.38082E+08
         0.64306E+08
         0.11383E+09
         0.14398E+09
         0.14421E+09
  
SCALARS                      stress_xy  double 1
LOOKUP_TABLE default
        -0.45294E+00
        -0.10629E+01
        -0.91147E+01
         0.32192E+00
        -0.13892E-09
         0.13576E-10
         0.20412E-09
         0.31094E-10
        -0.96152E+02
         0.42247E+02
         0.90860E-09
         0.72052E-09
         0.35982E+01
        -0.74660E+00
         0.80198E-10
        -0.24087E-10
         0.10346E+01
         0.18055E+02
         0.39926E-11
         0.60842E-10
        -0.13737E+02
        -0.87154E+02
        -0.85752E+02
         0.61866E-09
         0.49267E-09
        -0.71946E-09
        -0.90739E+01
        -0.75822E+02
         0.83301E-09
         0.12819E-08
        -0.27665E+01
         0.53593E+01
         0.43524E+00
        -0.43968E-10
         0.17345E-09
        -0.22185E-11
        -0.24400E+02
        -0.11340E+02
         0.46421E-09
         0.38455E-09
        -0.47819E+02
        -0.43149E+02
         0.79134E-09
         0.53332E-09
        -0.46381E+02
        -0.85147E+01
        -0.28828E-10
         0.21462E-09
         0.12378E+02
         0.63430E-10
        -0.29011E+01
        -0.14300E-11
         0.76114E+00
         0.47942E-09
         0.37688E+01
         0.73773E-10
         0.53778E+02
        -0.26182E+01
         0.17145E-11
        -0.84112E-11
         0.35824E+00
        -0.36066E+02
         0.46722E-10
         0.11984E-09
         0.15498E+01
        -0.94863E-11
         0.22276E+02
         0.76013E-10
        -0.11910E+03
        -0.43232E+02
         0.58714E-10
        -0.56225E-09
        -0.97230E+02
        -0.89898E-09
         0.39793E+02
         0.60212E-09
         0.12568E+03
         0.89707E-10
         0.21947E+03
         0.11665E-09
         0.42578E+03
         0.23200E+03
         0.27425E-09
        -0.69541E-10
         0.28645E+02
        -0.83683E-11
        -0.87900E+02
        -0.75475E-09
        -0.12941E+03
        -0.84274E-09
        -0.28471E+03
        -0.12981E+03
        -0.53346E-09
         0.59214E-09
         0.20867E+02
         0.53917E-09
         0.51392E+02
         0.23161E-09
         0.12009E+03
         0.61496E-09
         0.29541E+03
         0.16847E+03
         0.13186E-08
         0.65930E-09
        -0.48556E+03
         0.20347E+03
        -0.85671E-09
         0.10492E-08
        -0.11823E+04
        -0.24348E-08
        -0.15422E+04
        -0.26616E-08
        -0.13549E+04
        -0.18064E-08
        -0.11552E+04
        -0.19160E-09
        -0.50488E+03
         0.54005E-09
         0.66515E+03
         0.33437E-09
         0.14947E+04
         0.30567E-09
         0.19762E+04
         0.65583E-09
         0.19380E+04
         0.79739E-09
         0.15893E+04
         0.31416E-09
         0.84699E+03
         0.19153E-09
        -0.58009E+02
         0.31306E-09
        -0.70493E+03
         0.20985E-09
        -0.11371E+04
        -0.74835E-09
        -0.15520E+04
        -0.19636E-08
        -0.13896E+04
        -0.24920E-08
        -0.89221E+03
        -0.15423E-08
        -0.97730E+02
         0.29424E-09
         0.66020E+03
         0.62363E-09
         0.95475E+03
         0.99386E-09
         0.11681E+04
         0.19571E-08
         0.10471E+04
         0.25396E-08
         0.97462E+03
         0.18043E-08
         0.80506E+03
         0.14269E-08
        -0.77681E+02
         0.20934E+02
         0.21437E+02
        -0.13394E+02
         0.17126E+03
         0.14081E+03
         0.22424E+01
        -0.50618E+02
        -0.22392E+02
        -0.58480E+02
        -0.16770E+02
        -0.30975E+03
        -0.44206E+03
         0.16402E+02
         0.25153E+03
        -0.33674E+02
         0.25038E+02
         0.74725E+01
         0.15186E+02
        -0.12347E+02
         0.61979E+02
         0.54409E+02
        -0.16514E+03
         0.43257E+01
         0.37176E+02
         0.40957E+01
         0.68140E+00
         0.13359E+01
         0.16587E+02
        -0.55046E+02
        -0.29346E+02
         0.62497E+01
         0.10057E+02
        -0.79221E+00
        -0.41353E+02
        -0.14285E+03
        -0.28992E+03
         0.43864E+03
         0.22831E+03
         0.41259E+03
         0.79921E+03
         0.18512E+03
        -0.14958E+03
        -0.30159E+03
        -0.35739E+03
        -0.45647E+03
         0.56278E+02
         0.16863E+03
         0.52028E+02
         0.17518E+03
         0.54868E+03
         0.21131E+03
        -0.18662E+04
         0.23561E+04
        -0.57026E+04
        -0.67033E+04
        -0.63620E+04
        -0.38466E+04
         0.22941E+03
         0.24936E+04
         0.36156E+04
         0.58662E+04
         0.61771E+04
         0.33025E+04
         0.13317E+04
         0.56315E+03
        -0.91113E+03
        -0.36011E+04
        -0.60120E+04
        -0.68682E+04
        -0.42086E+04
         0.76288E+03
         0.27628E+04
         0.29116E+04
         0.45867E+04
         0.50933E+04
         0.38604E+04
         0.35628E+04
        -0.15759E+06
         0.22867E+05
        -0.40285E+05
        -0.27822E+05
         0.26776E+06
         0.12011E+06
         0.27749E+05
        -0.19229E+06
        -0.63810E+05
        -0.18267E+06
         0.20225E+05
        -0.12018E+06
        -0.34651E+06
         0.68591E+05
         0.28852E+06
        -0.13159E+06
         0.22200E+05
         0.12695E+05
         0.38506E+05
         0.13074E+05
         0.18365E+06
         0.13538E+06
        -0.80194E+05
         0.27331E+05
         0.62747E+05
        -0.10450E+05
         0.14221E+05
        -0.35102E+04
        -0.14132E+05
        -0.10431E+06
        -0.10896E+06
        -0.18572E+05
         0.45676E+05
         0.34228E+05
         0.50803E+05
        -0.13528E+06
        -0.25349E+06
         0.32811E+06
         0.68691E+05
         0.19157E+06
         0.32625E+06
        -0.95074E+05
        -0.18969E+06
        -0.23803E+06
        -0.26896E+06
        -0.21895E+06
         0.22707E+06
         0.18976E+06
        -0.31525E+05
         0.44810E+05
         0.31459E+06
         0.31456E+05
        -0.20128E+06
         0.27802E+06
        -0.53606E+06
        -0.57897E+06
        -0.49665E+06
        -0.24130E+06
         0.63241E+05
         0.22133E+06
         0.29277E+06
         0.46966E+06
         0.54330E+06
         0.21654E+06
         0.10197E+06
         0.91021E+05
        -0.39236E+05
        -0.30288E+06
        -0.51799E+06
        -0.58152E+06
        -0.41369E+06
         0.11360E+06
         0.26668E+06
         0.28046E+06
         0.44268E+06
         0.56221E+06
         0.35500E+06
         0.34024E+06
        -0.15786E+06
         0.22956E+05
        -0.40381E+05
        -0.28045E+05
         0.26766E+06
         0.12009E+06
         0.27961E+05
        -0.19193E+06
        -0.63995E+05
        -0.18267E+06
         0.19827E+05
        -0.12047E+06
        -0.34663E+06
         0.68424E+05
         0.28828E+06
        -0.13173E+06
         0.22451E+05
         0.12640E+05
         0.38514E+05
         0.12978E+05
         0.18407E+06
         0.13551E+06
        -0.80215E+05
         0.27319E+05
         0.63174E+05
        -0.10448E+05
         0.14393E+05
        -0.34635E+04
        -0.14138E+05
        -0.10460E+06
        -0.10913E+06
        -0.18529E+05
         0.45586E+05
         0.34300E+05
         0.50322E+05
        -0.13531E+06
        -0.25347E+06
         0.32842E+06
         0.69305E+05
         0.19208E+06
         0.32640E+06
        -0.94806E+05
        -0.18987E+06
        -0.23812E+06
        -0.26894E+06
        -0.21885E+06
         0.22705E+06
         0.18970E+06
        -0.31253E+05
         0.44597E+05
         0.31447E+06
         0.30933E+05
        -0.20116E+06
         0.27808E+06
        -0.53612E+06
        -0.57897E+06
        -0.49658E+06
        -0.24130E+06
         0.63333E+05
         0.22151E+06
         0.29260E+06
         0.46959E+06
         0.54327E+06
         0.21664E+06
         0.10197E+06
         0.91210E+05
        -0.38914E+05
        -0.30298E+06
        -0.51807E+06
        -0.58155E+06
        -0.41361E+06
         0.11366E+06
         0.26652E+06
         0.28037E+06
         0.44252E+06
         0.56213E+06
         0.35480E+06
         0.33996E+06
        -0.15813E+06
         0.23044E+05
        -0.40477E+05
        -0.28270E+05
         0.26756E+06
         0.12008E+06
         0.28173E+05
        -0.19158E+06
        -0.64176E+05
        -0.18266E+06
         0.19430E+05
        -0.12076E+06
        -0.34674E+06
         0.68248E+05
         0.28804E+06
        -0.13188E+06
         0.22706E+05
         0.12586E+05
         0.38521E+05
         0.12882E+05
         0.18448E+06
         0.13563E+06
        -0.80246E+05
         0.27304E+05
         0.63608E+05
        -0.10446E+05
         0.14576E+05
        -0.34180E+04
        -0.14134E+05
        -0.10488E+06
        -0.10931E+06
        -0.18478E+05
         0.45495E+05
         0.34370E+05
         0.49839E+05
        -0.13534E+06
        -0.25343E+06
         0.32873E+06
         0.69917E+05
         0.19259E+06
         0.32656E+06
        -0.94511E+05
        -0.19003E+06
        -0.23824E+06
        -0.26892E+06
        -0.21876E+06
         0.22703E+06
         0.18965E+06
        -0.30976E+05
         0.44379E+05
         0.31436E+06
         0.30415E+05
        -0.20103E+06
         0.27815E+06
        -0.53618E+06
        -0.57897E+06
        -0.49652E+06
        -0.24129E+06
         0.63427E+05
         0.22168E+06
         0.29242E+06
         0.46953E+06
         0.54324E+06
         0.21673E+06
         0.10197E+06
         0.91398E+05
        -0.38589E+05
        -0.30307E+06
        -0.51817E+06
        -0.58157E+06
        -0.41353E+06
         0.11372E+06
         0.26636E+06
         0.28028E+06
         0.44235E+06
         0.56205E+06
         0.35459E+06
         0.33969E+06
        -0.15840E+06
         0.23135E+05
        -0.40572E+05
        -0.28496E+05
         0.26746E+06
         0.12007E+06
         0.28386E+05
        -0.19121E+06
        -0.64350E+05
        -0.18263E+06
         0.19033E+05
        -0.12105E+06
        -0.34685E+06
         0.68081E+05
         0.28780E+06
        -0.13205E+06
         0.22968E+05
         0.12531E+05
         0.38533E+05
         0.12781E+05
         0.18491E+06
         0.13574E+06
        -0.80314E+05
         0.27278E+05
         0.64063E+05
        -0.10440E+05
         0.14765E+05
        -0.33802E+04
        -0.14103E+05
        -0.10513E+06
        -0.10950E+06
        -0.18414E+05
         0.45402E+05
         0.34441E+05
         0.49359E+05
        -0.13537E+06
        -0.25340E+06
         0.32903E+06
         0.70526E+05
         0.19309E+06
         0.32674E+06
        -0.94140E+05
        -0.19016E+06
        -0.23842E+06
        -0.26893E+06
        -0.21866E+06
         0.22701E+06
         0.18960E+06
        -0.30700E+05
         0.44162E+05
         0.31424E+06
         0.29899E+05
        -0.20090E+06
         0.27821E+06
        -0.53623E+06
        -0.57897E+06
        -0.49645E+06
        -0.24128E+06
         0.63521E+05
         0.22186E+06
         0.29225E+06
         0.46947E+06
         0.54322E+06
         0.21685E+06
         0.10198E+06
         0.91584E+05
        -0.38261E+05
        -0.30318E+06
        -0.51827E+06
        -0.58160E+06
        -0.41345E+06
         0.11377E+06
         0.26620E+06
         0.28019E+06
         0.44219E+06
         0.56197E+06
         0.35438E+06
         0.33942E+06
        -0.15867E+06
         0.23225E+05
        -0.40668E+05
        -0.28721E+05
         0.26737E+06
         0.12005E+06
         0.28600E+05
        -0.19085E+06
        -0.64516E+05
        -0.18257E+06
         0.18635E+05
        -0.12134E+06
        -0.34697E+06
         0.67916E+05
         0.28756E+06
        -0.13222E+06
         0.23237E+05
         0.12476E+05
         0.38541E+05
         0.12676E+05
         0.18534E+06
         0.13584E+06
        -0.80417E+05
         0.27242E+05
         0.64538E+05
        -0.10430E+05
         0.14974E+05
        -0.33492E+04
        -0.14045E+05
        -0.10536E+06
        -0.10969E+06
        -0.18331E+05
         0.45306E+05
         0.34512E+05
         0.48874E+05
        -0.13540E+06
        -0.25337E+06
         0.32934E+06
         0.71130E+05
         0.19361E+06
         0.32695E+06
        -0.93688E+05
        -0.19025E+06
        -0.23866E+06
        -0.26897E+06
        -0.21854E+06
         0.22701E+06
         0.18957E+06
        -0.30426E+05
         0.43947E+05
         0.31413E+06
         0.29381E+05
        -0.20078E+06
         0.27827E+06
        -0.53629E+06
        -0.57897E+06
        -0.49639E+06
        -0.24128E+06
         0.63614E+05
         0.22204E+06
         0.29207E+06
         0.46941E+06
         0.54320E+06
         0.21698E+06
         0.10199E+06
         0.91765E+05
        -0.37933E+05
        -0.30328E+06
        -0.51839E+06
        -0.58163E+06
        -0.41337E+06
         0.11383E+06
         0.26604E+06
         0.28010E+06
         0.44202E+06
         0.56189E+06
         0.35418E+06
         0.33914E+06
        -0.15893E+06
         0.23322E+05
        -0.40754E+05
        -0.28949E+05
         0.26727E+06
         0.12004E+06
         0.28810E+05
        -0.19047E+06
        -0.64681E+05
        -0.18249E+06
         0.18238E+05
        -0.12163E+06
        -0.34708E+06
         0.67758E+05
         0.28732E+06
        -0.13241E+06
         0.23511E+05
         0.12421E+05
         0.38549E+05
         0.12570E+05
         0.18577E+06
         0.13594E+06
        -0.80534E+05
         0.27202E+05
         0.65007E+05
        -0.10419E+05
         0.15199E+05
        -0.33207E+04
        -0.13973E+05
        -0.10559E+06
        -0.10987E+06
        -0.18239E+05
         0.45210E+05
         0.34585E+05
         0.48387E+05
        -0.13544E+06
        -0.25335E+06
         0.32964E+06
         0.71734E+05
         0.19412E+06
         0.32717E+06
        -0.93211E+05
        -0.19033E+06
        -0.23893E+06
        -0.26903E+06
        -0.21844E+06
         0.22701E+06
         0.18955E+06
        -0.30148E+05
         0.43746E+05
         0.31401E+06
         0.28866E+05
        -0.20065E+06
         0.27834E+06
        -0.53634E+06
        -0.57897E+06
        -0.49632E+06
        -0.24127E+06
         0.63706E+05
         0.22222E+06
         0.29190E+06
         0.46935E+06
         0.54318E+06
         0.21713E+06
         0.10201E+06
         0.91946E+05
        -0.37605E+05
        -0.30339E+06
        -0.51852E+06
        -0.58167E+06
        -0.41329E+06
         0.11388E+06
         0.26587E+06
         0.28001E+06
         0.44186E+06
         0.56180E+06
         0.35397E+06
         0.33887E+06
        -0.15917E+06
         0.23434E+05
        -0.40826E+05
        -0.29182E+05
         0.26717E+06
         0.12003E+06
         0.29016E+05
        -0.19008E+06
        -0.64851E+05
        -0.18242E+06
         0.17841E+05
        -0.12191E+06
        -0.34720E+06
         0.67641E+05
         0.28707E+06
        -0.13260E+06
         0.23789E+05
         0.12366E+05
         0.38561E+05
         0.12465E+05
         0.18620E+06
         0.13603E+06
        -0.80653E+05
         0.27164E+05
         0.65448E+05
        -0.10404E+05
         0.15464E+05
        -0.32916E+04
        -0.13897E+05
        -0.10583E+06
        -0.11003E+06
        -0.18136E+05
         0.45112E+05
         0.34656E+05
         0.47898E+05
        -0.13550E+06
        -0.25333E+06
         0.32994E+06
         0.72342E+05
         0.19463E+06
         0.32739E+06
        -0.92723E+05
        -0.19040E+06
        -0.23919E+06
        -0.26910E+06
        -0.21835E+06
         0.22700E+06
         0.18958E+06
        -0.29856E+05
         0.43581E+05
         0.31390E+06
         0.28346E+05
        -0.20052E+06
         0.27840E+06
        -0.53640E+06
        -0.57897E+06
        -0.49626E+06
        -0.24126E+06
         0.63798E+05
         0.22239E+06
         0.29173E+06
         0.46929E+06
         0.54317E+06
         0.21727E+06
         0.10203E+06
         0.92128E+05
        -0.37276E+05
        -0.30350E+06
        -0.51864E+06
        -0.58170E+06
        -0.41320E+06
         0.11392E+06
         0.26570E+06
         0.27992E+06
         0.44170E+06
         0.56172E+06
         0.35377E+06
         0.33860E+06
        -0.15939E+06
         0.23551E+05
        -0.40890E+05
        -0.29417E+05
         0.26708E+06
         0.12001E+06
         0.29220E+05
        -0.18968E+06
        -0.65024E+05
        -0.18235E+06
         0.17443E+05
        -0.12220E+06
        -0.34733E+06
         0.67531E+05
         0.28682E+06
        -0.13279E+06
         0.24069E+05
         0.12310E+05
         0.38571E+05
         0.12362E+05
         0.18664E+06
         0.13613E+06
        -0.80768E+05
         0.27127E+05
         0.65875E+05
        -0.10387E+05
         0.15739E+05
        -0.32615E+04
        -0.13820E+05
        -0.10607E+06
        -0.11019E+06
        -0.18026E+05
         0.45012E+05
         0.34728E+05
         0.47405E+05
        -0.13556E+06
        -0.25333E+06
         0.33024E+06
         0.72947E+05
         0.19515E+06
         0.32762E+06
        -0.92234E+05
        -0.19047E+06
        -0.23946E+06
        -0.26917E+06
        -0.21827E+06
         0.22698E+06
         0.18963E+06
        -0.29559E+05
         0.43431E+05
         0.31380E+06
         0.27830E+05
        -0.20040E+06
         0.27846E+06
        -0.53645E+06
        -0.57897E+06
        -0.49619E+06
        -0.24125E+06
         0.63890E+05
         0.22257E+06
         0.29155E+06
         0.46924E+06
         0.54315E+06
         0.21741E+06
         0.10204E+06
         0.92312E+05
        -0.36947E+05
        -0.30361E+06
        -0.51877E+06
        -0.58173E+06
        -0.41312E+06
         0.11397E+06
         0.26552E+06
         0.27983E+06
         0.44155E+06
         0.56164E+06
         0.35356E+06
         0.33832E+06
        -0.15962E+06
         0.23669E+05
        -0.40953E+05
        -0.29653E+05
         0.26699E+06
         0.12000E+06
         0.29423E+05
        -0.18928E+06
        -0.65199E+05
        -0.18229E+06
         0.17046E+05
        -0.12249E+06
        -0.34745E+06
         0.67432E+05
         0.28657E+06
        -0.13298E+06
         0.24352E+05
         0.12255E+05
         0.38580E+05
         0.12257E+05
         0.18707E+06
         0.13623E+06
        -0.80885E+05
         0.27091E+05
         0.66302E+05
        -0.10370E+05
         0.16021E+05
        -0.32297E+04
        -0.13740E+05
        -0.10632E+06
        -0.11035E+06
        -0.17919E+05
         0.44912E+05
         0.34799E+05
         0.46909E+05
        -0.13562E+06
        -0.25332E+06
         0.33054E+06
         0.73555E+05
         0.19566E+06
         0.32784E+06
        -0.91748E+05
        -0.19054E+06
        -0.23973E+06
        -0.26925E+06
        -0.21819E+06
         0.22697E+06
         0.18968E+06
        -0.29263E+05
         0.43286E+05
         0.31370E+06
         0.27311E+05
        -0.20027E+06
         0.27853E+06
        -0.53650E+06
        -0.57897E+06
        -0.49613E+06
        -0.24125E+06
         0.63982E+05
         0.22274E+06
         0.29138E+06
         0.46918E+06
         0.54313E+06
         0.21755E+06
         0.10206E+06
         0.92499E+05
        -0.36619E+05
        -0.30372E+06
        -0.51889E+06
        -0.58176E+06
        -0.41304E+06
         0.11401E+06
         0.26534E+06
         0.27974E+06
         0.44139E+06
         0.56156E+06
         0.35336E+06
         0.33804E+06
        -0.15984E+06
         0.23788E+05
        -0.41016E+05
        -0.29888E+05
         0.26689E+06
         0.11998E+06
         0.29627E+05
        -0.18888E+06
        -0.65373E+05
        -0.18221E+06
         0.16648E+05
        -0.12278E+06
        -0.34757E+06
         0.67322E+05
         0.28633E+06
        -0.13317E+06
         0.24637E+05
         0.12200E+05
         0.38588E+05
         0.12153E+05
         0.18750E+06
         0.13632E+06
        -0.80996E+05
         0.27055E+05
         0.66730E+05
        -0.10353E+05
         0.16296E+05
        -0.31965E+04
        -0.13658E+05
        -0.10656E+06
        -0.11051E+06
        -0.17810E+05
         0.44810E+05
         0.34871E+05
         0.46414E+05
        -0.13569E+06
        -0.25332E+06
         0.33084E+06
         0.74161E+05
         0.19618E+06
         0.32806E+06
        -0.91264E+05
        -0.19061E+06
        -0.23999E+06
        -0.26933E+06
        -0.21811E+06
         0.22696E+06
         0.18973E+06
        -0.28969E+05
         0.43133E+05
         0.31359E+06
         0.26796E+05
        -0.20014E+06
         0.27859E+06
        -0.53656E+06
        -0.57897E+06
        -0.49606E+06
        -0.24124E+06
         0.64074E+05
         0.22292E+06
         0.29120E+06
         0.46912E+06
         0.54312E+06
         0.21769E+06
         0.10208E+06
         0.92685E+05
        -0.36292E+05
        -0.30383E+06
        -0.51902E+06
        -0.58179E+06
        -0.41296E+06
         0.11405E+06
         0.26516E+06
         0.27964E+06
         0.44124E+06
         0.56148E+06
         0.35315E+06
         0.33777E+06
        -0.16007E+06
         0.23906E+05
        -0.41081E+05
        -0.30123E+05
         0.26680E+06
         0.11997E+06
         0.29832E+05
        -0.18848E+06
        -0.65548E+05
        -0.18214E+06
         0.16249E+05
        -0.12307E+06
        -0.34770E+06
         0.67218E+05
         0.28607E+06
        -0.13336E+06
         0.24924E+05
         0.12146E+05
         0.38601E+05
         0.12047E+05
         0.18793E+06
         0.13641E+06
        -0.81112E+05
         0.27020E+05
         0.67157E+05
        -0.10336E+05
         0.16576E+05
        -0.31613E+04
        -0.13574E+05
        -0.10680E+06
        -0.11067E+06
        -0.17702E+05
         0.44707E+05
         0.34943E+05
         0.45917E+05
        -0.13575E+06
        -0.25331E+06
         0.33113E+06
         0.74768E+05
         0.19669E+06
         0.32829E+06
        -0.90779E+05
        -0.19068E+06
        -0.24026E+06
        -0.26940E+06
        -0.21803E+06
         0.22695E+06
         0.18978E+06
        -0.28673E+05
         0.42983E+05
         0.31349E+06
         0.26282E+05
        -0.20002E+06
         0.27865E+06
        -0.53661E+06
        -0.57897E+06
        -0.49599E+06
        -0.24123E+06
         0.64163E+05
         0.22309E+06
         0.29103E+06
         0.46906E+06
         0.54310E+06
         0.21783E+06
         0.10210E+06
         0.92868E+05
        -0.35963E+05
        -0.30393E+06
        -0.51914E+06
        -0.58182E+06
        -0.41288E+06
         0.11409E+06
         0.26499E+06
         0.27955E+06
         0.44108E+06
         0.56140E+06
         0.35295E+06
         0.33749E+06
        -0.16029E+06
         0.24024E+05
        -0.41143E+05
        -0.30360E+05
         0.26671E+06
         0.11995E+06
         0.30036E+05
        -0.18807E+06
        -0.65723E+05
        -0.18206E+06
         0.15850E+05
        -0.12335E+06
        -0.34782E+06
         0.67114E+05
         0.28582E+06
        -0.13355E+06
         0.25211E+05
         0.12090E+05
         0.38610E+05
         0.11944E+05
         0.18836E+06
         0.13651E+06
        -0.81228E+05
         0.26986E+05
         0.67585E+05
        -0.10320E+05
         0.16849E+05
        -0.31249E+04
        -0.13487E+05
        -0.10704E+06
        -0.11083E+06
        -0.17593E+05
         0.44602E+05
         0.35015E+05
         0.45417E+05
        -0.13581E+06
        -0.25330E+06
         0.33143E+06
         0.75376E+05
         0.19721E+06
         0.32851E+06
        -0.90300E+05
        -0.19075E+06
        -0.24052E+06
        -0.26948E+06
        -0.21795E+06
         0.22694E+06
         0.18984E+06
        -0.28378E+05
         0.42839E+05
         0.31338E+06
         0.25769E+05
        -0.19989E+06
         0.27871E+06
        -0.53666E+06
        -0.57897E+06
        -0.49593E+06
        -0.24123E+06
         0.64254E+05
         0.22327E+06
         0.29085E+06
         0.46900E+06
         0.54308E+06
         0.21797E+06
         0.10212E+06
         0.93052E+05
        -0.35633E+05
        -0.30404E+06
        -0.51927E+06
        -0.58185E+06
        -0.41280E+06
         0.11413E+06
         0.26481E+06
         0.27946E+06
         0.44093E+06
         0.56131E+06
         0.35274E+06
         0.33722E+06
        -0.16052E+06
         0.24143E+05
        -0.41205E+05
        -0.30597E+05
         0.26661E+06
         0.11993E+06
         0.30240E+05
        -0.18767E+06
        -0.65897E+05
        -0.18198E+06
         0.15452E+05
        -0.12364E+06
        -0.34794E+06
         0.67002E+05
         0.28557E+06
        -0.13374E+06
         0.25500E+05
         0.12035E+05
         0.38620E+05
         0.11841E+05
         0.18879E+06
         0.13660E+06
        -0.81342E+05
         0.26951E+05
         0.68010E+05
        -0.10302E+05
         0.17131E+05
        -0.30867E+04
        -0.13398E+05
        -0.10728E+06
        -0.11099E+06
        -0.17484E+05
         0.44496E+05
         0.35087E+05
         0.44917E+05
        -0.13588E+06
        -0.25330E+06
         0.33172E+06
         0.75984E+05
         0.19772E+06
         0.32873E+06
        -0.89815E+05
        -0.19082E+06
        -0.24079E+06
        -0.26955E+06
        -0.21787E+06
         0.22693E+06
         0.18989E+06
        -0.28082E+05
         0.42690E+05
         0.31328E+06
         0.25258E+05
        -0.19976E+06
         0.27877E+06
        -0.53672E+06
        -0.57897E+06
        -0.49586E+06
        -0.24122E+06
         0.64346E+05
         0.22344E+06
         0.29068E+06
         0.46895E+06
         0.54306E+06
         0.21811E+06
         0.10214E+06
         0.93237E+05
        -0.35305E+05
        -0.30415E+06
        -0.51939E+06
        -0.58188E+06
        -0.41271E+06
         0.11417E+06
         0.26463E+06
         0.27937E+06
         0.44077E+06
         0.56123E+06
         0.35254E+06
         0.33694E+06
        -0.16074E+06
         0.24260E+05
        -0.41267E+05
        -0.30835E+05
         0.26652E+06
         0.11992E+06
         0.30444E+05
        -0.18726E+06
        -0.66071E+05
        -0.18190E+06
         0.15054E+05
        -0.12393E+06
        -0.34806E+06
         0.66897E+05
         0.28532E+06
        -0.13393E+06
         0.25791E+05
         0.11980E+05
         0.38634E+05
         0.11738E+05
         0.18921E+06
         0.13669E+06
        -0.81457E+05
         0.26917E+05
         0.68438E+05
        -0.10285E+05
         0.17405E+05
        -0.30471E+04
        -0.13308E+05
        -0.10752E+06
        -0.11114E+06
        -0.17375E+05
         0.44389E+05
         0.35159E+05
         0.44415E+05
        -0.13594E+06
        -0.25329E+06
         0.33201E+06
         0.76590E+05
         0.19824E+06
         0.32895E+06
        -0.89331E+05
        -0.19089E+06
        -0.24105E+06
        -0.26963E+06
        -0.21779E+06
         0.22691E+06
         0.18993E+06
        -0.27786E+05
         0.42542E+05
         0.31318E+06
         0.24752E+05
        -0.19963E+06
         0.27883E+06
        -0.53677E+06
        -0.57897E+06
        -0.49580E+06
        -0.24121E+06
         0.64438E+05
         0.22361E+06
         0.29050E+06
         0.46889E+06
         0.54305E+06
         0.21825E+06
         0.10216E+06
         0.93422E+05
        -0.34977E+05
        -0.30425E+06
        -0.51951E+06
        -0.58191E+06
        -0.41263E+06
         0.11421E+06
         0.26445E+06
         0.27928E+06
         0.44061E+06
         0.56115E+06
         0.35234E+06
         0.33666E+06
        -0.16097E+06
         0.24377E+05
        -0.41329E+05
        -0.31072E+05
         0.26642E+06
         0.11990E+06
         0.30649E+05
        -0.18685E+06
        -0.66247E+05
        -0.18181E+06
         0.14655E+05
        -0.12422E+06
        -0.34818E+06
         0.66783E+05
         0.28506E+06
        -0.13412E+06
         0.26084E+05
         0.11926E+05
         0.38644E+05
         0.11634E+05
         0.18964E+06
         0.13678E+06
        -0.81570E+05
         0.26883E+05
         0.68866E+05
        -0.10267E+05
         0.17684E+05
        -0.30057E+04
        -0.13216E+05
        -0.10776E+06
        -0.11130E+06
        -0.17266E+05
         0.44280E+05
         0.35231E+05
         0.43913E+05
        -0.13601E+06
        -0.25328E+06
         0.33229E+06
         0.77197E+05
         0.19876E+06
         0.32917E+06
        -0.88848E+05
        -0.19097E+06
        -0.24132E+06
        -0.26970E+06
        -0.21771E+06
         0.22690E+06
         0.18999E+06
        -0.27487E+05
         0.42395E+05
         0.31307E+06
         0.24244E+05
        -0.19950E+06
         0.27889E+06
        -0.53682E+06
        -0.57897E+06
        -0.49573E+06
        -0.24120E+06
         0.64528E+05
         0.22378E+06
         0.29033E+06
         0.46883E+06
         0.54303E+06
         0.21840E+06
         0.10218E+06
         0.93607E+05
        -0.34649E+05
        -0.30436E+06
        -0.51964E+06
        -0.58194E+06
        -0.41255E+06
         0.11425E+06
         0.26427E+06
         0.27919E+06
         0.44046E+06
         0.56107E+06
         0.35214E+06
         0.33638E+06
        -0.16120E+06
         0.24495E+05
        -0.41391E+05
        -0.31309E+05
         0.26633E+06
         0.11988E+06
         0.30853E+05
        -0.18644E+06
        -0.66423E+05
        -0.18173E+06
         0.14255E+05
        -0.12451E+06
        -0.34831E+06
         0.66676E+05
         0.28481E+06
        -0.13431E+06
         0.26379E+05
         0.11872E+05
         0.38654E+05
         0.11532E+05
         0.19007E+06
         0.13687E+06
        -0.81683E+05
         0.26850E+05
         0.69291E+05
        -0.10249E+05
         0.17956E+05
        -0.29627E+04
        -0.13122E+05
        -0.10800E+06
        -0.11146E+06
        -0.17158E+05
         0.44171E+05
         0.35304E+05
         0.43407E+05
        -0.13607E+06
        -0.25328E+06
         0.33258E+06
         0.77805E+05
         0.19927E+06
         0.32939E+06
        -0.88366E+05
        -0.19104E+06
        -0.24157E+06
        -0.26978E+06
        -0.21763E+06
         0.22689E+06
         0.19004E+06
        -0.27192E+05
         0.42246E+05
         0.31297E+06
         0.23738E+05
        -0.19937E+06
         0.27895E+06
        -0.53687E+06
        -0.57897E+06
        -0.49567E+06
        -0.24119E+06
         0.64617E+05
         0.22395E+06
         0.29015E+06
         0.46878E+06
         0.54301E+06
         0.21854E+06
         0.10219E+06
         0.93790E+05
        -0.34321E+05
        -0.30447E+06
        -0.51976E+06
        -0.58197E+06
        -0.41247E+06
         0.11428E+06
         0.26409E+06
         0.27910E+06
         0.44030E+06
         0.56099E+06
         0.35194E+06
         0.33611E+06
        -0.16142E+06
         0.24613E+05
        -0.41454E+05
        -0.31547E+05
         0.26624E+06
         0.11986E+06
         0.31058E+05
        -0.18603E+06
        -0.66597E+05
        -0.18163E+06
         0.13855E+05
        -0.12480E+06
        -0.34843E+06
         0.66559E+05
         0.28455E+06
        -0.13450E+06
         0.26676E+05
         0.11817E+05
         0.38665E+05
         0.11430E+05
         0.19050E+06
         0.13695E+06
        -0.81797E+05
         0.26817E+05
         0.69714E+05
        -0.10230E+05
         0.18235E+05
        -0.29175E+04
        -0.13025E+05
        -0.10824E+06
        -0.11161E+06
        -0.17049E+05
         0.44061E+05
         0.35378E+05
         0.42901E+05
        -0.13613E+06
        -0.25327E+06
         0.33286E+06
         0.78419E+05
         0.19979E+06
         0.32961E+06
        -0.87888E+05
        -0.19111E+06
        -0.24184E+06
        -0.26986E+06
        -0.21755E+06
         0.22688E+06
         0.19010E+06
        -0.26899E+05
         0.42097E+05
         0.31286E+06
         0.23237E+05
        -0.19924E+06
         0.27901E+06
        -0.53692E+06
        -0.57897E+06
        -0.49560E+06
        -0.24119E+06
         0.64705E+05
         0.22413E+06
         0.28998E+06
         0.46872E+06
         0.54300E+06
         0.21868E+06
         0.10221E+06
         0.93971E+05
        -0.33995E+05
        -0.30457E+06
        -0.51989E+06
        -0.58201E+06
        -0.41238E+06
         0.11432E+06
         0.26391E+06
         0.27901E+06
         0.44015E+06
         0.56090E+06
         0.35174E+06
         0.33583E+06
        -0.16165E+06
         0.24730E+05
        -0.41515E+05
        -0.31786E+05
         0.26614E+06
         0.11985E+06
         0.31262E+05
        -0.18562E+06
        -0.66767E+05
        -0.18151E+06
         0.13454E+05
        -0.12509E+06
        -0.34855E+06
         0.66448E+05
         0.28429E+06
        -0.13469E+06
         0.26977E+05
         0.11762E+05
         0.38681E+05
         0.11333E+05
         0.19093E+06
         0.13704E+06
        -0.81912E+05
         0.26783E+05
         0.70128E+05
        -0.10213E+05
         0.18510E+05
        -0.28689E+04
        -0.12927E+05
        -0.10847E+06
        -0.11177E+06
        -0.16938E+05
         0.43948E+05
         0.35451E+05
         0.42394E+05
        -0.13621E+06
        -0.25327E+06
         0.33313E+06
         0.79051E+05
         0.20029E+06
         0.32983E+06
        -0.87406E+05
        -0.19119E+06
        -0.24210E+06
        -0.26993E+06
        -0.21746E+06
         0.22686E+06
         0.19015E+06
        -0.26606E+05
         0.41949E+05
         0.31276E+06
         0.22736E+05
        -0.19911E+06
         0.27906E+06
        -0.53697E+06
        -0.57897E+06
        -0.49554E+06
        -0.24118E+06
         0.64794E+05
         0.22430E+06
         0.28981E+06
         0.46866E+06
         0.54299E+06
         0.21881E+06
         0.10221E+06
         0.94152E+05
        -0.33669E+05
        -0.30468E+06
        -0.52001E+06
        -0.58204E+06
        -0.41230E+06
         0.11436E+06
         0.26373E+06
         0.27892E+06
         0.43999E+06
         0.56082E+06
         0.35154E+06
         0.33555E+06
        -0.16187E+06
         0.24846E+05
        -0.41576E+05
        -0.32025E+05
         0.26605E+06
         0.11982E+06
         0.31467E+05
        -0.18520E+06
        -0.66934E+05
        -0.18137E+06
         0.13054E+05
        -0.12537E+06
        -0.34867E+06
         0.66335E+05
         0.28403E+06
        -0.13488E+06
         0.27282E+05
         0.11708E+05
         0.38693E+05
         0.11239E+05
         0.19135E+06
         0.13712E+06
        -0.82025E+05
         0.26751E+05
         0.70531E+05
        -0.10194E+05
         0.18795E+05
        -0.28165E+04
        -0.12827E+05
        -0.10869E+06
        -0.11192E+06
        -0.16829E+05
         0.43834E+05
         0.35524E+05
         0.41884E+05
        -0.13627E+06
        -0.25326E+06
         0.33340E+06
         0.79700E+05
         0.20080E+06
         0.33005E+06
        -0.86928E+05
        -0.19128E+06
        -0.24236E+06
        -0.27001E+06
        -0.21739E+06
         0.22685E+06
         0.19020E+06
        -0.26311E+05
         0.41803E+05
         0.31265E+06
         0.22233E+05
        -0.19898E+06
         0.27912E+06
        -0.53702E+06
        -0.57897E+06
        -0.49547E+06
        -0.24117E+06
         0.64882E+05
         0.22447E+06
         0.28964E+06
         0.46861E+06
         0.54298E+06
         0.21895E+06
         0.10221E+06
         0.94333E+05
        -0.33341E+05
        -0.30478E+06
        -0.52013E+06
        -0.58207E+06
        -0.41222E+06
         0.11440E+06
         0.26356E+06
         0.27883E+06
         0.43984E+06
         0.56074E+06
         0.35135E+06
         0.33527E+06
        -0.16210E+06
         0.24963E+05
        -0.41640E+05
        -0.32263E+05
         0.26596E+06
         0.11981E+06
         0.31672E+05
        -0.18479E+06
        -0.67099E+05
        -0.18123E+06
         0.12657E+05
        -0.12566E+06
        -0.34879E+06
         0.66214E+05
         0.28376E+06
        -0.13507E+06
         0.27589E+05
         0.11654E+05
         0.38704E+05
         0.11148E+05
         0.19178E+06
         0.13720E+06
        -0.82131E+05
         0.26721E+05
         0.70930E+05
        -0.10176E+05
         0.19073E+05
        -0.27615E+04
        -0.12726E+05
        -0.10891E+06
        -0.11208E+06
        -0.16723E+05
         0.43722E+05
         0.35599E+05
         0.41379E+05
        -0.13633E+06
        -0.25325E+06
         0.33366E+06
         0.80355E+05
         0.20130E+06
         0.33026E+06
        -0.86459E+05
        -0.19137E+06
        -0.24262E+06
        -0.27008E+06
        -0.21731E+06
         0.22684E+06
         0.19026E+06
        -0.26020E+05
         0.41653E+05
         0.31256E+06
         0.21736E+05
        -0.19885E+06
         0.27918E+06
        -0.53707E+06
        -0.57897E+06
        -0.49540E+06
        -0.24116E+06
         0.64969E+05
         0.22463E+06
         0.28947E+06
         0.46855E+06
         0.54297E+06
         0.21908E+06
         0.10220E+06
         0.94513E+05
        -0.33013E+05
        -0.30489E+06
        -0.52026E+06
        -0.58210E+06
        -0.41214E+06
         0.11444E+06
         0.26338E+06
         0.27874E+06
         0.43969E+06
         0.56066E+06
         0.35115E+06
         0.33499E+06
        -0.15590E+06
         0.25232E+05
        -0.42000E+05
        -0.32716E+05
         0.25106E+06
         0.12058E+06
         0.32076E+05
        -0.17483E+06
        -0.67711E+05
        -0.17140E+06
         0.12392E+05
        -0.12173E+06
        -0.33497E+06
         0.66543E+05
         0.27471E+06
        -0.13619E+06
         0.28069E+05
         0.11683E+05
         0.38964E+05
         0.11137E+05
         0.18601E+06
         0.13231E+06
        -0.79406E+05
         0.26887E+05
         0.71781E+05
        -0.10238E+05
         0.19456E+05
        -0.27231E+04
        -0.12735E+05
        -0.10985E+06
        -0.11302E+06
        -0.16759E+05
         0.43923E+05
         0.35918E+05
         0.38971E+05
        -0.13722E+06
        -0.23930E+06
         0.32125E+06
         0.76845E+05
         0.19053E+06
         0.31844E+06
        -0.82850E+05
        -0.18501E+06
        -0.23320E+06
        -0.25658E+06
        -0.20782E+06
         0.21287E+06
         0.19150E+06
        -0.25926E+05
         0.41774E+05
         0.29773E+06
         0.20570E+05
        -0.19617E+06
         0.27605E+06
        -0.53129E+06
        -0.57301E+06
        -0.49054E+06
        -0.23888E+06
         0.64407E+05
         0.22192E+06
         0.28541E+06
         0.46265E+06
         0.53639E+06
         0.21676E+06
         0.10087E+06
         0.93500E+05
        -0.32357E+05
        -0.30202E+06
        -0.51559E+06
        -0.57680E+06
        -0.40732E+06
         0.11325E+06
         0.26025E+06
         0.27539E+06
         0.43463E+06
         0.55406E+06
         0.34718E+06
         0.33105E+06
        -0.60359E+05
         0.86164E+04
        -0.14550E+05
        -0.13630E+05
         0.76221E+05
         0.35648E+05
         0.10007E+05
        -0.55761E+05
        -0.25099E+05
        -0.53612E+05
         0.31126E+04
        -0.49541E+05
        -0.12314E+06
         0.15512E+05
         0.11518E+06
        -0.51005E+05
         0.10117E+05
         0.53166E+04
         0.12787E+05
         0.34693E+04
         0.78073E+05
         0.52050E+05
        -0.32494E+05
         0.97084E+04
         0.20786E+05
        -0.40517E+04
         0.46776E+04
        -0.71470E+03
        -0.33518E+04
        -0.29914E+05
        -0.42837E+05
        -0.61572E+04
         0.18019E+05
         0.13815E+05
         0.12611E+05
        -0.35870E+05
        -0.73286E+05
         0.12075E+06
         0.24441E+05
         0.57194E+05
         0.12342E+06
        -0.31490E+05
        -0.75370E+05
        -0.87835E+05
        -0.83291E+05
        -0.72112E+05
         0.60284E+05
         0.54511E+05
        -0.78845E+04
         0.11706E+05
         0.99323E+05
         0.57032E+04
        -0.12490E+06
         0.18241E+06
        -0.35815E+06
        -0.39352E+06
        -0.34377E+06
        -0.16977E+06
         0.44578E+05
         0.14288E+06
         0.17888E+06
         0.29831E+06
         0.34918E+06
         0.14605E+06
         0.64543E+05
         0.60358E+05
        -0.21886E+05
        -0.21169E+06
        -0.36681E+06
        -0.41033E+06
        -0.26892E+06
         0.76117E+05
         0.17271E+06
         0.18089E+06
         0.28991E+06
         0.36509E+06
         0.23478E+06
         0.22235E+06
  
SCALARS                      strain_xx  double 1
LOOKUP_TABLE default
        -0.35327E-09
        -0.13534E-07
        -0.17500E-06
        -0.10752E-08
        -0.47807E-20
        -0.60104E-21
        -0.67202E-20
        -0.26805E-21
        -0.11562E-05
        -0.56720E-06
        -0.60122E-19
        -0.48779E-19
        -0.12961E-08
        -0.21105E-07
        -0.91454E-21
        -0.20069E-19
        -0.22176E-08
        -0.20077E-07
        -0.10472E-19
        -0.23227E-19
        -0.24558E-07
        -0.32948E-07
        -0.83564E-07
        -0.10357E-19
        -0.22022E-20
        -0.67217E-20
        -0.38274E-07
         0.96262E-08
        -0.36289E-19
        -0.22835E-19
        -0.11996E-07
        -0.42902E-07
        -0.70126E-09
        -0.37616E-21
        -0.56175E-20
        -0.21321E-20
        -0.88421E-07
        -0.12569E-07
        -0.12383E-19
        -0.14038E-19
        -0.29499E-06
        -0.38943E-06
        -0.63005E-19
        -0.34264E-19
        -0.44579E-06
        -0.14088E-06
        -0.75983E-19
        -0.17603E-19
        -0.11441E-07
        -0.69359E-20
        -0.22742E-06
        -0.53743E-21
        -0.29231E-08
        -0.26482E-19
        -0.39566E-09
        -0.18530E-20
        -0.79396E-08
        -0.73403E-08
        -0.13598E-20
        -0.79449E-20
        -0.13597E-09
        -0.92144E-07
        -0.54398E-20
        -0.25581E-20
        -0.74722E-08
        -0.55039E-22
        -0.73343E-07
        -0.23812E-20
        -0.20869E-05
        -0.93234E-06
        -0.93025E-19
        -0.48932E-19
        -0.34224E-06
        -0.25943E-19
         0.35266E-08
        -0.12414E-19
         0.43173E-07
        -0.47819E-21
         0.17488E-06
        -0.11510E-20
         0.10979E-06
        -0.57059E-07
        -0.15459E-19
        -0.20219E-19
        -0.24381E-06
        -0.23386E-19
        -0.65172E-06
        -0.48476E-19
        -0.21831E-06
        -0.19721E-19
        -0.47399E-06
        -0.23704E-06
        -0.35922E-20
        -0.67555E-20
        -0.13632E-07
        -0.92947E-20
        -0.10955E-06
        -0.16387E-20
        -0.59598E-06
        -0.99928E-20
        -0.12753E-05
        -0.63751E-06
        -0.53127E-19
        -0.57849E-19
        -0.52236E-05
        -0.77955E-05
        -0.18139E-18
        -0.17616E-18
        -0.49206E-05
        -0.13238E-18
        -0.51485E-05
        -0.73932E-19
        -0.21109E-05
        -0.22327E-19
        -0.54470E-06
        -0.25531E-21
        -0.98756E-08
        -0.32387E-20
         0.39701E-07
        -0.20731E-20
         0.25662E-06
        -0.20027E-20
         0.54568E-06
        -0.10185E-19
        -0.39263E-06
        -0.36864E-19
        -0.50723E-05
        -0.52494E-19
        -0.12458E-04
        -0.46732E-19
        -0.15375E-04
        -0.55261E-19
        -0.16597E-04
        -0.93082E-19
        -0.15525E-04
        -0.12943E-18
        -0.12016E-04
        -0.11185E-18
        -0.51813E-05
        -0.73876E-19
        -0.12665E-05
        -0.16464E-19
        -0.80928E-08
        -0.60033E-21
        -0.42614E-06
        -0.35386E-20
        -0.11528E-05
        -0.94622E-20
        -0.21977E-05
        -0.36241E-19
        -0.38304E-05
        -0.97583E-19
        -0.75401E-05
        -0.14086E-18
        -0.11607E-04
        -0.14736E-18
        -0.95006E-06
        -0.26470E-06
        -0.36298E-06
        -0.14196E-05
        -0.22715E-04
        -0.13158E-04
        -0.31208E-06
        -0.65978E-06
        -0.16762E-06
        -0.54652E-06
        -0.17465E-06
        -0.32969E-05
        -0.14138E-04
        -0.14444E-05
        -0.21151E-05
        -0.25187E-05
        -0.17857E-05
        -0.37660E-06
        -0.96139E-06
        -0.11020E-05
        -0.33389E-04
        -0.37520E-04
        -0.31106E-04
        -0.29910E-05
        -0.47327E-06
        -0.26309E-06
        -0.27893E-05
        -0.34986E-07
        -0.37345E-05
        -0.17144E-05
        -0.20144E-05
        -0.80337E-07
        -0.44740E-06
        -0.47869E-07
        -0.51706E-04
        -0.20496E-04
        -0.16595E-04
        -0.82442E-05
        -0.26793E-05
        -0.12526E-04
        -0.53864E-04
        -0.45058E-04
        -0.42291E-04
        -0.22970E-04
        -0.12053E-04
        -0.76260E-05
        -0.26146E-06
        -0.44200E-05
        -0.37045E-06
        -0.38147E-05
        -0.27890E-04
        -0.19149E-04
        -0.46636E-03
        -0.50098E-03
        -0.40215E-03
        -0.28937E-03
        -0.16079E-03
        -0.42350E-04
        -0.15117E-06
        -0.21866E-04
        -0.50651E-04
        -0.14956E-03
        -0.39960E-03
        -0.57039E-03
        -0.47122E-03
        -0.43079E-03
        -0.47628E-03
        -0.47270E-03
        -0.39039E-03
        -0.30324E-03
        -0.80975E-04
        -0.20056E-05
        -0.29208E-04
        -0.36284E-04
        -0.10430E-03
        -0.26943E-03
        -0.44481E-03
        -0.48788E-03
        -0.19940E-05
        -0.84024E-07
        -0.30453E-06
        -0.25818E-05
        -0.10864E-04
        -0.79335E-05
        -0.67343E-06
        -0.32093E-05
        -0.67754E-06
        -0.29006E-05
        -0.11837E-06
        -0.15759E-05
        -0.17054E-04
        -0.10029E-04
        -0.10761E-04
        -0.76963E-05
        -0.23852E-05
        -0.85566E-06
        -0.38753E-06
        -0.11952E-05
        -0.42080E-04
        -0.38219E-04
        -0.37217E-04
        -0.21771E-05
        -0.70236E-06
        -0.31842E-06
        -0.93649E-05
        -0.16510E-06
        -0.10489E-05
        -0.19506E-05
        -0.45428E-05
        -0.19021E-05
        -0.19110E-05
        -0.14234E-05
        -0.34553E-04
        -0.10525E-04
        -0.13849E-04
        -0.13233E-04
        -0.37093E-06
        -0.31180E-05
        -0.42085E-04
        -0.44531E-04
        -0.42548E-04
        -0.22244E-04
        -0.13191E-04
        -0.45161E-05
        -0.52748E-05
        -0.73516E-05
        -0.12846E-06
        -0.18622E-06
        -0.19566E-04
        -0.15183E-04
        -0.60423E-03
        -0.61364E-03
        -0.49451E-03
        -0.33640E-03
        -0.18731E-03
        -0.39736E-04
        -0.24493E-05
        -0.25710E-04
        -0.44616E-04
        -0.14993E-03
        -0.47301E-03
        -0.65827E-03
        -0.46281E-03
        -0.41888E-03
        -0.50846E-03
        -0.53932E-03
        -0.44930E-03
        -0.40205E-03
        -0.10437E-03
        -0.70507E-05
        -0.34485E-04
        -0.35394E-04
        -0.11189E-03
        -0.33542E-03
        -0.54954E-03
        -0.54607E-03
        -0.20015E-05
        -0.84649E-07
        -0.30568E-06
        -0.25853E-05
        -0.10843E-04
        -0.79188E-05
        -0.68202E-06
        -0.31931E-05
        -0.67903E-06
        -0.28960E-05
        -0.11363E-06
        -0.15835E-05
        -0.17075E-04
        -0.99796E-05
        -0.10749E-04
        -0.77122E-05
        -0.23957E-05
        -0.85094E-06
        -0.38714E-06
        -0.11910E-05
        -0.42071E-04
        -0.38211E-04
        -0.37212E-04
        -0.21773E-05
        -0.70553E-06
        -0.31948E-06
        -0.93705E-05
        -0.15895E-06
        -0.10637E-05
        -0.19530E-05
        -0.45561E-05
        -0.19017E-05
        -0.18951E-05
        -0.14247E-05
        -0.34588E-04
        -0.10515E-04
        -0.13840E-04
        -0.13276E-04
        -0.37807E-06
        -0.31377E-05
        -0.42138E-04
        -0.44583E-04
        -0.42552E-04
        -0.22237E-04
        -0.13182E-04
        -0.45114E-05
        -0.52728E-05
        -0.73565E-05
        -0.12659E-06
        -0.18496E-06
        -0.19541E-04
        -0.15138E-04
        -0.60382E-03
        -0.61332E-03
        -0.49442E-03
        -0.33640E-03
        -0.18719E-03
        -0.39712E-04
        -0.24549E-05
        -0.25742E-04
        -0.44541E-04
        -0.14981E-03
        -0.47286E-03
        -0.65829E-03
        -0.46272E-03
        -0.41884E-03
        -0.50859E-03
        -0.53955E-03
        -0.44946E-03
        -0.40221E-03
        -0.10431E-03
        -0.70572E-05
        -0.34434E-04
        -0.35366E-04
        -0.11172E-03
        -0.33501E-03
        -0.54900E-03
        -0.54559E-03
        -0.20091E-05
        -0.85266E-07
        -0.30683E-06
        -0.25887E-05
        -0.10821E-04
        -0.79045E-05
        -0.69070E-06
        -0.31769E-05
        -0.68042E-06
        -0.28911E-05
        -0.10899E-06
        -0.15912E-05
        -0.17095E-04
        -0.99304E-05
        -0.10738E-04
        -0.77286E-05
        -0.24064E-05
        -0.84617E-06
        -0.38676E-06
        -0.11869E-05
        -0.42064E-04
        -0.38202E-04
        -0.37207E-04
        -0.21776E-05
        -0.70892E-06
        -0.32064E-06
        -0.93760E-05
        -0.15299E-06
        -0.10787E-05
        -0.19555E-05
        -0.45697E-05
        -0.19013E-05
        -0.18792E-05
        -0.14260E-05
        -0.34623E-04
        -0.10506E-04
        -0.13831E-04
        -0.13318E-04
        -0.38528E-06
        -0.31576E-05
        -0.42192E-04
        -0.44636E-04
        -0.42558E-04
        -0.22232E-04
        -0.13172E-04
        -0.45070E-05
        -0.52708E-05
        -0.73613E-05
        -0.12469E-06
        -0.18365E-06
        -0.19517E-04
        -0.15094E-04
        -0.60340E-03
        -0.61300E-03
        -0.49433E-03
        -0.33641E-03
        -0.18708E-03
        -0.39688E-04
        -0.24605E-05
        -0.25774E-04
        -0.44466E-04
        -0.14969E-03
        -0.47272E-03
        -0.65832E-03
        -0.46264E-03
        -0.41879E-03
        -0.50872E-03
        -0.53980E-03
        -0.44962E-03
        -0.40237E-03
        -0.10425E-03
        -0.70636E-05
        -0.34384E-04
        -0.35339E-04
        -0.11156E-03
        -0.33459E-03
        -0.54845E-03
        -0.54510E-03
        -0.20167E-05
        -0.85907E-07
        -0.30796E-06
        -0.25921E-05
        -0.10800E-04
        -0.78899E-05
        -0.69934E-06
        -0.31607E-05
        -0.68166E-06
        -0.28854E-05
        -0.10447E-06
        -0.15991E-05
        -0.17116E-04
        -0.98814E-05
        -0.10726E-04
        -0.77465E-05
        -0.24176E-05
        -0.84140E-06
        -0.38643E-06
        -0.11827E-05
        -0.42060E-04
        -0.38197E-04
        -0.37207E-04
        -0.21778E-05
        -0.71296E-06
        -0.32206E-06
        -0.93805E-05
        -0.14733E-06
        -0.10937E-05
        -0.19578E-05
        -0.45844E-05
        -0.19017E-05
        -0.18632E-05
        -0.14272E-05
        -0.34656E-04
        -0.10497E-04
        -0.13822E-04
        -0.13360E-04
        -0.39254E-06
        -0.31774E-05
        -0.42247E-04
        -0.44692E-04
        -0.42569E-04
        -0.22227E-04
        -0.13162E-04
        -0.45022E-05
        -0.52693E-05
        -0.73664E-05
        -0.12280E-06
        -0.18235E-06
        -0.19491E-04
        -0.15049E-04
        -0.60299E-03
        -0.61268E-03
        -0.49424E-03
        -0.33641E-03
        -0.18696E-03
        -0.39664E-04
        -0.24662E-05
        -0.25806E-04
        -0.44391E-04
        -0.14957E-03
        -0.47257E-03
        -0.65836E-03
        -0.46258E-03
        -0.41875E-03
        -0.50887E-03
        -0.54008E-03
        -0.44980E-03
        -0.40252E-03
        -0.10419E-03
        -0.70700E-05
        -0.34334E-04
        -0.35311E-04
        -0.11139E-03
        -0.33418E-03
        -0.54790E-03
        -0.54461E-03
        -0.20243E-05
        -0.86550E-07
        -0.30911E-06
        -0.25955E-05
        -0.10779E-04
        -0.78753E-05
        -0.70814E-06
        -0.31443E-05
        -0.68271E-06
        -0.28788E-05
        -0.10002E-06
        -0.16068E-05
        -0.17137E-04
        -0.98324E-05
        -0.10715E-04
        -0.77657E-05
        -0.24293E-05
        -0.83663E-06
        -0.38600E-06
        -0.11784E-05
        -0.42057E-04
        -0.38192E-04
        -0.37210E-04
        -0.21781E-05
        -0.71767E-06
        -0.32369E-06
        -0.93843E-05
        -0.14195E-06
        -0.11088E-05
        -0.19599E-05
        -0.46002E-05
        -0.19027E-05
        -0.18473E-05
        -0.14285E-05
        -0.34691E-04
        -0.10487E-04
        -0.13813E-04
        -0.13403E-04
        -0.39983E-06
        -0.31975E-05
        -0.42304E-04
        -0.44752E-04
        -0.42586E-04
        -0.22225E-04
        -0.13152E-04
        -0.44970E-05
        -0.52681E-05
        -0.73719E-05
        -0.12093E-06
        -0.18107E-06
        -0.19467E-04
        -0.15004E-04
        -0.60257E-03
        -0.61237E-03
        -0.49415E-03
        -0.33641E-03
        -0.18685E-03
        -0.39640E-04
        -0.24717E-05
        -0.25838E-04
        -0.44315E-04
        -0.14945E-03
        -0.47242E-03
        -0.65841E-03
        -0.46254E-03
        -0.41872E-03
        -0.50903E-03
        -0.54039E-03
        -0.45000E-03
        -0.40268E-03
        -0.10413E-03
        -0.70765E-05
        -0.34284E-04
        -0.35283E-04
        -0.11123E-03
        -0.33377E-03
        -0.54736E-03
        -0.54413E-03
        -0.20315E-05
        -0.87250E-07
        -0.31012E-06
        -0.25988E-05
        -0.10758E-04
        -0.78608E-05
        -0.71700E-06
        -0.31278E-05
        -0.68372E-06
        -0.28721E-05
        -0.95675E-07
        -0.16146E-05
        -0.17158E-04
        -0.97834E-05
        -0.10703E-04
        -0.77853E-05
        -0.24410E-05
        -0.83186E-06
        -0.38557E-06
        -0.11744E-05
        -0.42057E-04
        -0.38190E-04
        -0.37217E-04
        -0.21785E-05
        -0.72236E-06
        -0.32538E-06
        -0.93879E-05
        -0.13669E-06
        -0.11241E-05
        -0.19625E-05
        -0.46158E-05
        -0.19035E-05
        -0.18313E-05
        -0.14296E-05
        -0.34728E-04
        -0.10479E-04
        -0.13805E-04
        -0.13445E-04
        -0.40719E-06
        -0.32177E-05
        -0.42362E-04
        -0.44813E-04
        -0.42606E-04
        -0.22223E-04
        -0.13142E-04
        -0.44925E-05
        -0.52666E-05
        -0.73773E-05
        -0.11903E-06
        -0.17989E-06
        -0.19443E-04
        -0.14961E-04
        -0.60216E-03
        -0.61205E-03
        -0.49406E-03
        -0.33642E-03
        -0.18673E-03
        -0.39616E-04
        -0.24772E-05
        -0.25869E-04
        -0.44241E-04
        -0.14933E-03
        -0.47227E-03
        -0.65846E-03
        -0.46250E-03
        -0.41869E-03
        -0.50919E-03
        -0.54072E-03
        -0.45020E-03
        -0.40282E-03
        -0.10408E-03
        -0.70822E-05
        -0.34232E-04
        -0.35255E-04
        -0.11107E-03
        -0.33337E-03
        -0.54681E-03
        -0.54364E-03
        -0.20382E-05
        -0.88095E-07
        -0.31090E-06
        -0.26021E-05
        -0.10737E-04
        -0.78466E-05
        -0.72607E-06
        -0.31109E-05
        -0.68480E-06
        -0.28657E-05
        -0.91403E-07
        -0.16224E-05
        -0.17179E-04
        -0.97346E-05
        -0.10691E-04
        -0.78049E-05
        -0.24524E-05
        -0.82707E-06
        -0.38522E-06
        -0.11704E-05
        -0.42056E-04
        -0.38188E-04
        -0.37223E-04
        -0.21790E-05
        -0.72651E-06
        -0.32687E-06
        -0.93919E-05
        -0.13142E-06
        -0.11397E-05
        -0.19654E-05
        -0.46307E-05
        -0.19036E-05
        -0.18150E-05
        -0.14305E-05
        -0.34764E-04
        -0.10471E-04
        -0.13798E-04
        -0.13487E-04
        -0.41468E-06
        -0.32384E-05
        -0.42420E-04
        -0.44876E-04
        -0.42626E-04
        -0.22221E-04
        -0.13133E-04
        -0.44884E-05
        -0.52642E-05
        -0.73822E-05
        -0.11698E-06
        -0.17899E-06
        -0.19422E-04
        -0.14917E-04
        -0.60175E-03
        -0.61174E-03
        -0.49397E-03
        -0.33642E-03
        -0.18661E-03
        -0.39592E-04
        -0.24827E-05
        -0.25901E-04
        -0.44166E-04
        -0.14922E-03
        -0.47212E-03
        -0.65852E-03
        -0.46247E-03
        -0.41867E-03
        -0.50935E-03
        -0.54105E-03
        -0.45041E-03
        -0.40297E-03
        -0.10402E-03
        -0.70870E-05
        -0.34180E-04
        -0.35228E-04
        -0.11091E-03
        -0.33296E-03
        -0.54627E-03
        -0.54316E-03
        -0.20446E-05
        -0.88987E-07
        -0.31158E-06
        -0.26052E-05
        -0.10718E-04
        -0.78320E-05
        -0.73531E-06
        -0.30939E-05
        -0.68591E-06
        -0.28596E-05
        -0.87217E-07
        -0.16303E-05
        -0.17201E-04
        -0.96858E-05
        -0.10679E-04
        -0.78245E-05
        -0.24635E-05
        -0.82227E-06
        -0.38481E-06
        -0.11667E-05
        -0.42054E-04
        -0.38185E-04
        -0.37230E-04
        -0.21794E-05
        -0.73042E-06
        -0.32826E-06
        -0.93960E-05
        -0.12623E-06
        -0.11556E-05
        -0.19685E-05
        -0.46451E-05
        -0.19034E-05
        -0.17987E-05
        -0.14311E-05
        -0.34802E-04
        -0.10465E-04
        -0.13791E-04
        -0.13529E-04
        -0.42224E-06
        -0.32590E-05
        -0.42479E-04
        -0.44940E-04
        -0.42647E-04
        -0.22221E-04
        -0.13125E-04
        -0.44851E-05
        -0.52615E-05
        -0.73868E-05
        -0.11489E-06
        -0.17821E-06
        -0.19402E-04
        -0.14875E-04
        -0.60133E-03
        -0.61143E-03
        -0.49388E-03
        -0.33642E-03
        -0.18650E-03
        -0.39568E-04
        -0.24882E-05
        -0.25933E-04
        -0.44092E-04
        -0.14910E-03
        -0.47196E-03
        -0.65857E-03
        -0.46243E-03
        -0.41864E-03
        -0.50952E-03
        -0.54139E-03
        -0.45061E-03
        -0.40311E-03
        -0.10396E-03
        -0.70915E-05
        -0.34126E-04
        -0.35201E-04
        -0.11075E-03
        -0.33256E-03
        -0.54573E-03
        -0.54267E-03
        -0.20510E-05
        -0.89895E-07
        -0.31224E-06
        -0.26083E-05
        -0.10697E-04
        -0.78175E-05
        -0.74454E-06
        -0.30770E-05
        -0.68705E-06
        -0.28536E-05
        -0.83145E-07
        -0.16381E-05
        -0.17222E-04
        -0.96374E-05
        -0.10667E-04
        -0.78440E-05
        -0.24746E-05
        -0.81751E-06
        -0.38440E-06
        -0.11628E-05
        -0.42053E-04
        -0.38183E-04
        -0.37237E-04
        -0.21800E-05
        -0.73431E-06
        -0.32965E-06
        -0.94003E-05
        -0.12114E-06
        -0.11715E-05
        -0.19717E-05
        -0.46596E-05
        -0.19032E-05
        -0.17824E-05
        -0.14318E-05
        -0.34840E-04
        -0.10457E-04
        -0.13784E-04
        -0.13572E-04
        -0.42989E-06
        -0.32796E-05
        -0.42538E-04
        -0.45003E-04
        -0.42667E-04
        -0.22222E-04
        -0.13118E-04
        -0.44817E-05
        -0.52588E-05
        -0.73914E-05
        -0.11281E-06
        -0.17746E-06
        -0.19382E-04
        -0.14832E-04
        -0.60091E-03
        -0.61111E-03
        -0.49378E-03
        -0.33642E-03
        -0.18638E-03
        -0.39543E-04
        -0.24936E-05
        -0.25964E-04
        -0.44017E-04
        -0.14898E-03
        -0.47181E-03
        -0.65862E-03
        -0.46240E-03
        -0.41861E-03
        -0.50968E-03
        -0.54172E-03
        -0.45082E-03
        -0.40325E-03
        -0.10389E-03
        -0.70961E-05
        -0.34073E-04
        -0.35174E-04
        -0.11059E-03
        -0.33215E-03
        -0.54519E-03
        -0.54219E-03
        -0.20574E-05
        -0.90816E-07
        -0.31291E-06
        -0.26115E-05
        -0.10677E-04
        -0.78030E-05
        -0.75389E-06
        -0.30601E-05
        -0.68818E-06
        -0.28475E-05
        -0.79168E-07
        -0.16460E-05
        -0.17244E-04
        -0.95892E-05
        -0.10656E-04
        -0.78635E-05
        -0.24858E-05
        -0.81281E-06
        -0.38397E-06
        -0.11591E-05
        -0.42052E-04
        -0.38180E-04
        -0.37242E-04
        -0.21806E-05
        -0.73822E-06
        -0.33105E-06
        -0.94047E-05
        -0.11619E-06
        -0.11875E-05
        -0.19747E-05
        -0.46740E-05
        -0.19029E-05
        -0.17662E-05
        -0.14326E-05
        -0.34877E-04
        -0.10450E-04
        -0.13778E-04
        -0.13614E-04
        -0.43762E-06
        -0.33006E-05
        -0.42597E-04
        -0.45066E-04
        -0.42687E-04
        -0.22222E-04
        -0.13110E-04
        -0.44781E-05
        -0.52560E-05
        -0.73962E-05
        -0.11077E-06
        -0.17666E-06
        -0.19362E-04
        -0.14789E-04
        -0.60050E-03
        -0.61080E-03
        -0.49369E-03
        -0.33642E-03
        -0.18627E-03
        -0.39519E-04
        -0.24991E-05
        -0.25995E-04
        -0.43943E-04
        -0.14886E-03
        -0.47165E-03
        -0.65868E-03
        -0.46236E-03
        -0.41858E-03
        -0.50985E-03
        -0.54205E-03
        -0.45102E-03
        -0.40339E-03
        -0.10383E-03
        -0.71005E-05
        -0.34019E-04
        -0.35147E-04
        -0.11044E-03
        -0.33175E-03
        -0.54466E-03
        -0.54170E-03
        -0.20638E-05
        -0.91734E-07
        -0.31360E-06
        -0.26146E-05
        -0.10658E-04
        -0.77889E-05
        -0.76322E-06
        -0.30433E-05
        -0.68931E-06
        -0.28415E-05
        -0.75283E-07
        -0.16540E-05
        -0.17266E-04
        -0.95411E-05
        -0.10644E-04
        -0.78830E-05
        -0.24969E-05
        -0.80812E-06
        -0.38364E-06
        -0.11552E-05
        -0.42051E-04
        -0.38178E-04
        -0.37249E-04
        -0.21812E-05
        -0.74210E-06
        -0.33243E-06
        -0.94093E-05
        -0.11134E-06
        -0.12036E-05
        -0.19778E-05
        -0.46885E-05
        -0.19026E-05
        -0.17501E-05
        -0.14332E-05
        -0.34915E-04
        -0.10443E-04
        -0.13771E-04
        -0.13656E-04
        -0.44544E-06
        -0.33213E-05
        -0.42655E-04
        -0.45129E-04
        -0.42708E-04
        -0.22221E-04
        -0.13103E-04
        -0.44748E-05
        -0.52533E-05
        -0.74009E-05
        -0.10872E-06
        -0.17588E-06
        -0.19342E-04
        -0.14747E-04
        -0.60008E-03
        -0.61049E-03
        -0.49359E-03
        -0.33642E-03
        -0.18615E-03
        -0.39495E-04
        -0.25044E-05
        -0.26027E-04
        -0.43869E-04
        -0.14874E-03
        -0.47150E-03
        -0.65873E-03
        -0.46232E-03
        -0.41855E-03
        -0.51001E-03
        -0.54238E-03
        -0.45123E-03
        -0.40353E-03
        -0.10377E-03
        -0.71047E-05
        -0.33965E-04
        -0.35119E-04
        -0.11028E-03
        -0.33135E-03
        -0.54412E-03
        -0.54122E-03
        -0.20702E-05
        -0.92654E-07
        -0.31424E-06
        -0.26177E-05
        -0.10638E-04
        -0.77744E-05
        -0.77266E-06
        -0.30265E-05
        -0.69043E-06
        -0.28355E-05
        -0.71506E-07
        -0.16619E-05
        -0.17287E-04
        -0.94934E-05
        -0.10631E-04
        -0.79025E-05
        -0.25081E-05
        -0.80340E-06
        -0.38325E-06
        -0.11515E-05
        -0.42049E-04
        -0.38175E-04
        -0.37256E-04
        -0.21819E-05
        -0.74597E-06
        -0.33386E-06
        -0.94136E-05
        -0.10661E-06
        -0.12197E-05
        -0.19810E-05
        -0.47030E-05
        -0.19024E-05
        -0.17339E-05
        -0.14339E-05
        -0.34954E-04
        -0.10436E-04
        -0.13765E-04
        -0.13698E-04
        -0.45334E-06
        -0.33425E-05
        -0.42714E-04
        -0.45192E-04
        -0.42729E-04
        -0.22221E-04
        -0.13095E-04
        -0.44716E-05
        -0.52506E-05
        -0.74057E-05
        -0.10669E-06
        -0.17514E-06
        -0.19322E-04
        -0.14704E-04
        -0.59967E-03
        -0.61018E-03
        -0.49350E-03
        -0.33642E-03
        -0.18604E-03
        -0.39471E-04
        -0.25097E-05
        -0.26058E-04
        -0.43795E-04
        -0.14862E-03
        -0.47135E-03
        -0.65878E-03
        -0.46228E-03
        -0.41853E-03
        -0.51018E-03
        -0.54271E-03
        -0.45143E-03
        -0.40367E-03
        -0.10371E-03
        -0.71091E-05
        -0.33911E-04
        -0.35092E-04
        -0.11012E-03
        -0.33095E-03
        -0.54358E-03
        -0.54074E-03
        -0.20767E-05
        -0.93590E-07
        -0.31489E-06
        -0.26208E-05
        -0.10618E-04
        -0.77600E-05
        -0.78212E-06
        -0.30097E-05
        -0.69152E-06
        -0.28294E-05
        -0.67837E-07
        -0.16699E-05
        -0.17309E-04
        -0.94456E-05
        -0.10619E-04
        -0.79220E-05
        -0.25193E-05
        -0.79869E-06
        -0.38287E-06
        -0.11477E-05
        -0.42048E-04
        -0.38174E-04
        -0.37262E-04
        -0.21825E-05
        -0.74979E-06
        -0.33524E-06
        -0.94179E-05
        -0.10198E-06
        -0.12360E-05
        -0.19841E-05
        -0.47175E-05
        -0.19021E-05
        -0.17179E-05
        -0.14346E-05
        -0.34991E-04
        -0.10430E-04
        -0.13758E-04
        -0.13740E-04
        -0.46134E-06
        -0.33635E-05
        -0.42774E-04
        -0.45254E-04
        -0.42749E-04
        -0.22221E-04
        -0.13088E-04
        -0.44678E-05
        -0.52478E-05
        -0.74104E-05
        -0.10468E-06
        -0.17435E-06
        -0.19301E-04
        -0.14661E-04
        -0.59925E-03
        -0.60987E-03
        -0.49340E-03
        -0.33642E-03
        -0.18592E-03
        -0.39447E-04
        -0.25152E-05
        -0.26089E-04
        -0.43720E-04
        -0.14850E-03
        -0.47119E-03
        -0.65884E-03
        -0.46225E-03
        -0.41850E-03
        -0.51034E-03
        -0.54305E-03
        -0.45164E-03
        -0.40381E-03
        -0.10365E-03
        -0.71134E-05
        -0.33858E-04
        -0.35065E-04
        -0.10996E-03
        -0.33055E-03
        -0.54304E-03
        -0.54026E-03
        -0.20832E-05
        -0.94514E-07
        -0.31554E-06
        -0.26239E-05
        -0.10598E-04
        -0.77455E-05
        -0.79155E-06
        -0.29930E-05
        -0.69262E-06
        -0.28233E-05
        -0.64270E-07
        -0.16778E-05
        -0.17330E-04
        -0.93981E-05
        -0.10607E-04
        -0.79414E-05
        -0.25305E-05
        -0.79403E-06
        -0.38256E-06
        -0.11440E-05
        -0.42046E-04
        -0.38171E-04
        -0.37269E-04
        -0.21831E-05
        -0.75363E-06
        -0.33664E-06
        -0.94220E-05
        -0.97476E-07
        -0.12524E-05
        -0.19871E-05
        -0.47320E-05
        -0.19018E-05
        -0.17019E-05
        -0.14353E-05
        -0.35030E-04
        -0.10423E-04
        -0.13752E-04
        -0.13782E-04
        -0.46940E-06
        -0.33848E-05
        -0.42833E-04
        -0.45317E-04
        -0.42770E-04
        -0.22221E-04
        -0.13080E-04
        -0.44645E-05
        -0.52450E-05
        -0.74151E-05
        -0.10269E-06
        -0.17358E-06
        -0.19281E-04
        -0.14619E-04
        -0.59883E-03
        -0.60956E-03
        -0.49330E-03
        -0.33642E-03
        -0.18581E-03
        -0.39422E-04
        -0.25206E-05
        -0.26119E-04
        -0.43646E-04
        -0.14839E-03
        -0.47104E-03
        -0.65889E-03
        -0.46221E-03
        -0.41847E-03
        -0.51051E-03
        -0.54338E-03
        -0.45184E-03
        -0.40394E-03
        -0.10359E-03
        -0.71175E-05
        -0.33805E-04
        -0.35039E-04
        -0.10981E-03
        -0.33015E-03
        -0.54251E-03
        -0.53977E-03
        -0.20897E-05
        -0.95436E-07
        -0.31619E-06
        -0.26270E-05
        -0.10578E-04
        -0.77310E-05
        -0.80111E-06
        -0.29764E-05
        -0.69373E-06
        -0.28173E-05
        -0.60801E-07
        -0.16859E-05
        -0.17352E-04
        -0.93507E-05
        -0.10595E-04
        -0.79610E-05
        -0.25417E-05
        -0.78939E-06
        -0.38217E-06
        -0.11401E-05
        -0.42045E-04
        -0.38168E-04
        -0.37275E-04
        -0.21838E-05
        -0.75746E-06
        -0.33803E-06
        -0.94262E-05
        -0.93076E-07
        -0.12689E-05
        -0.19901E-05
        -0.47465E-05
        -0.19014E-05
        -0.16859E-05
        -0.14360E-05
        -0.35068E-04
        -0.10416E-04
        -0.13745E-04
        -0.13824E-04
        -0.47754E-06
        -0.34060E-05
        -0.42892E-04
        -0.45380E-04
        -0.42790E-04
        -0.22221E-04
        -0.13072E-04
        -0.44613E-05
        -0.52422E-05
        -0.74198E-05
        -0.10068E-06
        -0.17283E-06
        -0.19261E-04
        -0.14577E-04
        -0.59842E-03
        -0.60925E-03
        -0.49321E-03
        -0.33643E-03
        -0.18569E-03
        -0.39398E-04
        -0.25259E-05
        -0.26149E-04
        -0.43572E-04
        -0.14827E-03
        -0.47089E-03
        -0.65894E-03
        -0.46217E-03
        -0.41844E-03
        -0.51067E-03
        -0.54371E-03
        -0.45205E-03
        -0.40408E-03
        -0.10353E-03
        -0.71217E-05
        -0.33751E-04
        -0.35012E-04
        -0.10965E-03
        -0.32974E-03
        -0.54197E-03
        -0.53929E-03
        -0.20962E-05
        -0.96387E-07
        -0.31685E-06
        -0.26300E-05
        -0.10558E-04
        -0.77171E-05
        -0.81067E-06
        -0.29597E-05
        -0.69483E-06
        -0.28112E-05
        -0.57426E-07
        -0.16939E-05
        -0.17374E-04
        -0.93035E-05
        -0.10583E-04
        -0.79806E-05
        -0.25529E-05
        -0.78481E-06
        -0.38180E-06
        -0.11364E-05
        -0.42044E-04
        -0.38166E-04
        -0.37282E-04
        -0.21844E-05
        -0.76122E-06
        -0.33944E-06
        -0.94304E-05
        -0.88780E-07
        -0.12854E-05
        -0.19931E-05
        -0.47610E-05
        -0.19012E-05
        -0.16701E-05
        -0.14367E-05
        -0.35107E-04
        -0.10409E-04
        -0.13739E-04
        -0.13865E-04
        -0.48579E-06
        -0.34272E-05
        -0.42950E-04
        -0.45442E-04
        -0.42810E-04
        -0.22220E-04
        -0.13065E-04
        -0.44576E-05
        -0.52395E-05
        -0.74245E-05
        -0.98719E-07
        -0.17205E-06
        -0.19241E-04
        -0.14534E-04
        -0.59800E-03
        -0.60894E-03
        -0.49312E-03
        -0.33643E-03
        -0.18558E-03
        -0.39373E-04
        -0.25311E-05
        -0.26179E-04
        -0.43498E-04
        -0.14815E-03
        -0.47073E-03
        -0.65900E-03
        -0.46213E-03
        -0.41842E-03
        -0.51083E-03
        -0.54404E-03
        -0.45225E-03
        -0.40422E-03
        -0.10347E-03
        -0.71258E-05
        -0.33698E-04
        -0.34985E-04
        -0.10949E-03
        -0.32934E-03
        -0.54144E-03
        -0.53881E-03
        -0.21027E-05
        -0.97328E-07
        -0.31751E-06
        -0.26331E-05
        -0.10539E-04
        -0.77027E-05
        -0.82032E-06
        -0.29431E-05
        -0.69589E-06
        -0.28049E-05
        -0.54150E-07
        -0.17020E-05
        -0.17395E-04
        -0.92564E-05
        -0.10570E-04
        -0.80002E-05
        -0.25642E-05
        -0.78023E-06
        -0.38144E-06
        -0.11326E-05
        -0.42042E-04
        -0.38163E-04
        -0.37288E-04
        -0.21852E-05
        -0.76492E-06
        -0.34083E-06
        -0.94341E-05
        -0.84548E-07
        -0.13019E-05
        -0.19961E-05
        -0.47757E-05
        -0.19009E-05
        -0.16544E-05
        -0.14374E-05
        -0.35146E-04
        -0.10402E-04
        -0.13732E-04
        -0.13907E-04
        -0.49420E-06
        -0.34488E-05
        -0.43007E-04
        -0.45504E-04
        -0.42830E-04
        -0.22221E-04
        -0.13057E-04
        -0.44544E-05
        -0.52368E-05
        -0.74294E-05
        -0.96783E-07
        -0.17127E-06
        -0.19221E-04
        -0.14492E-04
        -0.59759E-03
        -0.60863E-03
        -0.49302E-03
        -0.33642E-03
        -0.18546E-03
        -0.39349E-04
        -0.25362E-05
        -0.26209E-04
        -0.43425E-04
        -0.14803E-03
        -0.47058E-03
        -0.65907E-03
        -0.46210E-03
        -0.41839E-03
        -0.51100E-03
        -0.54437E-03
        -0.45246E-03
        -0.40436E-03
        -0.10341E-03
        -0.71300E-05
        -0.33644E-04
        -0.34958E-04
        -0.10934E-03
        -0.32894E-03
        -0.54090E-03
        -0.53833E-03
        -0.21092E-05
        -0.98270E-07
        -0.31814E-06
        -0.26361E-05
        -0.10519E-04
        -0.76883E-05
        -0.82997E-06
        -0.29266E-05
        -0.69685E-06
        -0.27979E-05
        -0.50975E-07
        -0.17101E-05
        -0.17417E-04
        -0.92091E-05
        -0.10557E-04
        -0.80198E-05
        -0.25754E-05
        -0.77563E-06
        -0.38118E-06
        -0.11290E-05
        -0.42041E-04
        -0.38160E-04
        -0.37295E-04
        -0.21857E-05
        -0.76839E-06
        -0.34229E-06
        -0.94363E-05
        -0.80317E-07
        -0.13187E-05
        -0.19993E-05
        -0.47903E-05
        -0.19006E-05
        -0.16387E-05
        -0.14381E-05
        -0.35183E-04
        -0.10396E-04
        -0.13726E-04
        -0.13947E-04
        -0.50292E-06
        -0.34699E-05
        -0.43060E-04
        -0.45561E-04
        -0.42847E-04
        -0.22221E-04
        -0.13049E-04
        -0.44508E-05
        -0.52341E-05
        -0.74342E-05
        -0.94871E-07
        -0.17050E-06
        -0.19201E-04
        -0.14450E-04
        -0.59717E-03
        -0.60833E-03
        -0.49292E-03
        -0.33642E-03
        -0.18535E-03
        -0.39325E-04
        -0.25414E-05
        -0.26240E-04
        -0.43352E-04
        -0.14791E-03
        -0.47042E-03
        -0.65917E-03
        -0.46209E-03
        -0.41836E-03
        -0.51116E-03
        -0.54470E-03
        -0.45267E-03
        -0.40450E-03
        -0.10335E-03
        -0.71341E-05
        -0.33592E-04
        -0.34931E-04
        -0.10918E-03
        -0.32854E-03
        -0.54036E-03
        -0.53785E-03
        -0.21158E-05
        -0.99213E-07
        -0.31878E-06
        -0.26392E-05
        -0.10499E-04
        -0.76740E-05
        -0.83971E-06
        -0.29101E-05
        -0.69771E-06
        -0.27903E-05
        -0.47904E-07
        -0.17182E-05
        -0.17439E-04
        -0.91616E-05
        -0.10544E-04
        -0.80393E-05
        -0.25865E-05
        -0.77106E-06
        -0.38084E-06
        -0.11252E-05
        -0.42040E-04
        -0.38156E-04
        -0.37302E-04
        -0.21864E-05
        -0.77159E-06
        -0.34368E-06
        -0.94371E-05
        -0.76071E-07
        -0.13355E-05
        -0.20024E-05
        -0.48049E-05
        -0.19003E-05
        -0.16230E-05
        -0.14389E-05
        -0.35222E-04
        -0.10389E-04
        -0.13720E-04
        -0.13987E-04
        -0.51195E-06
        -0.34913E-05
        -0.43109E-04
        -0.45613E-04
        -0.42863E-04
        -0.22221E-04
        -0.13042E-04
        -0.44475E-05
        -0.52313E-05
        -0.74390E-05
        -0.92955E-07
        -0.16974E-06
        -0.19180E-04
        -0.14407E-04
        -0.59676E-03
        -0.60802E-03
        -0.49283E-03
        -0.33642E-03
        -0.18523E-03
        -0.39301E-04
        -0.25466E-05
        -0.26270E-04
        -0.43280E-04
        -0.14778E-03
        -0.47026E-03
        -0.65930E-03
        -0.46209E-03
        -0.41834E-03
        -0.51132E-03
        -0.54504E-03
        -0.45287E-03
        -0.40463E-03
        -0.10329E-03
        -0.71382E-05
        -0.33539E-04
        -0.34904E-04
        -0.10902E-03
        -0.32814E-03
        -0.53983E-03
        -0.53737E-03
        -0.21223E-05
        -0.10017E-06
        -0.31944E-06
        -0.26422E-05
        -0.10480E-04
        -0.76601E-05
        -0.84939E-06
        -0.28937E-05
        -0.69851E-06
        -0.27825E-05
        -0.44949E-07
        -0.17262E-05
        -0.17460E-04
        -0.91143E-05
        -0.10531E-04
        -0.80588E-05
        -0.25977E-05
        -0.76654E-06
        -0.38047E-06
        -0.11216E-05
        -0.42038E-04
        -0.38153E-04
        -0.37308E-04
        -0.21871E-05
        -0.77470E-06
        -0.34508E-06
        -0.94375E-05
        -0.71927E-07
        -0.13523E-05
        -0.20054E-05
        -0.48196E-05
        -0.19000E-05
        -0.16075E-05
        -0.14396E-05
        -0.35262E-04
        -0.10382E-04
        -0.13713E-04
        -0.14026E-04
        -0.52116E-06
        -0.35122E-05
        -0.43156E-04
        -0.45662E-04
        -0.42877E-04
        -0.22221E-04
        -0.13034E-04
        -0.44442E-05
        -0.52288E-05
        -0.74441E-05
        -0.91080E-07
        -0.16895E-06
        -0.19161E-04
        -0.14365E-04
        -0.59634E-03
        -0.60772E-03
        -0.49274E-03
        -0.33643E-03
        -0.18512E-03
        -0.39276E-04
        -0.25516E-05
        -0.26298E-04
        -0.43209E-04
        -0.14765E-03
        -0.47010E-03
        -0.65945E-03
        -0.46210E-03
        -0.41832E-03
        -0.51148E-03
        -0.54537E-03
        -0.45308E-03
        -0.40477E-03
        -0.10323E-03
        -0.71427E-05
        -0.33486E-04
        -0.34877E-04
        -0.10887E-03
        -0.32775E-03
        -0.53930E-03
        -0.53689E-03
        -0.21438E-05
        -0.10164E-06
        -0.32243E-06
        -0.26637E-05
        -0.10530E-04
        -0.76984E-05
        -0.86401E-06
        -0.28995E-05
        -0.70413E-06
        -0.27957E-05
        -0.42750E-07
        -0.17436E-05
        -0.17593E-04
        -0.91345E-05
        -0.10591E-04
        -0.81336E-05
        -0.26266E-05
        -0.76779E-06
        -0.38257E-06
        -0.11252E-05
        -0.42305E-04
        -0.38400E-04
        -0.37551E-04
        -0.22027E-05
        -0.78293E-06
        -0.34874E-06
        -0.95056E-05
        -0.68635E-07
        -0.13772E-05
        -0.20220E-05
        -0.48674E-05
        -0.19126E-05
        -0.16047E-05
        -0.14507E-05
        -0.35528E-04
        -0.10446E-04
        -0.13798E-04
        -0.14160E-04
        -0.53323E-06
        -0.35554E-05
        -0.43492E-04
        -0.46021E-04
        -0.43179E-04
        -0.22363E-04
        -0.13111E-04
        -0.44683E-05
        -0.52615E-05
        -0.75008E-05
        -0.90045E-07
        -0.16931E-06
        -0.19269E-04
        -0.14423E-04
        -0.59941E-03
        -0.61089E-03
        -0.49551E-03
        -0.33837E-03
        -0.18609E-03
        -0.39474E-04
        -0.25737E-05
        -0.26480E-04
        -0.43404E-04
        -0.14843E-03
        -0.47283E-03
        -0.66349E-03
        -0.46477E-03
        -0.42066E-03
        -0.51445E-03
        -0.54860E-03
        -0.45570E-03
        -0.40713E-03
        -0.10376E-03
        -0.71917E-05
        -0.33636E-04
        -0.35047E-04
        -0.10934E-03
        -0.32925E-03
        -0.54183E-03
        -0.53943E-03
        -0.47352E-05
        -0.22747E-06
        -0.70921E-06
        -0.59035E-05
        -0.21515E-04
        -0.16036E-04
        -0.19222E-05
        -0.63151E-05
        -0.15455E-05
        -0.60683E-05
        -0.88756E-07
        -0.34396E-05
        -0.35762E-04
        -0.19299E-04
        -0.21085E-04
        -0.17997E-04
        -0.57794E-05
        -0.16952E-05
        -0.82257E-06
        -0.24296E-05
        -0.85900E-04
        -0.79977E-04
        -0.76686E-04
        -0.48126E-05
        -0.17338E-05
        -0.77579E-06
        -0.20443E-04
        -0.14655E-06
        -0.30845E-05
        -0.44650E-05
        -0.10780E-04
        -0.42082E-05
        -0.35395E-05
        -0.32148E-05
        -0.69960E-04
        -0.21730E-04
        -0.28729E-04
        -0.29536E-04
        -0.11516E-05
        -0.76913E-05
        -0.91330E-04
        -0.98093E-04
        -0.91919E-04
        -0.46332E-04
        -0.26976E-04
        -0.86714E-05
        -0.10750E-04
        -0.15744E-04
        -0.18832E-06
        -0.35451E-06
        -0.38462E-04
        -0.29854E-04
        -0.92681E-03
        -0.94151E-03
        -0.76443E-03
        -0.52514E-03
        -0.28829E-03
        -0.61422E-04
        -0.41084E-05
        -0.42874E-04
        -0.69908E-04
        -0.23640E-03
        -0.75524E-03
        -0.10564E-02
        -0.75663E-03
        -0.68928E-03
        -0.82167E-03
        -0.85650E-03
        -0.70710E-03
        -0.62465E-03
        -0.15885E-03
        -0.11055E-04
        -0.52710E-04
        -0.55413E-04
        -0.17161E-03
        -0.52037E-03
        -0.85120E-03
        -0.84136E-03
  
SCALARS                      strain_yy  double 1
LOOKUP_TABLE default
        -0.12973E-07
        -0.11056E-08
        -0.88554E-08
        -0.30497E-08
        -0.44625E-20
        -0.33900E-21
        -0.68538E-20
        -0.39873E-20
        -0.10382E-06
        -0.49356E-07
        -0.15179E-19
        -0.11765E-19
        -0.49262E-07
        -0.12457E-09
        -0.77743E-20
        -0.31957E-22
        -0.14214E-07
        -0.81721E-07
        -0.16828E-23
        -0.17618E-21
        -0.12532E-07
        -0.83911E-07
        -0.25645E-06
        -0.40852E-19
        -0.12184E-18
        -0.85126E-19
        -0.84874E-09
         0.34253E-07
        -0.21138E-19
        -0.79554E-19
        -0.18343E-07
        -0.10102E-07
        -0.13006E-07
        -0.56809E-20
        -0.59201E-20
        -0.25517E-23
        -0.13566E-06
        -0.77083E-07
        -0.19237E-19
        -0.11645E-19
        -0.11009E-06
        -0.29333E-07
        -0.10987E-19
        -0.91761E-20
        -0.11954E-06
        -0.15832E-07
        -0.12090E-22
        -0.28927E-20
        -0.32101E-07
        -0.64123E-21
        -0.10927E-08
        -0.42064E-23
        -0.26163E-10
        -0.95945E-20
        -0.27873E-09
        -0.32467E-20
        -0.31079E-08
        -0.12038E-08
        -0.23896E-23
        -0.98437E-23
        -0.26817E-07
        -0.31793E-06
        -0.44359E-21
        -0.62064E-20
        -0.10468E-07
        -0.18074E-20
        -0.16901E-06
        -0.26823E-20
        -0.73287E-07
        -0.19562E-07
        -0.40966E-22
        -0.71416E-20
        -0.21223E-06
        -0.34436E-19
         0.11833E-06
        -0.32284E-19
         0.15066E-06
        -0.18603E-19
         0.92140E-07
        -0.13069E-19
         0.71076E-07
        -0.43151E-07
        -0.53783E-20
        -0.26439E-21
        -0.46224E-08
        -0.33102E-23
        -0.29022E-06
        -0.12990E-19
        -0.14003E-05
        -0.39811E-19
        -0.23956E-05
        -0.85105E-06
        -0.87577E-19
        -0.57375E-19
        -0.46329E-06
        -0.34573E-19
        -0.39781E-06
        -0.36186E-19
        -0.35547E-06
        -0.41834E-19
        -0.96386E-06
        -0.70652E-06
        -0.36179E-19
        -0.83061E-20
        -0.29621E-06
        -0.51657E-07
        -0.44730E-20
        -0.69074E-20
        -0.17192E-05
        -0.49504E-19
        -0.44379E-05
        -0.10592E-18
        -0.52992E-05
        -0.16155E-18
        -0.35627E-05
        -0.15896E-18
        -0.65026E-06
        -0.99547E-19
         0.16455E-05
        -0.59618E-19
         0.16560E-05
        -0.51573E-19
         0.12629E-05
        -0.46685E-19
        -0.26710E-06
        -0.19067E-19
        -0.10658E-05
        -0.20784E-20
        -0.58300E-06
        -0.86778E-21
        -0.41037E-08
        -0.19605E-20
        -0.92796E-06
        -0.52298E-21
        -0.34538E-05
        -0.47830E-20
        -0.82305E-05
        -0.38108E-19
        -0.71052E-05
        -0.92921E-19
        -0.60360E-05
        -0.15970E-18
        -0.85657E-05
        -0.15942E-18
        -0.11371E-04
        -0.12149E-18
        -0.10723E-04
        -0.11540E-18
        -0.59784E-05
        -0.11684E-18
        -0.27706E-05
        -0.73060E-19
        -0.15838E-05
        -0.25548E-19
        -0.95519E-06
        -0.15274E-19
        -0.99066E-05
        -0.27241E-05
        -0.20684E-05
        -0.19244E-06
        -0.22346E-05
        -0.24479E-05
        -0.28282E-07
        -0.65495E-05
        -0.46076E-05
        -0.10206E-04
        -0.29475E-05
        -0.54002E-04
        -0.24792E-04
        -0.33300E-06
        -0.54733E-04
        -0.68796E-06
        -0.54364E-06
        -0.22112E-06
        -0.39693E-06
        -0.22473E-06
        -0.19203E-06
        -0.12945E-06
        -0.14845E-05
        -0.10500E-07
        -0.47520E-05
        -0.10397E-06
        -0.28609E-09
        -0.87252E-07
        -0.13089E-06
        -0.29643E-05
        -0.65764E-06
        -0.80056E-06
        -0.34788E-06
        -0.21105E-07
        -0.61893E-07
        -0.17779E-05
        -0.88439E-05
        -0.41867E-04
        -0.35008E-04
        -0.25507E-04
        -0.22948E-04
        -0.13663E-05
        -0.88227E-06
        -0.66699E-05
        -0.18549E-04
        -0.51054E-04
        -0.21405E-04
        -0.10687E-04
        -0.12191E-04
        -0.14079E-04
        -0.19816E-04
        -0.40133E-05
        -0.15624E-04
        -0.22036E-04
        -0.16237E-03
        -0.30823E-03
        -0.50192E-03
        -0.71794E-03
        -0.73547E-03
        -0.60480E-03
        -0.54645E-03
        -0.48894E-03
        -0.20516E-03
        -0.38185E-04
        -0.72836E-05
        -0.14074E-05
        -0.32720E-05
        -0.50792E-04
        -0.17168E-03
        -0.29604E-03
        -0.45041E-03
        -0.58719E-03
        -0.51397E-03
        -0.45918E-03
        -0.39838E-03
        -0.19507E-03
        -0.65352E-04
        -0.50039E-04
        -0.17294E-04
        -0.68794E-05
        -0.58909E-05
        -0.33142E-06
        -0.99377E-05
        -0.20102E-05
        -0.12640E-05
        -0.15448E-04
        -0.66433E-05
        -0.13665E-04
        -0.38197E-05
        -0.71550E-04
        -0.25112E-04
        -0.51857E-06
        -0.69454E-04
        -0.24872E-05
        -0.22842E-06
        -0.20819E-06
        -0.42296E-05
        -0.15810E-06
        -0.31424E-05
        -0.15840E-05
        -0.53239E-06
        -0.37927E-06
        -0.61967E-05
        -0.37911E-06
        -0.23872E-07
        -0.82497E-07
        -0.21049E-06
        -0.61662E-05
        -0.28888E-05
        -0.20045E-06
        -0.12068E-05
        -0.90986E-06
        -0.20687E-06
        -0.19222E-05
        -0.70072E-05
        -0.40115E-04
        -0.31195E-04
        -0.24227E-04
        -0.13076E-04
        -0.79838E-06
        -0.33873E-05
        -0.52850E-05
        -0.87631E-05
        -0.36568E-04
        -0.12381E-04
        -0.54143E-05
        -0.85524E-05
        -0.11919E-04
        -0.12797E-04
        -0.72041E-07
        -0.19899E-04
        -0.40716E-04
        -0.22051E-03
        -0.36826E-03
        -0.61349E-03
        -0.88350E-03
        -0.84763E-03
        -0.64633E-03
        -0.59358E-03
        -0.58111E-03
        -0.22915E-03
        -0.24892E-04
        -0.39514E-05
        -0.29011E-05
        -0.62235E-06
        -0.44789E-04
        -0.17976E-03
        -0.34823E-03
        -0.58981E-03
        -0.72523E-03
        -0.55918E-03
        -0.49978E-03
        -0.49682E-03
        -0.24630E-03
        -0.66469E-04
        -0.59592E-04
        -0.17316E-04
        -0.68819E-05
        -0.58968E-05
        -0.33630E-06
        -0.99399E-05
        -0.20133E-05
        -0.12672E-05
        -0.15500E-04
        -0.66671E-05
        -0.13768E-04
        -0.38243E-05
        -0.71538E-04
        -0.25124E-04
        -0.51860E-06
        -0.69632E-04
        -0.24875E-05
        -0.23259E-06
        -0.20757E-06
        -0.42353E-05
        -0.15634E-06
        -0.31579E-05
        -0.15871E-05
        -0.53265E-06
        -0.37891E-06
        -0.62530E-05
        -0.37773E-06
        -0.24438E-07
        -0.83423E-07
        -0.20772E-06
        -0.61923E-05
        -0.28898E-05
        -0.19957E-06
        -0.12122E-05
        -0.91284E-06
        -0.20300E-06
        -0.19247E-05
        -0.70066E-05
        -0.40239E-04
        -0.31330E-04
        -0.24284E-04
        -0.13096E-04
        -0.79410E-06
        -0.33942E-05
        -0.52904E-05
        -0.87637E-05
        -0.36568E-04
        -0.12384E-04
        -0.54078E-05
        -0.85294E-05
        -0.11887E-04
        -0.12786E-04
        -0.69875E-07
        -0.19861E-04
        -0.40720E-04
        -0.22059E-03
        -0.36827E-03
        -0.61334E-03
        -0.88290E-03
        -0.84691E-03
        -0.64594E-03
        -0.59333E-03
        -0.58079E-03
        -0.22905E-03
        -0.24915E-04
        -0.39508E-05
        -0.29130E-05
        -0.61225E-06
        -0.44837E-04
        -0.17993E-03
        -0.34839E-03
        -0.58979E-03
        -0.72514E-03
        -0.55910E-03
        -0.49974E-03
        -0.49657E-03
        -0.24595E-03
        -0.66322E-04
        -0.59435E-04
        -0.17337E-04
        -0.68846E-05
        -0.59028E-05
        -0.34127E-06
        -0.99422E-05
        -0.20166E-05
        -0.12703E-05
        -0.15553E-04
        -0.66912E-05
        -0.13870E-04
        -0.38289E-05
        -0.71526E-04
        -0.25137E-04
        -0.51849E-06
        -0.69808E-04
        -0.24878E-05
        -0.23685E-06
        -0.20694E-06
        -0.42412E-05
        -0.15456E-06
        -0.31737E-05
        -0.15900E-05
        -0.53305E-06
        -0.37845E-06
        -0.63089E-05
        -0.37617E-06
        -0.25051E-07
        -0.84412E-07
        -0.20472E-06
        -0.62176E-05
        -0.28907E-05
        -0.19852E-06
        -0.12176E-05
        -0.91577E-06
        -0.19915E-06
        -0.19273E-05
        -0.70056E-05
        -0.40363E-04
        -0.31465E-04
        -0.24340E-04
        -0.13117E-04
        -0.78937E-06
        -0.34008E-05
        -0.52973E-05
        -0.87658E-05
        -0.36571E-04
        -0.12386E-04
        -0.54011E-05
        -0.85069E-05
        -0.11855E-04
        -0.12775E-04
        -0.67752E-07
        -0.19824E-04
        -0.40725E-04
        -0.22067E-03
        -0.36828E-03
        -0.61320E-03
        -0.88231E-03
        -0.84620E-03
        -0.64555E-03
        -0.59308E-03
        -0.58047E-03
        -0.22896E-03
        -0.24940E-04
        -0.39503E-05
        -0.29250E-05
        -0.60218E-06
        -0.44885E-04
        -0.18010E-03
        -0.34856E-03
        -0.58977E-03
        -0.72505E-03
        -0.55902E-03
        -0.49970E-03
        -0.49632E-03
        -0.24560E-03
        -0.66176E-04
        -0.59279E-04
        -0.17359E-04
        -0.68871E-05
        -0.59087E-05
        -0.34630E-06
        -0.99445E-05
        -0.20199E-05
        -0.12737E-05
        -0.15605E-04
        -0.67154E-05
        -0.13971E-04
        -0.38334E-05
        -0.71514E-04
        -0.25150E-04
        -0.51852E-06
        -0.69987E-04
        -0.24882E-05
        -0.24122E-06
        -0.20630E-06
        -0.42475E-05
        -0.15269E-06
        -0.31898E-05
        -0.15927E-05
        -0.53397E-06
        -0.37770E-06
        -0.63631E-05
        -0.37411E-06
        -0.25691E-07
        -0.85730E-07
        -0.20103E-06
        -0.62405E-05
        -0.28911E-05
        -0.19709E-06
        -0.12229E-05
        -0.91875E-06
        -0.19535E-06
        -0.19298E-05
        -0.70047E-05
        -0.40488E-04
        -0.31603E-04
        -0.24401E-04
        -0.13142E-04
        -0.78338E-06
        -0.34062E-05
        -0.53077E-05
        -0.87710E-05
        -0.36574E-04
        -0.12390E-04
        -0.53946E-05
        -0.84843E-05
        -0.11823E-04
        -0.12764E-04
        -0.65666E-07
        -0.19787E-04
        -0.40730E-04
        -0.22075E-03
        -0.36828E-03
        -0.61305E-03
        -0.88171E-03
        -0.84549E-03
        -0.64516E-03
        -0.59283E-03
        -0.58014E-03
        -0.22887E-03
        -0.24969E-04
        -0.39505E-05
        -0.29368E-05
        -0.59212E-06
        -0.44938E-04
        -0.18029E-03
        -0.34875E-03
        -0.58975E-03
        -0.72496E-03
        -0.55894E-03
        -0.49966E-03
        -0.49607E-03
        -0.24525E-03
        -0.66032E-04
        -0.59123E-04
        -0.17380E-04
        -0.68896E-05
        -0.59146E-05
        -0.35134E-06
        -0.99469E-05
        -0.20231E-05
        -0.12768E-05
        -0.15656E-04
        -0.67396E-05
        -0.14071E-04
        -0.38381E-05
        -0.71501E-04
        -0.25163E-04
        -0.51857E-06
        -0.70165E-04
        -0.24887E-05
        -0.24570E-06
        -0.20565E-06
        -0.42540E-05
        -0.15072E-06
        -0.32062E-05
        -0.15951E-05
        -0.53538E-06
        -0.37664E-06
        -0.64156E-05
        -0.37153E-06
        -0.26413E-07
        -0.87358E-07
        -0.19665E-06
        -0.62610E-05
        -0.28911E-05
        -0.19523E-06
        -0.12283E-05
        -0.92173E-06
        -0.19156E-06
        -0.19324E-05
        -0.70041E-05
        -0.40614E-04
        -0.31744E-04
        -0.24465E-04
        -0.13170E-04
        -0.77606E-06
        -0.34103E-05
        -0.53219E-05
        -0.87797E-05
        -0.36583E-04
        -0.12396E-04
        -0.53887E-05
        -0.84621E-05
        -0.11791E-04
        -0.12753E-04
        -0.63600E-07
        -0.19750E-04
        -0.40734E-04
        -0.22084E-03
        -0.36829E-03
        -0.61290E-03
        -0.88111E-03
        -0.84477E-03
        -0.64477E-03
        -0.59259E-03
        -0.57982E-03
        -0.22879E-03
        -0.25004E-04
        -0.39512E-05
        -0.29484E-05
        -0.58212E-06
        -0.44996E-04
        -0.18051E-03
        -0.34896E-03
        -0.58974E-03
        -0.72487E-03
        -0.55887E-03
        -0.49962E-03
        -0.49581E-03
        -0.24490E-03
        -0.65887E-04
        -0.58967E-04
        -0.17401E-04
        -0.68912E-05
        -0.59205E-05
        -0.35647E-06
        -0.99492E-05
        -0.20263E-05
        -0.12796E-05
        -0.15706E-04
        -0.67640E-05
        -0.14169E-04
        -0.38433E-05
        -0.71490E-04
        -0.25176E-04
        -0.51876E-06
        -0.70343E-04
        -0.24893E-05
        -0.25031E-06
        -0.20502E-06
        -0.42605E-05
        -0.14873E-06
        -0.32227E-05
        -0.15974E-05
        -0.53700E-06
        -0.37548E-06
        -0.64670E-05
        -0.36879E-06
        -0.27201E-07
        -0.89175E-07
        -0.19200E-06
        -0.62805E-05
        -0.28908E-05
        -0.19318E-06
        -0.12338E-05
        -0.92486E-06
        -0.18779E-06
        -0.19352E-05
        -0.70039E-05
        -0.40742E-04
        -0.31888E-04
        -0.24533E-04
        -0.13198E-04
        -0.76836E-06
        -0.34138E-05
        -0.53373E-05
        -0.87905E-05
        -0.36595E-04
        -0.12402E-04
        -0.53839E-05
        -0.84411E-05
        -0.11760E-04
        -0.12742E-04
        -0.61568E-07
        -0.19713E-04
        -0.40739E-04
        -0.22092E-03
        -0.36829E-03
        -0.61275E-03
        -0.88051E-03
        -0.84405E-03
        -0.64438E-03
        -0.59234E-03
        -0.57950E-03
        -0.22872E-03
        -0.25041E-04
        -0.39523E-05
        -0.29600E-05
        -0.57222E-06
        -0.45054E-04
        -0.18074E-03
        -0.34918E-03
        -0.58972E-03
        -0.72478E-03
        -0.55879E-03
        -0.49959E-03
        -0.49556E-03
        -0.24455E-03
        -0.65742E-04
        -0.58811E-04
        -0.17419E-04
        -0.68908E-05
        -0.59262E-05
        -0.36178E-06
        -0.99517E-05
        -0.20296E-05
        -0.12819E-05
        -0.15751E-04
        -0.67889E-05
        -0.14263E-04
        -0.38496E-05
        -0.71484E-04
        -0.25193E-04
        -0.51956E-06
        -0.70524E-04
        -0.24901E-05
        -0.25509E-06
        -0.20439E-06
        -0.42671E-05
        -0.14675E-06
        -0.32393E-05
        -0.15997E-05
        -0.53864E-06
        -0.37435E-06
        -0.65174E-05
        -0.36605E-06
        -0.28145E-07
        -0.91129E-07
        -0.18733E-06
        -0.62995E-05
        -0.28903E-05
        -0.19099E-06
        -0.12395E-05
        -0.92813E-06
        -0.18404E-06
        -0.19381E-05
        -0.70043E-05
        -0.40871E-04
        -0.32032E-04
        -0.24599E-04
        -0.13228E-04
        -0.76051E-06
        -0.34172E-05
        -0.53528E-05
        -0.88021E-05
        -0.36610E-04
        -0.12412E-04
        -0.53821E-05
        -0.84235E-05
        -0.11730E-04
        -0.12732E-04
        -0.59545E-07
        -0.19676E-04
        -0.40743E-04
        -0.22099E-03
        -0.36830E-03
        -0.61260E-03
        -0.87991E-03
        -0.84333E-03
        -0.64399E-03
        -0.59209E-03
        -0.57917E-03
        -0.22865E-03
        -0.25078E-04
        -0.39534E-05
        -0.29717E-05
        -0.56239E-06
        -0.45113E-04
        -0.18097E-03
        -0.34939E-03
        -0.58969E-03
        -0.72468E-03
        -0.55874E-03
        -0.49956E-03
        -0.49530E-03
        -0.24420E-03
        -0.65598E-04
        -0.58655E-04
        -0.17438E-04
        -0.68900E-05
        -0.59320E-05
        -0.36720E-06
        -0.99544E-05
        -0.20329E-05
        -0.12836E-05
        -0.15794E-04
        -0.68142E-05
        -0.14355E-04
        -0.38565E-05
        -0.71476E-04
        -0.25210E-04
        -0.52049E-06
        -0.70705E-04
        -0.24911E-05
        -0.25997E-06
        -0.20374E-06
        -0.42737E-05
        -0.14478E-06
        -0.32559E-05
        -0.16021E-05
        -0.54024E-06
        -0.37325E-06
        -0.65675E-05
        -0.36332E-06
        -0.29142E-07
        -0.93154E-07
        -0.18270E-06
        -0.63183E-05
        -0.28897E-05
        -0.18872E-06
        -0.12452E-05
        -0.93155E-06
        -0.18029E-06
        -0.19413E-05
        -0.70054E-05
        -0.41002E-04
        -0.32178E-04
        -0.24667E-04
        -0.13258E-04
        -0.75271E-06
        -0.34205E-05
        -0.53685E-05
        -0.88141E-05
        -0.36627E-04
        -0.12424E-04
        -0.53813E-05
        -0.84073E-05
        -0.11700E-04
        -0.12721E-04
        -0.57557E-07
        -0.19639E-04
        -0.40748E-04
        -0.22107E-03
        -0.36830E-03
        -0.61245E-03
        -0.87931E-03
        -0.84261E-03
        -0.64360E-03
        -0.59185E-03
        -0.57884E-03
        -0.22857E-03
        -0.25115E-04
        -0.39546E-05
        -0.29836E-05
        -0.55262E-06
        -0.45172E-04
        -0.18120E-03
        -0.34960E-03
        -0.58966E-03
        -0.72459E-03
        -0.55868E-03
        -0.49954E-03
        -0.49504E-03
        -0.24385E-03
        -0.65454E-04
        -0.58500E-04
        -0.17455E-04
        -0.68891E-05
        -0.59376E-05
        -0.37265E-06
        -0.99569E-05
        -0.20361E-05
        -0.12853E-05
        -0.15836E-04
        -0.68395E-05
        -0.14447E-04
        -0.38630E-05
        -0.71469E-04
        -0.25226E-04
        -0.52155E-06
        -0.70888E-04
        -0.24920E-05
        -0.26492E-06
        -0.20309E-06
        -0.42803E-05
        -0.14282E-06
        -0.32726E-05
        -0.16045E-05
        -0.54186E-06
        -0.37216E-06
        -0.66176E-05
        -0.36063E-06
        -0.30183E-07
        -0.95179E-07
        -0.17814E-06
        -0.63372E-05
        -0.28890E-05
        -0.18649E-06
        -0.12510E-05
        -0.93492E-06
        -0.17657E-06
        -0.19443E-05
        -0.70062E-05
        -0.41133E-04
        -0.32324E-04
        -0.24734E-04
        -0.13288E-04
        -0.74499E-06
        -0.34238E-05
        -0.53842E-05
        -0.88263E-05
        -0.36643E-04
        -0.12435E-04
        -0.53806E-05
        -0.83914E-05
        -0.11671E-04
        -0.12711E-04
        -0.55593E-07
        -0.19602E-04
        -0.40752E-04
        -0.22115E-03
        -0.36831E-03
        -0.61230E-03
        -0.87871E-03
        -0.84189E-03
        -0.64321E-03
        -0.59160E-03
        -0.57851E-03
        -0.22850E-03
        -0.25151E-04
        -0.39559E-05
        -0.29957E-05
        -0.54297E-06
        -0.45231E-04
        -0.18143E-03
        -0.34981E-03
        -0.58963E-03
        -0.72449E-03
        -0.55863E-03
        -0.49952E-03
        -0.49478E-03
        -0.24350E-03
        -0.65311E-04
        -0.58345E-04
        -0.17473E-04
        -0.68880E-05
        -0.59432E-05
        -0.37812E-06
        -0.99594E-05
        -0.20393E-05
        -0.12871E-05
        -0.15879E-04
        -0.68649E-05
        -0.14540E-04
        -0.38700E-05
        -0.71462E-04
        -0.25244E-04
        -0.52247E-06
        -0.71070E-04
        -0.24930E-05
        -0.26994E-06
        -0.20244E-06
        -0.42868E-05
        -0.14085E-06
        -0.32893E-05
        -0.16069E-05
        -0.54340E-06
        -0.37108E-06
        -0.66679E-05
        -0.35794E-06
        -0.31213E-07
        -0.97206E-07
        -0.17365E-06
        -0.63561E-05
        -0.28884E-05
        -0.18426E-06
        -0.12567E-05
        -0.93832E-06
        -0.17289E-06
        -0.19475E-05
        -0.70073E-05
        -0.41265E-04
        -0.32471E-04
        -0.24801E-04
        -0.13317E-04
        -0.73733E-06
        -0.34272E-05
        -0.53998E-05
        -0.88384E-05
        -0.36660E-04
        -0.12446E-04
        -0.53803E-05
        -0.83752E-05
        -0.11642E-04
        -0.12701E-04
        -0.53671E-07
        -0.19564E-04
        -0.40756E-04
        -0.22122E-03
        -0.36832E-03
        -0.61216E-03
        -0.87810E-03
        -0.84116E-03
        -0.64281E-03
        -0.59136E-03
        -0.57818E-03
        -0.22842E-03
        -0.25188E-04
        -0.39572E-05
        -0.30078E-05
        -0.53343E-06
        -0.45290E-04
        -0.18166E-03
        -0.35002E-03
        -0.58959E-03
        -0.72440E-03
        -0.55858E-03
        -0.49950E-03
        -0.49452E-03
        -0.24315E-03
        -0.65168E-04
        -0.58189E-04
        -0.17490E-04
        -0.68868E-05
        -0.59489E-05
        -0.38363E-06
        -0.99619E-05
        -0.20426E-05
        -0.12890E-05
        -0.15922E-04
        -0.68904E-05
        -0.14632E-04
        -0.38769E-05
        -0.71454E-04
        -0.25261E-04
        -0.52349E-06
        -0.71253E-04
        -0.24940E-05
        -0.27501E-06
        -0.20179E-06
        -0.42933E-05
        -0.13889E-06
        -0.33060E-05
        -0.16091E-05
        -0.54503E-06
        -0.37001E-06
        -0.67183E-05
        -0.35527E-06
        -0.32278E-07
        -0.99223E-07
        -0.16923E-06
        -0.63750E-05
        -0.28878E-05
        -0.18206E-06
        -0.12625E-05
        -0.94173E-06
        -0.16923E-06
        -0.19506E-05
        -0.70084E-05
        -0.41397E-04
        -0.32618E-04
        -0.24868E-04
        -0.13347E-04
        -0.72970E-06
        -0.34306E-05
        -0.54153E-05
        -0.88504E-05
        -0.36677E-04
        -0.12458E-04
        -0.53796E-05
        -0.83594E-05
        -0.11613E-04
        -0.12691E-04
        -0.51777E-07
        -0.19527E-04
        -0.40760E-04
        -0.22130E-03
        -0.36832E-03
        -0.61201E-03
        -0.87750E-03
        -0.84043E-03
        -0.64242E-03
        -0.59112E-03
        -0.57784E-03
        -0.22835E-03
        -0.25224E-04
        -0.39584E-05
        -0.30197E-05
        -0.52393E-06
        -0.45349E-04
        -0.18189E-03
        -0.35023E-03
        -0.58956E-03
        -0.72430E-03
        -0.55852E-03
        -0.49947E-03
        -0.49425E-03
        -0.24280E-03
        -0.65026E-04
        -0.58034E-04
        -0.17508E-04
        -0.68858E-05
        -0.59546E-05
        -0.38922E-06
        -0.99644E-05
        -0.20458E-05
        -0.12907E-05
        -0.15964E-04
        -0.69160E-05
        -0.14725E-04
        -0.38838E-05
        -0.71447E-04
        -0.25277E-04
        -0.52450E-06
        -0.71435E-04
        -0.24950E-05
        -0.28015E-06
        -0.20113E-06
        -0.42998E-05
        -0.13695E-06
        -0.33228E-05
        -0.16114E-05
        -0.54664E-06
        -0.36896E-06
        -0.67687E-05
        -0.35263E-06
        -0.33338E-07
        -0.10125E-06
        -0.16486E-06
        -0.63939E-05
        -0.28871E-05
        -0.17986E-06
        -0.12683E-05
        -0.94519E-06
        -0.16560E-06
        -0.19537E-05
        -0.70092E-05
        -0.41530E-04
        -0.32765E-04
        -0.24935E-04
        -0.13377E-04
        -0.72219E-06
        -0.34338E-05
        -0.54309E-05
        -0.88626E-05
        -0.36694E-04
        -0.12469E-04
        -0.53793E-05
        -0.83435E-05
        -0.11584E-04
        -0.12680E-04
        -0.49920E-07
        -0.19490E-04
        -0.40764E-04
        -0.22137E-03
        -0.36833E-03
        -0.61186E-03
        -0.87690E-03
        -0.83971E-03
        -0.64203E-03
        -0.59088E-03
        -0.57751E-03
        -0.22827E-03
        -0.25261E-04
        -0.39596E-05
        -0.30317E-05
        -0.51448E-06
        -0.45407E-04
        -0.18213E-03
        -0.35044E-03
        -0.58953E-03
        -0.72421E-03
        -0.55847E-03
        -0.49945E-03
        -0.49399E-03
        -0.24245E-03
        -0.64885E-04
        -0.57880E-04
        -0.17526E-04
        -0.68847E-05
        -0.59602E-05
        -0.39488E-06
        -0.99670E-05
        -0.20490E-05
        -0.12924E-05
        -0.16007E-04
        -0.69416E-05
        -0.14817E-04
        -0.38908E-05
        -0.71440E-04
        -0.25295E-04
        -0.52538E-06
        -0.71619E-04
        -0.24959E-05
        -0.28533E-06
        -0.20047E-06
        -0.43064E-05
        -0.13504E-06
        -0.33396E-05
        -0.16137E-05
        -0.54823E-06
        -0.36790E-06
        -0.68193E-05
        -0.34997E-06
        -0.34446E-07
        -0.10328E-06
        -0.16056E-06
        -0.64127E-05
        -0.28864E-05
        -0.17766E-06
        -0.12740E-05
        -0.94860E-06
        -0.16200E-06
        -0.19570E-05
        -0.70102E-05
        -0.41662E-04
        -0.32913E-04
        -0.25002E-04
        -0.13407E-04
        -0.71464E-06
        -0.34371E-05
        -0.54467E-05
        -0.88750E-05
        -0.36708E-04
        -0.12481E-04
        -0.53787E-05
        -0.83277E-05
        -0.11555E-04
        -0.12670E-04
        -0.48102E-07
        -0.19453E-04
        -0.40768E-04
        -0.22145E-03
        -0.36833E-03
        -0.61171E-03
        -0.87629E-03
        -0.83898E-03
        -0.64164E-03
        -0.59063E-03
        -0.57717E-03
        -0.22820E-03
        -0.25297E-04
        -0.39608E-05
        -0.30438E-05
        -0.50515E-06
        -0.45466E-04
        -0.18236E-03
        -0.35065E-03
        -0.58950E-03
        -0.72411E-03
        -0.55842E-03
        -0.49943E-03
        -0.49373E-03
        -0.24210E-03
        -0.64744E-04
        -0.57726E-04
        -0.17543E-04
        -0.68838E-05
        -0.59659E-05
        -0.40056E-06
        -0.99696E-05
        -0.20523E-05
        -0.12944E-05
        -0.16049E-04
        -0.69673E-05
        -0.14910E-04
        -0.38977E-05
        -0.71433E-04
        -0.25311E-04
        -0.52639E-06
        -0.71802E-04
        -0.24968E-05
        -0.29058E-06
        -0.19982E-06
        -0.43129E-05
        -0.13314E-06
        -0.33565E-05
        -0.16160E-05
        -0.54984E-06
        -0.36686E-06
        -0.68701E-05
        -0.34733E-06
        -0.35541E-07
        -0.10529E-06
        -0.15633E-06
        -0.64315E-05
        -0.28857E-05
        -0.17549E-06
        -0.12798E-05
        -0.95206E-06
        -0.15843E-06
        -0.19601E-05
        -0.70109E-05
        -0.41796E-04
        -0.33062E-04
        -0.25069E-04
        -0.13437E-04
        -0.70714E-06
        -0.34405E-05
        -0.54623E-05
        -0.88873E-05
        -0.36726E-04
        -0.12492E-04
        -0.53781E-05
        -0.83116E-05
        -0.11525E-04
        -0.12660E-04
        -0.46328E-07
        -0.19415E-04
        -0.40771E-04
        -0.22152E-03
        -0.36834E-03
        -0.61157E-03
        -0.87569E-03
        -0.83825E-03
        -0.64124E-03
        -0.59039E-03
        -0.57682E-03
        -0.22812E-03
        -0.25334E-04
        -0.39620E-05
        -0.30559E-05
        -0.49594E-06
        -0.45525E-04
        -0.18259E-03
        -0.35086E-03
        -0.58947E-03
        -0.72402E-03
        -0.55837E-03
        -0.49941E-03
        -0.49346E-03
        -0.24175E-03
        -0.64604E-04
        -0.57571E-04
        -0.17560E-04
        -0.68828E-05
        -0.59716E-05
        -0.40627E-06
        -0.99720E-05
        -0.20555E-05
        -0.12962E-05
        -0.16092E-04
        -0.69932E-05
        -0.15003E-04
        -0.39047E-05
        -0.71426E-04
        -0.25328E-04
        -0.52725E-06
        -0.71987E-04
        -0.24978E-05
        -0.29590E-06
        -0.19917E-06
        -0.43194E-05
        -0.13124E-06
        -0.33734E-05
        -0.16182E-05
        -0.55142E-06
        -0.36584E-06
        -0.69212E-05
        -0.34469E-06
        -0.36674E-07
        -0.10730E-06
        -0.15217E-06
        -0.64505E-05
        -0.28850E-05
        -0.17331E-06
        -0.12856E-05
        -0.95552E-06
        -0.15490E-06
        -0.19633E-05
        -0.70118E-05
        -0.41931E-04
        -0.33211E-04
        -0.25136E-04
        -0.13467E-04
        -0.69970E-06
        -0.34438E-05
        -0.54779E-05
        -0.88995E-05
        -0.36743E-04
        -0.12503E-04
        -0.53779E-05
        -0.82957E-05
        -0.11496E-04
        -0.12650E-04
        -0.44576E-07
        -0.19378E-04
        -0.40774E-04
        -0.22160E-03
        -0.36834E-03
        -0.61142E-03
        -0.87509E-03
        -0.83752E-03
        -0.64084E-03
        -0.59014E-03
        -0.57648E-03
        -0.22805E-03
        -0.25370E-04
        -0.39632E-05
        -0.30680E-05
        -0.48679E-06
        -0.45583E-04
        -0.18282E-03
        -0.35107E-03
        -0.58944E-03
        -0.72393E-03
        -0.55832E-03
        -0.49938E-03
        -0.49320E-03
        -0.24141E-03
        -0.64464E-04
        -0.57417E-04
        -0.17578E-04
        -0.68815E-05
        -0.59772E-05
        -0.41201E-06
        -0.99745E-05
        -0.20587E-05
        -0.12980E-05
        -0.16134E-04
        -0.70192E-05
        -0.15096E-04
        -0.39117E-05
        -0.71419E-04
        -0.25346E-04
        -0.52823E-06
        -0.72169E-04
        -0.24987E-05
        -0.30130E-06
        -0.19851E-06
        -0.43260E-05
        -0.12936E-06
        -0.33904E-05
        -0.16204E-05
        -0.55301E-06
        -0.36483E-06
        -0.69723E-05
        -0.34206E-06
        -0.37794E-07
        -0.10929E-06
        -0.14809E-06
        -0.64694E-05
        -0.28843E-05
        -0.17117E-06
        -0.12914E-05
        -0.95903E-06
        -0.15137E-06
        -0.19664E-05
        -0.70128E-05
        -0.42066E-04
        -0.33359E-04
        -0.25201E-04
        -0.13497E-04
        -0.69231E-06
        -0.34472E-05
        -0.54933E-05
        -0.89120E-05
        -0.36759E-04
        -0.12515E-04
        -0.53772E-05
        -0.82800E-05
        -0.11467E-04
        -0.12639E-04
        -0.42857E-07
        -0.19341E-04
        -0.40778E-04
        -0.22167E-03
        -0.36835E-03
        -0.61127E-03
        -0.87448E-03
        -0.83678E-03
        -0.64045E-03
        -0.58990E-03
        -0.57614E-03
        -0.22797E-03
        -0.25407E-04
        -0.39643E-05
        -0.30799E-05
        -0.47772E-06
        -0.45641E-04
        -0.18305E-03
        -0.35128E-03
        -0.58940E-03
        -0.72383E-03
        -0.55827E-03
        -0.49936E-03
        -0.49293E-03
        -0.24106E-03
        -0.64325E-04
        -0.57263E-04
        -0.17595E-04
        -0.68804E-05
        -0.59829E-05
        -0.41781E-06
        -0.99771E-05
        -0.20619E-05
        -0.12999E-05
        -0.16176E-04
        -0.70453E-05
        -0.15189E-04
        -0.39187E-05
        -0.71412E-04
        -0.25363E-04
        -0.52906E-06
        -0.72354E-04
        -0.24997E-05
        -0.30678E-06
        -0.19785E-06
        -0.43325E-05
        -0.12751E-06
        -0.34074E-05
        -0.16225E-05
        -0.55461E-06
        -0.36382E-06
        -0.70236E-05
        -0.33943E-06
        -0.38962E-07
        -0.11128E-06
        -0.14405E-06
        -0.64879E-05
        -0.28835E-05
        -0.16903E-06
        -0.12972E-05
        -0.96251E-06
        -0.14789E-06
        -0.19695E-05
        -0.70135E-05
        -0.42201E-04
        -0.33509E-04
        -0.25267E-04
        -0.13527E-04
        -0.68502E-06
        -0.34507E-05
        -0.55092E-05
        -0.89243E-05
        -0.36776E-04
        -0.12527E-04
        -0.53770E-05
        -0.82643E-05
        -0.11438E-04
        -0.12629E-04
        -0.41186E-07
        -0.19303E-04
        -0.40781E-04
        -0.22174E-03
        -0.36836E-03
        -0.61112E-03
        -0.87387E-03
        -0.83604E-03
        -0.64005E-03
        -0.58966E-03
        -0.57579E-03
        -0.22790E-03
        -0.25444E-04
        -0.39651E-05
        -0.30919E-05
        -0.46877E-06
        -0.45700E-04
        -0.18328E-03
        -0.35149E-03
        -0.58937E-03
        -0.72373E-03
        -0.55821E-03
        -0.49934E-03
        -0.49266E-03
        -0.24071E-03
        -0.64187E-04
        -0.57110E-04
        -0.17612E-04
        -0.68793E-05
        -0.59886E-05
        -0.42368E-06
        -0.99796E-05
        -0.20651E-05
        -0.13017E-05
        -0.16218E-04
        -0.70716E-05
        -0.15283E-04
        -0.39256E-05
        -0.71405E-04
        -0.25379E-04
        -0.53000E-06
        -0.72537E-04
        -0.25007E-05
        -0.31237E-06
        -0.19718E-06
        -0.43391E-05
        -0.12577E-06
        -0.34244E-05
        -0.16245E-05
        -0.55623E-06
        -0.36279E-06
        -0.70751E-05
        -0.33684E-06
        -0.40136E-07
        -0.11328E-06
        -0.14008E-06
        -0.65053E-05
        -0.28828E-05
        -0.16687E-06
        -0.13030E-05
        -0.96603E-06
        -0.14444E-06
        -0.19728E-05
        -0.70145E-05
        -0.42339E-04
        -0.33658E-04
        -0.25330E-04
        -0.13556E-04
        -0.67768E-06
        -0.34542E-05
        -0.55248E-05
        -0.89368E-05
        -0.36793E-04
        -0.12538E-04
        -0.53764E-05
        -0.82483E-05
        -0.11409E-04
        -0.12619E-04
        -0.39546E-07
        -0.19266E-04
        -0.40784E-04
        -0.22181E-03
        -0.36836E-03
        -0.61097E-03
        -0.87327E-03
        -0.83531E-03
        -0.63966E-03
        -0.58941E-03
        -0.57542E-03
        -0.22784E-03
        -0.25482E-04
        -0.39655E-05
        -0.31038E-05
        -0.45993E-06
        -0.45758E-04
        -0.18352E-03
        -0.35170E-03
        -0.58934E-03
        -0.72364E-03
        -0.55816E-03
        -0.49932E-03
        -0.49239E-03
        -0.24036E-03
        -0.64050E-04
        -0.56956E-04
        -0.17629E-04
        -0.68783E-05
        -0.59942E-05
        -0.42958E-06
        -0.99820E-05
        -0.20683E-05
        -0.13035E-05
        -0.16260E-04
        -0.70983E-05
        -0.15376E-04
        -0.39326E-05
        -0.71398E-04
        -0.25397E-04
        -0.53094E-06
        -0.72723E-04
        -0.25016E-05
        -0.31810E-06
        -0.19651E-06
        -0.43457E-05
        -0.12410E-06
        -0.34414E-05
        -0.16265E-05
        -0.55783E-06
        -0.36180E-06
        -0.71269E-05
        -0.33423E-06
        -0.41379E-07
        -0.11527E-06
        -0.13618E-06
        -0.65217E-05
        -0.28820E-05
        -0.16476E-06
        -0.13087E-05
        -0.96953E-06
        -0.14101E-06
        -0.19759E-05
        -0.70153E-05
        -0.42478E-04
        -0.33806E-04
        -0.25391E-04
        -0.13585E-04
        -0.67040E-06
        -0.34580E-05
        -0.55405E-05
        -0.89494E-05
        -0.36811E-04
        -0.12550E-04
        -0.53759E-05
        -0.82327E-05
        -0.11380E-04
        -0.12609E-04
        -0.37928E-07
        -0.19229E-04
        -0.40787E-04
        -0.22188E-03
        -0.36836E-03
        -0.61082E-03
        -0.87266E-03
        -0.83457E-03
        -0.63927E-03
        -0.58916E-03
        -0.57503E-03
        -0.22778E-03
        -0.25519E-04
        -0.39652E-05
        -0.31158E-05
        -0.45112E-06
        -0.45816E-04
        -0.18375E-03
        -0.35191E-03
        -0.58931E-03
        -0.72354E-03
        -0.55811E-03
        -0.49929E-03
        -0.49213E-03
        -0.24002E-03
        -0.63913E-04
        -0.56803E-04
        -0.17647E-04
        -0.68773E-05
        -0.60002E-05
        -0.43550E-06
        -0.99850E-05
        -0.20715E-05
        -0.13055E-05
        -0.16302E-04
        -0.71251E-05
        -0.15470E-04
        -0.39396E-05
        -0.71392E-04
        -0.25413E-04
        -0.53175E-06
        -0.72907E-04
        -0.25026E-05
        -0.32391E-06
        -0.19585E-06
        -0.43523E-05
        -0.12250E-06
        -0.34586E-05
        -0.16285E-05
        -0.55933E-06
        -0.36087E-06
        -0.71788E-05
        -0.33172E-06
        -0.42609E-07
        -0.11720E-06
        -0.13238E-06
        -0.65378E-05
        -0.28814E-05
        -0.16270E-06
        -0.13145E-05
        -0.97312E-06
        -0.13765E-06
        -0.19789E-05
        -0.70157E-05
        -0.42618E-04
        -0.33954E-04
        -0.25449E-04
        -0.13613E-04
        -0.66330E-06
        -0.34620E-05
        -0.55559E-05
        -0.89614E-05
        -0.36827E-04
        -0.12561E-04
        -0.53754E-05
        -0.82171E-05
        -0.11351E-04
        -0.12599E-04
        -0.36354E-07
        -0.19191E-04
        -0.40791E-04
        -0.22196E-03
        -0.36837E-03
        -0.61068E-03
        -0.87206E-03
        -0.83384E-03
        -0.63887E-03
        -0.58891E-03
        -0.57464E-03
        -0.22773E-03
        -0.25556E-04
        -0.39644E-05
        -0.31277E-05
        -0.44239E-06
        -0.45873E-04
        -0.18398E-03
        -0.35212E-03
        -0.58929E-03
        -0.72345E-03
        -0.55806E-03
        -0.49926E-03
        -0.49186E-03
        -0.23967E-03
        -0.63778E-04
        -0.56651E-04
        -0.17790E-04
        -0.69277E-05
        -0.60511E-05
        -0.44441E-06
        -0.10058E-04
        -0.20890E-05
        -0.13171E-05
        -0.16455E-04
        -0.72016E-05
        -0.15666E-04
        -0.39735E-05
        -0.71848E-04
        -0.25596E-04
        -0.53622E-06
        -0.73569E-04
        -0.25220E-05
        -0.33177E-06
        -0.19661E-06
        -0.43894E-05
        -0.12193E-06
        -0.34976E-05
        -0.16413E-05
        -0.56365E-06
        -0.36299E-06
        -0.72793E-05
        -0.33241E-06
        -0.44050E-07
        -0.11951E-06
        -0.13025E-06
        -0.66011E-05
        -0.29025E-05
        -0.16242E-06
        -0.13296E-05
        -0.98361E-06
        -0.13557E-06
        -0.19938E-05
        -0.70611E-05
        -0.43034E-04
        -0.34326E-04
        -0.25680E-04
        -0.13731E-04
        -0.66241E-06
        -0.34912E-05
        -0.56028E-05
        -0.90273E-05
        -0.37068E-04
        -0.12650E-04
        -0.54079E-05
        -0.82565E-05
        -0.11401E-04
        -0.12673E-04
        -0.35074E-07
        -0.19259E-04
        -0.41039E-04
        -0.22329E-03
        -0.37049E-03
        -0.61411E-03
        -0.87670E-03
        -0.83824E-03
        -0.64245E-03
        -0.59231E-03
        -0.57785E-03
        -0.22907E-03
        -0.25733E-04
        -0.39845E-05
        -0.31565E-05
        -0.43661E-06
        -0.46166E-04
        -0.18516E-03
        -0.35425E-03
        -0.59266E-03
        -0.72754E-03
        -0.56115E-03
        -0.50202E-03
        -0.49436E-03
        -0.24071E-03
        -0.64010E-04
        -0.56825E-04
        -0.39256E-04
        -0.15407E-04
        -0.13309E-04
        -0.99490E-06
        -0.20597E-04
        -0.43656E-05
        -0.29168E-05
        -0.35970E-04
        -0.15843E-04
        -0.34113E-04
        -0.84956E-05
        -0.14165E-03
        -0.52033E-04
        -0.11370E-05
        -0.14672E-03
        -0.55777E-05
        -0.73818E-06
        -0.43429E-06
        -0.94476E-05
        -0.26221E-06
        -0.71278E-05
        -0.34220E-05
        -0.11501E-05
        -0.79302E-06
        -0.16167E-04
        -0.73807E-06
        -0.96546E-07
        -0.26548E-06
        -0.28655E-06
        -0.14603E-04
        -0.64198E-05
        -0.35666E-06
        -0.29611E-05
        -0.21839E-05
        -0.26004E-06
        -0.41513E-05
        -0.14702E-04
        -0.89681E-04
        -0.73622E-04
        -0.55455E-04
        -0.28843E-04
        -0.14068E-05
        -0.74460E-05
        -0.11616E-04
        -0.18581E-04
        -0.71961E-04
        -0.25856E-04
        -0.11324E-04
        -0.17464E-04
        -0.23895E-04
        -0.25311E-04
        -0.70510E-07
        -0.29732E-04
        -0.63310E-04
        -0.34453E-03
        -0.57496E-03
        -0.95161E-03
        -0.13649E-02
        -0.13341E-02
        -0.10396E-02
        -0.95490E-03
        -0.92061E-03
        -0.36589E-03
        -0.40978E-04
        -0.64800E-05
        -0.51838E-05
        -0.68837E-06
        -0.72083E-04
        -0.28740E-03
        -0.54357E-03
        -0.90762E-03
        -0.11168E-02
        -0.87961E-03
        -0.79402E-03
        -0.77611E-03
        -0.38035E-03
        -0.10049E-03
        -0.88536E-04
  
SCALARS                      strain_zz  double 1
LOOKUP_TABLE default
         0.16487E+00
         0.15196E+00
         0.16015E+00
         0.17485E+00
        -0.12255E-08
        -0.13742E-08
        -0.13158E-08
        -0.11954E-08
         0.15151E+00
         0.15588E+00
        -0.12357E-08
        -0.11959E-08
         0.13333E+00
         0.13264E+00
        -0.14683E-08
        -0.13806E-08
         0.17269E+00
         0.13365E+00
        -0.10849E-08
        -0.12034E-08
         0.11937E+00
         0.10832E+00
         0.12592E+00
        -0.14553E-08
        -0.12709E-08
        -0.13124E-08
         0.10875E+00
         0.92661E-01
        -0.13961E-08
        -0.11774E-08
         0.17198E+00
         0.15496E+00
         0.18853E+00
        -0.11914E-08
        -0.11076E-08
        -0.10769E-08
         0.16213E+00
         0.14049E+00
        -0.12604E-08
        -0.11502E-08
         0.15355E+00
         0.13687E+00
        -0.10894E-08
        -0.96441E-09
         0.16770E+00
         0.17400E+00
        -0.11938E-08
        -0.13339E-08
         0.12354E+00
        -0.11662E-08
         0.17277E+00
        -0.13704E-08
         0.10411E+00
        -0.12316E-08
         0.99047E-01
        -0.11814E-08
         0.99127E-01
         0.11713E+00
        -0.12037E-08
        -0.11722E-08
         0.17163E+00
         0.16508E+00
        -0.12070E-08
        -0.13645E-08
         0.17573E+00
        -0.11646E-08
         0.16794E+00
        -0.12711E-08
         0.14750E+00
         0.14546E+00
        -0.12235E-08
        -0.12820E-08
         0.14085E+00
        -0.12928E-08
         0.86956E-01
        -0.10214E-08
         0.84146E-01
        -0.99142E-09
         0.85545E-01
        -0.10454E-08
         0.93305E-01
         0.10139E+00
        -0.99598E-09
        -0.10384E-08
         0.11771E+00
        -0.96710E-09
         0.16737E+00
        -0.12682E-08
         0.15959E+00
        -0.12980E-08
         0.15322E+00
         0.14973E+00
        -0.12465E-08
        -0.12610E-08
         0.15404E+00
        -0.11454E-08
         0.15710E+00
        -0.11291E-08
         0.15433E+00
        -0.12087E-08
         0.15335E+00
         0.15615E+00
        -0.11853E-08
        -0.12200E-08
         0.13800E+00
         0.14536E+00
        -0.92025E-09
        -0.86555E-09
         0.13661E+00
        -0.87872E-09
         0.14510E+00
        -0.84254E-09
         0.13672E+00
        -0.83081E-09
         0.11823E+00
        -0.78512E-09
         0.10036E+00
        -0.69749E-09
         0.89697E-01
        -0.62805E-09
         0.88610E-01
        -0.62369E-09
         0.88948E-01
        -0.67636E-09
         0.10052E+00
        -0.71083E-09
         0.12221E+00
        -0.64906E-09
         0.14615E+00
        -0.58506E-09
         0.16022E+00
        -0.58440E-09
         0.17416E+00
        -0.65321E-09
         0.18339E+00
        -0.74481E-09
         0.18305E+00
        -0.80015E-09
         0.16066E+00
        -0.86416E-09
         0.14510E+00
        -0.92582E-09
         0.13977E+00
        -0.84812E-09
         0.14810E+00
        -0.74403E-09
         0.15244E+00
        -0.74173E-09
         0.14515E+00
        -0.81153E-09
         0.14527E+00
        -0.86516E-09
         0.15076E+00
        -0.82103E-09
         0.15793E+00
        -0.79374E-09
        -0.32040E+00
        -0.32509E+00
        -0.32446E+00
        -0.31836E+00
        -0.32949E+00
        -0.32392E+00
        -0.33082E+00
        -0.32725E+00
        -0.31933E+00
        -0.32429E+00
        -0.33458E+00
        -0.33565E+00
        -0.33264E+00
        -0.33247E+00
        -0.33438E+00
        -0.31866E+00
        -0.31980E+00
        -0.31658E+00
        -0.32559E+00
        -0.32397E+00
        -0.32625E+00
        -0.32472E+00
        -0.32753E+00
        -0.32684E+00
        -0.32411E+00
        -0.32431E+00
        -0.32893E+00
        -0.32852E+00
        -0.33189E+00
        -0.32677E+00
        -0.31922E+00
        -0.32516E+00
        -0.31927E+00
        -0.32318E+00
        -0.33643E+00
        -0.33229E+00
        -0.33028E+00
        -0.33262E+00
        -0.33294E+00
        -0.33674E+00
        -0.33942E+00
        -0.33275E+00
        -0.32614E+00
        -0.32707E+00
        -0.33047E+00
        -0.33627E+00
        -0.33135E+00
        -0.32588E+00
        -0.32627E+00
        -0.33050E+00
        -0.33471E+00
        -0.32900E+00
        -0.34544E+00
        -0.34059E+00
        -0.34135E+00
        -0.34018E+00
        -0.34041E+00
        -0.34292E+00
        -0.34559E+00
        -0.34655E+00
        -0.34621E+00
        -0.34643E+00
        -0.34758E+00
        -0.34071E+00
        -0.33821E+00
        -0.33722E+00
        -0.33541E+00
        -0.33402E+00
        -0.33404E+00
        -0.33630E+00
        -0.34380E+00
        -0.34200E+00
        -0.33950E+00
        -0.33957E+00
        -0.34001E+00
        -0.34248E+00
        -0.33883E+00
        -0.33746E+00
         0.26937E-04
         0.10404E-04
         0.10760E-04
         0.11289E-04
         0.26289E-04
         0.19148E-04
        -0.20437E-06
         0.14136E-04
         0.17298E-04
         0.11450E-04
        -0.38271E-05
         0.73019E-04
         0.44351E-04
        -0.59233E-05
         0.74944E-04
         0.12786E-04
         0.79913E-05
         0.80959E-05
         0.48816E-05
         0.24397E-05
         0.44219E-04
         0.42635E-04
         0.33941E-04
         0.10009E-05
         0.11634E-06
        -0.22937E-07
        -0.13196E-04
        -0.17918E-04
        -0.80048E-05
         0.23352E-05
         0.97441E-05
         0.19361E-05
         0.10207E-04
         0.13271E-04
         0.35166E-04
         0.12965E-04
         0.22956E-04
         0.47073E-04
         0.26372E-04
         0.24735E-04
         0.55678E-04
         0.43765E-04
         0.45232E-04
         0.24198E-04
         0.19248E-04
         0.39072E-04
         0.18172E-04
         0.14580E-04
         0.12748E-04
         0.18623E-04
         0.38537E-04
         0.24321E-04
         0.61582E-03
         0.65867E-03
         0.71129E-03
         0.71075E-03
         0.81477E-03
         0.94265E-03
         0.86587E-03
         0.68953E-03
         0.65241E-03
         0.73994E-03
         0.70937E-03
         0.68840E-03
         0.46804E-03
         0.42815E-03
         0.50675E-03
         0.57556E-03
         0.62152E-03
         0.74302E-03
         0.68918E-03
         0.73573E-03
         0.59747E-03
         0.53600E-03
         0.60504E-03
         0.57805E-03
         0.61774E-03
         0.61245E-03
         0.26535E-04
         0.99595E-05
         0.10324E-04
         0.10899E-04
         0.25757E-04
         0.18657E-04
        -0.68197E-06
         0.13675E-04
         0.16863E-04
         0.11005E-04
        -0.43769E-05
         0.72372E-04
         0.43821E-04
        -0.65178E-05
         0.74472E-04
         0.12333E-04
         0.74917E-05
         0.76946E-05
         0.43627E-05
         0.18848E-05
         0.43668E-04
         0.42084E-04
         0.33360E-04
         0.46622E-06
        -0.41952E-06
        -0.53281E-06
        -0.13717E-04
        -0.18475E-04
        -0.85822E-05
         0.17500E-05
         0.93051E-05
         0.14522E-05
         0.97862E-05
         0.12870E-04
         0.34623E-04
         0.12452E-04
         0.22440E-04
         0.46591E-04
         0.25903E-04
         0.24208E-04
         0.55113E-04
         0.43186E-04
         0.44647E-04
         0.23638E-04
         0.18708E-04
         0.38491E-04
         0.17636E-04
         0.14070E-04
         0.12257E-04
         0.18124E-04
         0.37970E-04
         0.23784E-04
         0.61436E-03
         0.65738E-03
         0.71032E-03
         0.70985E-03
         0.81353E-03
         0.94094E-03
         0.86408E-03
         0.68808E-03
         0.65098E-03
         0.73838E-03
         0.70800E-03
         0.68741E-03
         0.46708E-03
         0.42730E-03
         0.50602E-03
         0.57493E-03
         0.62091E-03
         0.74237E-03
         0.68812E-03
         0.73462E-03
         0.59637E-03
         0.53505E-03
         0.60374E-03
         0.57638E-03
         0.61614E-03
         0.61088E-03
         0.26665E-04
         0.10051E-04
         0.10426E-04
         0.11015E-04
         0.25873E-04
         0.18776E-04
        -0.56966E-06
         0.13823E-04
         0.16965E-04
         0.11123E-04
        -0.42655E-05
         0.72490E-04
         0.43962E-04
        -0.64320E-05
         0.74793E-04
         0.12255E-04
         0.74796E-05
         0.77960E-05
         0.42390E-05
         0.17748E-05
         0.43584E-04
         0.42043E-04
         0.32978E-04
         0.80286E-07
        -0.61614E-06
        -0.89019E-06
        -0.13606E-04
        -0.18552E-04
        -0.88070E-05
         0.13487E-05
         0.93200E-05
         0.13414E-05
         0.98860E-05
         0.13007E-04
         0.34803E-04
         0.12573E-04
         0.22542E-04
         0.46869E-04
         0.26143E-04
         0.24317E-04
         0.55172E-04
         0.43007E-04
         0.44339E-04
         0.23265E-04
         0.18610E-04
         0.38568E-04
         0.17734E-04
         0.14183E-04
         0.12361E-04
         0.18235E-04
         0.38086E-04
         0.23877E-04
         0.61421E-03
         0.65733E-03
         0.71061E-03
         0.71008E-03
         0.81344E-03
         0.94049E-03
         0.86359E-03
         0.68794E-03
         0.65087E-03
         0.73816E-03
         0.70790E-03
         0.68745E-03
         0.46701E-03
         0.42742E-03
         0.50624E-03
         0.57504E-03
         0.62104E-03
         0.74275E-03
         0.68831E-03
         0.73484E-03
         0.59652E-03
         0.53526E-03
         0.60364E-03
         0.57589E-03
         0.61566E-03
         0.61044E-03
         0.26634E-04
         0.10016E-04
         0.10396E-04
         0.10961E-04
         0.25806E-04
         0.18724E-04
        -0.59956E-06
         0.13793E-04
         0.16858E-04
         0.10986E-04
        -0.43221E-05
         0.72420E-04
         0.43951E-04
        -0.65446E-05
         0.74880E-04
         0.11901E-04
         0.71922E-05
         0.77195E-05
         0.37867E-05
         0.13067E-05
         0.43172E-04
         0.41663E-04
         0.32099E-04
        -0.78283E-06
        -0.12644E-05
        -0.17040E-05
        -0.13745E-04
        -0.19003E-04
        -0.95205E-05
         0.34568E-06
         0.91148E-05
         0.90556E-06
         0.98124E-05
         0.12946E-04
         0.34759E-04
         0.12516E-04
         0.22492E-04
         0.46916E-04
         0.26138E-04
         0.24124E-04
         0.54889E-04
         0.42348E-04
         0.43486E-04
         0.22389E-04
         0.18165E-04
         0.38335E-04
         0.17564E-04
         0.14087E-04
         0.12258E-04
         0.18114E-04
         0.37969E-04
         0.23777E-04
         0.61362E-03
         0.65693E-03
         0.71045E-03
         0.70996E-03
         0.81309E-03
         0.93977E-03
         0.86271E-03
         0.68739E-03
         0.65037E-03
         0.73750E-03
         0.70732E-03
         0.68696E-03
         0.46642E-03
         0.42714E-03
         0.50610E-03
         0.57460E-03
         0.62060E-03
         0.74271E-03
         0.68806E-03
         0.73458E-03
         0.59625E-03
         0.53503E-03
         0.60306E-03
         0.57501E-03
         0.61489E-03
         0.60972E-03
         0.26551E-04
         0.99424E-05
         0.10339E-04
         0.10905E-04
         0.25732E-04
         0.18656E-04
        -0.65303E-06
         0.13720E-04
         0.16724E-04
         0.10836E-04
        -0.43824E-05
         0.72374E-04
         0.43934E-04
        -0.66638E-05
         0.75009E-04
         0.11668E-04
         0.69685E-05
         0.76482E-05
         0.34912E-05
         0.96767E-06
         0.42913E-04
         0.41390E-04
         0.31563E-04
        -0.13179E-05
        -0.17162E-05
        -0.22254E-05
        -0.13865E-04
        -0.19328E-04
        -0.10009E-04
        -0.31473E-06
         0.89005E-05
         0.58900E-06
         0.96782E-05
         0.12859E-04
         0.34714E-04
         0.12444E-04
         0.22423E-04
         0.46994E-04
         0.26161E-04
         0.24000E-04
         0.54719E-04
         0.41924E-04
         0.42936E-04
         0.21839E-04
         0.17873E-04
         0.38185E-04
         0.17415E-04
         0.13936E-04
         0.12096E-04
         0.17951E-04
         0.37809E-04
         0.23643E-04
         0.61304E-03
         0.65653E-03
         0.71031E-03
         0.70987E-03
         0.81278E-03
         0.93911E-03
         0.86192E-03
         0.68691E-03
         0.64989E-03
         0.73692E-03
         0.70688E-03
         0.68666E-03
         0.46601E-03
         0.42693E-03
         0.50605E-03
         0.57447E-03
         0.62044E-03
         0.74280E-03
         0.68790E-03
         0.73434E-03
         0.59595E-03
         0.53479E-03
         0.60243E-03
         0.57407E-03
         0.61409E-03
         0.60899E-03
         0.26308E-04
         0.97971E-05
         0.10282E-04
         0.10969E-04
         0.25783E-04
         0.18735E-04
        -0.68686E-06
         0.13565E-04
         0.16526E-04
         0.10600E-04
        -0.43346E-05
         0.72514E-04
         0.44024E-04
        -0.66892E-05
         0.75354E-04
         0.11733E-04
         0.69287E-05
         0.77521E-05
         0.35588E-05
         0.10102E-05
         0.43007E-04
         0.41485E-04
         0.31582E-04
        -0.13291E-05
        -0.18774E-05
        -0.22988E-05
        -0.13889E-04
        -0.19366E-04
        -0.99698E-05
        -0.31730E-06
         0.86410E-05
         0.42168E-06
         0.94607E-05
         0.12841E-04
         0.34811E-04
         0.12445E-04
         0.22403E-04
         0.47276E-04
         0.26410E-04
         0.24198E-04
         0.54929E-04
         0.42052E-04
         0.43020E-04
         0.21817E-04
         0.17837E-04
         0.38167E-04
         0.17287E-04
         0.13631E-04
         0.11735E-04
         0.17742E-04
         0.37734E-04
         0.23640E-04
         0.61284E-03
         0.65647E-03
         0.71051E-03
         0.71001E-03
         0.81266E-03
         0.93868E-03
         0.86143E-03
         0.68677E-03
         0.64982E-03
         0.73681E-03
         0.70694E-03
         0.68692E-03
         0.46617E-03
         0.42711E-03
         0.50639E-03
         0.57501E-03
         0.62098E-03
         0.74328E-03
         0.68796E-03
         0.73435E-03
         0.59581E-03
         0.53460E-03
         0.60193E-03
         0.57336E-03
         0.61352E-03
         0.60853E-03
         0.25922E-04
         0.95363E-05
         0.10136E-04
         0.10939E-04
         0.25710E-04
         0.18720E-04
        -0.87327E-06
         0.13226E-04
         0.16176E-04
         0.10205E-04
        -0.44643E-05
         0.72460E-04
         0.43971E-04
        -0.69110E-05
         0.75484E-04
         0.11678E-04
         0.67478E-05
         0.77267E-05
         0.35121E-05
         0.92719E-06
         0.42984E-04
         0.41459E-04
         0.31548E-04
        -0.13942E-05
        -0.21304E-05
        -0.24309E-05
        -0.14097E-04
        -0.19533E-04
        -0.10012E-04
        -0.37732E-06
         0.82711E-05
         0.14698E-06
         0.91342E-05
         0.12722E-04
         0.34754E-04
         0.12335E-04
         0.22277E-04
         0.47353E-04
         0.26471E-04
         0.24236E-04
         0.54995E-04
         0.42096E-04
         0.43038E-04
         0.21745E-04
         0.17680E-04
         0.37961E-04
         0.16989E-04
         0.13176E-04
         0.11233E-04
         0.17401E-04
         0.37535E-04
         0.23536E-04
         0.61228E-03
         0.65608E-03
         0.71044E-03
         0.70995E-03
         0.81230E-03
         0.93794E-03
         0.86062E-03
         0.68632E-03
         0.64941E-03
         0.73630E-03
         0.70666E-03
         0.68695E-03
         0.46613E-03
         0.42708E-03
         0.50650E-03
         0.57538E-03
         0.62137E-03
         0.74346E-03
         0.68761E-03
         0.73397E-03
         0.59538E-03
         0.53415E-03
         0.60117E-03
         0.57242E-03
         0.61274E-03
         0.60781E-03
         0.25826E-04
         0.94395E-05
         0.10080E-04
         0.10894E-04
         0.25634E-04
         0.18654E-04
        -0.96286E-06
         0.13125E-04
         0.16092E-04
         0.10145E-04
        -0.45555E-05
         0.72383E-04
         0.43919E-04
        -0.70539E-05
         0.75586E-04
         0.11629E-04
         0.66838E-05
         0.76700E-05
         0.34697E-05
         0.86127E-06
         0.42940E-04
         0.41397E-04
         0.31500E-04
        -0.14442E-05
        -0.21861E-05
        -0.25063E-05
        -0.14183E-04
        -0.19623E-04
        -0.10092E-04
        -0.43336E-06
         0.81593E-05
         0.36842E-07
         0.90221E-05
         0.12657E-04
         0.34713E-04
         0.12274E-04
         0.22199E-04
         0.47407E-04
         0.26519E-04
         0.24220E-04
         0.54976E-04
         0.42067E-04
         0.43007E-04
         0.21684E-04
         0.17588E-04
         0.37872E-04
         0.16897E-04
         0.13066E-04
         0.11095E-04
         0.17264E-04
         0.37402E-04
         0.23418E-04
         0.61169E-03
         0.65564E-03
         0.71032E-03
         0.70986E-03
         0.81192E-03
         0.93721E-03
         0.85980E-03
         0.68582E-03
         0.64890E-03
         0.73564E-03
         0.70625E-03
         0.68696E-03
         0.46603E-03
         0.42692E-03
         0.50651E-03
         0.57563E-03
         0.62162E-03
         0.74363E-03
         0.68737E-03
         0.73376E-03
         0.59517E-03
         0.53397E-03
         0.60058E-03
         0.57150E-03
         0.61191E-03
         0.60703E-03
         0.25927E-04
         0.95052E-05
         0.10134E-04
         0.10921E-04
         0.25681E-04
         0.18660E-04
        -0.88427E-06
         0.13243E-04
         0.16190E-04
         0.10320E-04
        -0.44871E-05
         0.72462E-04
         0.44015E-04
        -0.70007E-05
         0.75879E-04
         0.11738E-04
         0.67751E-05
         0.77148E-05
         0.35664E-05
         0.93445E-06
         0.43035E-04
         0.41473E-04
         0.31590E-04
        -0.13561E-05
        -0.20544E-05
        -0.24242E-05
        -0.14046E-04
        -0.19521E-04
        -0.10005E-04
        -0.33729E-06
         0.82459E-05
         0.97073E-07
         0.90628E-05
         0.12686E-04
         0.34833E-04
         0.12336E-04
         0.22250E-04
         0.47664E-04
         0.26740E-04
         0.24367E-04
         0.55138E-04
         0.42202E-04
         0.43113E-04
         0.21774E-04
         0.17655E-04
         0.37950E-04
         0.16971E-04
         0.13149E-04
         0.11156E-04
         0.17295E-04
         0.37416E-04
         0.23392E-04
         0.61145E-03
         0.65553E-03
         0.71043E-03
         0.70992E-03
         0.81175E-03
         0.93675E-03
         0.85926E-03
         0.68558E-03
         0.64863E-03
         0.73527E-03
         0.70615E-03
         0.68724E-03
         0.46616E-03
         0.42701E-03
         0.50677E-03
         0.57614E-03
         0.62218E-03
         0.74413E-03
         0.68742E-03
         0.73384E-03
         0.59524E-03
         0.53408E-03
         0.60028E-03
         0.57086E-03
         0.61135E-03
         0.60652E-03
         0.25931E-04
         0.94994E-05
         0.10128E-04
         0.10895E-04
         0.25651E-04
         0.18619E-04
        -0.88612E-06
         0.13236E-04
         0.16161E-04
         0.10349E-04
        -0.45243E-05
         0.72416E-04
         0.44040E-04
        -0.70949E-05
         0.75979E-04
         0.11715E-04
         0.67394E-05
         0.76546E-05
         0.35323E-05
         0.88190E-06
         0.43020E-04
         0.41433E-04
         0.31568E-04
        -0.13889E-05
        -0.20328E-05
        -0.24556E-05
        -0.14069E-04
        -0.19532E-04
        -0.10018E-04
        -0.35185E-06
         0.82203E-05
         0.62054E-07
         0.89974E-05
         0.12639E-04
         0.34838E-04
         0.12307E-04
         0.22227E-04
         0.47735E-04
         0.26835E-04
         0.24403E-04
         0.55174E-04
         0.42224E-04
         0.43089E-04
         0.21768E-04
         0.17637E-04
         0.37931E-04
         0.16932E-04
         0.13101E-04
         0.11091E-04
         0.17224E-04
         0.37345E-04
         0.23305E-04
         0.61093E-03
         0.65518E-03
         0.71031E-03
         0.70984E-03
         0.81148E-03
         0.93606E-03
         0.85840E-03
         0.68507E-03
         0.64822E-03
         0.73469E-03
         0.70578E-03
         0.68726E-03
         0.46604E-03
         0.42695E-03
         0.50688E-03
         0.57649E-03
         0.62261E-03
         0.74445E-03
         0.68728E-03
         0.73364E-03
         0.59499E-03
         0.53392E-03
         0.59981E-03
         0.57009E-03
         0.61061E-03
         0.60579E-03
         0.25900E-04
         0.94497E-05
         0.10098E-04
         0.10884E-04
         0.25593E-04
         0.18590E-04
        -0.91645E-06
         0.13211E-04
         0.16138E-04
         0.10378E-04
        -0.45664E-05
         0.72354E-04
         0.44038E-04
        -0.71779E-05
         0.76079E-04
         0.11676E-04
         0.67145E-05
         0.76178E-05
         0.34892E-05
         0.84072E-06
         0.42995E-04
         0.41393E-04
         0.31533E-04
        -0.14399E-05
        -0.20106E-05
        -0.25146E-05
        -0.14084E-04
        -0.19556E-04
        -0.10034E-04
        -0.35681E-06
         0.81775E-05
         0.58342E-08
         0.89561E-05
         0.12635E-04
         0.34805E-04
         0.12258E-04
         0.22183E-04
         0.47810E-04
         0.26924E-04
         0.24443E-04
         0.55232E-04
         0.42252E-04
         0.43071E-04
         0.21741E-04
         0.17601E-04
         0.37900E-04
         0.16897E-04
         0.13060E-04
         0.11029E-04
         0.17157E-04
         0.37277E-04
         0.23242E-04
         0.61036E-03
         0.65477E-03
         0.71022E-03
         0.70982E-03
         0.81118E-03
         0.93531E-03
         0.85750E-03
         0.68457E-03
         0.64781E-03
         0.73414E-03
         0.70549E-03
         0.68727E-03
         0.46590E-03
         0.42686E-03
         0.50696E-03
         0.57679E-03
         0.62298E-03
         0.74473E-03
         0.68710E-03
         0.73345E-03
         0.59478E-03
         0.53376E-03
         0.59931E-03
         0.56926E-03
         0.60983E-03
         0.60505E-03
         0.25960E-04
         0.94703E-05
         0.10122E-04
         0.10924E-04
         0.25619E-04
         0.18621E-04
        -0.86198E-06
         0.13301E-04
         0.16198E-04
         0.10501E-04
        -0.45010E-05
         0.72408E-04
         0.44093E-04
        -0.71323E-05
         0.76362E-04
         0.11746E-04
         0.67604E-05
         0.76625E-05
         0.35498E-05
         0.89835E-06
         0.43074E-04
         0.41460E-04
         0.31597E-04
        -0.13857E-05
        -0.19201E-05
        -0.24626E-05
        -0.13994E-04
        -0.19491E-04
        -0.99373E-05
        -0.25378E-06
         0.82488E-05
         0.46273E-07
         0.90076E-05
         0.12698E-04
         0.34893E-04
         0.12296E-04
         0.22201E-04
         0.48052E-04
         0.27146E-04
         0.24621E-04
         0.55402E-04
         0.42367E-04
         0.43160E-04
         0.21802E-04
         0.17643E-04
         0.37950E-04
         0.16945E-04
         0.13112E-04
         0.11063E-04
         0.17180E-04
         0.37293E-04
         0.23249E-04
         0.61006E-03
         0.65463E-03
         0.71035E-03
         0.70990E-03
         0.81089E-03
         0.93469E-03
         0.85691E-03
         0.68434E-03
         0.64759E-03
         0.73382E-03
         0.70539E-03
         0.68742E-03
         0.46597E-03
         0.42696E-03
         0.50722E-03
         0.57726E-03
         0.62347E-03
         0.74515E-03
         0.68708E-03
         0.73346E-03
         0.59479E-03
         0.53382E-03
         0.59898E-03
         0.56859E-03
         0.60928E-03
         0.60456E-03
         0.25959E-04
         0.94306E-05
         0.10094E-04
         0.10894E-04
         0.25560E-04
         0.18568E-04
        -0.90312E-06
         0.13282E-04
         0.16185E-04
         0.10518E-04
        -0.45625E-05
         0.72332E-04
         0.44050E-04
        -0.72399E-05
         0.76483E-04
         0.11718E-04
         0.67239E-05
         0.75986E-05
         0.34955E-05
         0.83737E-06
         0.43017E-04
         0.41388E-04
         0.31529E-04
        -0.14446E-05
        -0.19309E-05
        -0.25144E-05
        -0.14067E-04
        -0.19576E-04
        -0.99942E-05
        -0.27952E-06
         0.82099E-05
        -0.69695E-08
         0.89306E-05
         0.12656E-04
         0.34863E-04
         0.12241E-04
         0.22131E-04
         0.48118E-04
         0.27196E-04
         0.24618E-04
         0.55392E-04
         0.42329E-04
         0.43111E-04
         0.21734E-04
         0.17575E-04
         0.37897E-04
         0.16891E-04
         0.13045E-04
         0.10987E-04
         0.17109E-04
         0.37210E-04
         0.23156E-04
         0.60948E-03
         0.65422E-03
         0.71021E-03
         0.70977E-03
         0.81047E-03
         0.93392E-03
         0.85609E-03
         0.68386E-03
         0.64711E-03
         0.73321E-03
         0.70497E-03
         0.68733E-03
         0.46581E-03
         0.42682E-03
         0.50726E-03
         0.57753E-03
         0.62371E-03
         0.74532E-03
         0.68690E-03
         0.73325E-03
         0.59456E-03
         0.53371E-03
         0.59852E-03
         0.56775E-03
         0.60847E-03
         0.60380E-03
         0.25978E-04
         0.94175E-05
         0.10089E-04
         0.10891E-04
         0.25538E-04
         0.18546E-04
        -0.90128E-06
         0.13304E-04
         0.16214E-04
         0.10601E-04
        -0.45693E-05
         0.72322E-04
         0.44075E-04
        -0.72788E-05
         0.76657E-04
         0.11729E-04
         0.67421E-05
         0.75811E-05
         0.34958E-05
         0.82739E-06
         0.43017E-04
         0.41376E-04
         0.31520E-04
        -0.14557E-05
        -0.18831E-05
        -0.25296E-05
        -0.14044E-04
        -0.19588E-04
        -0.99999E-05
        -0.26817E-06
         0.81956E-05
        -0.29062E-07
         0.88939E-05
         0.12652E-04
         0.34883E-04
         0.12220E-04
         0.22106E-04
         0.48241E-04
         0.27292E-04
         0.24669E-04
         0.55469E-04
         0.42376E-04
         0.43125E-04
         0.21735E-04
         0.17566E-04
         0.37896E-04
         0.16879E-04
         0.13022E-04
         0.10947E-04
         0.17071E-04
         0.37172E-04
         0.23101E-04
         0.60903E-03
         0.65392E-03
         0.71016E-03
         0.70973E-03
         0.81021E-03
         0.93329E-03
         0.85533E-03
         0.68339E-03
         0.64668E-03
         0.73268E-03
         0.70474E-03
         0.68740E-03
         0.46574E-03
         0.42675E-03
         0.50736E-03
         0.57788E-03
         0.62412E-03
         0.74565E-03
         0.68678E-03
         0.73312E-03
         0.59440E-03
         0.53362E-03
         0.59809E-03
         0.56699E-03
         0.60774E-03
         0.60311E-03
         0.26116E-04
         0.95424E-05
         0.10200E-04
         0.10980E-04
         0.25649E-04
         0.18631E-04
        -0.74457E-06
         0.13466E-04
         0.16327E-04
         0.10791E-04
        -0.44165E-05
         0.72492E-04
         0.44260E-04
        -0.71689E-05
         0.76998E-04
         0.11856E-04
         0.68616E-05
         0.76691E-05
         0.36214E-05
         0.95175E-06
         0.43176E-04
         0.41511E-04
         0.31664E-04
        -0.13383E-05
        -0.16998E-05
        -0.24135E-05
        -0.13873E-04
        -0.19414E-04
        -0.98214E-05
        -0.96682E-07
         0.83254E-05
         0.87845E-07
         0.89790E-05
         0.12734E-04
         0.35058E-04
         0.12339E-04
         0.22225E-04
         0.48523E-04
         0.27582E-04
         0.24902E-04
         0.55694E-04
         0.42569E-04
         0.43271E-04
         0.21891E-04
         0.17711E-04
         0.38052E-04
         0.17015E-04
         0.13148E-04
         0.11034E-04
         0.17135E-04
         0.37237E-04
         0.23145E-04
         0.60885E-03
         0.65389E-03
         0.71037E-03
         0.70990E-03
         0.81015E-03
         0.93292E-03
         0.85482E-03
         0.68319E-03
         0.64655E-03
         0.73243E-03
         0.70470E-03
         0.68771E-03
         0.46588E-03
         0.42693E-03
         0.50773E-03
         0.57850E-03
         0.62482E-03
         0.74627E-03
         0.68693E-03
         0.73327E-03
         0.59450E-03
         0.53373E-03
         0.59784E-03
         0.56645E-03
         0.60729E-03
         0.60270E-03
         0.26092E-04
         0.95064E-05
         0.10174E-04
         0.10940E-04
         0.25578E-04
         0.18577E-04
        -0.77993E-06
         0.13432E-04
         0.16297E-04
         0.10791E-04
        -0.44766E-05
         0.72434E-04
         0.44263E-04
        -0.72798E-05
         0.77095E-04
         0.11815E-04
         0.68118E-05
         0.76161E-05
         0.35479E-05
         0.87825E-06
         0.43143E-04
         0.41444E-04
         0.31626E-04
        -0.14093E-05
        -0.17216E-05
        -0.24865E-05
        -0.13937E-04
        -0.19472E-04
        -0.98228E-05
        -0.10839E-06
         0.83007E-05
         0.27777E-07
         0.89233E-05
         0.12683E-04
         0.35011E-04
         0.12288E-04
         0.22188E-04
         0.48577E-04
         0.27653E-04
         0.24949E-04
         0.55719E-04
         0.42551E-04
         0.43211E-04
         0.21843E-04
         0.17653E-04
         0.38005E-04
         0.16972E-04
         0.13112E-04
         0.10968E-04
         0.17043E-04
         0.37146E-04
         0.23051E-04
         0.60822E-03
         0.65343E-03
         0.71021E-03
         0.70984E-03
         0.80986E-03
         0.93222E-03
         0.85394E-03
         0.68265E-03
         0.64606E-03
         0.73181E-03
         0.70429E-03
         0.68759E-03
         0.46570E-03
         0.42684E-03
         0.50785E-03
         0.57886E-03
         0.62518E-03
         0.74650E-03
         0.68674E-03
         0.73307E-03
         0.59430E-03
         0.53357E-03
         0.59730E-03
         0.56562E-03
         0.60654E-03
         0.60195E-03
         0.26037E-04
         0.94153E-05
         0.10092E-04
         0.10884E-04
         0.25476E-04
         0.18484E-04
        -0.84569E-06
         0.13388E-04
         0.16242E-04
         0.10725E-04
        -0.45502E-05
         0.72339E-04
         0.44221E-04
        -0.73924E-05
         0.77175E-04
         0.11760E-04
         0.67276E-05
         0.75557E-05
         0.34887E-05
         0.84024E-06
         0.43098E-04
         0.41365E-04
         0.31577E-04
        -0.14702E-05
        -0.18027E-05
        -0.25582E-05
        -0.14093E-04
        -0.19566E-04
        -0.96152E-05
         0.19441E-07
         0.82452E-05
        -0.55939E-07
         0.88680E-05
         0.12649E-04
         0.34954E-04
         0.12206E-04
         0.22107E-04
         0.48573E-04
         0.27726E-04
         0.25170E-04
         0.55800E-04
         0.42527E-04
         0.43122E-04
         0.21791E-04
         0.17576E-04
         0.37924E-04
         0.16890E-04
         0.13046E-04
         0.10894E-04
         0.16964E-04
         0.37061E-04
         0.22947E-04
         0.60765E-03
         0.65302E-03
         0.71010E-03
         0.70976E-03
         0.80949E-03
         0.93140E-03
         0.85300E-03
         0.68208E-03
         0.64557E-03
         0.73130E-03
         0.70374E-03
         0.68719E-03
         0.46546E-03
         0.42671E-03
         0.50790E-03
         0.57916E-03
         0.62550E-03
         0.74671E-03
         0.68650E-03
         0.73281E-03
         0.59408E-03
         0.53341E-03
         0.59675E-03
         0.56478E-03
         0.60573E-03
         0.60115E-03
         0.26169E-04
         0.95300E-05
         0.10212E-04
         0.10990E-04
         0.25595E-04
         0.18578E-04
        -0.70681E-06
         0.13547E-04
         0.16328E-04
         0.10785E-04
        -0.44122E-05
         0.72466E-04
         0.44368E-04
        -0.72907E-05
         0.77496E-04
         0.11888E-04
         0.68148E-05
         0.76379E-05
         0.36330E-05
         0.10484E-05
         0.43233E-04
         0.41482E-04
         0.31696E-04
        -0.13436E-05
        -0.17164E-05
        -0.24317E-05
        -0.14116E-04
        -0.19457E-04
        -0.89966E-05
         0.50178E-06
         0.83580E-05
         0.62933E-07
         0.89512E-05
         0.12756E-04
         0.35140E-04
         0.12339E-04
         0.22219E-04
         0.48760E-04
         0.28037E-04
         0.25758E-04
         0.56145E-04
         0.42716E-04
         0.43215E-04
         0.21928E-04
         0.17719E-04
         0.38095E-04
         0.17032E-04
         0.13161E-04
         0.10992E-04
         0.17061E-04
         0.37160E-04
         0.23007E-04
         0.60749E-03
         0.65300E-03
         0.71036E-03
         0.70997E-03
         0.80935E-03
         0.93092E-03
         0.85247E-03
         0.68193E-03
         0.64548E-03
         0.73126E-03
         0.70342E-03
         0.68693E-03
         0.46546E-03
         0.42685E-03
         0.50819E-03
         0.57966E-03
         0.62608E-03
         0.74729E-03
         0.68669E-03
         0.73298E-03
         0.59420E-03
         0.53359E-03
         0.59659E-03
         0.56428E-03
         0.60525E-03
         0.60073E-03
         0.25790E-04
         0.91087E-05
         0.98087E-05
         0.10608E-04
         0.25096E-04
         0.18110E-04
        -0.11582E-05
         0.13101E-04
         0.15912E-04
         0.10284E-04
        -0.49276E-05
         0.71870E-04
         0.43846E-04
        -0.78750E-05
         0.77062E-04
         0.11501E-04
         0.63569E-05
         0.72382E-05
         0.31753E-05
         0.60472E-06
         0.42724E-04
         0.40964E-04
         0.31194E-04
        -0.17903E-05
        -0.22193E-05
        -0.28558E-05
        -0.14753E-04
        -0.19989E-04
        -0.92229E-05
         0.20808E-06
         0.79664E-05
        -0.37868E-06
         0.85286E-05
         0.12325E-04
         0.34617E-04
         0.11836E-04
         0.21695E-04
         0.48234E-04
         0.27635E-04
         0.25511E-04
         0.55708E-04
         0.42203E-04
         0.42674E-04
         0.21444E-04
         0.17201E-04
         0.37514E-04
         0.16521E-04
         0.12694E-04
         0.10511E-04
         0.16531E-04
         0.36557E-04
         0.22458E-04
         0.60603E-03
         0.65172E-03
         0.70933E-03
         0.70894E-03
         0.80806E-03
         0.92931E-03
         0.85074E-03
         0.68049E-03
         0.64415E-03
         0.72983E-03
         0.70192E-03
         0.68570E-03
         0.46447E-03
         0.42602E-03
         0.50748E-03
         0.57915E-03
         0.62559E-03
         0.74660E-03
         0.68554E-03
         0.73187E-03
         0.59315E-03
         0.53264E-03
         0.59524E-03
         0.56258E-03
         0.60367E-03
         0.59919E-03
         0.26044E-04
         0.91379E-05
         0.98918E-05
         0.10767E-04
         0.25241E-04
         0.18249E-04
        -0.10807E-05
         0.13414E-04
         0.16228E-04
         0.10790E-04
        -0.47814E-05
         0.71883E-04
         0.43740E-04
        -0.75724E-05
         0.77506E-04
         0.11838E-04
         0.66817E-05
         0.74471E-05
         0.34317E-05
         0.86011E-06
         0.42977E-04
         0.41140E-04
         0.31568E-04
        -0.14555E-05
        -0.16778E-05
        -0.25444E-05
        -0.14205E-04
        -0.19379E-04
        -0.87041E-05
         0.69362E-06
         0.82299E-05
        -0.18670E-06
         0.86360E-05
         0.12267E-04
         0.34737E-04
         0.11795E-04
         0.21542E-04
         0.48737E-04
         0.28189E-04
         0.25939E-04
         0.56015E-04
         0.42562E-04
         0.43026E-04
         0.21798E-04
         0.17395E-04
         0.37619E-04
         0.16608E-04
         0.12900E-04
         0.10649E-04
         0.16511E-04
         0.36566E-04
         0.22425E-04
         0.60597E-03
         0.65192E-03
         0.70943E-03
         0.70873E-03
         0.80735E-03
         0.92840E-03
         0.85047E-03
         0.68060E-03
         0.64420E-03
         0.72953E-03
         0.70176E-03
         0.68608E-03
         0.46486E-03
         0.42619E-03
         0.50803E-03
         0.58010E-03
         0.62650E-03
         0.74731E-03
         0.68561E-03
         0.73177E-03
         0.59325E-03
         0.53288E-03
         0.59529E-03
         0.56242E-03
         0.60346E-03
         0.59903E-03
         0.15977E-02
         0.16484E-02
         0.16366E-02
         0.14952E-02
         0.19067E-02
         0.17744E-02
         0.17732E-02
         0.18102E-02
         0.15609E-02
         0.18129E-02
         0.19711E-02
         0.23546E-02
         0.20915E-02
         0.20325E-02
         0.24266E-02
         0.15220E-02
         0.16314E-02
         0.14271E-02
         0.16971E-02
         0.17725E-02
         0.19261E-02
         0.19392E-02
         0.18391E-02
         0.16191E-02
         0.18063E-02
         0.15499E-02
         0.20061E-02
         0.19393E-02
         0.19516E-02
         0.18708E-02
         0.15344E-02
         0.16055E-02
         0.15029E-02
         0.15721E-02
         0.21273E-02
         0.18877E-02
         0.19002E-02
         0.22788E-02
         0.21752E-02
         0.21395E-02
         0.22315E-02
         0.20989E-02
         0.19924E-02
         0.17766E-02
         0.18483E-02
         0.21429E-02
         0.19222E-02
         0.17876E-02
         0.17430E-02
         0.18166E-02
         0.20309E-02
         0.18376E-02
         0.42651E-02
         0.42230E-02
         0.43512E-02
         0.42267E-02
         0.44257E-02
         0.47153E-02
         0.46582E-02
         0.44514E-02
         0.44492E-02
         0.46408E-02
         0.44993E-02
         0.42703E-02
         0.36569E-02
         0.34371E-02
         0.35665E-02
         0.37128E-02
         0.37972E-02
         0.41948E-02
         0.43754E-02
         0.44289E-02
         0.39896E-02
         0.38144E-02
         0.39941E-02
         0.39268E-02
         0.39387E-02
         0.39366E-02
         0.16862E-01
         0.17633E-01
         0.17390E-01
         0.15933E-01
         0.19441E-01
         0.18306E-01
         0.19014E-01
         0.19157E-01
         0.16508E-01
         0.19147E-01
         0.20797E-01
         0.23250E-01
         0.21133E-01
         0.21378E-01
         0.24042E-01
         0.16189E-01
         0.17351E-01
         0.15236E-01
         0.17894E-01
         0.18787E-01
         0.19421E-01
         0.19827E-01
         0.18668E-01
         0.17239E-01
         0.19360E-01
         0.16662E-01
         0.21303E-01
         0.20955E-01
         0.21046E-01
         0.20016E-01
         0.16357E-01
         0.17168E-01
         0.16054E-01
         0.16757E-01
         0.21217E-01
         0.19526E-01
         0.19589E-01
         0.23285E-01
         0.22693E-01
         0.22427E-01
         0.22831E-01
         0.21716E-01
         0.20580E-01
         0.18238E-01
         0.18959E-01
         0.21212E-01
         0.19666E-01
         0.18538E-01
         0.18186E-01
         0.18827E-01
         0.20380E-01
         0.18881E-01
         0.33731E-01
         0.32954E-01
         0.33694E-01
         0.32691E-01
         0.33730E-01
         0.35520E-01
         0.35976E-01
         0.35676E-01
         0.35864E-01
         0.36754E-01
         0.35721E-01
         0.33683E-01
         0.30103E-01
         0.28475E-01
         0.28655E-01
         0.29093E-01
         0.29416E-01
         0.31907E-01
         0.33959E-01
         0.34143E-01
         0.31574E-01
         0.30579E-01
         0.31621E-01
         0.31368E-01
         0.31074E-01
         0.30973E-01
  
SCALARS                      strain_yz  double 1
LOOKUP_TABLE default
         0.20439E-03
        -0.63021E-04
        -0.17194E-03
        -0.95939E-04
        -0.94799E-10
        -0.26129E-10
        -0.11748E-09
        -0.89610E-10
        -0.61207E-03
         0.41335E-03
        -0.17484E-09
        -0.15393E-09
        -0.47643E-03
        -0.24109E-04
         0.12513E-09
        -0.80223E-11
         0.20846E-03
         0.61188E-03
         0.18409E-11
         0.18836E-10
        -0.28559E-03
        -0.98117E-03
        -0.11750E-02
         0.28683E-09
         0.49535E-09
         0.41405E-09
        -0.97067E-04
        -0.85854E-03
         0.20632E-09
         0.40027E-09
         0.23733E-03
         0.18778E-03
        -0.19129E-03
         0.10696E-09
         0.10919E-09
        -0.22669E-11
         0.66773E-03
         0.56302E-03
         0.19683E-09
         0.15314E-09
         0.62402E-03
         0.35678E-03
         0.14875E-09
         0.13594E-09
         0.61429E-03
         0.21914E-03
        -0.49344E-11
         0.76325E-10
         0.42876E-03
         0.35936E-10
         0.57785E-04
        -0.29105E-11
         0.21504E-04
         0.13900E-09
        -0.13597E-03
         0.80862E-10
        -0.44381E-03
         0.92218E-04
         0.21937E-11
        -0.44524E-11
         0.28727E-03
         0.10110E-02
        -0.29889E-10
        -0.11180E-09
         0.17730E-03
        -0.60332E-10
         0.72985E-03
        -0.73498E-10
        -0.52536E-03
        -0.27467E-03
        -0.90830E-11
         0.11993E-09
        -0.93190E-03
         0.26334E-09
        -0.10264E-02
         0.25498E-09
        -0.10042E-02
         0.19356E-09
        -0.84018E-03
         0.16224E-09
        -0.13376E-02
        -0.11103E-02
         0.10407E-09
        -0.23075E-10
        -0.17870E-03
        -0.25819E-11
         0.95825E-03
        -0.16174E-09
         0.21669E-02
        -0.28315E-09
         0.29155E-02
         0.17686E-02
        -0.41996E-09
        -0.33992E-09
         0.12772E-02
        -0.26387E-09
         0.11672E-02
        -0.26995E-09
         0.11172E-02
        -0.29026E-09
         0.18482E-02
         0.15620E-02
        -0.26993E-09
        -0.12934E-09
        -0.11239E-02
         0.44660E-03
         0.94911E-10
        -0.11794E-09
        -0.27372E-02
         0.31575E-09
        -0.41459E-02
         0.46186E-09
        -0.48013E-02
         0.57040E-09
        -0.49139E-02
         0.56579E-09
        -0.49589E-02
         0.44775E-09
        -0.45595E-02
         0.34650E-09
        -0.42442E-02
         0.32228E-09
        -0.37902E-02
         0.30662E-09
        -0.31019E-02
         0.19596E-09
        -0.25178E-02
         0.64696E-10
        -0.14933E-02
         0.41804E-10
         0.11701E-03
         0.62835E-10
         0.16770E-02
         0.32453E-10
         0.31555E-02
        -0.98145E-10
         0.48752E-02
        -0.27703E-09
         0.48604E-02
        -0.43259E-09
         0.48350E-02
        -0.56712E-09
         0.59654E-02
        -0.56662E-09
         0.65223E-02
        -0.49464E-09
         0.61918E-02
        -0.48207E-09
         0.48104E-02
        -0.48507E-09
         0.32725E-02
        -0.38358E-09
         0.23998E-02
        -0.22683E-09
         0.18022E-02
        -0.17539E-09
        -0.46989E-02
        -0.24658E-02
        -0.21484E-02
        -0.65472E-03
        -0.22348E-02
        -0.23370E-02
        -0.25147E-03
        -0.38247E-02
        -0.32041E-02
        -0.47723E-02
         0.25686E-02
         0.10996E-01
         0.74474E-02
         0.86310E-03
         0.11068E-01
         0.12380E-02
        -0.11007E-02
         0.70162E-03
         0.94132E-03
        -0.70812E-03
         0.65479E-03
         0.53749E-03
        -0.18210E-02
         0.15313E-03
        -0.32563E-02
         0.48168E-03
         0.25284E-04
         0.44153E-03
         0.54106E-03
        -0.25729E-02
         0.12105E-02
        -0.13367E-02
         0.88040E-03
        -0.21698E-03
         0.37232E-03
         0.19942E-02
         0.44464E-02
         0.96778E-02
         0.88501E-02
         0.75586E-02
         0.71723E-02
         0.17483E-02
        -0.14035E-02
        -0.38596E-02
        -0.64396E-02
        -0.10693E-01
        -0.69185E-02
        -0.48846E-02
        -0.52172E-02
        -0.56103E-02
        -0.66603E-02
        -0.29947E-02
         0.59234E-02
        -0.70294E-02
         0.19083E-01
         0.26288E-01
         0.33547E-01
         0.40137E-01
         0.40640E-01
         0.36859E-01
         0.35034E-01
         0.33141E-01
         0.21471E-01
         0.92534E-02
         0.40399E-02
         0.17756E-02
        -0.27066E-02
        -0.10661E-01
        -0.19601E-01
        -0.25748E-01
        -0.31796E-01
        -0.36294E-01
        -0.33943E-01
        -0.32083E-01
        -0.29886E-01
        -0.20921E-01
        -0.12102E-01
        -0.10588E-01
        -0.59015E-02
        -0.37221E-02
        -0.34444E-02
        -0.81697E-03
        -0.44736E-02
        -0.20120E-02
        -0.15955E-02
        -0.55777E-02
        -0.36577E-02
        -0.52460E-02
         0.27735E-02
         0.12004E-01
         0.71113E-02
         0.10219E-02
         0.11827E-01
         0.22380E-02
        -0.67824E-03
         0.64752E-03
         0.29185E-02
         0.56426E-03
         0.25156E-02
         0.17860E-02
        -0.10355E-02
         0.87396E-03
        -0.35326E-02
         0.87378E-03
         0.21926E-03
         0.40760E-03
        -0.65108E-03
        -0.35239E-02
         0.24120E-02
         0.63536E-03
         0.15590E-02
         0.13536E-02
        -0.64545E-03
         0.19675E-02
         0.37565E-02
         0.89881E-02
         0.79261E-02
         0.69850E-02
         0.51315E-02
        -0.12680E-02
        -0.26118E-02
        -0.32624E-02
        -0.42009E-02
        -0.85815E-02
        -0.49934E-02
        -0.33021E-02
        -0.41501E-02
        -0.48993E-02
        -0.50765E-02
        -0.38089E-03
         0.63294E-02
        -0.90537E-02
         0.21069E-01
         0.27228E-01
         0.35143E-01
         0.42172E-01
         0.41307E-01
         0.36072E-01
         0.34569E-01
         0.34203E-01
         0.21478E-01
         0.70790E-02
         0.28206E-02
         0.24169E-02
        -0.11194E-02
        -0.94960E-02
        -0.19024E-01
        -0.26477E-01
        -0.34459E-01
        -0.38210E-01
        -0.33553E-01
        -0.31721E-01
        -0.31627E-01
        -0.22268E-01
        -0.11568E-01
        -0.10953E-01
        -0.59052E-02
        -0.37228E-02
        -0.34461E-02
        -0.82297E-03
        -0.44741E-02
        -0.20136E-02
        -0.15975E-02
        -0.55871E-02
        -0.36643E-02
        -0.52656E-02
         0.27752E-02
         0.12003E-01
         0.71131E-02
         0.10220E-02
         0.11842E-01
         0.22382E-02
        -0.68440E-03
         0.64655E-03
         0.29205E-02
         0.56111E-03
         0.25218E-02
         0.17878E-02
        -0.10357E-02
         0.87354E-03
        -0.35486E-02
         0.87219E-03
         0.22185E-03
         0.40988E-03
        -0.64679E-03
        -0.35314E-02
         0.24124E-02
         0.63397E-03
         0.15624E-02
         0.13559E-02
        -0.63938E-03
         0.19688E-02
         0.37564E-02
         0.90019E-02
         0.79431E-02
         0.69931E-02
         0.51355E-02
        -0.12646E-02
        -0.26145E-02
        -0.32641E-02
        -0.42011E-02
        -0.85816E-02
        -0.49939E-02
        -0.33001E-02
        -0.41445E-02
        -0.48928E-02
        -0.50743E-02
        -0.37513E-03
         0.63235E-02
        -0.90543E-02
         0.21073E-01
         0.27229E-01
         0.35138E-01
         0.42157E-01
         0.41290E-01
         0.36061E-01
         0.34562E-01
         0.34194E-01
         0.21474E-01
         0.70823E-02
         0.28204E-02
         0.24218E-02
        -0.11103E-02
        -0.95011E-02
        -0.19033E-01
        -0.26483E-01
        -0.34458E-01
        -0.38208E-01
        -0.33550E-01
        -0.31720E-01
        -0.31619E-01
        -0.22252E-01
        -0.11555E-01
        -0.10939E-01
        -0.59089E-02
        -0.37235E-02
        -0.34478E-02
        -0.82902E-03
        -0.44746E-02
        -0.20152E-02
        -0.15995E-02
        -0.55965E-02
        -0.36709E-02
        -0.52851E-02
         0.27768E-02
         0.12002E-01
         0.71149E-02
         0.10219E-02
         0.11857E-01
         0.22383E-02
        -0.69064E-03
         0.64557E-03
         0.29226E-02
         0.55791E-03
         0.25281E-02
         0.17894E-02
        -0.10361E-02
         0.87301E-03
        -0.35645E-02
         0.87038E-03
         0.22461E-03
         0.41231E-03
        -0.64210E-03
        -0.35386E-02
         0.24128E-02
         0.63229E-03
         0.15659E-02
         0.13580E-02
        -0.63329E-03
         0.19701E-02
         0.37561E-02
         0.90158E-02
         0.79603E-02
         0.70013E-02
         0.51396E-02
        -0.12608E-02
        -0.26170E-02
        -0.32662E-02
        -0.42016E-02
        -0.85818E-02
        -0.49944E-02
        -0.32980E-02
        -0.41391E-02
        -0.48862E-02
        -0.50722E-02
        -0.36938E-03
         0.63176E-02
        -0.90548E-02
         0.21077E-01
         0.27229E-01
         0.35134E-01
         0.42143E-01
         0.41273E-01
         0.36050E-01
         0.34555E-01
         0.34184E-01
         0.21469E-01
         0.70858E-02
         0.28202E-02
         0.24268E-02
        -0.11011E-02
        -0.95062E-02
        -0.19042E-01
        -0.26490E-01
        -0.34457E-01
        -0.38205E-01
        -0.33548E-01
        -0.31719E-01
        -0.31611E-01
        -0.22237E-01
        -0.11543E-01
        -0.10925E-01
        -0.59126E-02
        -0.37242E-02
        -0.34496E-02
        -0.83511E-03
        -0.44751E-02
        -0.20169E-02
        -0.16016E-02
        -0.56059E-02
        -0.36775E-02
        -0.53043E-02
         0.27785E-02
         0.12001E-01
         0.71168E-02
         0.10219E-02
         0.11872E-01
         0.22385E-02
        -0.69698E-03
         0.64456E-03
         0.29247E-02
         0.55452E-03
         0.25345E-02
         0.17909E-02
        -0.10370E-02
         0.87215E-03
        -0.35798E-02
         0.86800E-03
         0.22746E-03
         0.41551E-03
        -0.63628E-03
        -0.35451E-02
         0.24130E-02
         0.63001E-03
         0.15694E-02
         0.13602E-02
        -0.62722E-03
         0.19714E-02
         0.37559E-02
         0.90298E-02
         0.79778E-02
         0.70100E-02
         0.51444E-02
        -0.12560E-02
        -0.26191E-02
        -0.32694E-02
        -0.42028E-02
        -0.85822E-02
        -0.49952E-02
        -0.32961E-02
        -0.41336E-02
        -0.48796E-02
        -0.50700E-02
        -0.36365E-03
         0.63117E-02
        -0.90553E-02
         0.21081E-01
         0.27229E-01
         0.35130E-01
         0.42129E-01
         0.41255E-01
         0.36040E-01
         0.34547E-01
         0.34175E-01
         0.21465E-01
         0.70900E-02
         0.28203E-02
         0.24317E-02
        -0.10919E-02
        -0.95118E-02
        -0.19052E-01
        -0.26497E-01
        -0.34457E-01
        -0.38203E-01
        -0.33546E-01
        -0.31717E-01
        -0.31603E-01
        -0.22221E-01
        -0.11530E-01
        -0.10910E-01
        -0.59162E-02
        -0.37249E-02
        -0.34513E-02
        -0.84116E-03
        -0.44757E-02
        -0.20185E-02
        -0.16036E-02
        -0.56152E-02
        -0.36841E-02
        -0.53233E-02
         0.27802E-02
         0.12000E-01
         0.71186E-02
         0.10219E-02
         0.11887E-01
         0.22387E-02
        -0.70342E-03
         0.64355E-03
         0.29269E-02
         0.55094E-03
         0.25410E-02
         0.17923E-02
        -0.10384E-02
         0.87093E-03
        -0.35945E-02
         0.86500E-03
         0.23064E-03
         0.41944E-03
        -0.62930E-03
        -0.35509E-02
         0.24130E-02
         0.62704E-03
         0.15728E-02
         0.13624E-02
        -0.62111E-03
         0.19727E-02
         0.37557E-02
         0.90438E-02
         0.79955E-02
         0.70193E-02
         0.51499E-02
        -0.12501E-02
        -0.26206E-02
        -0.32738E-02
        -0.42049E-02
        -0.85833E-02
        -0.49963E-02
        -0.32943E-02
        -0.41282E-02
        -0.48730E-02
        -0.50678E-02
        -0.35789E-03
         0.63057E-02
        -0.90558E-02
         0.21085E-01
         0.27229E-01
         0.35126E-01
         0.42114E-01
         0.41238E-01
         0.36029E-01
         0.34540E-01
         0.34165E-01
         0.21462E-01
         0.70949E-02
         0.28205E-02
         0.24365E-02
        -0.10826E-02
        -0.95179E-02
        -0.19064E-01
        -0.26505E-01
        -0.34457E-01
        -0.38201E-01
        -0.33543E-01
        -0.31716E-01
        -0.31595E-01
        -0.22205E-01
        -0.11517E-01
        -0.10896E-01
        -0.59197E-02
        -0.37253E-02
        -0.34530E-02
        -0.84728E-03
        -0.44762E-02
        -0.20201E-02
        -0.16053E-02
        -0.56240E-02
        -0.36908E-02
        -0.53418E-02
         0.27821E-02
         0.11999E-01
         0.71205E-02
         0.10221E-02
         0.11902E-01
         0.22390E-02
        -0.71000E-03
         0.64256E-03
         0.29292E-02
         0.54729E-03
         0.25475E-02
         0.17936E-02
        -0.10399E-02
         0.86958E-03
        -0.36089E-02
         0.86181E-03
         0.23405E-03
         0.42378E-03
        -0.62183E-03
        -0.35564E-02
         0.24128E-02
         0.62373E-03
         0.15763E-02
         0.13648E-02
        -0.61496E-03
         0.19741E-02
         0.37557E-02
         0.90580E-02
         0.80136E-02
         0.70289E-02
         0.51555E-02
        -0.12439E-02
        -0.26220E-02
        -0.32785E-02
        -0.42075E-02
        -0.85847E-02
        -0.49976E-02
        -0.32928E-02
        -0.41230E-02
        -0.48665E-02
        -0.50657E-02
        -0.35212E-03
         0.62998E-02
        -0.90563E-02
         0.21089E-01
         0.27229E-01
         0.35121E-01
         0.42100E-01
         0.41220E-01
         0.36018E-01
         0.34533E-01
         0.34156E-01
         0.21458E-01
         0.71002E-02
         0.28209E-02
         0.24413E-02
        -0.10734E-02
        -0.95241E-02
        -0.19076E-01
        -0.26513E-01
        -0.34456E-01
        -0.38198E-01
        -0.33541E-01
        -0.31715E-01
        -0.31586E-01
        -0.22189E-01
        -0.11505E-01
        -0.10881E-01
        -0.59229E-02
        -0.37252E-02
        -0.34547E-02
        -0.85357E-03
        -0.44768E-02
        -0.20217E-02
        -0.16067E-02
        -0.56321E-02
        -0.36976E-02
        -0.53595E-02
         0.27843E-02
         0.11998E-01
         0.71229E-02
         0.10229E-02
         0.11917E-01
         0.22394E-02
        -0.71674E-03
         0.64157E-03
         0.29315E-02
         0.54363E-03
         0.25541E-02
         0.17949E-02
        -0.10415E-02
         0.86827E-03
        -0.36229E-02
         0.85859E-03
         0.23808E-03
         0.42840E-03
        -0.61422E-03
        -0.35618E-02
         0.24126E-02
         0.62019E-03
         0.15799E-02
         0.13672E-02
        -0.60879E-03
         0.19756E-02
         0.37558E-02
         0.90723E-02
         0.80317E-02
         0.70384E-02
         0.51613E-02
        -0.12376E-02
        -0.26233E-02
        -0.32833E-02
        -0.42103E-02
        -0.85864E-02
        -0.49997E-02
        -0.32923E-02
        -0.41187E-02
        -0.48603E-02
        -0.50635E-02
        -0.34629E-03
         0.62939E-02
        -0.90568E-02
         0.21093E-01
         0.27230E-01
         0.35117E-01
         0.42086E-01
         0.41203E-01
         0.36007E-01
         0.34526E-01
         0.34146E-01
         0.21455E-01
         0.71054E-02
         0.28213E-02
         0.24461E-02
        -0.10641E-02
        -0.95303E-02
        -0.19088E-01
        -0.26521E-01
        -0.34455E-01
        -0.38196E-01
        -0.33540E-01
        -0.31714E-01
        -0.31578E-01
        -0.22173E-01
        -0.11492E-01
        -0.10867E-01
        -0.59259E-02
        -0.37250E-02
        -0.34563E-02
        -0.85994E-03
        -0.44774E-02
        -0.20234E-02
        -0.16078E-02
        -0.56397E-02
        -0.37044E-02
        -0.53768E-02
         0.27868E-02
         0.11997E-01
         0.71252E-02
         0.10238E-02
         0.11933E-01
         0.22398E-02
        -0.72356E-03
         0.64055E-03
         0.29337E-02
         0.53998E-03
         0.25607E-02
         0.17962E-02
        -0.10431E-02
         0.86700E-03
        -0.36368E-02
         0.85539E-03
         0.24226E-03
         0.43313E-03
        -0.60659E-03
        -0.35671E-02
         0.24124E-02
         0.61649E-03
         0.15836E-02
         0.13697E-02
        -0.60257E-03
         0.19773E-02
         0.37561E-02
         0.90869E-02
         0.80499E-02
         0.70481E-02
         0.51671E-02
        -0.12312E-02
        -0.26246E-02
        -0.32881E-02
        -0.42131E-02
        -0.85884E-02
        -0.50020E-02
        -0.32920E-02
        -0.41148E-02
        -0.48542E-02
        -0.50615E-02
        -0.34046E-03
         0.62879E-02
        -0.90573E-02
         0.21096E-01
         0.27230E-01
         0.35113E-01
         0.42071E-01
         0.41185E-01
         0.35996E-01
         0.34519E-01
         0.34136E-01
         0.21451E-01
         0.71106E-02
         0.28217E-02
         0.24510E-02
        -0.10548E-02
        -0.95365E-02
        -0.19100E-01
        -0.26529E-01
        -0.34454E-01
        -0.38193E-01
        -0.33538E-01
        -0.31714E-01
        -0.31570E-01
        -0.22157E-01
        -0.11479E-01
        -0.10852E-01
        -0.59290E-02
        -0.37248E-02
        -0.34580E-02
        -0.86630E-03
        -0.44779E-02
        -0.20250E-02
        -0.16089E-02
        -0.56474E-02
        -0.37113E-02
        -0.53940E-02
         0.27892E-02
         0.11997E-01
         0.71275E-02
         0.10249E-02
         0.11948E-01
         0.22402E-02
        -0.73042E-03
         0.63953E-03
         0.29360E-02
         0.53630E-03
         0.25672E-02
         0.17976E-02
        -0.10446E-02
         0.86573E-03
        -0.36506E-02
         0.85221E-03
         0.24655E-03
         0.43782E-03
        -0.59897E-03
        -0.35725E-02
         0.24121E-02
         0.61284E-03
         0.15873E-02
         0.13722E-02
        -0.59631E-03
         0.19788E-02
         0.37563E-02
         0.91014E-02
         0.80682E-02
         0.70576E-02
         0.51729E-02
        -0.12249E-02
        -0.26258E-02
        -0.32929E-02
        -0.42161E-02
        -0.85904E-02
        -0.50042E-02
        -0.32918E-02
        -0.41109E-02
        -0.48482E-02
        -0.50595E-02
        -0.33460E-03
         0.62820E-02
        -0.90578E-02
         0.21100E-01
         0.27230E-01
         0.35109E-01
         0.42057E-01
         0.41167E-01
         0.35985E-01
         0.34511E-01
         0.34127E-01
         0.21448E-01
         0.71158E-02
         0.28222E-02
         0.24560E-02
        -0.10456E-02
        -0.95427E-02
        -0.19112E-01
        -0.26537E-01
        -0.34453E-01
        -0.38191E-01
        -0.33536E-01
        -0.31713E-01
        -0.31562E-01
        -0.22141E-01
        -0.11467E-01
        -0.10838E-01
        -0.59319E-02
        -0.37245E-02
        -0.34596E-02
        -0.87264E-03
        -0.44785E-02
        -0.20265E-02
        -0.16100E-02
        -0.56550E-02
        -0.37182E-02
        -0.54112E-02
         0.27917E-02
         0.11996E-01
         0.71301E-02
         0.10258E-02
         0.11963E-01
         0.22407E-02
        -0.73731E-03
         0.63850E-03
         0.29382E-02
         0.53259E-03
         0.25737E-02
         0.17989E-02
        -0.10461E-02
         0.86447E-03
        -0.36645E-02
         0.84903E-03
         0.25072E-03
         0.44245E-03
        -0.59137E-03
        -0.35778E-02
         0.24118E-02
         0.60917E-03
         0.15909E-02
         0.13747E-02
        -0.59007E-03
         0.19804E-02
         0.37566E-02
         0.91160E-02
         0.80865E-02
         0.70673E-02
         0.51787E-02
        -0.12186E-02
        -0.26272E-02
        -0.32977E-02
        -0.42189E-02
        -0.85923E-02
        -0.50065E-02
        -0.32917E-02
        -0.41069E-02
        -0.48420E-02
        -0.50574E-02
        -0.32877E-03
         0.62760E-02
        -0.90582E-02
         0.21104E-01
         0.27230E-01
         0.35104E-01
         0.42043E-01
         0.41150E-01
         0.35974E-01
         0.34504E-01
         0.34117E-01
         0.21444E-01
         0.71209E-02
         0.28227E-02
         0.24609E-02
        -0.10363E-02
        -0.95489E-02
        -0.19124E-01
        -0.26545E-01
        -0.34452E-01
        -0.38188E-01
        -0.33535E-01
        -0.31712E-01
        -0.31553E-01
        -0.22125E-01
        -0.11454E-01
        -0.10824E-01
        -0.59349E-02
        -0.37241E-02
        -0.34613E-02
        -0.87897E-03
        -0.44791E-02
        -0.20282E-02
        -0.16112E-02
        -0.56625E-02
        -0.37251E-02
        -0.54284E-02
         0.27942E-02
         0.11996E-01
         0.71324E-02
         0.10268E-02
         0.11979E-01
         0.22411E-02
        -0.74421E-03
         0.63748E-03
         0.29404E-02
         0.52887E-03
         0.25803E-02
         0.18001E-02
        -0.10477E-02
         0.86323E-03
        -0.36783E-02
         0.84586E-03
         0.25496E-03
         0.44702E-03
        -0.58379E-03
        -0.35831E-02
         0.24116E-02
         0.60552E-03
         0.15945E-02
         0.13771E-02
        -0.58379E-03
         0.19820E-02
         0.37569E-02
         0.91306E-02
         0.81048E-02
         0.70767E-02
         0.51845E-02
        -0.12122E-02
        -0.26284E-02
        -0.33024E-02
        -0.42218E-02
        -0.85942E-02
        -0.50088E-02
        -0.32915E-02
        -0.41030E-02
        -0.48359E-02
        -0.50554E-02
        -0.32291E-03
         0.62700E-02
        -0.90586E-02
         0.21107E-01
         0.27230E-01
         0.35100E-01
         0.42028E-01
         0.41132E-01
         0.35963E-01
         0.34497E-01
         0.34107E-01
         0.21441E-01
         0.71261E-02
         0.28231E-02
         0.24658E-02
        -0.10271E-02
        -0.95552E-02
        -0.19136E-01
        -0.26553E-01
        -0.34451E-01
        -0.38185E-01
        -0.33533E-01
        -0.31711E-01
        -0.31545E-01
        -0.22110E-01
        -0.11442E-01
        -0.10809E-01
        -0.59379E-02
        -0.37239E-02
        -0.34629E-02
        -0.88535E-03
        -0.44796E-02
        -0.20298E-02
        -0.16122E-02
        -0.56701E-02
        -0.37320E-02
        -0.54455E-02
         0.27967E-02
         0.11995E-01
         0.71347E-02
         0.10278E-02
         0.11994E-01
         0.22415E-02
        -0.75112E-03
         0.63644E-03
         0.29427E-02
         0.52517E-03
         0.25868E-02
         0.18014E-02
        -0.10492E-02
         0.86200E-03
        -0.36921E-02
         0.84271E-03
         0.25911E-03
         0.45156E-03
        -0.57620E-03
        -0.35884E-02
         0.24113E-02
         0.60185E-03
         0.15982E-02
         0.13797E-02
        -0.57748E-03
         0.19836E-02
         0.37571E-02
         0.91452E-02
         0.81231E-02
         0.70863E-02
         0.51903E-02
        -0.12060E-02
        -0.26297E-02
        -0.33071E-02
        -0.42247E-02
        -0.85962E-02
        -0.50110E-02
        -0.32914E-02
        -0.40991E-02
        -0.48299E-02
        -0.50534E-02
        -0.31707E-03
         0.62641E-02
        -0.90591E-02
         0.21111E-01
         0.27231E-01
         0.35096E-01
         0.42014E-01
         0.41114E-01
         0.35952E-01
         0.34490E-01
         0.34097E-01
         0.21437E-01
         0.71312E-02
         0.28235E-02
         0.24707E-02
        -0.10178E-02
        -0.95613E-02
        -0.19149E-01
        -0.26561E-01
        -0.34450E-01
        -0.38183E-01
        -0.33532E-01
        -0.31711E-01
        -0.31536E-01
        -0.22094E-01
        -0.11429E-01
        -0.10795E-01
        -0.59409E-02
        -0.37236E-02
        -0.34646E-02
        -0.89176E-03
        -0.44802E-02
        -0.20314E-02
        -0.16133E-02
        -0.56777E-02
        -0.37389E-02
        -0.54626E-02
         0.27992E-02
         0.11994E-01
         0.71372E-02
         0.10286E-02
         0.12009E-01
         0.22420E-02
        -0.75804E-03
         0.63539E-03
         0.29449E-02
         0.52149E-03
         0.25934E-02
         0.18027E-02
        -0.10507E-02
         0.86077E-03
        -0.37058E-02
         0.83953E-03
         0.26338E-03
         0.45606E-03
        -0.56863E-03
        -0.35937E-02
         0.24110E-02
         0.59815E-03
         0.16018E-02
         0.13822E-02
        -0.57118E-03
         0.19852E-02
         0.37573E-02
         0.91597E-02
         0.81414E-02
         0.70959E-02
         0.51961E-02
        -0.11997E-02
        -0.26309E-02
        -0.33119E-02
        -0.42277E-02
        -0.85980E-02
        -0.50134E-02
        -0.32912E-02
        -0.40952E-02
        -0.48238E-02
        -0.50512E-02
        -0.31124E-03
         0.62581E-02
        -0.90595E-02
         0.21114E-01
         0.27231E-01
         0.35092E-01
         0.41999E-01
         0.41096E-01
         0.35941E-01
         0.34483E-01
         0.34087E-01
         0.21434E-01
         0.71364E-02
         0.28240E-02
         0.24756E-02
        -0.10085E-02
        -0.95675E-02
        -0.19161E-01
        -0.26569E-01
        -0.34450E-01
        -0.38181E-01
        -0.33530E-01
        -0.31710E-01
        -0.31528E-01
        -0.22078E-01
        -0.11417E-01
        -0.10780E-01
        -0.59438E-02
        -0.37233E-02
        -0.34662E-02
        -0.89815E-03
        -0.44808E-02
        -0.20330E-02
        -0.16146E-02
        -0.56852E-02
        -0.37458E-02
        -0.54797E-02
         0.28017E-02
         0.11994E-01
         0.71396E-02
         0.10296E-02
         0.12025E-01
         0.22424E-02
        -0.76498E-03
         0.63436E-03
         0.29471E-02
         0.51781E-03
         0.25999E-02
         0.18040E-02
        -0.10523E-02
         0.85954E-03
        -0.37196E-02
         0.83635E-03
         0.26754E-03
         0.46049E-03
        -0.56109E-03
        -0.35989E-02
         0.24107E-02
         0.59449E-03
         0.16054E-02
         0.13847E-02
        -0.56484E-03
         0.19868E-02
         0.37575E-02
         0.91745E-02
         0.81598E-02
         0.71053E-02
         0.52019E-02
        -0.11933E-02
        -0.26322E-02
        -0.33167E-02
        -0.42306E-02
        -0.86000E-02
        -0.50158E-02
        -0.32910E-02
        -0.40913E-02
        -0.48178E-02
        -0.50492E-02
        -0.30545E-03
         0.62521E-02
        -0.90599E-02
         0.21118E-01
         0.27231E-01
         0.35087E-01
         0.41985E-01
         0.41078E-01
         0.35930E-01
         0.34476E-01
         0.34077E-01
         0.21430E-01
         0.71415E-02
         0.28244E-02
         0.24805E-02
        -0.99926E-03
        -0.95737E-02
        -0.19173E-01
        -0.26577E-01
        -0.34449E-01
        -0.38178E-01
        -0.33529E-01
        -0.31709E-01
        -0.31519E-01
        -0.22062E-01
        -0.11405E-01
        -0.10766E-01
        -0.59468E-02
        -0.37231E-02
        -0.34679E-02
        -0.90453E-03
        -0.44813E-02
        -0.20346E-02
        -0.16157E-02
        -0.56927E-02
        -0.37528E-02
        -0.54967E-02
         0.28042E-02
         0.11993E-01
         0.71419E-02
         0.10304E-02
         0.12040E-01
         0.22428E-02
        -0.77195E-03
         0.63333E-03
         0.29494E-02
         0.51410E-03
         0.26065E-02
         0.18052E-02
        -0.10538E-02
         0.85835E-03
        -0.37334E-02
         0.83317E-03
         0.27177E-03
         0.46485E-03
        -0.55359E-03
        -0.36042E-02
         0.24104E-02
         0.59079E-03
         0.16091E-02
         0.13872E-02
        -0.55851E-03
         0.19884E-02
         0.37578E-02
         0.91892E-02
         0.81781E-02
         0.71148E-02
         0.52077E-02
        -0.11871E-02
        -0.26335E-02
        -0.33214E-02
        -0.42335E-02
        -0.86020E-02
        -0.50180E-02
        -0.32909E-02
        -0.40874E-02
        -0.48116E-02
        -0.50472E-02
        -0.29962E-03
         0.62461E-02
        -0.90603E-02
         0.21121E-01
         0.27231E-01
         0.35083E-01
         0.41970E-01
         0.41060E-01
         0.35919E-01
         0.34469E-01
         0.34067E-01
         0.21427E-01
         0.71467E-02
         0.28248E-02
         0.24854E-02
        -0.99000E-03
        -0.95798E-02
        -0.19185E-01
        -0.26585E-01
        -0.34448E-01
        -0.38176E-01
        -0.33527E-01
        -0.31709E-01
        -0.31511E-01
        -0.22046E-01
        -0.11392E-01
        -0.10752E-01
        -0.59497E-02
        -0.37227E-02
        -0.34695E-02
        -0.91090E-03
        -0.44819E-02
        -0.20362E-02
        -0.16168E-02
        -0.57002E-02
        -0.37598E-02
        -0.55137E-02
         0.28067E-02
         0.11993E-01
         0.71444E-02
         0.10314E-02
         0.12056E-01
         0.22432E-02
        -0.77897E-03
         0.63229E-03
         0.29516E-02
         0.51041E-03
         0.26130E-02
         0.18064E-02
        -0.10553E-02
         0.85716E-03
        -0.37472E-02
         0.82999E-03
         0.27589E-03
         0.46915E-03
        -0.54610E-03
        -0.36095E-02
         0.24101E-02
         0.58713E-03
         0.16127E-02
         0.13897E-02
        -0.55213E-03
         0.19900E-02
         0.37580E-02
         0.92040E-02
         0.81964E-02
         0.71241E-02
         0.52135E-02
        -0.11808E-02
        -0.26348E-02
        -0.33261E-02
        -0.42365E-02
        -0.86039E-02
        -0.50203E-02
        -0.32908E-02
        -0.40835E-02
        -0.48056E-02
        -0.50451E-02
        -0.29378E-03
         0.62400E-02
        -0.90606E-02
         0.21125E-01
         0.27232E-01
         0.35079E-01
         0.41956E-01
         0.41042E-01
         0.35908E-01
         0.34462E-01
         0.34057E-01
         0.21423E-01
         0.71519E-02
         0.28252E-02
         0.24902E-02
        -0.98073E-03
        -0.95859E-02
        -0.19197E-01
        -0.26593E-01
        -0.34447E-01
        -0.38173E-01
        -0.33525E-01
        -0.31708E-01
        -0.31503E-01
        -0.22030E-01
        -0.11380E-01
        -0.10737E-01
        -0.59526E-02
        -0.37224E-02
        -0.34711E-02
        -0.91729E-03
        -0.44825E-02
        -0.20378E-02
        -0.16180E-02
        -0.57077E-02
        -0.37667E-02
        -0.55307E-02
         0.28092E-02
         0.11992E-01
         0.71468E-02
         0.10322E-02
         0.12071E-01
         0.22437E-02
        -0.78602E-03
         0.63122E-03
         0.29538E-02
         0.50676E-03
         0.26195E-02
         0.18076E-02
        -0.10568E-02
         0.85597E-03
        -0.37609E-02
         0.82679E-03
         0.28012E-03
         0.47341E-03
        -0.53861E-03
        -0.36147E-02
         0.24098E-02
         0.58344E-03
         0.16163E-02
         0.13923E-02
        -0.54573E-03
         0.19916E-02
         0.37582E-02
         0.92188E-02
         0.82147E-02
         0.71334E-02
         0.52192E-02
        -0.11745E-02
        -0.26361E-02
        -0.33309E-02
        -0.42394E-02
        -0.86059E-02
        -0.50227E-02
        -0.32907E-02
        -0.40796E-02
        -0.47995E-02
        -0.50431E-02
        -0.28800E-03
         0.62340E-02
        -0.90610E-02
         0.21128E-01
         0.27232E-01
         0.35075E-01
         0.41941E-01
         0.41024E-01
         0.35896E-01
         0.34455E-01
         0.34046E-01
         0.21420E-01
         0.71571E-02
         0.28255E-02
         0.24951E-02
        -0.97150E-03
        -0.95920E-02
        -0.19209E-01
        -0.26601E-01
        -0.34446E-01
        -0.38171E-01
        -0.33524E-01
        -0.31707E-01
        -0.31494E-01
        -0.22014E-01
        -0.11368E-01
        -0.10723E-01
        -0.59555E-02
        -0.37221E-02
        -0.34728E-02
        -0.92371E-03
        -0.44830E-02
        -0.20393E-02
        -0.16191E-02
        -0.57150E-02
        -0.37738E-02
        -0.55477E-02
         0.28117E-02
         0.11992E-01
         0.71491E-02
         0.10331E-02
         0.12086E-01
         0.22441E-02
        -0.79314E-03
         0.63016E-03
         0.29561E-02
         0.50327E-03
         0.26260E-02
         0.18087E-02
        -0.10584E-02
         0.85476E-03
        -0.37747E-02
         0.82363E-03
         0.28431E-03
         0.47764E-03
        -0.53114E-03
        -0.36195E-02
         0.24095E-02
         0.57971E-03
         0.16199E-02
         0.13948E-02
        -0.53934E-03
         0.19932E-02
         0.37585E-02
         0.92338E-02
         0.82330E-02
         0.71422E-02
         0.52249E-02
        -0.11682E-02
        -0.26375E-02
        -0.33356E-02
        -0.42423E-02
        -0.86079E-02
        -0.50249E-02
        -0.32905E-02
        -0.40757E-02
        -0.47934E-02
        -0.50412E-02
        -0.28221E-03
         0.62280E-02
        -0.90613E-02
         0.21132E-01
         0.27232E-01
         0.35070E-01
         0.41927E-01
         0.41006E-01
         0.35885E-01
         0.34448E-01
         0.34035E-01
         0.21417E-01
         0.71624E-02
         0.28256E-02
         0.24999E-02
        -0.96230E-03
        -0.95981E-02
        -0.19221E-01
        -0.26609E-01
        -0.34445E-01
        -0.38168E-01
        -0.33522E-01
        -0.31706E-01
        -0.31485E-01
        -0.21998E-01
        -0.11356E-01
        -0.10708E-01
        -0.59584E-02
        -0.37218E-02
        -0.34744E-02
        -0.93012E-03
        -0.44836E-02
        -0.20409E-02
        -0.16202E-02
        -0.57224E-02
        -0.37809E-02
        -0.55647E-02
         0.28142E-02
         0.11991E-01
         0.71516E-02
         0.10340E-02
         0.12102E-01
         0.22445E-02
        -0.80038E-03
         0.62909E-03
         0.29583E-02
         0.49993E-03
         0.26326E-02
         0.18098E-02
        -0.10599E-02
         0.85359E-03
        -0.37885E-02
         0.82043E-03
         0.28868E-03
         0.48182E-03
        -0.52369E-03
        -0.36241E-02
         0.24092E-02
         0.57603E-03
         0.16235E-02
         0.13973E-02
        -0.53289E-03
         0.19948E-02
         0.37587E-02
         0.92490E-02
         0.82511E-02
         0.71508E-02
         0.52305E-02
        -0.11619E-02
        -0.26389E-02
        -0.33403E-02
        -0.42453E-02
        -0.86099E-02
        -0.50273E-02
        -0.32903E-02
        -0.40718E-02
        -0.47873E-02
        -0.50390E-02
        -0.27637E-03
         0.62219E-02
        -0.90617E-02
         0.21135E-01
         0.27232E-01
         0.35066E-01
         0.41912E-01
         0.40988E-01
         0.35874E-01
         0.34440E-01
         0.34024E-01
         0.21414E-01
         0.71677E-02
         0.28255E-02
         0.25047E-02
        -0.95303E-03
        -0.96043E-02
        -0.19234E-01
        -0.26617E-01
        -0.34444E-01
        -0.38165E-01
        -0.33521E-01
        -0.31706E-01
        -0.31477E-01
        -0.21983E-01
        -0.11344E-01
        -0.10694E-01
        -0.59614E-02
        -0.37216E-02
        -0.34762E-02
        -0.93650E-03
        -0.44843E-02
        -0.20425E-02
        -0.16215E-02
        -0.57298E-02
        -0.37880E-02
        -0.55816E-02
         0.28167E-02
         0.11990E-01
         0.71539E-02
         0.10348E-02
         0.12117E-01
         0.22450E-02
        -0.80766E-03
         0.62803E-03
         0.29606E-02
         0.49668E-03
         0.26392E-02
         0.18109E-02
        -0.10613E-02
         0.85250E-03
        -0.38023E-02
         0.81734E-03
         0.29293E-03
         0.48582E-03
        -0.51634E-03
        -0.36285E-02
         0.24089E-02
         0.57242E-03
         0.16271E-02
         0.13999E-02
        -0.52651E-03
         0.19963E-02
         0.37588E-02
         0.92642E-02
         0.82692E-02
         0.71590E-02
         0.52360E-02
        -0.11558E-02
        -0.26405E-02
        -0.33450E-02
        -0.42482E-02
        -0.86119E-02
        -0.50295E-02
        -0.32902E-02
        -0.40680E-02
        -0.47812E-02
        -0.50371E-02
        -0.27058E-03
         0.62158E-02
        -0.90621E-02
         0.21138E-01
         0.27232E-01
         0.35062E-01
         0.41898E-01
         0.40970E-01
         0.35863E-01
         0.34433E-01
         0.34012E-01
         0.21412E-01
         0.71729E-02
         0.28252E-02
         0.25095E-02
        -0.94377E-03
        -0.96103E-02
        -0.19246E-01
        -0.26625E-01
        -0.34443E-01
        -0.38163E-01
        -0.33519E-01
        -0.31705E-01
        -0.31468E-01
        -0.21967E-01
        -0.11332E-01
        -0.10680E-01
        -0.59840E-02
        -0.37342E-02
        -0.34899E-02
        -0.94581E-03
        -0.44992E-02
        -0.20505E-02
        -0.16282E-02
        -0.57549E-02
        -0.38073E-02
        -0.56152E-02
         0.28279E-02
         0.12024E-01
         0.71772E-02
         0.10388E-02
         0.12167E-01
         0.22531E-02
        -0.81718E-03
         0.62910E-03
         0.29723E-02
         0.49538E-03
         0.26531E-02
         0.18175E-02
        -0.10651E-02
         0.85477E-03
        -0.38276E-02
         0.81799E-03
         0.29775E-03
         0.49042E-03
        -0.51200E-03
        -0.36449E-02
         0.24171E-02
         0.57177E-03
         0.16359E-02
         0.14071E-02
        -0.52233E-03
         0.20032E-02
         0.37698E-02
         0.93059E-02
         0.83113E-02
         0.71889E-02
         0.52566E-02
        -0.11546E-02
        -0.26507E-02
        -0.33581E-02
        -0.42625E-02
        -0.86370E-02
        -0.50457E-02
        -0.32992E-02
        -0.40765E-02
        -0.47902E-02
        -0.50503E-02
        -0.26569E-03
         0.62231E-02
        -0.90843E-02
         0.21189E-01
         0.27295E-01
         0.35139E-01
         0.41983E-01
         0.41052E-01
         0.35941E-01
         0.34510E-01
         0.34085E-01
         0.21461E-01
         0.71934E-02
         0.28309E-02
         0.25197E-02
        -0.93710E-03
        -0.96359E-02
        -0.19297E-01
        -0.26690E-01
        -0.34521E-01
        -0.38247E-01
        -0.33593E-01
        -0.31775E-01
        -0.31531E-01
        -0.22002E-01
        -0.11346E-01
        -0.10690E-01
        -0.88666E-02
        -0.55539E-02
        -0.51622E-02
        -0.14118E-02
        -0.64198E-02
        -0.29561E-02
        -0.24160E-02
        -0.84841E-02
        -0.56331E-02
        -0.82623E-02
         0.41221E-02
         0.16825E-01
         0.10201E-01
         0.15079E-02
         0.17121E-01
         0.33426E-02
        -0.12158E-02
         0.93285E-03
         0.43490E-02
         0.72442E-03
         0.37765E-02
         0.26166E-02
        -0.15172E-02
         0.12601E-02
        -0.56878E-02
         0.12158E-02
         0.43939E-03
         0.72867E-03
        -0.75701E-03
        -0.54051E-02
         0.35859E-02
         0.84511E-03
         0.24355E-02
         0.20913E-02
        -0.72111E-03
         0.28820E-02
         0.54236E-02
         0.13387E-01
         0.12131E-01
         0.10529E-01
         0.75926E-02
        -0.16771E-02
        -0.38592E-02
        -0.48220E-02
        -0.60980E-02
        -0.11996E-01
        -0.71926E-02
        -0.47608E-02
        -0.59126E-02
        -0.69154E-02
        -0.71154E-02
        -0.37565E-03
         0.76942E-02
        -0.11229E-01
         0.26192E-01
         0.33841E-01
         0.43528E-01
         0.52115E-01
         0.51518E-01
         0.45483E-01
         0.43589E-01
         0.42792E-01
         0.26982E-01
         0.90329E-02
         0.35942E-02
         0.32156E-02
        -0.11717E-02
        -0.11990E-01
        -0.23939E-01
        -0.32908E-01
        -0.42509E-01
        -0.47152E-01
        -0.41865E-01
        -0.39783E-01
        -0.39325E-01
        -0.27530E-01
        -0.14151E-01
        -0.13283E-01
  
SCALARS                      strain_xz  double 1
LOOKUP_TABLE default
         0.33728E-04
        -0.22049E-03
        -0.76433E-03
         0.56966E-04
        -0.98121E-10
         0.34791E-10
         0.11633E-09
         0.23234E-10
        -0.20426E-02
        -0.14012E-02
         0.34796E-09
         0.31343E-09
         0.77277E-04
        -0.31380E-03
        -0.42916E-10
        -0.20104E-09
        -0.82338E-04
        -0.30329E-03
        -0.14522E-09
        -0.21628E-09
        -0.39978E-03
        -0.61482E-03
        -0.67074E-03
        -0.14442E-09
        -0.66596E-10
         0.11635E-09
        -0.65183E-03
        -0.45513E-03
        -0.27034E-09
        -0.21445E-09
         0.19192E-03
        -0.38698E-03
         0.44418E-04
         0.27524E-10
        -0.10636E-09
        -0.65528E-10
         0.53907E-03
         0.22735E-03
        -0.15791E-09
        -0.16814E-09
         0.10215E-02
         0.13000E-02
        -0.35621E-09
        -0.26269E-09
         0.11863E-02
         0.65371E-03
        -0.39118E-09
        -0.18828E-09
        -0.25596E-03
        -0.11819E-09
         0.83364E-03
        -0.32899E-10
        -0.22729E-03
        -0.23094E-09
         0.16200E-03
        -0.61089E-10
         0.70936E-03
         0.22772E-03
        -0.52331E-10
        -0.12649E-09
        -0.20455E-04
         0.54429E-03
         0.10467E-09
         0.71775E-10
        -0.14979E-03
        -0.10528E-10
        -0.48079E-03
         0.69249E-10
        -0.28035E-02
        -0.18962E-02
         0.43283E-09
         0.31392E-09
        -0.11834E-02
         0.22857E-09
         0.17719E-03
        -0.15812E-09
         0.53753E-03
        -0.31033E-10
         0.11575E-02
        -0.48145E-10
         0.16625E-02
         0.12767E-02
        -0.17644E-09
        -0.20179E-09
         0.12978E-02
        -0.21702E-09
         0.14360E-02
        -0.31245E-09
         0.85561E-03
        -0.19929E-09
         0.12968E-02
         0.93340E-03
        -0.85054E-10
         0.11664E-09
        -0.21908E-03
         0.13682E-09
        -0.61251E-03
         0.57447E-10
        -0.14466E-02
         0.14186E-09
        -0.21259E-02
        -0.14837E-02
         0.32709E-09
         0.34132E-09
        -0.47197E-02
        -0.54862E-02
         0.60440E-09
         0.59562E-09
        -0.46308E-02
         0.51633E-09
        -0.44655E-02
         0.38586E-09
        -0.30304E-02
         0.21205E-09
        -0.19214E-02
         0.22675E-10
        -0.61111E-03
        -0.80762E-10
         0.70822E-03
        -0.64614E-10
         0.16708E-02
        -0.63508E-10
         0.24914E-02
        -0.14322E-09
         0.37607E-02
        -0.27247E-09
         0.54926E-02
        -0.32514E-09
         0.69033E-02
        -0.30678E-09
         0.71624E-02
        -0.33360E-09
         0.70920E-02
        -0.43296E-09
         0.66901E-02
        -0.51055E-09
         0.58907E-02
        -0.47461E-09
         0.41506E-02
        -0.38572E-09
         0.22147E-02
        -0.18209E-09
         0.18336E-03
         0.34771E-10
        -0.12626E-02
         0.84418E-10
        -0.20301E-02
         0.13804E-09
        -0.29166E-02
         0.27016E-09
        -0.38478E-02
         0.44331E-09
        -0.52361E-02
         0.53261E-09
        -0.62823E-02
         0.54476E-09
        -0.14552E-02
         0.76865E-03
         0.90001E-03
        -0.17782E-02
         0.71252E-02
         0.54183E-02
         0.83534E-03
        -0.12139E-02
        -0.61113E-03
        -0.11043E-02
         0.62525E-03
         0.27170E-02
         0.56239E-02
        -0.17975E-02
        -0.21758E-02
         0.23687E-02
         0.19948E-02
        -0.91565E-03
        -0.14650E-02
        -0.15681E-02
        -0.86343E-02
        -0.91506E-02
        -0.83355E-02
        -0.25845E-02
         0.10276E-02
        -0.76622E-03
        -0.24966E-02
        -0.27959E-03
        -0.28901E-02
        -0.19567E-02
         0.21185E-02
         0.42346E-03
        -0.99841E-03
        -0.32678E-03
         0.10761E-01
         0.67711E-02
         0.60909E-02
        -0.42945E-02
        -0.24484E-02
        -0.52968E-02
        -0.10989E-01
        -0.10040E-01
        -0.97172E-02
        -0.71623E-02
        -0.51909E-02
        -0.41327E-02
         0.76465E-03
         0.31413E-02
         0.90947E-03
         0.29203E-02
         0.79014E-02
         0.65415E-02
         0.32362E-01
         0.33517E-01
         0.30033E-01
         0.25471E-01
         0.18987E-01
         0.97482E-02
        -0.58266E-03
        -0.70086E-02
        -0.10666E-01
        -0.18329E-01
        -0.29965E-01
        -0.35764E-01
        -0.32495E-01
        -0.31065E-01
        -0.32655E-01
        -0.32525E-01
        -0.29558E-01
        -0.26059E-01
        -0.13482E-01
         0.21211E-02
         0.80914E-02
         0.90186E-02
         0.15292E-01
         0.24587E-01
         0.31573E-01
         0.33060E-01
        -0.20039E-02
         0.41136E-03
        -0.78313E-03
        -0.22802E-02
         0.46774E-02
         0.39971E-02
         0.11646E-02
        -0.25423E-02
        -0.11681E-02
        -0.24169E-02
        -0.48826E-03
         0.17814E-02
         0.58604E-02
        -0.44941E-02
        -0.46551E-02
         0.39369E-02
         0.21917E-02
        -0.13127E-02
        -0.88342E-03
        -0.15514E-02
        -0.92055E-02
        -0.87731E-02
        -0.86573E-02
        -0.20939E-02
         0.11893E-02
         0.80079E-03
        -0.43428E-02
         0.57663E-03
        -0.14534E-02
        -0.19820E-02
         0.30247E-02
         0.19572E-02
        -0.19617E-02
        -0.16931E-02
         0.83417E-02
         0.46039E-02
         0.52810E-02
        -0.51623E-02
        -0.86429E-03
        -0.25058E-02
        -0.92061E-02
        -0.94699E-02
        -0.92566E-02
        -0.66930E-02
        -0.51541E-02
        -0.30157E-02
         0.32593E-02
         0.38477E-02
        -0.50862E-03
         0.61240E-03
         0.62773E-02
         0.55296E-02
         0.34878E-01
         0.35148E-01
         0.31552E-01
         0.26024E-01
         0.19418E-01
         0.89435E-02
        -0.22205E-02
        -0.71944E-02
        -0.94775E-02
        -0.17373E-01
        -0.30859E-01
        -0.36404E-01
        -0.30526E-01
        -0.29041E-01
        -0.31996E-01
        -0.32952E-01
        -0.30076E-01
        -0.28450E-01
        -0.14495E-01
         0.37675E-02
         0.83324E-02
         0.84417E-02
         0.15009E-01
         0.25986E-01
         0.33262E-01
         0.33157E-01
        -0.20077E-02
         0.41288E-03
        -0.78461E-03
        -0.22818E-02
         0.46729E-02
         0.39934E-02
         0.11720E-02
        -0.25358E-02
        -0.11694E-02
        -0.24150E-02
        -0.47837E-03
         0.17858E-02
         0.58639E-02
        -0.44831E-02
        -0.46526E-02
         0.39410E-02
         0.21965E-02
        -0.13091E-02
        -0.88299E-03
        -0.15487E-02
        -0.92046E-02
        -0.87721E-02
        -0.86567E-02
        -0.20940E-02
         0.11920E-02
         0.80213E-03
        -0.43441E-02
         0.56579E-03
        -0.14636E-02
        -0.19832E-02
         0.30291E-02
         0.19570E-02
        -0.19536E-02
        -0.16939E-02
         0.83459E-02
         0.46018E-02
         0.52794E-02
        -0.51706E-02
        -0.87257E-03
        -0.25137E-02
        -0.92119E-02
        -0.94754E-02
        -0.92570E-02
        -0.66920E-02
        -0.51523E-02
        -0.30142E-02
         0.32586E-02
         0.38490E-02
        -0.50491E-03
         0.61031E-03
         0.62732E-02
         0.55214E-02
         0.34866E-01
         0.35139E-01
         0.31549E-01
         0.26024E-01
         0.19412E-01
         0.89409E-02
        -0.22230E-02
        -0.71989E-02
        -0.94695E-02
        -0.17366E-01
        -0.30854E-01
        -0.36404E-01
        -0.30523E-01
        -0.29040E-01
        -0.32000E-01
        -0.32959E-01
        -0.30081E-01
        -0.28455E-01
        -0.14491E-01
         0.37692E-02
         0.83263E-02
         0.84383E-02
         0.14998E-01
         0.25971E-01
         0.33246E-01
         0.33142E-01
        -0.20115E-02
         0.41438E-03
        -0.78608E-03
        -0.22833E-02
         0.46682E-02
         0.39898E-02
         0.11794E-02
        -0.25294E-02
        -0.11706E-02
        -0.24130E-02
        -0.46851E-03
         0.17901E-02
         0.58675E-02
        -0.44720E-02
        -0.46502E-02
         0.39452E-02
         0.22014E-02
        -0.13054E-02
        -0.88255E-03
        -0.15461E-02
        -0.92039E-02
        -0.87712E-02
        -0.86562E-02
        -0.20941E-02
         0.11949E-02
         0.80357E-03
        -0.43454E-02
         0.55508E-03
        -0.14739E-02
        -0.19845E-02
         0.30336E-02
         0.19568E-02
        -0.19454E-02
        -0.16946E-02
         0.83502E-02
         0.45998E-02
         0.52776E-02
        -0.51788E-02
        -0.88085E-03
        -0.25217E-02
        -0.92178E-02
        -0.94810E-02
        -0.92577E-02
        -0.66912E-02
        -0.51505E-02
        -0.30127E-02
         0.32580E-02
         0.38503E-02
        -0.50111E-03
         0.60815E-03
         0.62693E-02
         0.55133E-02
         0.34854E-01
         0.35130E-01
         0.31546E-01
         0.26024E-01
         0.19406E-01
         0.89382E-02
        -0.22256E-02
        -0.72033E-02
        -0.94615E-02
        -0.17360E-01
        -0.30849E-01
        -0.36405E-01
        -0.30520E-01
        -0.29038E-01
        -0.32004E-01
        -0.32966E-01
        -0.30087E-01
        -0.28461E-01
        -0.14487E-01
         0.37709E-02
         0.83202E-02
         0.84350E-02
         0.14987E-01
         0.25955E-01
         0.33229E-01
         0.33128E-01
        -0.20153E-02
         0.41594E-03
        -0.78752E-03
        -0.22848E-02
         0.46636E-02
         0.39861E-02
         0.11868E-02
        -0.25229E-02
        -0.11717E-02
        -0.24106E-02
        -0.45868E-03
         0.17945E-02
         0.58711E-02
        -0.44609E-02
        -0.46477E-02
         0.39498E-02
         0.22065E-02
        -0.13017E-02
        -0.88217E-03
        -0.15433E-02
        -0.92034E-02
        -0.87705E-02
        -0.86562E-02
        -0.20942E-02
         0.11983E-02
         0.80535E-03
        -0.43464E-02
         0.54471E-03
        -0.14841E-02
        -0.19856E-02
         0.30385E-02
         0.19570E-02
        -0.19371E-02
        -0.16954E-02
         0.83542E-02
         0.45978E-02
         0.52759E-02
        -0.51871E-02
        -0.88911E-03
        -0.25296E-02
        -0.92238E-02
        -0.94870E-02
        -0.92590E-02
        -0.66905E-02
        -0.51485E-02
        -0.30111E-02
         0.32576E-02
         0.38516E-02
        -0.49729E-03
         0.60599E-03
         0.62652E-02
         0.55051E-02
         0.34842E-01
         0.35121E-01
         0.31544E-01
         0.26024E-01
         0.19400E-01
         0.89354E-02
        -0.22281E-02
        -0.72078E-02
        -0.94535E-02
        -0.17353E-01
        -0.30844E-01
        -0.36406E-01
        -0.30518E-01
        -0.29037E-01
        -0.32009E-01
        -0.32975E-01
        -0.30093E-01
        -0.28466E-01
        -0.14483E-01
         0.37727E-02
         0.83141E-02
         0.84317E-02
         0.14976E-01
         0.25939E-01
         0.33213E-01
         0.33113E-01
        -0.20191E-02
         0.41750E-03
        -0.78899E-03
        -0.22863E-02
         0.46591E-02
         0.39825E-02
         0.11942E-02
        -0.25164E-02
        -0.11726E-02
        -0.24078E-02
        -0.44882E-03
         0.17989E-02
         0.58746E-02
        -0.44499E-02
        -0.46452E-02
         0.39546E-02
         0.22119E-02
        -0.12980E-02
        -0.88168E-03
        -0.15405E-02
        -0.92031E-02
        -0.87700E-02
        -0.86566E-02
        -0.20944E-02
         0.12022E-02
         0.80739E-03
        -0.43473E-02
         0.53466E-03
        -0.14943E-02
        -0.19867E-02
         0.30437E-02
         0.19575E-02
        -0.19288E-02
        -0.16961E-02
         0.83584E-02
         0.45957E-02
         0.52743E-02
        -0.51953E-02
        -0.89733E-03
        -0.25376E-02
        -0.92300E-02
        -0.94933E-02
        -0.92608E-02
        -0.66901E-02
        -0.51464E-02
        -0.30094E-02
         0.32572E-02
         0.38531E-02
        -0.49350E-03
         0.60386E-03
         0.62613E-02
         0.54969E-02
         0.34830E-01
         0.35112E-01
         0.31541E-01
         0.26024E-01
         0.19394E-01
         0.89327E-02
        -0.22306E-02
        -0.72123E-02
        -0.94455E-02
        -0.17346E-01
        -0.30840E-01
        -0.36408E-01
        -0.30517E-01
        -0.29036E-01
        -0.32014E-01
        -0.32984E-01
        -0.30099E-01
        -0.28472E-01
        -0.14479E-01
         0.37744E-02
         0.83080E-02
         0.84284E-02
         0.14965E-01
         0.25923E-01
         0.33196E-01
         0.33098E-01
        -0.20227E-02
         0.41918E-03
        -0.79028E-03
        -0.22877E-02
         0.46546E-02
         0.39788E-02
         0.12016E-02
        -0.25098E-02
        -0.11734E-02
        -0.24050E-02
        -0.43895E-03
         0.18032E-02
         0.58782E-02
        -0.44388E-02
        -0.46426E-02
         0.39596E-02
         0.22172E-02
        -0.12943E-02
        -0.88119E-03
        -0.15379E-02
        -0.92030E-02
        -0.87697E-02
        -0.86573E-02
        -0.20946E-02
         0.12061E-02
         0.80949E-03
        -0.43481E-02
         0.52468E-03
        -0.15046E-02
        -0.19880E-02
         0.30489E-02
         0.19579E-02
        -0.19204E-02
        -0.16968E-02
         0.83628E-02
         0.45939E-02
         0.52727E-02
        -0.52035E-02
        -0.90555E-03
        -0.25456E-02
        -0.92363E-02
        -0.94999E-02
        -0.92629E-02
        -0.66898E-02
        -0.51445E-02
        -0.30079E-02
         0.32567E-02
         0.38545E-02
        -0.48960E-03
         0.60190E-03
         0.62575E-02
         0.54890E-02
         0.34818E-01
         0.35103E-01
         0.31538E-01
         0.26024E-01
         0.19388E-01
         0.89301E-02
        -0.22331E-02
        -0.72167E-02
        -0.94375E-02
        -0.17339E-01
        -0.30835E-01
        -0.36409E-01
        -0.30516E-01
        -0.29035E-01
        -0.32019E-01
        -0.32995E-01
        -0.30106E-01
        -0.28477E-01
        -0.14475E-01
         0.37759E-02
         0.83018E-02
         0.84251E-02
         0.14954E-01
         0.25907E-01
         0.33180E-01
         0.33083E-01
        -0.20260E-02
         0.42120E-03
        -0.79128E-03
        -0.22892E-02
         0.46501E-02
         0.39752E-02
         0.12092E-02
        -0.25030E-02
        -0.11743E-02
        -0.24023E-02
        -0.42904E-03
         0.18076E-02
         0.58818E-02
        -0.44277E-02
        -0.46401E-02
         0.39646E-02
         0.22223E-02
        -0.12906E-02
        -0.88079E-03
        -0.15353E-02
        -0.92029E-02
        -0.87695E-02
        -0.86581E-02
        -0.20948E-02
         0.12096E-02
         0.81134E-03
        -0.43491E-02
         0.51447E-03
        -0.15150E-02
        -0.19895E-02
         0.30538E-02
         0.19580E-02
        -0.19119E-02
        -0.16973E-02
         0.83671E-02
         0.45922E-02
         0.52713E-02
        -0.52116E-02
        -0.91384E-03
        -0.25538E-02
        -0.92427E-02
        -0.95065E-02
        -0.92651E-02
        -0.66896E-02
        -0.51429E-02
        -0.30065E-02
         0.32560E-02
         0.38557E-02
        -0.48537E-03
         0.60039E-03
         0.62541E-02
         0.54810E-02
         0.34806E-01
         0.35094E-01
         0.31535E-01
         0.26024E-01
         0.19382E-01
         0.89273E-02
        -0.22356E-02
        -0.72211E-02
        -0.94296E-02
        -0.17332E-01
        -0.30830E-01
        -0.36411E-01
        -0.30515E-01
        -0.29034E-01
        -0.32024E-01
        -0.33005E-01
        -0.30113E-01
        -0.28482E-01
        -0.14471E-01
         0.37772E-02
         0.82954E-02
         0.84218E-02
         0.14943E-01
         0.25891E-01
         0.33163E-01
         0.33069E-01
        -0.20292E-02
         0.42333E-03
        -0.79214E-03
        -0.22905E-02
         0.46459E-02
         0.39715E-02
         0.12169E-02
        -0.24962E-02
        -0.11753E-02
        -0.23998E-02
        -0.41910E-03
         0.18119E-02
         0.58855E-02
        -0.44166E-02
        -0.46375E-02
         0.39696E-02
         0.22274E-02
        -0.12868E-02
        -0.88032E-03
        -0.15328E-02
        -0.92028E-02
        -0.87692E-02
        -0.86588E-02
        -0.20950E-02
         0.12128E-02
         0.81307E-03
        -0.43500E-02
         0.50419E-03
        -0.15255E-02
        -0.19911E-02
         0.30585E-02
         0.19579E-02
        -0.19032E-02
        -0.16977E-02
         0.83717E-02
         0.45907E-02
         0.52700E-02
        -0.52198E-02
        -0.92213E-03
        -0.25619E-02
        -0.92491E-02
        -0.95133E-02
        -0.92673E-02
        -0.66896E-02
        -0.51413E-02
        -0.30054E-02
         0.32551E-02
         0.38570E-02
        -0.48101E-03
         0.59907E-03
         0.62508E-02
         0.54732E-02
         0.34794E-01
         0.35085E-01
         0.31532E-01
         0.26025E-01
         0.19376E-01
         0.89246E-02
        -0.22380E-02
        -0.72255E-02
        -0.94216E-02
        -0.17325E-01
        -0.30824E-01
        -0.36412E-01
        -0.30514E-01
        -0.29033E-01
        -0.32029E-01
        -0.33015E-01
        -0.30120E-01
        -0.28487E-01
        -0.14467E-01
         0.37784E-02
         0.82889E-02
         0.84186E-02
         0.14932E-01
         0.25876E-01
         0.33147E-01
         0.33054E-01
        -0.20324E-02
         0.42548E-03
        -0.79298E-03
        -0.22919E-02
         0.46415E-02
         0.39678E-02
         0.12245E-02
        -0.24893E-02
        -0.11763E-02
        -0.23972E-02
        -0.40920E-03
         0.18163E-02
         0.58892E-02
        -0.44055E-02
        -0.46349E-02
         0.39745E-02
         0.22324E-02
        -0.12831E-02
        -0.87985E-03
        -0.15303E-02
        -0.92026E-02
        -0.87690E-02
        -0.86596E-02
        -0.20953E-02
         0.12161E-02
         0.81479E-03
        -0.43510E-02
         0.49393E-03
        -0.15360E-02
        -0.19927E-02
         0.30633E-02
         0.19577E-02
        -0.18946E-02
        -0.16981E-02
         0.83763E-02
         0.45890E-02
         0.52688E-02
        -0.52279E-02
        -0.93046E-03
        -0.25700E-02
        -0.92555E-02
        -0.95199E-02
        -0.92696E-02
        -0.66897E-02
        -0.51399E-02
        -0.30043E-02
         0.32543E-02
         0.38582E-02
        -0.47664E-03
         0.59782E-03
         0.62476E-02
         0.54653E-02
         0.34782E-01
         0.35076E-01
         0.31529E-01
         0.26025E-01
         0.19370E-01
         0.89218E-02
        -0.22405E-02
        -0.72299E-02
        -0.94137E-02
        -0.17318E-01
        -0.30819E-01
        -0.36413E-01
        -0.30512E-01
        -0.29032E-01
        -0.32034E-01
        -0.33025E-01
        -0.30127E-01
        -0.28492E-01
        -0.14462E-01
         0.37796E-02
         0.82824E-02
         0.84153E-02
         0.14922E-01
         0.25860E-01
         0.33130E-01
         0.33039E-01
        -0.20355E-02
         0.42766E-03
        -0.79382E-03
        -0.22933E-02
         0.46371E-02
         0.39641E-02
         0.12322E-02
        -0.24825E-02
        -0.11772E-02
        -0.23947E-02
        -0.39929E-03
         0.18206E-02
         0.58929E-02
        -0.43945E-02
        -0.46323E-02
         0.39795E-02
         0.22374E-02
        -0.12794E-02
        -0.87936E-03
        -0.15278E-02
        -0.92025E-02
        -0.87687E-02
        -0.86603E-02
        -0.20956E-02
         0.12193E-02
         0.81651E-03
        -0.43520E-02
         0.48374E-03
        -0.15465E-02
        -0.19942E-02
         0.30681E-02
         0.19576E-02
        -0.18860E-02
        -0.16985E-02
         0.83808E-02
         0.45876E-02
         0.52675E-02
        -0.52360E-02
        -0.93878E-03
        -0.25782E-02
        -0.92619E-02
        -0.95266E-02
        -0.92718E-02
        -0.66897E-02
        -0.51383E-02
        -0.30030E-02
         0.32535E-02
         0.38594E-02
        -0.47230E-03
         0.59646E-03
         0.62443E-02
         0.54574E-02
         0.34770E-01
         0.35067E-01
         0.31526E-01
         0.26025E-01
         0.19364E-01
         0.89191E-02
        -0.22429E-02
        -0.72342E-02
        -0.94057E-02
        -0.17311E-01
        -0.30814E-01
        -0.36415E-01
        -0.30511E-01
        -0.29031E-01
        -0.32039E-01
        -0.33035E-01
        -0.30133E-01
        -0.28497E-01
        -0.14458E-01
         0.37808E-02
         0.82759E-02
         0.84120E-02
         0.14911E-01
         0.25844E-01
         0.33114E-01
         0.33024E-01
        -0.20387E-02
         0.42982E-03
        -0.79470E-03
        -0.22947E-02
         0.46328E-02
         0.39605E-02
         0.12398E-02
        -0.24756E-02
        -0.11782E-02
        -0.23922E-02
        -0.38937E-03
         0.18250E-02
         0.58966E-02
        -0.43835E-02
        -0.46297E-02
         0.39844E-02
         0.22424E-02
        -0.12757E-02
        -0.87899E-03
        -0.15253E-02
        -0.92024E-02
        -0.87684E-02
        -0.86611E-02
        -0.20959E-02
         0.12225E-02
         0.81821E-03
        -0.43531E-02
         0.47353E-03
        -0.15569E-02
        -0.19958E-02
         0.30728E-02
         0.19575E-02
        -0.18773E-02
        -0.16989E-02
         0.83854E-02
         0.45860E-02
         0.52663E-02
        -0.52441E-02
        -0.94713E-03
        -0.25862E-02
        -0.92683E-02
        -0.95333E-02
        -0.92740E-02
        -0.66896E-02
        -0.51368E-02
        -0.30019E-02
         0.32526E-02
         0.38606E-02
        -0.46793E-03
         0.59514E-03
         0.62412E-02
         0.54496E-02
         0.34758E-01
         0.35058E-01
         0.31523E-01
         0.26025E-01
         0.19358E-01
         0.89164E-02
        -0.22453E-02
        -0.72386E-02
        -0.93978E-02
        -0.17304E-01
        -0.30809E-01
        -0.36416E-01
        -0.30510E-01
        -0.29030E-01
        -0.32044E-01
        -0.33045E-01
        -0.30140E-01
        -0.28502E-01
        -0.14454E-01
         0.37819E-02
         0.82693E-02
         0.84088E-02
         0.14900E-01
         0.25829E-01
         0.33098E-01
         0.33010E-01
        -0.20419E-02
         0.43197E-03
        -0.79552E-03
        -0.22960E-02
         0.46285E-02
         0.39569E-02
         0.12474E-02
        -0.24688E-02
        -0.11792E-02
        -0.23896E-02
        -0.37948E-03
         0.18294E-02
         0.59003E-02
        -0.43725E-02
        -0.46271E-02
         0.39893E-02
         0.22474E-02
        -0.12720E-02
        -0.87854E-03
        -0.15228E-02
        -0.92022E-02
        -0.87681E-02
        -0.86619E-02
        -0.20962E-02
         0.12257E-02
         0.81997E-03
        -0.43541E-02
         0.46337E-03
        -0.15673E-02
        -0.19974E-02
         0.30776E-02
         0.19573E-02
        -0.18687E-02
        -0.16993E-02
         0.83900E-02
         0.45844E-02
         0.52650E-02
        -0.52522E-02
        -0.95549E-03
        -0.25945E-02
        -0.92746E-02
        -0.95399E-02
        -0.92763E-02
        -0.66896E-02
        -0.51353E-02
        -0.30009E-02
         0.32518E-02
         0.38619E-02
        -0.46354E-03
         0.59389E-03
         0.62379E-02
         0.54417E-02
         0.34746E-01
         0.35049E-01
         0.31520E-01
         0.26025E-01
         0.19352E-01
         0.89137E-02
        -0.22477E-02
        -0.72429E-02
        -0.93898E-02
        -0.17297E-01
        -0.30804E-01
        -0.36418E-01
        -0.30509E-01
        -0.29029E-01
        -0.32050E-01
        -0.33055E-01
        -0.30147E-01
        -0.28507E-01
        -0.14450E-01
         0.37831E-02
         0.82628E-02
         0.84055E-02
         0.14890E-01
         0.25813E-01
         0.33081E-01
         0.32995E-01
        -0.20451E-02
         0.43414E-03
        -0.79634E-03
        -0.22974E-02
         0.46241E-02
         0.39532E-02
         0.12550E-02
        -0.24620E-02
        -0.11801E-02
        -0.23870E-02
        -0.36962E-03
         0.18338E-02
         0.59040E-02
        -0.43615E-02
        -0.46244E-02
         0.39942E-02
         0.22524E-02
        -0.12683E-02
        -0.87810E-03
        -0.15203E-02
        -0.92020E-02
        -0.87679E-02
        -0.86626E-02
        -0.20965E-02
         0.12288E-02
         0.82167E-03
        -0.43551E-02
         0.45318E-03
        -0.15777E-02
        -0.19989E-02
         0.30823E-02
         0.19572E-02
        -0.18600E-02
        -0.16998E-02
         0.83945E-02
         0.45830E-02
         0.52638E-02
        -0.52603E-02
        -0.96388E-03
        -0.26026E-02
        -0.92812E-02
        -0.95465E-02
        -0.92785E-02
        -0.66896E-02
        -0.51339E-02
        -0.29996E-02
         0.32509E-02
         0.38631E-02
        -0.45914E-03
         0.59256E-03
         0.62345E-02
         0.54338E-02
         0.34734E-01
         0.35040E-01
         0.31517E-01
         0.26025E-01
         0.19346E-01
         0.89109E-02
        -0.22502E-02
        -0.72472E-02
        -0.93819E-02
        -0.17291E-01
        -0.30799E-01
        -0.36419E-01
        -0.30507E-01
        -0.29028E-01
        -0.32055E-01
        -0.33065E-01
        -0.30154E-01
        -0.28512E-01
        -0.14445E-01
         0.37842E-02
         0.82563E-02
         0.84023E-02
         0.14879E-01
         0.25797E-01
         0.33065E-01
         0.32980E-01
        -0.20482E-02
         0.43628E-03
        -0.79716E-03
        -0.22987E-02
         0.46199E-02
         0.39495E-02
         0.12626E-02
        -0.24551E-02
        -0.11810E-02
        -0.23845E-02
        -0.35977E-03
         0.18381E-02
         0.59077E-02
        -0.43505E-02
        -0.46218E-02
         0.39991E-02
         0.22574E-02
        -0.12646E-02
        -0.87775E-03
        -0.15178E-02
        -0.92019E-02
        -0.87676E-02
        -0.86634E-02
        -0.20968E-02
         0.12320E-02
         0.82338E-03
        -0.43560E-02
         0.44307E-03
        -0.15881E-02
        -0.20004E-02
         0.30870E-02
         0.19570E-02
        -0.18513E-02
        -0.17002E-02
         0.83992E-02
         0.45814E-02
         0.52625E-02
        -0.52683E-02
        -0.97227E-03
        -0.26108E-02
        -0.92875E-02
        -0.95531E-02
        -0.92807E-02
        -0.66896E-02
        -0.51324E-02
        -0.29985E-02
         0.32500E-02
         0.38643E-02
        -0.45475E-03
         0.59124E-03
         0.62314E-02
         0.54260E-02
         0.34722E-01
         0.35031E-01
         0.31514E-01
         0.26025E-01
         0.19340E-01
         0.89082E-02
        -0.22526E-02
        -0.72514E-02
        -0.93739E-02
        -0.17284E-01
        -0.30794E-01
        -0.36421E-01
        -0.30506E-01
        -0.29027E-01
        -0.32060E-01
        -0.33076E-01
        -0.30161E-01
        -0.28517E-01
        -0.14441E-01
         0.37853E-02
         0.82498E-02
         0.83991E-02
         0.14868E-01
         0.25782E-01
         0.33049E-01
         0.32965E-01
        -0.20514E-02
         0.43840E-03
        -0.79798E-03
        -0.23001E-02
         0.46155E-02
         0.39458E-02
         0.12702E-02
        -0.24483E-02
        -0.11820E-02
        -0.23819E-02
        -0.34992E-03
         0.18426E-02
         0.59113E-02
        -0.43395E-02
        -0.46191E-02
         0.40040E-02
         0.22624E-02
        -0.12609E-02
        -0.87730E-03
        -0.15153E-02
        -0.92018E-02
        -0.87673E-02
        -0.86640E-02
        -0.20971E-02
         0.12351E-02
         0.82508E-03
        -0.43570E-02
         0.43295E-03
        -0.15985E-02
        -0.20020E-02
         0.30917E-02
         0.19569E-02
        -0.18426E-02
        -0.17006E-02
         0.84036E-02
         0.45800E-02
         0.52613E-02
        -0.52762E-02
        -0.98066E-03
        -0.26190E-02
        -0.92939E-02
        -0.95597E-02
        -0.92829E-02
        -0.66896E-02
        -0.51308E-02
        -0.29974E-02
         0.32492E-02
         0.38656E-02
        -0.45029E-03
         0.58996E-03
         0.62280E-02
         0.54181E-02
         0.34710E-01
         0.35022E-01
         0.31511E-01
         0.26025E-01
         0.19334E-01
         0.89054E-02
        -0.22549E-02
        -0.72556E-02
        -0.93659E-02
        -0.17277E-01
        -0.30789E-01
        -0.36422E-01
        -0.30505E-01
        -0.29026E-01
        -0.32065E-01
        -0.33086E-01
        -0.30168E-01
        -0.28522E-01
        -0.14437E-01
         0.37864E-02
         0.82433E-02
         0.83959E-02
         0.14858E-01
         0.25766E-01
         0.33032E-01
         0.32951E-01
        -0.20546E-02
         0.44058E-03
        -0.79881E-03
        -0.23014E-02
         0.46111E-02
         0.39422E-02
         0.12777E-02
        -0.24414E-02
        -0.11829E-02
        -0.23794E-02
        -0.34007E-03
         0.18470E-02
         0.59151E-02
        -0.43285E-02
        -0.46164E-02
         0.40090E-02
         0.22674E-02
        -0.12572E-02
        -0.87686E-03
        -0.15128E-02
        -0.92016E-02
        -0.87670E-02
        -0.86649E-02
        -0.20974E-02
         0.12381E-02
         0.82680E-03
        -0.43580E-02
         0.42284E-03
        -0.16089E-02
        -0.20035E-02
         0.30965E-02
         0.19567E-02
        -0.18340E-02
        -0.17010E-02
         0.84083E-02
         0.45785E-02
         0.52601E-02
        -0.52841E-02
        -0.98910E-03
        -0.26271E-02
        -0.93002E-02
        -0.95663E-02
        -0.92851E-02
        -0.66894E-02
        -0.51294E-02
        -0.29962E-02
         0.32483E-02
         0.38668E-02
        -0.44588E-03
         0.58863E-03
         0.62248E-02
         0.54101E-02
         0.34698E-01
         0.35014E-01
         0.31508E-01
         0.26025E-01
         0.19328E-01
         0.89026E-02
        -0.22573E-02
        -0.72598E-02
        -0.93580E-02
        -0.17270E-01
        -0.30784E-01
        -0.36424E-01
        -0.30504E-01
        -0.29025E-01
        -0.32070E-01
        -0.33096E-01
        -0.30175E-01
        -0.28526E-01
        -0.14433E-01
         0.37875E-02
         0.82367E-02
         0.83927E-02
         0.14847E-01
         0.25750E-01
         0.33016E-01
         0.32936E-01
        -0.20578E-02
         0.44273E-03
        -0.79964E-03
        -0.23028E-02
         0.46069E-02
         0.39386E-02
         0.12853E-02
        -0.24346E-02
        -0.11838E-02
        -0.23767E-02
        -0.33023E-03
         0.18514E-02
         0.59188E-02
        -0.43176E-02
        -0.46137E-02
         0.40139E-02
         0.22724E-02
        -0.12535E-02
        -0.87646E-03
        -0.15103E-02
        -0.92015E-02
        -0.87667E-02
        -0.86656E-02
        -0.20978E-02
         0.12412E-02
         0.82849E-03
        -0.43588E-02
         0.41264E-03
        -0.16192E-02
        -0.20050E-02
         0.31012E-02
         0.19566E-02
        -0.18253E-02
        -0.17014E-02
         0.84130E-02
         0.45769E-02
         0.52588E-02
        -0.52920E-02
        -0.99762E-03
        -0.26354E-02
        -0.93064E-02
        -0.95728E-02
        -0.92872E-02
        -0.66895E-02
        -0.51279E-02
        -0.29951E-02
         0.32475E-02
         0.38681E-02
        -0.44148E-03
         0.58730E-03
         0.62215E-02
         0.54024E-02
         0.34686E-01
         0.35005E-01
         0.31505E-01
         0.26025E-01
         0.19322E-01
         0.88999E-02
        -0.22595E-02
        -0.72640E-02
        -0.93501E-02
        -0.17263E-01
        -0.30779E-01
        -0.36426E-01
        -0.30503E-01
        -0.29024E-01
        -0.32075E-01
        -0.33106E-01
        -0.30181E-01
        -0.28531E-01
        -0.14429E-01
         0.37886E-02
         0.82302E-02
         0.83895E-02
         0.14837E-01
         0.25735E-01
         0.33000E-01
         0.32921E-01
        -0.20610E-02
         0.44486E-03
        -0.80044E-03
        -0.23041E-02
         0.46026E-02
         0.39349E-02
         0.12929E-02
        -0.24277E-02
        -0.11846E-02
        -0.23737E-02
        -0.32040E-03
         0.18558E-02
         0.59224E-02
        -0.43065E-02
        -0.46109E-02
         0.40188E-02
         0.22774E-02
        -0.12498E-02
        -0.87616E-03
        -0.15079E-02
        -0.92013E-02
        -0.87664E-02
        -0.86664E-02
        -0.20981E-02
         0.12440E-02
         0.83026E-03
        -0.43593E-02
         0.40218E-03
        -0.16296E-02
        -0.20066E-02
         0.31060E-02
         0.19564E-02
        -0.18166E-02
        -0.17018E-02
         0.84175E-02
         0.45755E-02
         0.52576E-02
        -0.52997E-02
        -0.10064E-02
        -0.26435E-02
        -0.93122E-02
        -0.95787E-02
        -0.92891E-02
        -0.66895E-02
        -0.51263E-02
        -0.29939E-02
         0.32467E-02
         0.38693E-02
        -0.43710E-03
         0.58597E-03
         0.62184E-02
         0.53944E-02
         0.34674E-01
         0.34996E-01
         0.31501E-01
         0.26025E-01
         0.19316E-01
         0.88972E-02
        -0.22619E-02
        -0.72682E-02
        -0.93423E-02
        -0.17256E-01
        -0.30774E-01
        -0.36429E-01
        -0.30502E-01
        -0.29023E-01
        -0.32080E-01
        -0.33116E-01
        -0.30188E-01
        -0.28536E-01
        -0.14424E-01
         0.37897E-02
         0.82237E-02
         0.83862E-02
         0.14826E-01
         0.25719E-01
         0.32983E-01
         0.32907E-01
        -0.20642E-02
         0.44699E-03
        -0.80124E-03
        -0.23054E-02
         0.45982E-02
         0.39312E-02
         0.13004E-02
        -0.24209E-02
        -0.11854E-02
        -0.23705E-02
        -0.31060E-03
         0.18602E-02
         0.59261E-02
        -0.42954E-02
        -0.46080E-02
         0.40237E-02
         0.22823E-02
        -0.12461E-02
        -0.87576E-03
        -0.15054E-02
        -0.92012E-02
        -0.87659E-02
        -0.86672E-02
        -0.20984E-02
         0.12466E-02
         0.83195E-03
        -0.43595E-02
         0.39141E-03
        -0.16400E-02
        -0.20081E-02
         0.31107E-02
         0.19563E-02
        -0.18079E-02
        -0.17023E-02
         0.84222E-02
         0.45740E-02
         0.52564E-02
        -0.53073E-02
        -0.10154E-02
        -0.26516E-02
        -0.93175E-02
        -0.95842E-02
        -0.92908E-02
        -0.66895E-02
        -0.51249E-02
        -0.29928E-02
         0.32458E-02
         0.38706E-02
        -0.43267E-03
         0.58467E-03
         0.62150E-02
         0.53864E-02
         0.34662E-01
         0.34987E-01
         0.31498E-01
         0.26025E-01
         0.19310E-01
         0.88945E-02
        -0.22641E-02
        -0.72723E-02
        -0.93346E-02
        -0.17248E-01
        -0.30769E-01
        -0.36432E-01
        -0.30502E-01
        -0.29023E-01
        -0.32086E-01
        -0.33126E-01
        -0.30195E-01
        -0.28541E-01
        -0.14420E-01
         0.37908E-02
         0.82173E-02
         0.83830E-02
         0.14815E-01
         0.25703E-01
         0.32967E-01
         0.32892E-01
        -0.20674E-02
         0.44914E-03
        -0.80207E-03
        -0.23068E-02
         0.45940E-02
         0.39277E-02
         0.13079E-02
        -0.24140E-02
        -0.11861E-02
        -0.23672E-02
        -0.30087E-03
         0.18645E-02
         0.59297E-02
        -0.42843E-02
        -0.46052E-02
         0.40286E-02
         0.22872E-02
        -0.12425E-02
        -0.87534E-03
        -0.15029E-02
        -0.92010E-02
        -0.87655E-02
        -0.86679E-02
        -0.20987E-02
         0.12491E-02
         0.83363E-03
        -0.43596E-02
         0.38060E-03
        -0.16502E-02
        -0.20097E-02
         0.31155E-02
         0.19561E-02
        -0.17993E-02
        -0.17027E-02
         0.84269E-02
         0.45726E-02
         0.52551E-02
        -0.53147E-02
        -0.10245E-02
        -0.26595E-02
        -0.93225E-02
        -0.95894E-02
        -0.92923E-02
        -0.66895E-02
        -0.51234E-02
        -0.29917E-02
         0.32450E-02
         0.38719E-02
        -0.42828E-03
         0.58331E-03
         0.62119E-02
         0.53787E-02
         0.34650E-01
         0.34978E-01
         0.31495E-01
         0.26025E-01
         0.19304E-01
         0.88916E-02
        -0.22664E-02
        -0.72763E-02
        -0.93268E-02
        -0.17241E-01
        -0.30763E-01
        -0.36436E-01
        -0.30503E-01
        -0.29022E-01
        -0.32091E-01
        -0.33136E-01
        -0.30202E-01
        -0.28546E-01
        -0.14416E-01
         0.37920E-02
         0.82109E-02
         0.83797E-02
         0.14805E-01
         0.25688E-01
         0.32951E-01
         0.32877E-01
        -0.20773E-02
         0.45231E-03
        -0.80559E-03
        -0.23156E-02
         0.46035E-02
         0.39363E-02
         0.13187E-02
        -0.24157E-02
        -0.11905E-02
        -0.23721E-02
        -0.29332E-03
         0.18731E-02
         0.59503E-02
        -0.42876E-02
        -0.46164E-02
         0.40462E-02
         0.22993E-02
        -0.12432E-02
        -0.87751E-03
        -0.15049E-02
        -0.92273E-02
        -0.87911E-02
        -0.86935E-02
        -0.21056E-02
         0.12553E-02
         0.83783E-03
        -0.43738E-02
         0.37167E-03
        -0.16649E-02
        -0.20173E-02
         0.31301E-02
         0.19621E-02
        -0.17973E-02
        -0.17088E-02
         0.84557E-02
         0.45851E-02
         0.52697E-02
        -0.53381E-02
        -0.10359E-02
        -0.26749E-02
        -0.93554E-02
        -0.96238E-02
        -0.93220E-02
        -0.67089E-02
        -0.51370E-02
        -0.29987E-02
         0.32541E-02
         0.38855E-02
        -0.42572E-03
         0.58375E-03
         0.62273E-02
         0.53877E-02
         0.34718E-01
         0.35049E-01
         0.31565E-01
         0.26084E-01
         0.19343E-01
         0.89085E-02
        -0.22747E-02
        -0.72969E-02
        -0.93420E-02
        -0.17275E-01
        -0.30833E-01
        -0.36526E-01
        -0.30574E-01
        -0.29089E-01
        -0.32167E-01
        -0.33217E-01
        -0.30273E-01
        -0.28613E-01
        -0.14444E-01
         0.38027E-02
         0.82246E-02
         0.83956E-02
         0.14829E-01
         0.25732E-01
         0.33010E-01
         0.32937E-01
        -0.30794E-02
         0.67485E-03
        -0.11917E-02
        -0.34389E-02
         0.65613E-02
         0.56656E-02
         0.19613E-02
        -0.35549E-02
        -0.17594E-02
        -0.34848E-02
        -0.42133E-03
         0.26218E-02
         0.84568E-02
        -0.62123E-02
        -0.64903E-02
         0.60042E-02
         0.34018E-02
        -0.18430E-02
        -0.12833E-02
        -0.22051E-02
        -0.13110E-01
        -0.12649E-01
        -0.12389E-01
        -0.31043E-02
         0.18626E-02
         0.12465E-02
        -0.63937E-02
         0.54138E-03
        -0.24837E-02
        -0.29887E-02
         0.46467E-02
         0.29029E-02
        -0.26628E-02
        -0.25374E-02
         0.11828E-01
         0.65938E-02
         0.75818E-02
        -0.76826E-02
        -0.15172E-02
        -0.39210E-02
        -0.13511E-01
        -0.14005E-01
        -0.13559E-01
        -0.96304E-02
        -0.73475E-02
        -0.41642E-02
         0.46377E-02
         0.56136E-02
        -0.61398E-03
         0.84232E-03
         0.87713E-02
         0.77297E-02
         0.42958E-01
         0.43303E-01
         0.39014E-01
         0.32341E-01
         0.23958E-01
         0.11055E-01
        -0.28590E-02
        -0.92364E-02
        -0.11794E-01
        -0.21684E-01
        -0.38765E-01
        -0.45864E-01
        -0.38838E-01
        -0.37080E-01
        -0.40483E-01
        -0.41329E-01
        -0.37549E-01
        -0.35277E-01
        -0.17783E-01
         0.46913E-02
         0.10248E-01
         0.10510E-01
         0.18492E-01
         0.32202E-01
         0.41187E-01
         0.40949E-01
  
SCALARS                      strain_xy  double 1
LOOKUP_TABLE default
        -0.21408E-08
        -0.38683E-08
        -0.39366E-07
         0.18108E-08
        -0.46188E-20
         0.45139E-21
         0.67866E-20
         0.10338E-20
        -0.34647E-06
         0.16732E-06
         0.30209E-19
         0.23956E-19
         0.79904E-08
        -0.16215E-08
         0.26664E-20
        -0.80084E-21
         0.56143E-08
         0.40506E-07
         0.13275E-21
         0.20229E-20
        -0.17543E-07
        -0.52581E-07
        -0.14639E-06
         0.20569E-19
         0.16380E-19
        -0.23921E-19
        -0.56995E-08
         0.18158E-07
         0.27696E-19
         0.42622E-19
        -0.14834E-07
         0.20818E-07
         0.30200E-08
        -0.14618E-20
         0.57668E-20
        -0.73760E-22
        -0.10952E-06
        -0.31126E-07
         0.15434E-19
         0.12786E-19
        -0.18021E-06
        -0.10688E-06
         0.26311E-19
         0.17732E-19
        -0.23084E-06
        -0.47228E-07
        -0.95847E-21
         0.71358E-20
         0.19164E-07
         0.21089E-20
        -0.15764E-07
        -0.47546E-22
         0.27655E-09
         0.15940E-19
         0.33209E-09
         0.24528E-20
         0.49675E-08
        -0.29726E-08
         0.57004E-22
        -0.27966E-21
         0.19095E-08
        -0.17116E-06
         0.15534E-20
         0.39845E-20
         0.88443E-08
        -0.31540E-21
         0.11134E-06
         0.25273E-20
        -0.39108E-06
        -0.13505E-06
         0.19521E-20
        -0.18694E-19
        -0.26951E-06
        -0.29889E-19
        -0.20428E-07
         0.20019E-19
        -0.80650E-07
         0.29826E-20
        -0.12694E-06
         0.38785E-20
        -0.88337E-07
         0.49620E-07
         0.91182E-20
        -0.23121E-20
         0.33571E-07
        -0.27823E-21
        -0.43491E-06
        -0.25094E-19
        -0.55290E-06
        -0.28020E-19
        -0.10656E-05
        -0.44914E-06
        -0.17737E-19
         0.19688E-19
         0.79472E-07
         0.17926E-19
         0.20876E-06
         0.77005E-20
         0.46028E-06
         0.20446E-19
         0.11087E-05
         0.67113E-06
         0.43841E-19
         0.21920E-19
        -0.12439E-05
         0.63458E-06
        -0.28484E-19
         0.34883E-19
        -0.29085E-05
        -0.80953E-19
        -0.47800E-05
        -0.88492E-19
        -0.33446E-05
        -0.60059E-19
        -0.13930E-05
        -0.63705E-20
        -0.80135E-07
         0.17956E-19
        -0.25559E-06
         0.11117E-19
        -0.65189E-06
         0.10163E-19
        -0.83015E-06
         0.21805E-19
         0.32384E-06
         0.26512E-19
         0.23251E-05
         0.10445E-19
         0.26950E-05
         0.63681E-20
        -0.25119E-06
         0.10409E-19
        -0.39244E-05
         0.69771E-20
        -0.73227E-05
        -0.24881E-19
        -0.99449E-05
        -0.65287E-19
        -0.60675E-05
        -0.82853E-19
        -0.27648E-05
        -0.51277E-19
        -0.26329E-06
         0.97830E-20
         0.22013E-05
         0.20734E-19
         0.35158E-05
         0.33044E-19
         0.36247E-05
         0.65071E-19
         0.32577E-05
         0.84436E-19
         0.34557E-05
         0.59989E-19
         0.33297E-05
         0.47442E-19
        -0.30679E-05
         0.84916E-06
         0.86647E-06
        -0.52268E-06
         0.71246E-05
         0.56753E-05
         0.93949E-07
        -0.20787E-05
        -0.87883E-06
        -0.23618E-05
        -0.71747E-06
        -0.13343E-04
        -0.18722E-04
         0.69354E-06
         0.10759E-04
        -0.13164E-05
         0.98529E-06
         0.28858E-06
         0.61774E-06
        -0.49766E-06
         0.25321E-05
         0.22038E-05
        -0.67955E-05
         0.17722E-06
         0.14997E-05
         0.16539E-06
         0.28249E-07
         0.55251E-07
         0.69914E-06
        -0.22543E-05
        -0.11510E-05
         0.25360E-06
         0.39451E-06
        -0.31785E-07
        -0.17889E-05
        -0.60365E-05
        -0.12115E-04
         0.18578E-04
         0.96849E-05
         0.17874E-04
         0.35158E-04
         0.78462E-05
        -0.61084E-05
        -0.12378E-04
        -0.14952E-04
        -0.19732E-04
         0.23657E-05
         0.68728E-05
         0.21251E-05
         0.73284E-05
         0.23509E-04
         0.87664E-05
        -0.85361E-04
         0.10507E-03
        -0.25554E-03
        -0.29865E-03
        -0.28409E-03
        -0.17437E-03
         0.10544E-04
         0.11500E-03
         0.16637E-03
         0.27042E-03
         0.28632E-03
         0.14758E-03
         0.58585E-04
         0.24623E-04
        -0.39477E-04
        -0.15495E-03
        -0.25889E-03
        -0.29962E-03
        -0.19098E-03
         0.34317E-04
         0.12252E-03
         0.12908E-03
         0.20384E-03
         0.22925E-03
         0.17050E-03
         0.15625E-03
        -0.58723E-05
         0.76029E-06
        -0.13394E-05
        -0.92503E-06
         0.10390E-04
         0.39934E-05
         0.92261E-06
        -0.70411E-05
        -0.21216E-05
        -0.62959E-05
         0.67243E-06
        -0.10619E-04
        -0.20694E-04
         0.22805E-05
         0.27338E-04
        -0.43752E-05
         0.73812E-06
         0.42207E-06
         0.12803E-05
         0.43469E-06
         0.11499E-04
         0.77807E-05
        -0.44513E-05
         0.90869E-06
         0.20862E-05
        -0.34744E-06
         0.47282E-06
        -0.11671E-06
        -0.46987E-06
        -0.34681E-05
        -0.36226E-05
        -0.61748E-06
         0.15186E-05
         0.11380E-05
         0.26735E-05
        -0.44979E-05
        -0.98509E-05
         0.23040E-04
         0.34016E-05
         0.86914E-05
         0.23459E-04
        -0.59626E-05
        -0.12005E-04
        -0.10842E-04
        -0.10751E-04
        -0.12851E-04
         0.80813E-05
         0.63090E-05
        -0.10482E-05
         0.14898E-05
         0.15824E-04
         0.10458E-05
        -0.10965E-03
         0.15807E-03
        -0.33022E-03
        -0.35197E-03
        -0.33898E-03
        -0.18737E-03
         0.45565E-04
         0.12891E-03
         0.16274E-03
         0.29517E-03
         0.32922E-03
         0.12801E-03
         0.42764E-04
         0.34860E-04
        -0.17789E-04
        -0.15542E-03
        -0.28420E-03
        -0.37418E-03
        -0.24811E-03
         0.71508E-04
         0.13886E-03
         0.13300E-03
         0.23577E-03
         0.28743E-03
         0.19112E-03
         0.18039E-03
        -0.58871E-05
         0.76324E-06
        -0.13426E-05
        -0.93244E-06
         0.10381E-04
         0.39929E-05
         0.92964E-06
        -0.70352E-05
        -0.21277E-05
        -0.63144E-05
         0.65921E-06
        -0.10643E-04
        -0.20712E-04
         0.22749E-05
         0.27359E-04
        -0.43799E-05
         0.74646E-06
         0.42027E-06
         0.12805E-05
         0.43150E-06
         0.11526E-04
         0.77873E-05
        -0.44520E-05
         0.90830E-06
         0.21004E-05
        -0.34739E-06
         0.47854E-06
        -0.11515E-06
        -0.47006E-06
        -0.34776E-05
        -0.36285E-05
        -0.61605E-06
         0.15157E-05
         0.11404E-05
         0.26498E-05
        -0.44988E-05
        -0.98474E-05
         0.23113E-04
         0.34416E-05
         0.87289E-05
         0.23491E-04
        -0.59500E-05
        -0.12018E-04
        -0.10846E-04
        -0.10748E-04
        -0.12844E-04
         0.80806E-05
         0.63073E-05
        -0.10391E-05
         0.14828E-05
         0.15807E-04
         0.10285E-05
        -0.10951E-03
         0.15803E-03
        -0.33025E-03
        -0.35198E-03
        -0.33884E-03
        -0.18725E-03
         0.45597E-04
         0.12895E-03
         0.16256E-03
         0.29497E-03
         0.32910E-03
         0.12807E-03
         0.42757E-04
         0.34930E-04
        -0.17646E-04
        -0.15554E-03
        -0.28437E-03
        -0.37434E-03
        -0.24803E-03
         0.71536E-04
         0.13875E-03
         0.13294E-03
         0.23554E-03
         0.28704E-03
         0.19082E-03
         0.18008E-03
        -0.59019E-05
         0.76617E-06
        -0.13458E-05
        -0.93993E-06
         0.10372E-04
         0.39925E-05
         0.93671E-06
        -0.70292E-05
        -0.21337E-05
        -0.63324E-05
         0.64601E-06
        -0.10668E-04
        -0.20730E-04
         0.22691E-05
         0.27379E-04
        -0.43849E-05
         0.75494E-06
         0.41846E-06
         0.12808E-05
         0.42831E-06
         0.11554E-04
         0.77937E-05
        -0.44535E-05
         0.90780E-06
         0.21148E-05
        -0.34729E-06
         0.48464E-06
        -0.11364E-06
        -0.46993E-06
        -0.34869E-05
        -0.36345E-05
        -0.61437E-06
         0.15126E-05
         0.11427E-05
         0.26258E-05
        -0.44999E-05
        -0.98434E-05
         0.23185E-04
         0.34818E-05
         0.87668E-05
         0.23525E-04
        -0.59358E-05
        -0.12030E-04
        -0.10852E-04
        -0.10746E-04
        -0.12838E-04
         0.80799E-05
         0.63055E-05
        -0.10299E-05
         0.14755E-05
         0.15790E-04
         0.10112E-05
        -0.10937E-03
         0.15800E-03
        -0.33028E-03
        -0.35198E-03
        -0.33869E-03
        -0.18713E-03
         0.45630E-04
         0.12899E-03
         0.16239E-03
         0.29477E-03
         0.32899E-03
         0.12813E-03
         0.42750E-04
         0.34999E-04
        -0.17503E-04
        -0.15566E-03
        -0.28456E-03
        -0.37450E-03
        -0.24796E-03
         0.71564E-04
         0.13864E-03
         0.13289E-03
         0.23531E-03
         0.28666E-03
         0.19051E-03
         0.17976E-03
        -0.59168E-05
         0.76919E-06
        -0.13489E-05
        -0.94745E-06
         0.10363E-04
         0.39921E-05
         0.94380E-06
        -0.70229E-05
        -0.21395E-05
        -0.63492E-05
         0.63282E-06
        -0.10694E-04
        -0.20748E-04
         0.22635E-05
         0.27399E-04
        -0.43903E-05
         0.76365E-06
         0.41663E-06
         0.12811E-05
         0.42495E-06
         0.11583E-04
         0.77997E-05
        -0.44573E-05
         0.90695E-06
         0.21300E-05
        -0.34711E-06
         0.49091E-06
        -0.11239E-06
        -0.46891E-06
        -0.34954E-05
        -0.36406E-05
        -0.61222E-06
         0.15095E-05
         0.11451E-05
         0.26019E-05
        -0.45008E-05
        -0.98396E-05
         0.23258E-04
         0.35221E-05
         0.88053E-05
         0.23563E-04
        -0.59170E-05
        -0.12042E-04
        -0.10862E-04
        -0.10745E-04
        -0.12832E-04
         0.80801E-05
         0.63038E-05
        -0.10207E-05
         0.14683E-05
         0.15773E-04
         0.99408E-06
        -0.10923E-03
         0.15797E-03
        -0.33031E-03
        -0.35199E-03
        -0.33855E-03
        -0.18701E-03
         0.45663E-04
         0.12903E-03
         0.16222E-03
         0.29457E-03
         0.32887E-03
         0.12821E-03
         0.42748E-04
         0.35068E-04
        -0.17358E-04
        -0.15579E-03
        -0.28477E-03
        -0.37467E-03
        -0.24789E-03
         0.71593E-04
         0.13853E-03
         0.13283E-03
         0.23507E-03
         0.28628E-03
         0.19021E-03
         0.17944E-03
        -0.59315E-05
         0.77220E-06
        -0.13521E-05
        -0.95494E-06
         0.10355E-04
         0.39916E-05
         0.95088E-06
        -0.70163E-05
        -0.21450E-05
        -0.63646E-05
         0.61959E-06
        -0.10719E-04
        -0.20766E-04
         0.22581E-05
         0.27419E-04
        -0.43962E-05
         0.77257E-06
         0.41479E-06
         0.12814E-05
         0.42144E-06
         0.11612E-04
         0.78051E-05
        -0.44634E-05
         0.90574E-06
         0.21458E-05
        -0.34679E-06
         0.49787E-06
        -0.11136E-06
        -0.46695E-06
        -0.35030E-05
        -0.36469E-05
        -0.60948E-06
         0.15063E-05
         0.11475E-05
         0.25779E-05
        -0.45017E-05
        -0.98361E-05
         0.23331E-04
         0.35626E-05
         0.88447E-05
         0.23603E-04
        -0.58932E-05
        -0.12051E-04
        -0.10876E-04
        -0.10746E-04
        -0.12826E-04
         0.80810E-05
         0.63028E-05
        -0.10116E-05
         0.14612E-05
         0.15757E-04
         0.97686E-06
        -0.10909E-03
         0.15794E-03
        -0.33034E-03
        -0.35199E-03
        -0.33840E-03
        -0.18689E-03
         0.45695E-04
         0.12907E-03
         0.16205E-03
         0.29437E-03
         0.32877E-03
         0.12831E-03
         0.42750E-04
         0.35136E-04
        -0.17214E-04
        -0.15593E-03
        -0.28501E-03
        -0.37486E-03
        -0.24782E-03
         0.71621E-04
         0.13842E-03
         0.13277E-03
         0.23484E-03
         0.28590E-03
         0.18990E-03
         0.17912E-03
        -0.59456E-05
         0.77541E-06
        -0.13550E-05
        -0.96250E-06
         0.10346E-04
         0.39910E-05
         0.95786E-06
        -0.70089E-05
        -0.21505E-05
        -0.63792E-05
         0.60639E-06
        -0.10744E-04
        -0.20784E-04
         0.22528E-05
         0.27439E-04
        -0.44023E-05
         0.78168E-06
         0.41297E-06
         0.12817E-05
         0.41793E-06
         0.11642E-04
         0.78104E-05
        -0.44705E-05
         0.90442E-06
         0.21614E-05
        -0.34641E-06
         0.50533E-06
        -0.11041E-06
        -0.46458E-06
        -0.35107E-05
        -0.36529E-05
        -0.60640E-06
         0.15032E-05
         0.11499E-05
         0.25537E-05
        -0.45032E-05
        -0.98331E-05
         0.23405E-04
         0.36034E-05
         0.88848E-05
         0.23645E-04
        -0.58679E-05
        -0.12060E-04
        -0.10891E-04
        -0.10748E-04
        -0.12822E-04
         0.80819E-05
         0.63023E-05
        -0.10024E-05
         0.14545E-05
         0.15740E-04
         0.95974E-06
        -0.10895E-03
         0.15791E-03
        -0.33037E-03
        -0.35199E-03
        -0.33826E-03
        -0.18677E-03
         0.45726E-04
         0.12911E-03
         0.16188E-03
         0.29417E-03
         0.32866E-03
         0.12841E-03
         0.42755E-04
         0.35204E-04
        -0.17070E-04
        -0.15608E-03
        -0.28526E-03
        -0.37504E-03
        -0.24774E-03
         0.71645E-04
         0.13831E-03
         0.13271E-03
         0.23461E-03
         0.28553E-03
         0.18960E-03
         0.17881E-03
        -0.59586E-05
         0.77913E-06
        -0.13574E-05
        -0.97024E-06
         0.10337E-04
         0.39907E-05
         0.96473E-06
        -0.70000E-05
        -0.21562E-05
        -0.63932E-05
         0.59318E-06
        -0.10769E-04
        -0.20804E-04
         0.22489E-05
         0.27459E-04
        -0.44085E-05
         0.79093E-06
         0.41115E-06
         0.12821E-05
         0.41443E-06
         0.11672E-04
         0.78160E-05
        -0.44777E-05
         0.90316E-06
         0.21760E-05
        -0.34590E-06
         0.51413E-06
        -0.10944E-06
        -0.46206E-06
        -0.35186E-05
        -0.36584E-05
        -0.60298E-06
         0.14999E-05
         0.11522E-05
         0.25294E-05
        -0.45050E-05
        -0.98307E-05
         0.23478E-04
         0.36446E-05
         0.89253E-05
         0.23688E-04
        -0.58420E-05
        -0.12069E-04
        -0.10906E-04
        -0.10752E-04
        -0.12819E-04
         0.80834E-05
         0.63033E-05
        -0.99267E-06
         0.14490E-05
         0.15725E-04
         0.94247E-06
        -0.10881E-03
         0.15787E-03
        -0.33040E-03
        -0.35200E-03
        -0.33811E-03
        -0.18665E-03
         0.45757E-04
         0.12915E-03
         0.16171E-03
         0.29397E-03
         0.32856E-03
         0.12851E-03
         0.42759E-04
         0.35273E-04
        -0.16925E-04
        -0.15623E-03
        -0.28550E-03
        -0.37523E-03
        -0.24766E-03
         0.71665E-04
         0.13819E-03
         0.13266E-03
         0.23438E-03
         0.28515E-03
         0.18930E-03
         0.17849E-03
        -0.59710E-05
         0.78302E-06
        -0.13595E-05
        -0.97807E-06
         0.10329E-04
         0.39902E-05
         0.97150E-06
        -0.69903E-05
        -0.21619E-05
        -0.64070E-05
         0.57996E-06
        -0.10795E-04
        -0.20824E-04
         0.22453E-05
         0.27479E-04
        -0.44149E-05
         0.80026E-06
         0.40930E-06
         0.12824E-05
         0.41100E-06
         0.11702E-04
         0.78215E-05
        -0.44848E-05
         0.90192E-06
         0.21902E-05
        -0.34535E-06
         0.52328E-06
        -0.10844E-06
        -0.45948E-06
        -0.35267E-05
        -0.36638E-05
        -0.59934E-06
         0.14966E-05
         0.11546E-05
         0.25049E-05
        -0.45072E-05
        -0.98291E-05
         0.23553E-04
         0.36860E-05
         0.89660E-05
         0.23731E-04
        -0.58161E-05
        -0.12078E-04
        -0.10922E-04
        -0.10756E-04
        -0.12817E-04
         0.80850E-05
         0.63048E-05
        -0.98280E-06
         0.14440E-05
         0.15710E-04
         0.92528E-06
        -0.10867E-03
         0.15784E-03
        -0.33043E-03
        -0.35200E-03
        -0.33797E-03
        -0.18653E-03
         0.45788E-04
         0.12919E-03
         0.16154E-03
         0.29377E-03
         0.32845E-03
         0.12861E-03
         0.42764E-04
         0.35342E-04
        -0.16780E-04
        -0.15638E-03
        -0.28575E-03
        -0.37540E-03
        -0.24758E-03
         0.71683E-04
         0.13808E-03
         0.13261E-03
         0.23415E-03
         0.28477E-03
         0.18900E-03
         0.17817E-03
        -0.59834E-05
         0.78695E-06
        -0.13616E-05
        -0.98590E-06
         0.10321E-04
         0.39896E-05
         0.97825E-06
        -0.69806E-05
        -0.21677E-05
        -0.64208E-05
         0.56674E-06
        -0.10820E-04
        -0.20843E-04
         0.22420E-05
         0.27499E-04
        -0.44213E-05
         0.80967E-06
         0.40746E-06
         0.12827E-05
         0.40752E-06
         0.11731E-04
         0.78272E-05
        -0.44919E-05
         0.90073E-06
         0.22044E-05
        -0.34479E-06
         0.53266E-06
        -0.10738E-06
        -0.45683E-06
        -0.35348E-05
        -0.36690E-05
        -0.59576E-06
         0.14932E-05
         0.11570E-05
         0.24803E-05
        -0.45091E-05
        -0.98273E-05
         0.23627E-04
         0.37277E-05
         0.90065E-05
         0.23775E-04
        -0.57902E-05
        -0.12087E-04
        -0.10938E-04
        -0.10760E-04
        -0.12815E-04
         0.80865E-05
         0.63064E-05
        -0.97295E-06
         0.14392E-05
         0.15696E-04
         0.90805E-06
        -0.10853E-03
         0.15781E-03
        -0.33045E-03
        -0.35201E-03
        -0.33782E-03
        -0.18641E-03
         0.45819E-04
         0.12923E-03
         0.16137E-03
         0.29357E-03
         0.32834E-03
         0.12871E-03
         0.42769E-04
         0.35413E-04
        -0.16636E-04
        -0.15653E-03
        -0.28600E-03
        -0.37558E-03
        -0.24750E-03
         0.71701E-04
         0.13796E-03
         0.13255E-03
         0.23392E-03
         0.28439E-03
         0.18870E-03
         0.17786E-03
        -0.59958E-05
         0.79091E-06
        -0.13637E-05
        -0.99372E-06
         0.10312E-04
         0.39891E-05
         0.98504E-06
        -0.69708E-05
        -0.21735E-05
        -0.64344E-05
         0.55352E-06
        -0.10845E-04
        -0.20864E-04
         0.22383E-05
         0.27519E-04
        -0.44276E-05
         0.81915E-06
         0.40564E-06
         0.12830E-05
         0.40405E-06
         0.11761E-04
         0.78326E-05
        -0.44986E-05
         0.89954E-06
         0.22186E-05
        -0.34423E-06
         0.54180E-06
        -0.10628E-06
        -0.45411E-06
        -0.35428E-05
        -0.36743E-05
        -0.59214E-06
         0.14898E-05
         0.11594E-05
         0.24556E-05
        -0.45113E-05
        -0.98258E-05
         0.23702E-04
         0.37696E-05
         0.90476E-05
         0.23818E-04
        -0.57644E-05
        -0.12095E-04
        -0.10954E-04
        -0.10764E-04
        -0.12813E-04
         0.80881E-05
         0.63082E-05
        -0.96317E-06
         0.14341E-05
         0.15681E-04
         0.89093E-06
        -0.10839E-03
         0.15778E-03
        -0.33048E-03
        -0.35201E-03
        -0.33767E-03
        -0.18628E-03
         0.45849E-04
         0.12927E-03
         0.16120E-03
         0.29337E-03
         0.32823E-03
         0.12880E-03
         0.42774E-04
         0.35483E-04
        -0.16491E-04
        -0.15668E-03
        -0.28624E-03
        -0.37576E-03
        -0.24743E-03
         0.71719E-04
         0.13785E-03
         0.13250E-03
         0.23369E-03
         0.28402E-03
         0.18840E-03
         0.17754E-03
        -0.60081E-05
         0.79483E-06
        -0.13659E-05
        -0.10015E-05
         0.10304E-04
         0.39886E-05
         0.99185E-06
        -0.69609E-05
        -0.21794E-05
        -0.64480E-05
         0.54025E-06
        -0.10871E-04
        -0.20884E-04
         0.22349E-05
         0.27539E-04
        -0.44339E-05
         0.82867E-06
         0.40382E-06
         0.12834E-05
         0.40055E-06
         0.11791E-04
         0.78380E-05
        -0.45057E-05
         0.89837E-06
         0.22328E-05
        -0.34366E-06
         0.55110E-06
        -0.10511E-06
        -0.45132E-06
        -0.35508E-05
        -0.36796E-05
        -0.58855E-06
         0.14864E-05
         0.11618E-05
         0.24308E-05
        -0.45134E-05
        -0.98242E-05
         0.23776E-04
         0.38117E-05
         0.90880E-05
         0.23861E-04
        -0.57385E-05
        -0.12104E-04
        -0.10970E-04
        -0.10769E-04
        -0.12811E-04
         0.80898E-05
         0.63098E-05
        -0.95334E-06
         0.14291E-05
         0.15667E-04
         0.87382E-06
        -0.10825E-03
         0.15774E-03
        -0.33050E-03
        -0.35201E-03
        -0.33753E-03
        -0.18616E-03
         0.45878E-04
         0.12931E-03
         0.16103E-03
         0.29317E-03
         0.32813E-03
         0.12890E-03
         0.42779E-04
         0.35552E-04
        -0.16347E-04
        -0.15683E-03
        -0.28649E-03
        -0.37594E-03
        -0.24735E-03
         0.71735E-04
         0.13773E-03
         0.13244E-03
         0.23346E-03
         0.28364E-03
         0.18810E-03
         0.17723E-03
        -0.60205E-05
         0.79875E-06
        -0.13679E-05
        -0.10094E-05
         0.10295E-04
         0.39881E-05
         0.99863E-06
        -0.69510E-05
        -0.21852E-05
        -0.64615E-05
         0.52699E-06
        -0.10897E-04
        -0.20904E-04
         0.22314E-05
         0.27558E-04
        -0.44403E-05
         0.83823E-06
         0.40198E-06
         0.12837E-05
         0.39711E-06
         0.11820E-04
         0.78432E-05
        -0.45128E-05
         0.89722E-06
         0.22471E-05
        -0.34312E-06
         0.56020E-06
        -0.10390E-06
        -0.44841E-06
        -0.35590E-05
        -0.36848E-05
        -0.58495E-06
         0.14829E-05
         0.11642E-05
         0.24059E-05
        -0.45154E-05
        -0.98223E-05
         0.23851E-04
         0.38541E-05
         0.91293E-05
         0.23904E-04
        -0.57129E-05
        -0.12113E-04
        -0.10985E-04
        -0.10773E-04
        -0.12809E-04
         0.80912E-05
         0.63117E-05
        -0.94351E-06
         0.14243E-05
         0.15653E-04
         0.85676E-06
        -0.10811E-03
         0.15771E-03
        -0.33053E-03
        -0.35201E-03
        -0.33738E-03
        -0.18604E-03
         0.45907E-04
         0.12934E-03
         0.16086E-03
         0.29297E-03
         0.32802E-03
         0.12900E-03
         0.42784E-04
         0.35621E-04
        -0.16201E-04
        -0.15698E-03
        -0.28674E-03
        -0.37611E-03
        -0.24727E-03
         0.71753E-04
         0.13762E-03
         0.13239E-03
         0.23323E-03
         0.28326E-03
         0.18780E-03
         0.17691E-03
        -0.60329E-05
         0.80271E-06
        -0.13700E-05
        -0.10173E-05
         0.10287E-04
         0.39875E-05
         0.10054E-05
        -0.69409E-05
        -0.21909E-05
        -0.64748E-05
         0.51375E-06
        -0.10922E-04
        -0.20924E-04
         0.22277E-05
         0.27578E-04
        -0.44466E-05
         0.84783E-06
         0.40014E-06
         0.12841E-05
         0.39367E-06
         0.11850E-04
         0.78486E-05
        -0.45198E-05
         0.89608E-06
         0.22612E-05
        -0.34253E-06
         0.56957E-06
        -0.10263E-06
        -0.44547E-06
        -0.35669E-05
        -0.36901E-05
        -0.58130E-06
         0.14794E-05
         0.11666E-05
         0.23809E-05
        -0.45178E-05
        -0.98208E-05
         0.23926E-04
         0.38967E-05
         0.91703E-05
         0.23947E-04
        -0.56869E-05
        -0.12122E-04
        -0.11001E-04
        -0.10777E-04
        -0.12806E-04
         0.80929E-05
         0.63134E-05
        -0.93366E-06
         0.14194E-05
         0.15638E-04
         0.83979E-06
        -0.10797E-03
         0.15768E-03
        -0.33055E-03
        -0.35202E-03
        -0.33724E-03
        -0.18592E-03
         0.45937E-04
         0.12938E-03
         0.16069E-03
         0.29277E-03
         0.32791E-03
         0.12910E-03
         0.42788E-04
         0.35690E-04
        -0.16056E-04
        -0.15713E-03
        -0.28698E-03
        -0.37629E-03
        -0.24719E-03
         0.71770E-04
         0.13750E-03
         0.13234E-03
         0.23301E-03
         0.28289E-03
         0.18751E-03
         0.17660E-03
        -0.60453E-05
         0.80660E-06
        -0.13720E-05
        -0.10252E-05
         0.10279E-04
         0.39870E-05
         0.10122E-05
        -0.69308E-05
        -0.21968E-05
        -0.64880E-05
         0.50051E-06
        -0.10948E-04
        -0.20944E-04
         0.22242E-05
         0.27597E-04
        -0.44529E-05
         0.85750E-06
         0.39832E-06
         0.12845E-05
         0.39027E-06
         0.11880E-04
         0.78538E-05
        -0.45268E-05
         0.89493E-06
         0.22754E-05
        -0.34194E-06
         0.57868E-06
        -0.10131E-06
        -0.44247E-06
        -0.35749E-05
        -0.36953E-05
        -0.57770E-06
         0.14758E-05
         0.11690E-05
         0.23558E-05
        -0.45198E-05
        -0.98190E-05
         0.24001E-04
         0.39394E-05
         0.92115E-05
         0.23990E-04
        -0.56609E-05
        -0.12130E-04
        -0.11017E-04
        -0.10782E-04
        -0.12805E-04
         0.80946E-05
         0.63150E-05
        -0.92384E-06
         0.14144E-05
         0.15624E-04
         0.82297E-06
        -0.10783E-03
         0.15765E-03
        -0.33057E-03
        -0.35202E-03
        -0.33710E-03
        -0.18580E-03
         0.45967E-04
         0.12942E-03
         0.16052E-03
         0.29256E-03
         0.32780E-03
         0.12920E-03
         0.42793E-04
         0.35760E-04
        -0.15912E-04
        -0.15728E-03
        -0.28723E-03
        -0.37647E-03
        -0.24711E-03
         0.71786E-04
         0.13739E-03
         0.13228E-03
         0.23278E-03
         0.28251E-03
         0.18721E-03
         0.17628E-03
        -0.60577E-05
         0.81047E-06
        -0.13741E-05
        -0.10331E-05
         0.10271E-04
         0.39863E-05
         0.10190E-05
        -0.69206E-05
        -0.22026E-05
        -0.65013E-05
         0.48725E-06
        -0.10974E-04
        -0.20964E-04
         0.22204E-05
         0.27617E-04
        -0.44592E-05
         0.86723E-06
         0.39651E-06
         0.12848E-05
         0.38682E-06
         0.11910E-04
         0.78591E-05
        -0.45336E-05
         0.89382E-06
         0.22896E-05
        -0.34135E-06
         0.58796E-06
        -0.99933E-07
        -0.43941E-06
        -0.35829E-05
        -0.37005E-05
        -0.57406E-06
         0.14722E-05
         0.11714E-05
         0.23306E-05
        -0.45221E-05
        -0.98174E-05
         0.24076E-04
         0.39824E-05
         0.92526E-05
         0.24034E-04
        -0.56349E-05
        -0.12139E-04
        -0.11033E-04
        -0.10786E-04
        -0.12803E-04
         0.80960E-05
         0.63169E-05
        -0.91391E-06
         0.14096E-05
         0.15609E-04
         0.80608E-06
        -0.10769E-03
         0.15761E-03
        -0.33060E-03
        -0.35202E-03
        -0.33695E-03
        -0.18568E-03
         0.45994E-04
         0.12945E-03
         0.16035E-03
         0.29236E-03
         0.32770E-03
         0.12930E-03
         0.42798E-04
         0.35830E-04
        -0.15767E-04
        -0.15743E-03
        -0.28748E-03
        -0.37665E-03
        -0.24703E-03
         0.71802E-04
         0.13727E-03
         0.13223E-03
         0.23255E-03
         0.28214E-03
         0.18692E-03
         0.17597E-03
        -0.60701E-05
         0.81442E-06
        -0.13762E-05
        -0.10410E-05
         0.10262E-04
         0.39859E-05
         0.10258E-05
        -0.69103E-05
        -0.22084E-05
        -0.65144E-05
         0.47395E-06
        -0.10999E-04
        -0.20984E-04
         0.22168E-05
         0.27636E-04
        -0.44656E-05
         0.87705E-06
         0.39471E-06
         0.12852E-05
         0.38341E-06
         0.11939E-04
         0.78641E-05
        -0.45406E-05
         0.89272E-06
         0.23038E-05
        -0.34075E-06
         0.59701E-06
        -0.98504E-07
        -0.43629E-06
        -0.35908E-05
        -0.37057E-05
        -0.57046E-06
         0.14686E-05
         0.11738E-05
         0.23053E-05
        -0.45241E-05
        -0.98157E-05
         0.24151E-04
         0.40256E-05
         0.92935E-05
         0.24077E-04
        -0.56089E-05
        -0.12148E-04
        -0.11048E-04
        -0.10790E-04
        -0.12801E-04
         0.80976E-05
         0.63185E-05
        -0.90410E-06
         0.14046E-05
         0.15595E-04
         0.78923E-06
        -0.10754E-03
         0.15758E-03
        -0.33062E-03
        -0.35203E-03
        -0.33680E-03
        -0.18556E-03
         0.46022E-04
         0.12948E-03
         0.16019E-03
         0.29215E-03
         0.32759E-03
         0.12940E-03
         0.42802E-04
         0.35898E-04
        -0.15622E-04
        -0.15758E-03
        -0.28773E-03
        -0.37682E-03
        -0.24695E-03
         0.71818E-04
         0.13716E-03
         0.13218E-03
         0.23232E-03
         0.28176E-03
         0.18662E-03
         0.17565E-03
        -0.60825E-05
         0.81832E-06
        -0.13783E-05
        -0.10489E-05
         0.10254E-04
         0.39853E-05
         0.10326E-05
        -0.69000E-05
        -0.22142E-05
        -0.65271E-05
         0.46065E-06
        -0.11025E-04
        -0.21005E-04
         0.22129E-05
         0.27655E-04
        -0.44719E-05
         0.88694E-06
         0.39290E-06
         0.12855E-05
         0.38003E-06
         0.11969E-04
         0.78688E-05
        -0.45475E-05
         0.89163E-06
         0.23179E-05
        -0.34013E-06
         0.60628E-06
        -0.96999E-07
        -0.43306E-06
        -0.35987E-05
        -0.37109E-05
        -0.56685E-06
         0.14649E-05
         0.11762E-05
         0.22798E-05
        -0.45262E-05
        -0.98138E-05
         0.24226E-04
         0.40694E-05
         0.93349E-05
         0.24119E-04
        -0.55831E-05
        -0.12157E-04
        -0.11064E-04
        -0.10795E-04
        -0.12799E-04
         0.80994E-05
         0.63204E-05
        -0.89434E-06
         0.13997E-05
         0.15580E-04
         0.77258E-06
        -0.10740E-03
         0.15755E-03
        -0.33064E-03
        -0.35203E-03
        -0.33666E-03
        -0.18543E-03
         0.46048E-04
         0.12952E-03
         0.16002E-03
         0.29195E-03
         0.32749E-03
         0.12950E-03
         0.42805E-04
         0.35967E-04
        -0.15477E-04
        -0.15773E-03
        -0.28797E-03
        -0.37700E-03
        -0.24687E-03
         0.71834E-04
         0.13704E-03
         0.13212E-03
         0.23209E-03
         0.28139E-03
         0.18633E-03
         0.17534E-03
        -0.60949E-05
         0.82221E-06
        -0.13803E-05
        -0.10568E-05
         0.10246E-04
         0.39847E-05
         0.10394E-05
        -0.68895E-05
        -0.22199E-05
        -0.65390E-05
         0.44733E-06
        -0.11050E-04
        -0.21024E-04
         0.22093E-05
         0.27673E-04
        -0.44783E-05
         0.89693E-06
         0.39107E-06
         0.12861E-05
         0.37681E-06
         0.11998E-04
         0.78735E-05
        -0.45546E-05
         0.89048E-06
         0.23316E-05
        -0.33955E-06
         0.61541E-06
        -0.95385E-07
        -0.42979E-06
        -0.36064E-05
        -0.37161E-05
        -0.56317E-06
         0.14612E-05
         0.11787E-05
         0.22543E-05
        -0.45286E-05
        -0.98123E-05
         0.24300E-04
         0.41143E-05
         0.93751E-05
         0.24161E-04
        -0.55566E-05
        -0.12166E-04
        -0.11080E-04
        -0.10799E-04
        -0.12797E-04
         0.81008E-05
         0.63221E-05
        -0.88460E-06
         0.13947E-05
         0.15566E-04
         0.75593E-06
        -0.10726E-03
         0.15751E-03
        -0.33066E-03
        -0.35203E-03
        -0.33651E-03
        -0.18531E-03
         0.46075E-04
         0.12955E-03
         0.15985E-03
         0.29173E-03
         0.32738E-03
         0.12960E-03
         0.42807E-04
         0.36035E-04
        -0.15333E-04
        -0.15787E-03
        -0.28822E-03
        -0.37718E-03
        -0.24680E-03
         0.71851E-04
         0.13693E-03
         0.13207E-03
         0.23186E-03
         0.28101E-03
         0.18604E-03
         0.17503E-03
        -0.61073E-05
         0.82609E-06
        -0.13823E-05
        -0.10648E-05
         0.10237E-04
         0.39840E-05
         0.10462E-05
        -0.68788E-05
        -0.22254E-05
        -0.65501E-05
         0.43403E-06
        -0.11076E-04
        -0.21045E-04
         0.22055E-05
         0.27691E-04
        -0.44845E-05
         0.90706E-06
         0.38926E-06
         0.12865E-05
         0.37369E-06
         0.12028E-04
         0.78779E-05
        -0.45616E-05
         0.88941E-06
         0.23450E-05
        -0.33892E-06
         0.62490E-06
        -0.93643E-07
        -0.42646E-06
        -0.36137E-05
        -0.37213E-05
        -0.55954E-06
         0.14574E-05
         0.11811E-05
         0.22286E-05
        -0.45306E-05
        -0.98106E-05
         0.24375E-04
         0.41602E-05
         0.94153E-05
         0.24200E-04
        -0.55298E-05
        -0.12175E-04
        -0.11096E-04
        -0.10804E-04
        -0.12795E-04
         0.81025E-05
         0.63238E-05
        -0.87480E-06
         0.13899E-05
         0.15551E-04
         0.73921E-06
        -0.10712E-03
         0.15748E-03
        -0.33068E-03
        -0.35203E-03
        -0.33637E-03
        -0.18519E-03
         0.46101E-04
         0.12959E-03
         0.15968E-03
         0.29151E-03
         0.32729E-03
         0.12971E-03
         0.42805E-04
         0.36103E-04
        -0.15188E-04
        -0.15802E-03
        -0.28847E-03
        -0.37735E-03
        -0.24672E-03
         0.71866E-04
         0.13681E-03
         0.13201E-03
         0.23163E-03
         0.28064E-03
         0.18575E-03
         0.17471E-03
        -0.61198E-05
         0.82999E-06
        -0.13845E-05
        -0.10727E-05
         0.10229E-04
         0.39835E-05
         0.10530E-05
        -0.68683E-05
        -0.22309E-05
        -0.65609E-05
         0.42081E-06
        -0.11101E-04
        -0.21065E-04
         0.22015E-05
         0.27709E-04
        -0.44909E-05
         0.91729E-06
         0.38746E-06
         0.12868E-05
         0.37066E-06
         0.12058E-04
         0.78823E-05
        -0.45681E-05
         0.88841E-06
         0.23583E-05
        -0.33833E-06
         0.63413E-06
        -0.91813E-07
        -0.42310E-06
        -0.36209E-05
        -0.37265E-05
        -0.55599E-06
         0.14537E-05
         0.11836E-05
         0.22032E-05
        -0.45328E-05
        -0.98085E-05
         0.24449E-04
         0.42066E-05
         0.94542E-05
         0.24238E-04
        -0.55034E-05
        -0.12184E-04
        -0.11111E-04
        -0.10808E-04
        -0.12793E-04
         0.81043E-05
         0.63258E-05
        -0.86511E-06
         0.13849E-05
         0.15537E-04
         0.72267E-06
        -0.10698E-03
         0.15745E-03
        -0.33070E-03
        -0.35204E-03
        -0.33623E-03
        -0.18507E-03
         0.46126E-04
         0.12962E-03
         0.15952E-03
         0.29128E-03
         0.32719E-03
         0.12982E-03
         0.42801E-04
         0.36172E-04
        -0.15043E-04
        -0.15817E-03
        -0.28872E-03
        -0.37753E-03
        -0.24664E-03
         0.71884E-04
         0.13670E-03
         0.13196E-03
         0.23140E-03
         0.28027E-03
         0.18546E-03
         0.17440E-03
        -0.61756E-05
         0.83913E-06
        -0.13968E-05
        -0.10880E-05
         0.10291E-04
         0.40103E-05
         0.10668E-05
        -0.69074E-05
        -0.22519E-05
        -0.66179E-05
         0.41215E-06
        -0.11192E-04
        -0.21221E-04
         0.22132E-05
         0.27913E-04
        -0.45292E-05
         0.93350E-06
         0.38853E-06
         0.12959E-05
         0.37040E-06
         0.12164E-04
         0.79388E-05
        -0.46006E-05
         0.89419E-06
         0.23873E-05
        -0.34048E-06
         0.64709E-06
        -0.90566E-07
        -0.42354E-06
        -0.36534E-05
        -0.37587E-05
        -0.55736E-06
         0.14607E-05
         0.11945E-05
         0.21947E-05
        -0.45637E-05
        -0.98705E-05
         0.24685E-04
         0.42783E-05
         0.95552E-05
         0.24437E-04
        -0.55213E-05
        -0.12278E-04
        -0.11193E-04
        -0.10879E-04
        -0.12870E-04
         0.81581E-05
         0.63689E-05
        -0.86224E-06
         0.13893E-05
         0.15627E-04
         0.71123E-06
        -0.10744E-03
         0.15834E-03
        -0.33263E-03
        -0.35406E-03
        -0.33805E-03
        -0.18603E-03
         0.46447E-04
         0.13043E-03
         0.16034E-03
         0.29287E-03
         0.32910E-03
         0.13067E-03
         0.43033E-04
         0.36439E-04
        -0.14987E-04
        -0.15914E-03
        -0.29048E-03
        -0.37977E-03
        -0.24799E-03
         0.72334E-04
         0.13739E-03
         0.13264E-03
         0.23250E-03
         0.28152E-03
         0.18623E-03
         0.17508E-03
        -0.13634E-04
         0.18720E-05
        -0.30723E-05
        -0.24235E-05
         0.21051E-04
         0.83669E-05
         0.23678E-05
        -0.15072E-04
        -0.49483E-05
        -0.14388E-04
         0.86835E-06
        -0.22073E-04
        -0.43137E-04
         0.46844E-05
         0.55619E-04
        -0.10019E-04
         0.20655E-05
         0.85803E-06
         0.27877E-05
         0.79816E-06
         0.24744E-04
         0.16543E-04
        -0.93914E-05
         0.19536E-05
         0.52944E-05
        -0.75670E-06
         0.14049E-05
        -0.19725E-06
        -0.94015E-06
        -0.80749E-05
        -0.83188E-05
        -0.12251E-05
         0.32374E-05
         0.26497E-05
         0.42652E-05
        -0.94976E-05
        -0.20552E-04
         0.51466E-04
         0.92078E-05
         0.20652E-04
         0.51325E-04
        -0.11747E-04
        -0.26162E-04
        -0.23199E-04
        -0.22388E-04
        -0.24980E-04
         0.16672E-04
         0.13352E-04
        -0.18135E-05
         0.29105E-05
         0.31201E-04
         0.14509E-05
        -0.16600E-03
         0.24415E-03
        -0.51320E-03
        -0.54948E-03
        -0.52378E-03
        -0.28955E-03
         0.74033E-04
         0.21113E-03
         0.25837E-03
         0.46651E-03
         0.52568E-03
         0.20807E-03
         0.70021E-04
         0.59775E-04
        -0.23783E-04
        -0.24847E-03
        -0.45080E-03
        -0.58270E-03
        -0.37970E-03
         0.11111E-03
         0.21532E-03
         0.20976E-03
         0.36495E-03
         0.44489E-03
         0.29246E-03
         0.27293E-03
  
SCALARS                      strain_eq  double 1
LOOKUP_TABLE default
         0.13461E+00
         0.12408E+00
         0.13076E+00
         0.14276E+00
         0.10129E-08
         0.11231E-08
         0.10912E-08
         0.98186E-09
         0.12373E+00
         0.12729E+00
         0.11046E-08
         0.10564E-08
         0.10886E+00
         0.10830E+00
         0.12086E-08
         0.11509E-08
         0.14100E+00
         0.10912E+00
         0.90158E-09
         0.10140E-08
         0.97469E-01
         0.88456E-01
         0.10282E+00
         0.12447E-08
         0.11874E-08
         0.11810E-08
         0.88798E-01
         0.75666E-01
         0.12057E-08
         0.10950E-08
         0.14042E+00
         0.12653E+00
         0.15394E+00
         0.98109E-09
         0.92130E-09
         0.88250E-09
         0.13238E+00
         0.11471E+00
         0.10696E-08
         0.97513E-09
         0.12538E+00
         0.11177E+00
         0.99491E-09
         0.85831E-09
         0.13694E+00
         0.14207E+00
         0.10743E-08
         0.11141E-08
         0.10087E+00
         0.96286E-09
         0.14107E+00
         0.11196E-08
         0.85003E-01
         0.10527E-08
         0.80872E-01
         0.97165E-09
         0.80943E-01
         0.95640E-01
         0.98464E-09
         0.96822E-09
         0.14014E+00
         0.13480E+00
         0.99347E-09
         0.11246E-08
         0.14348E+00
         0.95355E-09
         0.13713E+00
         0.10443E-08
         0.12048E+00
         0.11878E+00
         0.11171E-08
         0.11164E-08
         0.11502E+00
         0.11297E-08
         0.71010E-01
         0.90306E-09
         0.68717E-01
         0.84054E-09
         0.69866E-01
         0.87561E-09
         0.76223E-01
         0.82807E-01
         0.84692E-09
         0.87967E-09
         0.96125E-01
         0.82845E-09
         0.13667E+00
         0.11123E-08
         0.13034E+00
         0.11327E-08
         0.12516E+00
         0.12227E+00
         0.11317E-08
         0.11101E-08
         0.12578E+00
         0.99620E-09
         0.12828E+00
         0.97540E-09
         0.12603E+00
         0.10550E-08
         0.12525E+00
         0.12752E+00
         0.10846E-08
         0.10817E-08
         0.11282E+00
         0.11886E+00
         0.10313E-08
         0.99550E-09
         0.11172E+00
         0.10016E-08
         0.11868E+00
         0.97785E-09
         0.11183E+00
         0.97669E-09
         0.96724E-01
         0.91567E-09
         0.82146E-01
         0.77481E-09
         0.73431E-01
         0.65469E-09
         0.72541E-01
         0.63497E-09
         0.72814E-01
         0.67652E-09
         0.82264E-01
         0.69788E-09
         0.10003E+00
         0.65375E-09
         0.11961E+00
         0.59667E-09
         0.13108E+00
         0.61752E-09
         0.14245E+00
         0.73198E-09
         0.14998E+00
         0.85453E-09
         0.14972E+00
         0.91077E-09
         0.13138E+00
         0.97249E-09
         0.11864E+00
         0.10220E-08
         0.11433E+00
         0.95353E-09
         0.12116E+00
         0.83951E-09
         0.12470E+00
         0.83788E-09
         0.11870E+00
         0.92201E-09
         0.11875E+00
         0.97837E-09
         0.12328E+00
         0.94669E-09
         0.12917E+00
         0.92559E-09
         0.26167E+00
         0.26545E+00
         0.26494E+00
         0.25995E+00
         0.26916E+00
         0.26457E+00
         0.27012E+00
         0.26724E+00
         0.26076E+00
         0.26484E+00
         0.27320E+00
         0.27437E+00
         0.27181E+00
         0.27147E+00
         0.27333E+00
         0.26020E+00
         0.26113E+00
         0.25849E+00
         0.26585E+00
         0.26453E+00
         0.26657E+00
         0.26535E+00
         0.26761E+00
         0.26688E+00
         0.26466E+00
         0.26480E+00
         0.26859E+00
         0.26824E+00
         0.27101E+00
         0.26683E+00
         0.26066E+00
         0.26549E+00
         0.26069E+00
         0.26387E+00
         0.27498E+00
         0.27144E+00
         0.26981E+00
         0.27186E+00
         0.27205E+00
         0.27515E+00
         0.27755E+00
         0.27195E+00
         0.26654E+00
         0.26721E+00
         0.27000E+00
         0.27489E+00
         0.27066E+00
         0.26617E+00
         0.26647E+00
         0.26995E+00
         0.27355E+00
         0.26876E+00
         0.28460E+00
         0.28089E+00
         0.28173E+00
         0.28095E+00
         0.28148E+00
         0.28403E+00
         0.28605E+00
         0.28626E+00
         0.28583E+00
         0.28622E+00
         0.28697E+00
         0.28144E+00
         0.27872E+00
         0.27768E+00
         0.27647E+00
         0.27557E+00
         0.27580E+00
         0.27782E+00
         0.28353E+00
         0.28238E+00
         0.28011E+00
         0.27992E+00
         0.28031E+00
         0.28211E+00
         0.27940E+00
         0.27843E+00
         0.71967E-02
         0.43241E-02
         0.40787E-02
         0.27969E-02
         0.74736E-02
         0.51673E-02
         0.22809E-02
         0.70781E-02
         0.44337E-02
         0.66695E-02
         0.32519E-02
         0.14013E-01
         0.10641E-01
         0.53219E-02
         0.14676E-01
         0.52292E-02
         0.26492E-02
         0.16902E-02
         0.35211E-02
         0.19062E-02
         0.11019E-01
         0.10338E-01
         0.10068E-01
         0.26200E-02
         0.43041E-02
         0.13686E-02
         0.50210E-02
         0.81552E-03
         0.18389E-02
         0.46685E-02
         0.44671E-02
         0.23761E-02
         0.28934E-02
         0.25031E-02
         0.96610E-02
         0.57813E-02
         0.74834E-02
         0.11969E-01
         0.92065E-02
         0.85690E-02
         0.12170E-01
         0.11033E-01
         0.11106E-01
         0.85976E-02
         0.76779E-02
         0.10503E-01
         0.68855E-02
         0.58548E-02
         0.48280E-02
         0.57013E-02
         0.93221E-02
         0.64002E-02
         0.40938E-01
         0.41917E-01
         0.43817E-01
         0.43499E-01
         0.46371E-01
         0.49790E-01
         0.47777E-01
         0.42480E-01
         0.41397E-01
         0.44305E-01
         0.43421E-01
         0.42830E-01
         0.35403E-01
         0.33654E-01
         0.36973E-01
         0.39604E-01
         0.41099E-01
         0.44885E-01
         0.43174E-01
         0.44343E-01
         0.39926E-01
         0.37908E-01
         0.40429E-01
         0.39522E-01
         0.40671E-01
         0.40328E-01
         0.72021E-02
         0.43251E-02
         0.40810E-02
         0.28009E-02
         0.74703E-02
         0.51643E-02
         0.22878E-02
         0.70849E-02
         0.44414E-02
         0.66892E-02
         0.32518E-02
         0.14012E-01
         0.10645E-01
         0.53094E-02
         0.14691E-01
         0.52333E-02
         0.26566E-02
         0.16859E-02
         0.35231E-02
         0.19020E-02
         0.11020E-01
         0.10338E-01
         0.10067E-01
         0.26199E-02
         0.43226E-02
         0.13683E-02
         0.50227E-02
         0.80688E-03
         0.18477E-02
         0.46767E-02
         0.44714E-02
         0.23753E-02
         0.28885E-02
         0.25053E-02
         0.96654E-02
         0.57796E-02
         0.74818E-02
         0.11987E-01
         0.92272E-02
         0.85808E-02
         0.12178E-01
         0.11038E-01
         0.11107E-01
         0.85975E-02
         0.76764E-02
         0.10503E-01
         0.68856E-02
         0.58544E-02
         0.48211E-02
         0.56935E-02
         0.93169E-02
         0.63903E-02
         0.40923E-01
         0.41907E-01
         0.43817E-01
         0.43499E-01
         0.46364E-01
         0.49773E-01
         0.47757E-01
         0.42469E-01
         0.41386E-01
         0.44292E-01
         0.43414E-01
         0.42831E-01
         0.35399E-01
         0.33652E-01
         0.36977E-01
         0.39613E-01
         0.41110E-01
         0.44894E-01
         0.43171E-01
         0.44341E-01
         0.39922E-01
         0.37906E-01
         0.40415E-01
         0.39496E-01
         0.40648E-01
         0.40306E-01
         0.72076E-02
         0.43261E-02
         0.40834E-02
         0.28049E-02
         0.74668E-02
         0.51614E-02
         0.22947E-02
         0.70917E-02
         0.44491E-02
         0.67086E-02
         0.32518E-02
         0.14012E-01
         0.10649E-01
         0.52969E-02
         0.14706E-01
         0.52377E-02
         0.26641E-02
         0.16816E-02
         0.35252E-02
         0.18979E-02
         0.11021E-01
         0.10337E-01
         0.10067E-01
         0.26198E-02
         0.43410E-02
         0.13679E-02
         0.50243E-02
         0.79857E-03
         0.18564E-02
         0.46847E-02
         0.44758E-02
         0.23746E-02
         0.28836E-02
         0.25076E-02
         0.96697E-02
         0.57781E-02
         0.74799E-02
         0.12006E-01
         0.92479E-02
         0.85928E-02
         0.12187E-01
         0.11044E-01
         0.11109E-01
         0.85977E-02
         0.76752E-02
         0.10502E-01
         0.68856E-02
         0.58540E-02
         0.48143E-02
         0.56856E-02
         0.93119E-02
         0.63805E-02
         0.40908E-01
         0.41897E-01
         0.43817E-01
         0.43499E-01
         0.46356E-01
         0.49757E-01
         0.47737E-01
         0.42458E-01
         0.41376E-01
         0.44279E-01
         0.43407E-01
         0.42833E-01
         0.35396E-01
         0.33651E-01
         0.36981E-01
         0.39623E-01
         0.41121E-01
         0.44904E-01
         0.43169E-01
         0.44338E-01
         0.39917E-01
         0.37904E-01
         0.40401E-01
         0.39471E-01
         0.40625E-01
         0.40285E-01
         0.72130E-02
         0.43271E-02
         0.40857E-02
         0.28090E-02
         0.74634E-02
         0.51585E-02
         0.23017E-02
         0.70985E-02
         0.44567E-02
         0.67277E-02
         0.32518E-02
         0.14011E-01
         0.10653E-01
         0.52845E-02
         0.14722E-01
         0.52423E-02
         0.26720E-02
         0.16773E-02
         0.35274E-02
         0.18936E-02
         0.11023E-01
         0.10336E-01
         0.10067E-01
         0.26195E-02
         0.43590E-02
         0.13672E-02
         0.50257E-02
         0.79123E-03
         0.18646E-02
         0.46919E-02
         0.44803E-02
         0.23740E-02
         0.28787E-02
         0.25099E-02
         0.96738E-02
         0.57765E-02
         0.74782E-02
         0.12025E-01
         0.92690E-02
         0.86054E-02
         0.12195E-01
         0.11050E-01
         0.11111E-01
         0.85987E-02
         0.76743E-02
         0.10502E-01
         0.68862E-02
         0.58537E-02
         0.48075E-02
         0.56778E-02
         0.93065E-02
         0.63706E-02
         0.40893E-01
         0.41887E-01
         0.43817E-01
         0.43500E-01
         0.46348E-01
         0.49740E-01
         0.47717E-01
         0.42446E-01
         0.41365E-01
         0.44265E-01
         0.43399E-01
         0.42835E-01
         0.35394E-01
         0.33650E-01
         0.36986E-01
         0.39634E-01
         0.41133E-01
         0.44914E-01
         0.43167E-01
         0.44336E-01
         0.39913E-01
         0.37901E-01
         0.40387E-01
         0.39445E-01
         0.40602E-01
         0.40263E-01
         0.72184E-02
         0.43281E-02
         0.40880E-02
         0.28130E-02
         0.74601E-02
         0.51555E-02
         0.23087E-02
         0.71052E-02
         0.44643E-02
         0.67464E-02
         0.32518E-02
         0.14011E-01
         0.10658E-01
         0.52720E-02
         0.14737E-01
         0.52474E-02
         0.26801E-02
         0.16729E-02
         0.35298E-02
         0.18892E-02
         0.11025E-01
         0.10336E-01
         0.10067E-01
         0.26192E-02
         0.43765E-02
         0.13663E-02
         0.50269E-02
         0.78484E-03
         0.18723E-02
         0.46984E-02
         0.44850E-02
         0.23734E-02
         0.28738E-02
         0.25122E-02
         0.96782E-02
         0.57749E-02
         0.74765E-02
         0.12044E-01
         0.92905E-02
         0.86186E-02
         0.12205E-01
         0.11057E-01
         0.11113E-01
         0.86005E-02
         0.76739E-02
         0.10503E-01
         0.68870E-02
         0.58536E-02
         0.48007E-02
         0.56699E-02
         0.93015E-02
         0.63608E-02
         0.40878E-01
         0.41877E-01
         0.43816E-01
         0.43500E-01
         0.46341E-01
         0.49723E-01
         0.47697E-01
         0.42435E-01
         0.41355E-01
         0.44252E-01
         0.43392E-01
         0.42838E-01
         0.35392E-01
         0.33649E-01
         0.36992E-01
         0.39647E-01
         0.41146E-01
         0.44925E-01
         0.43165E-01
         0.44333E-01
         0.39909E-01
         0.37899E-01
         0.40374E-01
         0.39419E-01
         0.40579E-01
         0.40242E-01
         0.72235E-02
         0.43288E-02
         0.40903E-02
         0.28170E-02
         0.74567E-02
         0.51525E-02
         0.23155E-02
         0.71114E-02
         0.44720E-02
         0.67645E-02
         0.32522E-02
         0.14011E-01
         0.10662E-01
         0.52596E-02
         0.14752E-01
         0.52525E-02
         0.26883E-02
         0.16686E-02
         0.35321E-02
         0.18849E-02
         0.11026E-01
         0.10336E-01
         0.10069E-01
         0.26187E-02
         0.43937E-02
         0.13653E-02
         0.50281E-02
         0.77895E-03
         0.18799E-02
         0.47047E-02
         0.44896E-02
         0.23728E-02
         0.28689E-02
         0.25144E-02
         0.96827E-02
         0.57736E-02
         0.74750E-02
         0.12062E-01
         0.93122E-02
         0.86322E-02
         0.12214E-01
         0.11063E-01
         0.11116E-01
         0.86026E-02
         0.76742E-02
         0.10504E-01
         0.68880E-02
         0.58537E-02
         0.47943E-02
         0.56622E-02
         0.92965E-02
         0.63512E-02
         0.40864E-01
         0.41867E-01
         0.43816E-01
         0.43500E-01
         0.46333E-01
         0.49706E-01
         0.47677E-01
         0.42424E-01
         0.41344E-01
         0.44239E-01
         0.43385E-01
         0.42841E-01
         0.35391E-01
         0.33648E-01
         0.36997E-01
         0.39660E-01
         0.41161E-01
         0.44936E-01
         0.43162E-01
         0.44330E-01
         0.39905E-01
         0.37897E-01
         0.40360E-01
         0.39393E-01
         0.40556E-01
         0.40221E-01
         0.72283E-02
         0.43289E-02
         0.40924E-02
         0.28211E-02
         0.74535E-02
         0.51497E-02
         0.23220E-02
         0.71167E-02
         0.44798E-02
         0.67819E-02
         0.32530E-02
         0.14011E-01
         0.10667E-01
         0.52473E-02
         0.14767E-01
         0.52578E-02
         0.26963E-02
         0.16642E-02
         0.35344E-02
         0.18806E-02
         0.11028E-01
         0.10336E-01
         0.10070E-01
         0.26184E-02
         0.44104E-02
         0.13640E-02
         0.50294E-02
         0.77321E-03
         0.18877E-02
         0.47109E-02
         0.44939E-02
         0.23716E-02
         0.28639E-02
         0.25166E-02
         0.96871E-02
         0.57725E-02
         0.74738E-02
         0.12081E-01
         0.93341E-02
         0.86458E-02
         0.12224E-01
         0.11070E-01
         0.11119E-01
         0.86048E-02
         0.76747E-02
         0.10505E-01
         0.68895E-02
         0.58544E-02
         0.47888E-02
         0.56549E-02
         0.92919E-02
         0.63416E-02
         0.40849E-01
         0.41857E-01
         0.43816E-01
         0.43501E-01
         0.46325E-01
         0.49689E-01
         0.47657E-01
         0.42412E-01
         0.41334E-01
         0.44225E-01
         0.43378E-01
         0.42844E-01
         0.35390E-01
         0.33648E-01
         0.37003E-01
         0.39673E-01
         0.41175E-01
         0.44947E-01
         0.43159E-01
         0.44328E-01
         0.39901E-01
         0.37895E-01
         0.40346E-01
         0.39367E-01
         0.40534E-01
         0.40199E-01
         0.72328E-02
         0.43290E-02
         0.40945E-02
         0.28252E-02
         0.74504E-02
         0.51468E-02
         0.23283E-02
         0.71215E-02
         0.44877E-02
         0.67989E-02
         0.32542E-02
         0.14011E-01
         0.10671E-01
         0.52351E-02
         0.14783E-01
         0.52630E-02
         0.27042E-02
         0.16598E-02
         0.35368E-02
         0.18766E-02
         0.11030E-01
         0.10336E-01
         0.10071E-01
         0.26181E-02
         0.44268E-02
         0.13627E-02
         0.50308E-02
         0.76769E-03
         0.18957E-02
         0.47172E-02
         0.44980E-02
         0.23702E-02
         0.28589E-02
         0.25188E-02
         0.96919E-02
         0.57717E-02
         0.74728E-02
         0.12101E-01
         0.93561E-02
         0.86595E-02
         0.12234E-01
         0.11077E-01
         0.11122E-01
         0.86072E-02
         0.76754E-02
         0.10507E-01
         0.68912E-02
         0.58553E-02
         0.47837E-02
         0.56477E-02
         0.92874E-02
         0.63322E-02
         0.40834E-01
         0.41847E-01
         0.43815E-01
         0.43501E-01
         0.46318E-01
         0.49672E-01
         0.47637E-01
         0.42401E-01
         0.41323E-01
         0.44211E-01
         0.43371E-01
         0.42846E-01
         0.35388E-01
         0.33647E-01
         0.37009E-01
         0.39686E-01
         0.41189E-01
         0.44957E-01
         0.43156E-01
         0.44325E-01
         0.39897E-01
         0.37893E-01
         0.40332E-01
         0.39342E-01
         0.40511E-01
         0.40178E-01
         0.72373E-02
         0.43290E-02
         0.40966E-02
         0.28292E-02
         0.74472E-02
         0.51438E-02
         0.23346E-02
         0.71264E-02
         0.44956E-02
         0.68159E-02
         0.32552E-02
         0.14011E-01
         0.10676E-01
         0.52229E-02
         0.14798E-01
         0.52682E-02
         0.27122E-02
         0.16555E-02
         0.35391E-02
         0.18724E-02
         0.11032E-01
         0.10336E-01
         0.10072E-01
         0.26178E-02
         0.44431E-02
         0.13614E-02
         0.50322E-02
         0.76231E-03
         0.19037E-02
         0.47234E-02
         0.45022E-02
         0.23688E-02
         0.28540E-02
         0.25210E-02
         0.96967E-02
         0.57706E-02
         0.74717E-02
         0.12120E-01
         0.93782E-02
         0.86730E-02
         0.12243E-01
         0.11083E-01
         0.11125E-01
         0.86097E-02
         0.76763E-02
         0.10508E-01
         0.68928E-02
         0.58562E-02
         0.47786E-02
         0.56406E-02
         0.92832E-02
         0.63226E-02
         0.40819E-01
         0.41838E-01
         0.43815E-01
         0.43501E-01
         0.46310E-01
         0.49656E-01
         0.47616E-01
         0.42389E-01
         0.41313E-01
         0.44198E-01
         0.43364E-01
         0.42849E-01
         0.35387E-01
         0.33647E-01
         0.37014E-01
         0.39700E-01
         0.41203E-01
         0.44968E-01
         0.43153E-01
         0.44322E-01
         0.39894E-01
         0.37891E-01
         0.40318E-01
         0.39316E-01
         0.40488E-01
         0.40156E-01
         0.72417E-02
         0.43289E-02
         0.40986E-02
         0.28333E-02
         0.74440E-02
         0.51409E-02
         0.23410E-02
         0.71313E-02
         0.45035E-02
         0.68328E-02
         0.32564E-02
         0.14011E-01
         0.10681E-01
         0.52107E-02
         0.14814E-01
         0.52734E-02
         0.27202E-02
         0.16511E-02
         0.35414E-02
         0.18683E-02
         0.11034E-01
         0.10336E-01
         0.10073E-01
         0.26176E-02
         0.44595E-02
         0.13602E-02
         0.50336E-02
         0.75715E-03
         0.19118E-02
         0.47297E-02
         0.45063E-02
         0.23674E-02
         0.28491E-02
         0.25232E-02
         0.97013E-02
         0.57698E-02
         0.74708E-02
         0.12139E-01
         0.94002E-02
         0.86867E-02
         0.12253E-01
         0.11090E-01
         0.11128E-01
         0.86121E-02
         0.76770E-02
         0.10510E-01
         0.68945E-02
         0.58572E-02
         0.47735E-02
         0.56333E-02
         0.92786E-02
         0.63131E-02
         0.40804E-01
         0.41828E-01
         0.43814E-01
         0.43501E-01
         0.46302E-01
         0.49639E-01
         0.47596E-01
         0.42378E-01
         0.41303E-01
         0.44184E-01
         0.43357E-01
         0.42852E-01
         0.35386E-01
         0.33646E-01
         0.37020E-01
         0.39713E-01
         0.41217E-01
         0.44978E-01
         0.43151E-01
         0.44319E-01
         0.39890E-01
         0.37890E-01
         0.40304E-01
         0.39290E-01
         0.40466E-01
         0.40135E-01
         0.72462E-02
         0.43288E-02
         0.41007E-02
         0.28374E-02
         0.74409E-02
         0.51380E-02
         0.23474E-02
         0.71361E-02
         0.45114E-02
         0.68498E-02
         0.32577E-02
         0.14011E-01
         0.10686E-01
         0.51986E-02
         0.14829E-01
         0.52786E-02
         0.27282E-02
         0.16468E-02
         0.35438E-02
         0.18641E-02
         0.11036E-01
         0.10336E-01
         0.10074E-01
         0.26174E-02
         0.44758E-02
         0.13589E-02
         0.50351E-02
         0.75210E-03
         0.19200E-02
         0.47359E-02
         0.45104E-02
         0.23660E-02
         0.28442E-02
         0.25253E-02
         0.97061E-02
         0.57688E-02
         0.74698E-02
         0.12158E-01
         0.94223E-02
         0.87001E-02
         0.12263E-01
         0.11097E-01
         0.11131E-01
         0.86144E-02
         0.76778E-02
         0.10512E-01
         0.68962E-02
         0.58582E-02
         0.47685E-02
         0.56262E-02
         0.92744E-02
         0.63037E-02
         0.40789E-01
         0.41818E-01
         0.43813E-01
         0.43501E-01
         0.46295E-01
         0.49622E-01
         0.47576E-01
         0.42366E-01
         0.41292E-01
         0.44170E-01
         0.43350E-01
         0.42855E-01
         0.35384E-01
         0.33645E-01
         0.37025E-01
         0.39726E-01
         0.41232E-01
         0.44989E-01
         0.43148E-01
         0.44317E-01
         0.39887E-01
         0.37888E-01
         0.40290E-01
         0.39264E-01
         0.40443E-01
         0.40114E-01
         0.72506E-02
         0.43288E-02
         0.41028E-02
         0.28415E-02
         0.74378E-02
         0.51351E-02
         0.23538E-02
         0.71410E-02
         0.45194E-02
         0.68667E-02
         0.32590E-02
         0.14011E-01
         0.10691E-01
         0.51865E-02
         0.14845E-01
         0.52838E-02
         0.27362E-02
         0.16424E-02
         0.35461E-02
         0.18600E-02
         0.11038E-01
         0.10336E-01
         0.10075E-01
         0.26171E-02
         0.44920E-02
         0.13577E-02
         0.50366E-02
         0.74727E-03
         0.19282E-02
         0.47422E-02
         0.45145E-02
         0.23646E-02
         0.28393E-02
         0.25275E-02
         0.97110E-02
         0.57679E-02
         0.74687E-02
         0.12178E-01
         0.94444E-02
         0.87138E-02
         0.12273E-01
         0.11103E-01
         0.11134E-01
         0.86169E-02
         0.76785E-02
         0.10514E-01
         0.68978E-02
         0.58592E-02
         0.47634E-02
         0.56191E-02
         0.92699E-02
         0.62942E-02
         0.40774E-01
         0.41808E-01
         0.43813E-01
         0.43502E-01
         0.46287E-01
         0.49605E-01
         0.47555E-01
         0.42355E-01
         0.41282E-01
         0.44157E-01
         0.43343E-01
         0.42858E-01
         0.35383E-01
         0.33645E-01
         0.37031E-01
         0.39739E-01
         0.41246E-01
         0.44999E-01
         0.43145E-01
         0.44314E-01
         0.39883E-01
         0.37886E-01
         0.40276E-01
         0.39239E-01
         0.40421E-01
         0.40092E-01
         0.72551E-02
         0.43287E-02
         0.41049E-02
         0.28457E-02
         0.74346E-02
         0.51322E-02
         0.23602E-02
         0.71459E-02
         0.45273E-02
         0.68836E-02
         0.32603E-02
         0.14011E-01
         0.10696E-01
         0.51744E-02
         0.14860E-01
         0.52890E-02
         0.27442E-02
         0.16380E-02
         0.35485E-02
         0.18559E-02
         0.11040E-01
         0.10336E-01
         0.10076E-01
         0.26169E-02
         0.45083E-02
         0.13564E-02
         0.50380E-02
         0.74257E-03
         0.19365E-02
         0.47483E-02
         0.45186E-02
         0.23631E-02
         0.28344E-02
         0.25297E-02
         0.97156E-02
         0.57672E-02
         0.74677E-02
         0.12197E-01
         0.94666E-02
         0.87274E-02
         0.12282E-01
         0.11110E-01
         0.11136E-01
         0.86194E-02
         0.76795E-02
         0.10515E-01
         0.68996E-02
         0.58601E-02
         0.47584E-02
         0.56120E-02
         0.92654E-02
         0.62847E-02
         0.40759E-01
         0.41798E-01
         0.43812E-01
         0.43502E-01
         0.46280E-01
         0.49588E-01
         0.47535E-01
         0.42343E-01
         0.41272E-01
         0.44143E-01
         0.43336E-01
         0.42860E-01
         0.35382E-01
         0.33644E-01
         0.37037E-01
         0.39752E-01
         0.41260E-01
         0.45009E-01
         0.43142E-01
         0.44311E-01
         0.39880E-01
         0.37884E-01
         0.40262E-01
         0.39213E-01
         0.40398E-01
         0.40071E-01
         0.72595E-02
         0.43287E-02
         0.41069E-02
         0.28498E-02
         0.74316E-02
         0.51292E-02
         0.23667E-02
         0.71507E-02
         0.45352E-02
         0.69005E-02
         0.32617E-02
         0.14011E-01
         0.10701E-01
         0.51623E-02
         0.14876E-01
         0.52942E-02
         0.27523E-02
         0.16336E-02
         0.35508E-02
         0.18518E-02
         0.11041E-01
         0.10336E-01
         0.10077E-01
         0.26167E-02
         0.45245E-02
         0.13552E-02
         0.50394E-02
         0.73806E-03
         0.19449E-02
         0.47545E-02
         0.45227E-02
         0.23617E-02
         0.28296E-02
         0.25319E-02
         0.97205E-02
         0.57662E-02
         0.74667E-02
         0.12216E-01
         0.94888E-02
         0.87409E-02
         0.12292E-01
         0.11117E-01
         0.11139E-01
         0.86218E-02
         0.76802E-02
         0.10517E-01
         0.69013E-02
         0.58611E-02
         0.47533E-02
         0.56048E-02
         0.92611E-02
         0.62753E-02
         0.40744E-01
         0.41788E-01
         0.43811E-01
         0.43502E-01
         0.46272E-01
         0.49571E-01
         0.47515E-01
         0.42332E-01
         0.41261E-01
         0.44128E-01
         0.43329E-01
         0.42863E-01
         0.35380E-01
         0.33643E-01
         0.37042E-01
         0.39766E-01
         0.41274E-01
         0.45020E-01
         0.43139E-01
         0.44308E-01
         0.39876E-01
         0.37882E-01
         0.40248E-01
         0.39187E-01
         0.40376E-01
         0.40050E-01
         0.72639E-02
         0.43287E-02
         0.41090E-02
         0.28539E-02
         0.74284E-02
         0.51263E-02
         0.23731E-02
         0.71555E-02
         0.45432E-02
         0.69174E-02
         0.32631E-02
         0.14011E-01
         0.10705E-01
         0.51502E-02
         0.14891E-01
         0.52994E-02
         0.27603E-02
         0.16293E-02
         0.35531E-02
         0.18477E-02
         0.11043E-01
         0.10336E-01
         0.10078E-01
         0.26165E-02
         0.45408E-02
         0.13540E-02
         0.50408E-02
         0.73368E-03
         0.19534E-02
         0.47607E-02
         0.45268E-02
         0.23603E-02
         0.28248E-02
         0.25341E-02
         0.97252E-02
         0.57655E-02
         0.74657E-02
         0.12236E-01
         0.95110E-02
         0.87544E-02
         0.12302E-01
         0.11123E-01
         0.11142E-01
         0.86242E-02
         0.76810E-02
         0.10519E-01
         0.69029E-02
         0.58621E-02
         0.47482E-02
         0.55976E-02
         0.92567E-02
         0.62658E-02
         0.40730E-01
         0.41778E-01
         0.43811E-01
         0.43502E-01
         0.46264E-01
         0.49554E-01
         0.47494E-01
         0.42320E-01
         0.41251E-01
         0.44114E-01
         0.43322E-01
         0.42866E-01
         0.35379E-01
         0.33643E-01
         0.37048E-01
         0.39779E-01
         0.41289E-01
         0.45030E-01
         0.43136E-01
         0.44306E-01
         0.39872E-01
         0.37881E-01
         0.40234E-01
         0.39162E-01
         0.40353E-01
         0.40028E-01
         0.72683E-02
         0.43286E-02
         0.41110E-02
         0.28581E-02
         0.74252E-02
         0.51235E-02
         0.23795E-02
         0.71603E-02
         0.45512E-02
         0.69342E-02
         0.32646E-02
         0.14011E-01
         0.10710E-01
         0.51381E-02
         0.14907E-01
         0.53046E-02
         0.27684E-02
         0.16249E-02
         0.35555E-02
         0.18436E-02
         0.11045E-01
         0.10336E-01
         0.10079E-01
         0.26163E-02
         0.45570E-02
         0.13528E-02
         0.50422E-02
         0.72946E-03
         0.19620E-02
         0.47669E-02
         0.45309E-02
         0.23589E-02
         0.28200E-02
         0.25363E-02
         0.97301E-02
         0.57646E-02
         0.74647E-02
         0.12255E-01
         0.95331E-02
         0.87677E-02
         0.12311E-01
         0.11130E-01
         0.11145E-01
         0.86265E-02
         0.76819E-02
         0.10520E-01
         0.69046E-02
         0.58630E-02
         0.47432E-02
         0.55905E-02
         0.92523E-02
         0.62563E-02
         0.40715E-01
         0.41769E-01
         0.43810E-01
         0.43502E-01
         0.46257E-01
         0.49537E-01
         0.47473E-01
         0.42309E-01
         0.41241E-01
         0.44100E-01
         0.43315E-01
         0.42869E-01
         0.35377E-01
         0.33642E-01
         0.37054E-01
         0.39792E-01
         0.41303E-01
         0.45041E-01
         0.43133E-01
         0.44303E-01
         0.39869E-01
         0.37879E-01
         0.40220E-01
         0.39136E-01
         0.40331E-01
         0.40007E-01
         0.72727E-02
         0.43286E-02
         0.41131E-02
         0.28622E-02
         0.74222E-02
         0.51205E-02
         0.23860E-02
         0.71652E-02
         0.45592E-02
         0.69511E-02
         0.32662E-02
         0.14012E-01
         0.10715E-01
         0.51260E-02
         0.14922E-01
         0.53098E-02
         0.27765E-02
         0.16206E-02
         0.35578E-02
         0.18395E-02
         0.11047E-01
         0.10336E-01
         0.10080E-01
         0.26162E-02
         0.45731E-02
         0.13515E-02
         0.50435E-02
         0.72533E-03
         0.19705E-02
         0.47730E-02
         0.45350E-02
         0.23576E-02
         0.28152E-02
         0.25386E-02
         0.97350E-02
         0.57637E-02
         0.74636E-02
         0.12274E-01
         0.95553E-02
         0.87811E-02
         0.12321E-01
         0.11137E-01
         0.11148E-01
         0.86290E-02
         0.76827E-02
         0.10522E-01
         0.69064E-02
         0.58641E-02
         0.47383E-02
         0.55833E-02
         0.92478E-02
         0.62470E-02
         0.40700E-01
         0.41759E-01
         0.43809E-01
         0.43502E-01
         0.46249E-01
         0.49519E-01
         0.47453E-01
         0.42297E-01
         0.41230E-01
         0.44086E-01
         0.43308E-01
         0.42872E-01
         0.35376E-01
         0.33642E-01
         0.37059E-01
         0.39805E-01
         0.41317E-01
         0.45051E-01
         0.43131E-01
         0.44300E-01
         0.39865E-01
         0.37877E-01
         0.40205E-01
         0.39110E-01
         0.40308E-01
         0.39986E-01
         0.72771E-02
         0.43285E-02
         0.41152E-02
         0.28664E-02
         0.74191E-02
         0.51176E-02
         0.23925E-02
         0.71699E-02
         0.45673E-02
         0.69677E-02
         0.32677E-02
         0.14012E-01
         0.10720E-01
         0.51138E-02
         0.14937E-01
         0.53150E-02
         0.27846E-02
         0.16162E-02
         0.35602E-02
         0.18355E-02
         0.11049E-01
         0.10336E-01
         0.10082E-01
         0.26160E-02
         0.45893E-02
         0.13504E-02
         0.50444E-02
         0.72118E-03
         0.19792E-02
         0.47787E-02
         0.45391E-02
         0.23562E-02
         0.28105E-02
         0.25408E-02
         0.97397E-02
         0.57629E-02
         0.74627E-02
         0.12294E-01
         0.95775E-02
         0.87939E-02
         0.12330E-01
         0.11143E-01
         0.11150E-01
         0.86314E-02
         0.76835E-02
         0.10524E-01
         0.69080E-02
         0.58651E-02
         0.47332E-02
         0.55762E-02
         0.92436E-02
         0.62375E-02
         0.40685E-01
         0.41749E-01
         0.43809E-01
         0.43503E-01
         0.46241E-01
         0.49502E-01
         0.47432E-01
         0.42285E-01
         0.41220E-01
         0.44071E-01
         0.43301E-01
         0.42877E-01
         0.35376E-01
         0.33641E-01
         0.37065E-01
         0.39818E-01
         0.41331E-01
         0.45061E-01
         0.43128E-01
         0.44297E-01
         0.39862E-01
         0.37875E-01
         0.40191E-01
         0.39085E-01
         0.40286E-01
         0.39964E-01
         0.72814E-02
         0.43285E-02
         0.41172E-02
         0.28706E-02
         0.74159E-02
         0.51147E-02
         0.23989E-02
         0.71747E-02
         0.45753E-02
         0.69843E-02
         0.32693E-02
         0.14012E-01
         0.10725E-01
         0.51016E-02
         0.14953E-01
         0.53202E-02
         0.27928E-02
         0.16119E-02
         0.35625E-02
         0.18316E-02
         0.11051E-01
         0.10336E-01
         0.10083E-01
         0.26158E-02
         0.46053E-02
         0.13492E-02
         0.50450E-02
         0.71698E-03
         0.19879E-02
         0.47842E-02
         0.45432E-02
         0.23548E-02
         0.28057E-02
         0.25430E-02
         0.97446E-02
         0.57620E-02
         0.74617E-02
         0.12313E-01
         0.95995E-02
         0.88065E-02
         0.12338E-01
         0.11148E-01
         0.11153E-01
         0.86338E-02
         0.76845E-02
         0.10525E-01
         0.69098E-02
         0.58660E-02
         0.47282E-02
         0.55690E-02
         0.92390E-02
         0.62279E-02
         0.40670E-01
         0.41739E-01
         0.43808E-01
         0.43503E-01
         0.46234E-01
         0.49485E-01
         0.47411E-01
         0.42274E-01
         0.41210E-01
         0.44056E-01
         0.43294E-01
         0.42882E-01
         0.35376E-01
         0.33641E-01
         0.37070E-01
         0.39831E-01
         0.41345E-01
         0.45072E-01
         0.43125E-01
         0.44295E-01
         0.39858E-01
         0.37874E-01
         0.40177E-01
         0.39059E-01
         0.40264E-01
         0.39943E-01
         0.72859E-02
         0.43285E-02
         0.41194E-02
         0.28748E-02
         0.74130E-02
         0.51119E-02
         0.24055E-02
         0.71794E-02
         0.45835E-02
         0.70008E-02
         0.32710E-02
         0.14012E-01
         0.10730E-01
         0.50894E-02
         0.14968E-01
         0.53254E-02
         0.28009E-02
         0.16076E-02
         0.35649E-02
         0.18277E-02
         0.11053E-01
         0.10335E-01
         0.10084E-01
         0.26157E-02
         0.46213E-02
         0.13481E-02
         0.50454E-02
         0.71280E-03
         0.19967E-02
         0.47896E-02
         0.45474E-02
         0.23534E-02
         0.28011E-02
         0.25453E-02
         0.97496E-02
         0.57613E-02
         0.74606E-02
         0.12333E-01
         0.96215E-02
         0.88186E-02
         0.12347E-01
         0.11153E-01
         0.11155E-01
         0.86363E-02
         0.76852E-02
         0.10527E-01
         0.69115E-02
         0.58671E-02
         0.47232E-02
         0.55619E-02
         0.92348E-02
         0.62187E-02
         0.40655E-01
         0.41730E-01
         0.43807E-01
         0.43503E-01
         0.46226E-01
         0.49468E-01
         0.47390E-01
         0.42262E-01
         0.41199E-01
         0.44040E-01
         0.43287E-01
         0.42888E-01
         0.35376E-01
         0.33640E-01
         0.37076E-01
         0.39845E-01
         0.41359E-01
         0.45082E-01
         0.43122E-01
         0.44292E-01
         0.39855E-01
         0.37872E-01
         0.40163E-01
         0.39034E-01
         0.40241E-01
         0.39922E-01
         0.74297E-02
         0.45471E-02
         0.43463E-02
         0.31356E-02
         0.75941E-02
         0.53259E-02
         0.28195E-02
         0.73569E-02
         0.47793E-02
         0.71926E-02
         0.36561E-02
         0.14183E-01
         0.10900E-01
         0.53576E-02
         0.15157E-01
         0.54902E-02
         0.31167E-02
         0.19865E-02
         0.38375E-02
         0.23327E-02
         0.11198E-01
         0.10486E-01
         0.10224E-01
         0.29383E-02
         0.48796E-02
         0.18519E-02
         0.53206E-02
         0.17356E-02
         0.25660E-02
         0.50471E-02
         0.47353E-02
         0.26995E-02
         0.30629E-02
         0.28602E-02
         0.99355E-02
         0.59798E-02
         0.76408E-02
         0.12527E-01
         0.98331E-02
         0.90276E-02
         0.12524E-01
         0.11323E-01
         0.11308E-01
         0.87837E-02
         0.78541E-02
         0.10701E-01
         0.71083E-02
         0.60640E-02
         0.49421E-02
         0.57662E-02
         0.94055E-02
         0.64070E-02
         0.40879E-01
         0.41953E-01
         0.44046E-01
         0.43735E-01
         0.46462E-01
         0.49712E-01
         0.47633E-01
         0.42507E-01
         0.41446E-01
         0.44291E-01
         0.43537E-01
         0.43132E-01
         0.35583E-01
         0.33833E-01
         0.37276E-01
         0.40055E-01
         0.41574E-01
         0.45315E-01
         0.43361E-01
         0.44533E-01
         0.40071E-01
         0.38080E-01
         0.40369E-01
         0.39228E-01
         0.40436E-01
         0.40117E-01
         0.17522E-01
         0.15780E-01
         0.15460E-01
         0.13699E-01
         0.19087E-01
         0.16669E-01
         0.15935E-01
         0.18907E-01
         0.15104E-01
         0.18752E-01
         0.17642E-01
         0.27331E-01
         0.23061E-01
         0.18951E-01
         0.28851E-01
         0.15417E-01
         0.14768E-01
         0.12667E-01
         0.15520E-01
         0.15572E-01
         0.22353E-01
         0.22012E-01
         0.20977E-01
         0.14598E-01
         0.17252E-01
         0.13752E-01
         0.18903E-01
         0.17142E-01
         0.17444E-01
         0.17831E-01
         0.14977E-01
         0.14446E-01
         0.13755E-01
         0.14199E-01
         0.22076E-01
         0.17978E-01
         0.19279E-01
         0.26060E-01
         0.23294E-01
         0.22442E-01
         0.25841E-01
         0.24076E-01
         0.23396E-01
         0.19401E-01
         0.19005E-01
         0.22693E-01
         0.18855E-01
         0.17359E-01
         0.16359E-01
         0.17350E-01
         0.21142E-01
         0.17819E-01
         0.57434E-01
         0.58249E-01
         0.60842E-01
         0.60289E-01
         0.63648E-01
         0.68020E-01
         0.66436E-01
         0.61002E-01
         0.59807E-01
         0.63007E-01
         0.61854E-01
         0.60586E-01
         0.51312E-01
         0.48866E-01
         0.52296E-01
         0.55081E-01
         0.56759E-01
         0.61505E-01
         0.60005E-01
         0.61415E-01
         0.56055E-01
         0.53679E-01
         0.56436E-01
         0.55224E-01
         0.56331E-01
         0.55778E-01
  
SCALARS                     nodal_mass  double 1
LOOKUP_TABLE default
         0.24608E-05
         0.19551E-05
         0.20945E-05
         0.35953E-05
         0.12304E-05
         0.97770E-06
         0.10472E-05
         0.17973E-05
         0.19315E-05
         0.24627E-05
         0.96570E-06
         0.12312E-05
         0.13823E-05
         0.16614E-05
         0.69133E-06
         0.83095E-06
         0.27274E-05
         0.20125E-05
         0.13635E-05
         0.10066E-05
         0.81737E-06
         0.15393E-05
         0.16929E-05
         0.40889E-06
         0.76975E-06
         0.84649E-06
         0.13859E-05
         0.17532E-05
         0.69345E-06
         0.87672E-06
         0.32470E-05
         0.25355E-05
         0.32225E-05
         0.16233E-05
         0.12675E-05
         0.16109E-05
         0.18980E-05
         0.21673E-05
         0.94902E-06
         0.10836E-05
         0.20482E-05
         0.22683E-05
         0.10242E-05
         0.11342E-05
         0.17426E-05
         0.10823E-05
         0.87140E-06
         0.54121E-06
         0.20598E-05
         0.10301E-05
         0.17103E-05
         0.85523E-06
         0.17977E-05
         0.89958E-06
         0.18362E-05
         0.91859E-06
         0.15911E-05
         0.19369E-05
         0.79575E-06
         0.96860E-06
         0.24553E-05
         0.17361E-05
         0.12277E-05
         0.86816E-06
         0.27409E-05
         0.13702E-05
         0.23792E-05
         0.11891E-05
         0.10821E-05
         0.16705E-05
         0.54106E-06
         0.83538E-06
         0.18955E-05
         0.94787E-06
         0.20026E-05
         0.10014E-05
         0.19316E-05
         0.96578E-06
         0.15181E-05
         0.75906E-06
         0.95443E-06
         0.15782E-05
         0.47723E-06
         0.78918E-06
         0.20886E-05
         0.10443E-05
         0.16867E-05
         0.84342E-06
         0.14838E-05
         0.74203E-06
         0.97224E-06
         0.16569E-05
         0.48620E-06
         0.82849E-06
         0.22482E-05
         0.11241E-05
         0.23568E-05
         0.11783E-05
         0.19018E-05
         0.95085E-06
         0.11709E-05
         0.20091E-05
         0.58544E-06
         0.10044E-05
         0.74681E-06
         0.94889E-06
         0.37348E-06
         0.47447E-06
         0.88885E-06
         0.44455E-06
         0.10466E-05
         0.52333E-06
         0.10205E-05
         0.51021E-06
         0.99108E-06
         0.49550E-06
         0.10560E-05
         0.52791E-06
         0.11142E-05
         0.55694E-06
         0.10497E-05
         0.52469E-06
         0.82085E-06
         0.41039E-06
         0.66950E-06
         0.33475E-06
         0.86397E-06
         0.43199E-06
         0.11504E-05
         0.57519E-06
         0.12637E-05
         0.63182E-06
         0.12132E-05
         0.60658E-06
         0.10948E-05
         0.54745E-06
         0.99429E-06
         0.49718E-06
         0.80759E-06
         0.40382E-06
         0.67982E-06
         0.33995E-06
         0.88797E-06
         0.44401E-06
         0.11753E-05
         0.58766E-06
         0.12140E-05
         0.60702E-06
         0.98236E-06
         0.49125E-06
         0.79766E-06
         0.39889E-06
         0.97540E-06
         0.48769E-06
         0.11548E-05
         0.57743E-06
         0.24609E-05
         0.19547E-05
         0.20946E-05
         0.35969E-05
         0.19318E-05
         0.24634E-05
         0.13815E-05
         0.16603E-05
         0.27283E-05
         0.20111E-05
         0.81658E-06
         0.15390E-05
         0.16927E-05
         0.13839E-05
         0.17528E-05
         0.32479E-05
         0.25367E-05
         0.32241E-05
         0.18980E-05
         0.21675E-05
         0.20481E-05
         0.22684E-05
         0.17424E-05
         0.10822E-05
         0.20589E-05
         0.17102E-05
         0.17950E-05
         0.18344E-05
         0.15904E-05
         0.19365E-05
         0.24555E-05
         0.17359E-05
         0.27423E-05
         0.23814E-05
         0.10820E-05
         0.16702E-05
         0.18953E-05
         0.20025E-05
         0.19317E-05
         0.15181E-05
         0.95442E-06
         0.15780E-05
         0.20884E-05
         0.16864E-05
         0.14835E-05
         0.97197E-06
         0.16567E-05
         0.22482E-05
         0.23571E-05
         0.19022E-05
         0.11709E-05
         0.20101E-05
         0.74658E-06
         0.94886E-06
         0.88841E-06
         0.10467E-05
         0.10207E-05
         0.99128E-06
         0.10565E-05
         0.11150E-05
         0.10503E-05
         0.82102E-06
         0.66954E-06
         0.86398E-06
         0.11506E-05
         0.12640E-05
         0.12133E-05
         0.10948E-05
         0.99421E-06
         0.80751E-06
         0.67970E-06
         0.88789E-06
         0.11752E-05
         0.12140E-05
         0.98215E-06
         0.79747E-06
         0.97551E-06
         0.11548E-05
         0.24611E-05
         0.19543E-05
         0.20949E-05
         0.35987E-05
         0.19321E-05
         0.24642E-05
         0.13808E-05
         0.16594E-05
         0.27293E-05
         0.20098E-05
         0.81582E-06
         0.15388E-05
         0.16927E-05
         0.13821E-05
         0.17525E-05
         0.32489E-05
         0.25379E-05
         0.32257E-05
         0.18982E-05
         0.21678E-05
         0.20480E-05
         0.22685E-05
         0.17423E-05
         0.10821E-05
         0.20580E-05
         0.17101E-05
         0.17924E-05
         0.18326E-05
         0.15898E-05
         0.19361E-05
         0.24558E-05
         0.17357E-05
         0.27438E-05
         0.23836E-05
         0.10821E-05
         0.16699E-05
         0.18951E-05
         0.20024E-05
         0.19318E-05
         0.15183E-05
         0.95445E-06
         0.15778E-05
         0.20884E-05
         0.16862E-05
         0.14831E-05
         0.97174E-06
         0.16566E-05
         0.22483E-05
         0.23575E-05
         0.19026E-05
         0.11709E-05
         0.20112E-05
         0.74636E-06
         0.94886E-06
         0.88800E-06
         0.10467E-05
         0.10210E-05
         0.99152E-06
         0.10570E-05
         0.11159E-05
         0.10509E-05
         0.82122E-06
         0.66961E-06
         0.86402E-06
         0.11507E-05
         0.12643E-05
         0.12135E-05
         0.10948E-05
         0.99417E-06
         0.80747E-06
         0.67961E-06
         0.88784E-06
         0.11752E-05
         0.12140E-05
         0.98197E-06
         0.79731E-06
         0.97565E-06
         0.11548E-05
         0.24612E-05
         0.19539E-05
         0.20950E-05
         0.36004E-05
         0.19324E-05
         0.24650E-05
         0.13801E-05
         0.16584E-05
         0.27303E-05
         0.20085E-05
         0.81504E-06
         0.15385E-05
         0.16925E-05
         0.13801E-05
         0.17521E-05
         0.32498E-05
         0.25390E-05
         0.32274E-05
         0.18982E-05
         0.21681E-05
         0.20479E-05
         0.22686E-05
         0.17421E-05
         0.10820E-05
         0.20571E-05
         0.17099E-05
         0.17897E-05
         0.18308E-05
         0.15891E-05
         0.19356E-05
         0.24561E-05
         0.17355E-05
         0.27453E-05
         0.23857E-05
         0.10820E-05
         0.16696E-05
         0.18948E-05
         0.20022E-05
         0.19320E-05
         0.15183E-05
         0.95445E-06
         0.15776E-05
         0.20883E-05
         0.16859E-05
         0.14828E-05
         0.97149E-06
         0.16564E-05
         0.22483E-05
         0.23578E-05
         0.19030E-05
         0.11710E-05
         0.20122E-05
         0.74613E-06
         0.94884E-06
         0.88756E-06
         0.10467E-05
         0.10212E-05
         0.99173E-06
         0.10574E-05
         0.11167E-05
         0.10515E-05
         0.82140E-06
         0.66966E-06
         0.86404E-06
         0.11509E-05
         0.12646E-05
         0.12136E-05
         0.10947E-05
         0.99410E-06
         0.80740E-06
         0.67950E-06
         0.88777E-06
         0.11752E-05
         0.12140E-05
         0.98177E-06
         0.79713E-06
         0.97576E-06
         0.11547E-05
         0.24613E-05
         0.19535E-05
         0.20952E-05
         0.36022E-05
         0.19327E-05
         0.24657E-05
         0.13794E-05
         0.16574E-05
         0.27313E-05
         0.20072E-05
         0.81426E-06
         0.15382E-05
         0.16924E-05
         0.13782E-05
         0.17517E-05
         0.32508E-05
         0.25402E-05
         0.32290E-05
         0.18983E-05
         0.21684E-05
         0.20479E-05
         0.22687E-05
         0.17420E-05
         0.10819E-05
         0.20563E-05
         0.17098E-05
         0.17870E-05
         0.18290E-05
         0.15884E-05
         0.19352E-05
         0.24563E-05
         0.17353E-05
         0.27467E-05
         0.23879E-05
         0.10820E-05
         0.16693E-05
         0.18946E-05
         0.20021E-05
         0.19321E-05
         0.15184E-05
         0.95445E-06
         0.15773E-05
         0.20882E-05
         0.16857E-05
         0.14824E-05
         0.97124E-06
         0.16563E-05
         0.22484E-05
         0.23582E-05
         0.19034E-05
         0.11710E-05
         0.20132E-05
         0.74590E-06
         0.94883E-06
         0.88713E-06
         0.10468E-05
         0.10215E-05
         0.99194E-06
         0.10579E-05
         0.11175E-05
         0.10521E-05
         0.82159E-06
         0.66972E-06
         0.86406E-06
         0.11510E-05
         0.12649E-05
         0.12138E-05
         0.10947E-05
         0.99404E-06
         0.80734E-06
         0.67940E-06
         0.88771E-06
         0.11752E-05
         0.12140E-05
         0.98157E-06
         0.79696E-06
         0.97588E-06
         0.11547E-05
         0.24615E-05
         0.19531E-05
         0.20954E-05
         0.36039E-05
         0.19331E-05
         0.24665E-05
         0.13787E-05
         0.16564E-05
         0.27322E-05
         0.20059E-05
         0.81349E-06
         0.15380E-05
         0.16923E-05
         0.13763E-05
         0.17514E-05
         0.32518E-05
         0.25414E-05
         0.32306E-05
         0.18984E-05
         0.21687E-05
         0.20478E-05
         0.22688E-05
         0.17418E-05
         0.10818E-05
         0.20554E-05
         0.17096E-05
         0.17843E-05
         0.18272E-05
         0.15878E-05
         0.19347E-05
         0.24566E-05
         0.17351E-05
         0.27482E-05
         0.23901E-05
         0.10820E-05
         0.16690E-05
         0.18943E-05
         0.20019E-05
         0.19322E-05
         0.15185E-05
         0.95446E-06
         0.15771E-05
         0.20881E-05
         0.16855E-05
         0.14821E-05
         0.97100E-06
         0.16562E-05
         0.22484E-05
         0.23586E-05
         0.19038E-05
         0.11710E-05
         0.20142E-05
         0.74568E-06
         0.94882E-06
         0.88671E-06
         0.10468E-05
         0.10217E-05
         0.99216E-06
         0.10583E-05
         0.11183E-05
         0.10528E-05
         0.82178E-06
         0.66977E-06
         0.86408E-06
         0.11512E-05
         0.12652E-05
         0.12139E-05
         0.10947E-05
         0.99398E-06
         0.80728E-06
         0.67930E-06
         0.88766E-06
         0.11752E-05
         0.12140E-05
         0.98138E-06
         0.79679E-06
         0.97601E-06
         0.11547E-05
         0.24616E-05
         0.19527E-05
         0.20956E-05
         0.36056E-05
         0.19334E-05
         0.24672E-05
         0.13779E-05
         0.16554E-05
         0.27332E-05
         0.20046E-05
         0.81271E-06
         0.15377E-05
         0.16922E-05
         0.13744E-05
         0.17510E-05
         0.32527E-05
         0.25425E-05
         0.32322E-05
         0.18984E-05
         0.21689E-05
         0.20477E-05
         0.22689E-05
         0.17416E-05
         0.10816E-05
         0.20545E-05
         0.17095E-05
         0.17817E-05
         0.18254E-05
         0.15871E-05
         0.19343E-05
         0.24568E-05
         0.17349E-05
         0.27496E-05
         0.23922E-05
         0.10820E-05
         0.16686E-05
         0.18941E-05
         0.20018E-05
         0.19324E-05
         0.15186E-05
         0.95446E-06
         0.15769E-05
         0.20880E-05
         0.16852E-05
         0.14817E-05
         0.97074E-06
         0.16560E-05
         0.22484E-05
         0.23589E-05
         0.19042E-05
         0.11710E-05
         0.20152E-05
         0.74544E-06
         0.94880E-06
         0.88627E-06
         0.10469E-05
         0.10219E-05
         0.99237E-06
         0.10588E-05
         0.11191E-05
         0.10534E-05
         0.82196E-06
         0.66982E-06
         0.86410E-06
         0.11513E-05
         0.12654E-05
         0.12140E-05
         0.10947E-05
         0.99391E-06
         0.80721E-06
         0.67919E-06
         0.88759E-06
         0.11751E-05
         0.12140E-05
         0.98118E-06
         0.79661E-06
         0.97612E-06
         0.11546E-05
         0.24618E-05
         0.19523E-05
         0.20957E-05
         0.36073E-05
         0.19337E-05
         0.24680E-05
         0.13772E-05
         0.16545E-05
         0.27341E-05
         0.20033E-05
         0.81194E-06
         0.15374E-05
         0.16921E-05
         0.13725E-05
         0.17506E-05
         0.32537E-05
         0.25437E-05
         0.32339E-05
         0.18985E-05
         0.21692E-05
         0.20476E-05
         0.22690E-05
         0.17414E-05
         0.10815E-05
         0.20536E-05
         0.17093E-05
         0.17790E-05
         0.18236E-05
         0.15864E-05
         0.19339E-05
         0.24571E-05
         0.17347E-05
         0.27511E-05
         0.23944E-05
         0.10820E-05
         0.16683E-05
         0.18938E-05
         0.20016E-05
         0.19325E-05
         0.15186E-05
         0.95446E-06
         0.15767E-05
         0.20878E-05
         0.16850E-05
         0.14814E-05
         0.97050E-06
         0.16559E-05
         0.22484E-05
         0.23593E-05
         0.19046E-05
         0.11711E-05
         0.20162E-05
         0.74522E-06
         0.94878E-06
         0.88584E-06
         0.10469E-05
         0.10222E-05
         0.99258E-06
         0.10593E-05
         0.11199E-05
         0.10540E-05
         0.82215E-06
         0.66988E-06
         0.86413E-06
         0.11515E-05
         0.12657E-05
         0.12142E-05
         0.10946E-05
         0.99385E-06
         0.80715E-06
         0.67909E-06
         0.88752E-06
         0.11751E-05
         0.12140E-05
         0.98098E-06
         0.79643E-06
         0.97624E-06
         0.11546E-05
         0.24619E-05
         0.19519E-05
         0.20959E-05
         0.36091E-05
         0.19340E-05
         0.24688E-05
         0.13765E-05
         0.16535E-05
         0.27351E-05
         0.20020E-05
         0.81117E-06
         0.15372E-05
         0.16920E-05
         0.13706E-05
         0.17503E-05
         0.32546E-05
         0.25448E-05
         0.32355E-05
         0.18986E-05
         0.21695E-05
         0.20475E-05
         0.22691E-05
         0.17413E-05
         0.10814E-05
         0.20527E-05
         0.17092E-05
         0.17763E-05
         0.18219E-05
         0.15858E-05
         0.19334E-05
         0.24573E-05
         0.17345E-05
         0.27525E-05
         0.23966E-05
         0.10820E-05
         0.16680E-05
         0.18936E-05
         0.20015E-05
         0.19326E-05
         0.15187E-05
         0.95447E-06
         0.15765E-05
         0.20878E-05
         0.16848E-05
         0.14810E-05
         0.97025E-06
         0.16557E-05
         0.22485E-05
         0.23597E-05
         0.19050E-05
         0.11711E-05
         0.20172E-05
         0.74499E-06
         0.94877E-06
         0.88541E-06
         0.10469E-05
         0.10224E-05
         0.99280E-06
         0.10597E-05
         0.11207E-05
         0.10546E-05
         0.82234E-06
         0.66994E-06
         0.86415E-06
         0.11517E-05
         0.12660E-05
         0.12143E-05
         0.10946E-05
         0.99379E-06
         0.80709E-06
         0.67898E-06
         0.88746E-06
         0.11751E-05
         0.12140E-05
         0.98079E-06
         0.79626E-06
         0.97636E-06
         0.11546E-05
         0.24621E-05
         0.19515E-05
         0.20961E-05
         0.36108E-05
         0.19343E-05
         0.24695E-05
         0.13758E-05
         0.16525E-05
         0.27361E-05
         0.20006E-05
         0.81039E-06
         0.15369E-05
         0.16919E-05
         0.13686E-05
         0.17499E-05
         0.32556E-05
         0.25460E-05
         0.32371E-05
         0.18986E-05
         0.21697E-05
         0.20474E-05
         0.22692E-05
         0.17411E-05
         0.10813E-05
         0.20519E-05
         0.17091E-05
         0.17736E-05
         0.18201E-05
         0.15851E-05
         0.19330E-05
         0.24575E-05
         0.17342E-05
         0.27540E-05
         0.23987E-05
         0.10820E-05
         0.16677E-05
         0.18933E-05
         0.20014E-05
         0.19328E-05
         0.15188E-05
         0.95448E-06
         0.15763E-05
         0.20876E-05
         0.16845E-05
         0.14807E-05
         0.97000E-06
         0.16556E-05
         0.22485E-05
         0.23600E-05
         0.19053E-05
         0.11711E-05
         0.20182E-05
         0.74476E-06
         0.94875E-06
         0.88498E-06
         0.10470E-05
         0.10227E-05
         0.99301E-06
         0.10602E-05
         0.11215E-05
         0.10553E-05
         0.82252E-06
         0.66999E-06
         0.86417E-06
         0.11518E-05
         0.12663E-05
         0.12145E-05
         0.10946E-05
         0.99373E-06
         0.80702E-06
         0.67888E-06
         0.88740E-06
         0.11751E-05
         0.12140E-05
         0.98058E-06
         0.79608E-06
         0.97648E-06
         0.11546E-05
         0.24622E-05
         0.19511E-05
         0.20963E-05
         0.36125E-05
         0.19346E-05
         0.24703E-05
         0.13751E-05
         0.16515E-05
         0.27370E-05
         0.19993E-05
         0.80962E-06
         0.15366E-05
         0.16917E-05
         0.13667E-05
         0.17495E-05
         0.32565E-05
         0.25471E-05
         0.32388E-05
         0.18987E-05
         0.21700E-05
         0.20473E-05
         0.22693E-05
         0.17409E-05
         0.10812E-05
         0.20510E-05
         0.17089E-05
         0.17710E-05
         0.18183E-05
         0.15844E-05
         0.19325E-05
         0.24578E-05
         0.17340E-05
         0.27554E-05
         0.24009E-05
         0.10820E-05
         0.16674E-05
         0.18931E-05
         0.20012E-05
         0.19329E-05
         0.15189E-05
         0.95448E-06
         0.15760E-05
         0.20875E-05
         0.16843E-05
         0.14803E-05
         0.96975E-06
         0.16555E-05
         0.22485E-05
         0.23604E-05
         0.19057E-05
         0.11712E-05
         0.20192E-05
         0.74453E-06
         0.94874E-06
         0.88455E-06
         0.10470E-05
         0.10229E-05
         0.99322E-06
         0.10606E-05
         0.11223E-05
         0.10559E-05
         0.82270E-06
         0.67004E-06
         0.86419E-06
         0.11520E-05
         0.12666E-05
         0.12146E-05
         0.10945E-05
         0.99366E-06
         0.80696E-06
         0.67877E-06
         0.88733E-06
         0.11751E-05
         0.12140E-05
         0.98038E-06
         0.79590E-06
         0.97660E-06
         0.11545E-05
         0.24623E-05
         0.19507E-05
         0.20964E-05
         0.36142E-05
         0.19349E-05
         0.24710E-05
         0.13743E-05
         0.16505E-05
         0.27380E-05
         0.19980E-05
         0.80885E-06
         0.15364E-05
         0.16916E-05
         0.13648E-05
         0.17492E-05
         0.32575E-05
         0.25483E-05
         0.32404E-05
         0.18988E-05
         0.21703E-05
         0.20473E-05
         0.22694E-05
         0.17407E-05
         0.10811E-05
         0.20501E-05
         0.17088E-05
         0.17683E-05
         0.18165E-05
         0.15837E-05
         0.19321E-05
         0.24580E-05
         0.17338E-05
         0.27569E-05
         0.24031E-05
         0.10820E-05
         0.16670E-05
         0.18928E-05
         0.20011E-05
         0.19330E-05
         0.15189E-05
         0.95448E-06
         0.15758E-05
         0.20874E-05
         0.16840E-05
         0.14800E-05
         0.96950E-06
         0.16553E-05
         0.22485E-05
         0.23608E-05
         0.19061E-05
         0.11712E-05
         0.20202E-05
         0.74430E-06
         0.94872E-06
         0.88412E-06
         0.10470E-05
         0.10231E-05
         0.99344E-06
         0.10611E-05
         0.11231E-05
         0.10565E-05
         0.82289E-06
         0.67009E-06
         0.86422E-06
         0.11521E-05
         0.12669E-05
         0.12147E-05
         0.10945E-05
         0.99360E-06
         0.80690E-06
         0.67867E-06
         0.88727E-06
         0.11750E-05
         0.12140E-05
         0.98019E-06
         0.79573E-06
         0.97672E-06
         0.11545E-05
         0.24625E-05
         0.19503E-05
         0.20966E-05
         0.36160E-05
         0.19352E-05
         0.24718E-05
         0.13736E-05
         0.16496E-05
         0.27389E-05
         0.19967E-05
         0.80807E-06
         0.15361E-05
         0.16915E-05
         0.13629E-05
         0.17488E-05
         0.32584E-05
         0.25495E-05
         0.32420E-05
         0.18988E-05
         0.21705E-05
         0.20472E-05
         0.22695E-05
         0.17406E-05
         0.10810E-05
         0.20492E-05
         0.17086E-05
         0.17656E-05
         0.18147E-05
         0.15831E-05
         0.19317E-05
         0.24583E-05
         0.17336E-05
         0.27583E-05
         0.24053E-05
         0.10820E-05
         0.16667E-05
         0.18926E-05
         0.20009E-05
         0.19331E-05
         0.15190E-05
         0.95449E-06
         0.15756E-05
         0.20873E-05
         0.16838E-05
         0.14796E-05
         0.96925E-06
         0.16552E-05
         0.22486E-05
         0.23611E-05
         0.19065E-05
         0.11712E-05
         0.20212E-05
         0.74407E-06
         0.94870E-06
         0.88368E-06
         0.10471E-05
         0.10234E-05
         0.99365E-06
         0.10616E-05
         0.11239E-05
         0.10571E-05
         0.82307E-06
         0.67014E-06
         0.86424E-06
         0.11523E-05
         0.12672E-05
         0.12149E-05
         0.10945E-05
         0.99354E-06
         0.80683E-06
         0.67856E-06
         0.88721E-06
         0.11750E-05
         0.12140E-05
         0.97999E-06
         0.79555E-06
         0.97684E-06
         0.11545E-05
         0.24626E-05
         0.19499E-05
         0.20968E-05
         0.36177E-05
         0.19355E-05
         0.24725E-05
         0.13729E-05
         0.16486E-05
         0.27399E-05
         0.19954E-05
         0.80730E-06
         0.15358E-05
         0.16914E-05
         0.13610E-05
         0.17484E-05
         0.32594E-05
         0.25506E-05
         0.32437E-05
         0.18989E-05
         0.21708E-05
         0.20471E-05
         0.22696E-05
         0.17404E-05
         0.10808E-05
         0.20483E-05
         0.17085E-05
         0.17629E-05
         0.18129E-05
         0.15824E-05
         0.19312E-05
         0.24585E-05
         0.17334E-05
         0.27598E-05
         0.24074E-05
         0.10820E-05
         0.16664E-05
         0.18923E-05
         0.20008E-05
         0.19333E-05
         0.15191E-05
         0.95449E-06
         0.15754E-05
         0.20872E-05
         0.16835E-05
         0.14793E-05
         0.96901E-06
         0.16550E-05
         0.22486E-05
         0.23615E-05
         0.19069E-05
         0.11713E-05
         0.20222E-05
         0.74384E-06
         0.94869E-06
         0.88325E-06
         0.10471E-05
         0.10236E-05
         0.99386E-06
         0.10620E-05
         0.11247E-05
         0.10577E-05
         0.82326E-06
         0.67020E-06
         0.86426E-06
         0.11524E-05
         0.12674E-05
         0.12150E-05
         0.10944E-05
         0.99348E-06
         0.80677E-06
         0.67846E-06
         0.88714E-06
         0.11750E-05
         0.12140E-05
         0.97979E-06
         0.79538E-06
         0.97696E-06
         0.11544E-05
         0.24628E-05
         0.19495E-05
         0.20970E-05
         0.36194E-05
         0.19358E-05
         0.24733E-05
         0.13722E-05
         0.16476E-05
         0.27409E-05
         0.19941E-05
         0.80652E-06
         0.15355E-05
         0.16913E-05
         0.13591E-05
         0.17481E-05
         0.32604E-05
         0.25518E-05
         0.32453E-05
         0.18990E-05
         0.21711E-05
         0.20470E-05
         0.22697E-05
         0.17402E-05
         0.10807E-05
         0.20474E-05
         0.17084E-05
         0.17603E-05
         0.18111E-05
         0.15817E-05
         0.19308E-05
         0.24588E-05
         0.17332E-05
         0.27613E-05
         0.24096E-05
         0.10819E-05
         0.16661E-05
         0.18921E-05
         0.20006E-05
         0.19334E-05
         0.15192E-05
         0.95450E-06
         0.15752E-05
         0.20871E-05
         0.16833E-05
         0.14789E-05
         0.96876E-06
         0.16549E-05
         0.22486E-05
         0.23619E-05
         0.19073E-05
         0.11713E-05
         0.20232E-05
         0.74362E-06
         0.94868E-06
         0.88282E-06
         0.10472E-05
         0.10238E-05
         0.99408E-06
         0.10625E-05
         0.11255E-05
         0.10584E-05
         0.82345E-06
         0.67025E-06
         0.86428E-06
         0.11526E-05
         0.12677E-05
         0.12152E-05
         0.10944E-05
         0.99342E-06
         0.80671E-06
         0.67836E-06
         0.88709E-06
         0.11750E-05
         0.12140E-05
         0.97959E-06
         0.79521E-06
         0.97708E-06
         0.11544E-05
         0.24629E-05
         0.19491E-05
         0.20972E-05
         0.36212E-05
         0.19361E-05
         0.24741E-05
         0.13715E-05
         0.16466E-05
         0.27418E-05
         0.19928E-05
         0.80575E-06
         0.15353E-05
         0.16912E-05
         0.13572E-05
         0.17477E-05
         0.32613E-05
         0.25529E-05
         0.32469E-05
         0.18990E-05
         0.21714E-05
         0.20469E-05
         0.22698E-05
         0.17400E-05
         0.10806E-05
         0.20466E-05
         0.17082E-05
         0.17576E-05
         0.18093E-05
         0.15810E-05
         0.19303E-05
         0.24590E-05
         0.17330E-05
         0.27627E-05
         0.24118E-05
         0.10819E-05
         0.16658E-05
         0.18919E-05
         0.20005E-05
         0.19335E-05
         0.15192E-05
         0.95450E-06
         0.15750E-05
         0.20870E-05
         0.16831E-05
         0.14786E-05
         0.96851E-06
         0.16548E-05
         0.22487E-05
         0.23622E-05
         0.19077E-05
         0.11713E-05
         0.20242E-05
         0.74339E-06
         0.94866E-06
         0.88239E-06
         0.10472E-05
         0.10241E-05
         0.99429E-06
         0.10630E-05
         0.11263E-05
         0.10590E-05
         0.82363E-06
         0.67030E-06
         0.86430E-06
         0.11527E-05
         0.12680E-05
         0.12153E-05
         0.10944E-05
         0.99335E-06
         0.80665E-06
         0.67825E-06
         0.88702E-06
         0.11749E-05
         0.12140E-05
         0.97939E-06
         0.79503E-06
         0.97720E-06
         0.11544E-05
         0.24631E-05
         0.19487E-05
         0.20973E-05
         0.36229E-05
         0.19364E-05
         0.24748E-05
         0.13707E-05
         0.16456E-05
         0.27428E-05
         0.19915E-05
         0.80498E-06
         0.15350E-05
         0.16911E-05
         0.13553E-05
         0.17473E-05
         0.32623E-05
         0.25541E-05
         0.32486E-05
         0.18991E-05
         0.21716E-05
         0.20468E-05
         0.22699E-05
         0.17399E-05
         0.10805E-05
         0.20457E-05
         0.17081E-05
         0.17549E-05
         0.18075E-05
         0.15804E-05
         0.19299E-05
         0.24592E-05
         0.17328E-05
         0.27642E-05
         0.24140E-05
         0.10819E-05
         0.16654E-05
         0.18916E-05
         0.20003E-05
         0.19337E-05
         0.15193E-05
         0.95450E-06
         0.15748E-05
         0.20869E-05
         0.16828E-05
         0.14782E-05
         0.96826E-06
         0.16546E-05
         0.22487E-05
         0.23626E-05
         0.19081E-05
         0.11714E-05
         0.20253E-05
         0.74316E-06
         0.94864E-06
         0.88196E-06
         0.10472E-05
         0.10243E-05
         0.99450E-06
         0.10634E-05
         0.11271E-05
         0.10596E-05
         0.82381E-06
         0.67036E-06
         0.86432E-06
         0.11529E-05
         0.12683E-05
         0.12154E-05
         0.10943E-05
         0.99329E-06
         0.80658E-06
         0.67815E-06
         0.88696E-06
         0.11749E-05
         0.12140E-05
         0.97919E-06
         0.79485E-06
         0.97732E-06
         0.11544E-05
         0.24632E-05
         0.19483E-05
         0.20975E-05
         0.36246E-05
         0.19368E-05
         0.24756E-05
         0.13700E-05
         0.16447E-05
         0.27437E-05
         0.19902E-05
         0.80421E-06
         0.15347E-05
         0.16910E-05
         0.13534E-05
         0.17470E-05
         0.32632E-05
         0.25552E-05
         0.32502E-05
         0.18992E-05
         0.21719E-05
         0.20467E-05
         0.22700E-05
         0.17397E-05
         0.10804E-05
         0.20448E-05
         0.17079E-05
         0.17523E-05
         0.18057E-05
         0.15797E-05
         0.19295E-05
         0.24595E-05
         0.17326E-05
         0.27656E-05
         0.24161E-05
         0.10819E-05
         0.16651E-05
         0.18914E-05
         0.20002E-05
         0.19338E-05
         0.15194E-05
         0.95451E-06
         0.15745E-05
         0.20868E-05
         0.16826E-05
         0.14779E-05
         0.96801E-06
         0.16545E-05
         0.22487E-05
         0.23630E-05
         0.19085E-05
         0.11714E-05
         0.20263E-05
         0.74293E-06
         0.94863E-06
         0.88153E-06
         0.10473E-05
         0.10245E-05
         0.99472E-06
         0.10639E-05
         0.11279E-05
         0.10602E-05
         0.82400E-06
         0.67041E-06
         0.86435E-06
         0.11530E-05
         0.12686E-05
         0.12156E-05
         0.10943E-05
         0.99323E-06
         0.80652E-06
         0.67804E-06
         0.88690E-06
         0.11749E-05
         0.12140E-05
         0.97900E-06
         0.79468E-06
         0.97744E-06
         0.11543E-05
         0.24633E-05
         0.19479E-05
         0.20977E-05
         0.36264E-05
         0.19371E-05
         0.24763E-05
         0.13693E-05
         0.16437E-05
         0.27447E-05
         0.19888E-05
         0.80343E-06
         0.15345E-05
         0.16908E-05
         0.13515E-05
         0.17466E-05
         0.32642E-05
         0.25564E-05
         0.32518E-05
         0.18992E-05
         0.21722E-05
         0.20466E-05
         0.22701E-05
         0.17395E-05
         0.10803E-05
         0.20439E-05
         0.17078E-05
         0.17496E-05
         0.18039E-05
         0.15790E-05
         0.19290E-05
         0.24597E-05
         0.17323E-05
         0.27671E-05
         0.24183E-05
         0.10819E-05
         0.16648E-05
         0.18911E-05
         0.20001E-05
         0.19339E-05
         0.15195E-05
         0.95452E-06
         0.15743E-05
         0.20867E-05
         0.16823E-05
         0.14775E-05
         0.96776E-06
         0.16543E-05
         0.22487E-05
         0.23633E-05
         0.19089E-05
         0.11714E-05
         0.20273E-05
         0.74270E-06
         0.94861E-06
         0.88109E-06
         0.10473E-05
         0.10248E-05
         0.99493E-06
         0.10643E-05
         0.11287E-05
         0.10609E-05
         0.82418E-06
         0.67046E-06
         0.86437E-06
         0.11532E-05
         0.12689E-05
         0.12157E-05
         0.10943E-05
         0.99316E-06
         0.80646E-06
         0.67794E-06
         0.88683E-06
         0.11749E-05
         0.12140E-05
         0.97879E-06
         0.79450E-06
         0.97755E-06
         0.11543E-05
         0.24635E-05
         0.19475E-05
         0.20979E-05
         0.36281E-05
         0.19374E-05
         0.24771E-05
         0.13686E-05
         0.16427E-05
         0.27456E-05
         0.19875E-05
         0.80266E-06
         0.15342E-05
         0.16907E-05
         0.13496E-05
         0.17463E-05
         0.32651E-05
         0.25575E-05
         0.32534E-05
         0.18993E-05
         0.21724E-05
         0.20466E-05
         0.22702E-05
         0.17393E-05
         0.10802E-05
         0.20430E-05
         0.17076E-05
         0.17469E-05
         0.18021E-05
         0.15784E-05
         0.19286E-05
         0.24600E-05
         0.17321E-05
         0.27685E-05
         0.24205E-05
         0.10819E-05
         0.16645E-05
         0.18909E-05
         0.19999E-05
         0.19341E-05
         0.15195E-05
         0.95452E-06
         0.15741E-05
         0.20866E-05
         0.16821E-05
         0.14772E-05
         0.96751E-06
         0.16542E-05
         0.22488E-05
         0.23637E-05
         0.19092E-05
         0.11715E-05
         0.20283E-05
         0.74247E-06
         0.94860E-06
         0.88066E-06
         0.10473E-05
         0.10250E-05
         0.99514E-06
         0.10648E-05
         0.11295E-05
         0.10615E-05
         0.82437E-06
         0.67052E-06
         0.86439E-06
         0.11533E-05
         0.12691E-05
         0.12159E-05
         0.10942E-05
         0.99310E-06
         0.80639E-06
         0.67783E-06
         0.88676E-06
         0.11748E-05
         0.12140E-05
         0.97859E-06
         0.79433E-06
         0.97767E-06
         0.11543E-05
         0.24636E-05
         0.19471E-05
         0.20980E-05
         0.36298E-05
         0.19377E-05
         0.24779E-05
         0.13679E-05
         0.16417E-05
         0.27466E-05
         0.19862E-05
         0.80189E-06
         0.15339E-05
         0.16906E-05
         0.13477E-05
         0.17459E-05
         0.32661E-05
         0.25587E-05
         0.32551E-05
         0.18994E-05
         0.21727E-05
         0.20465E-05
         0.22703E-05
         0.17392E-05
         0.10800E-05
         0.20421E-05
         0.17075E-05
         0.17443E-05
         0.18003E-05
         0.15777E-05
         0.19281E-05
         0.24602E-05
         0.17319E-05
         0.27700E-05
         0.24227E-05
         0.10819E-05
         0.16642E-05
         0.18906E-05
         0.19998E-05
         0.19342E-05
         0.15196E-05
         0.95453E-06
         0.15739E-05
         0.20865E-05
         0.16819E-05
         0.14768E-05
         0.96727E-06
         0.16541E-05
         0.22488E-05
         0.23640E-05
         0.19096E-05
         0.11715E-05
         0.20293E-05
         0.74225E-06
         0.94859E-06
         0.88023E-06
         0.10474E-05
         0.10253E-05
         0.99535E-06
         0.10653E-05
         0.11303E-05
         0.10621E-05
         0.82456E-06
         0.67057E-06
         0.86441E-06
         0.11535E-05
         0.12694E-05
         0.12160E-05
         0.10942E-05
         0.99304E-06
         0.80633E-06
         0.67773E-06
         0.88671E-06
         0.11748E-05
         0.12140E-05
         0.97840E-06
         0.79415E-06
         0.97780E-06
         0.11542E-05
         0.24637E-05
         0.19466E-05
         0.20982E-05
         0.36315E-05
         0.19380E-05
         0.24786E-05
         0.13671E-05
         0.16407E-05
         0.27475E-05
         0.19849E-05
         0.80110E-06
         0.15336E-05
         0.16905E-05
         0.13457E-05
         0.17455E-05
         0.32669E-05
         0.25598E-05
         0.32567E-05
         0.18994E-05
         0.21729E-05
         0.20464E-05
         0.22703E-05
         0.17390E-05
         0.10799E-05
         0.20412E-05
         0.17073E-05
         0.17416E-05
         0.17985E-05
         0.15770E-05
         0.19277E-05
         0.24604E-05
         0.17317E-05
         0.27714E-05
         0.24248E-05
         0.10819E-05
         0.16638E-05
         0.18903E-05
         0.19996E-05
         0.19343E-05
         0.15196E-05
         0.95451E-06
         0.15737E-05
         0.20864E-05
         0.16816E-05
         0.14765E-05
         0.96700E-06
         0.16539E-05
         0.22488E-05
         0.23644E-05
         0.19100E-05
         0.11715E-05
         0.20303E-05
         0.74200E-06
         0.94855E-06
         0.87978E-06
         0.10474E-05
         0.10255E-05
         0.99555E-06
         0.10657E-05
         0.11311E-05
         0.10627E-05
         0.82472E-06
         0.67061E-06
         0.86442E-06
         0.11536E-05
         0.12697E-05
         0.12161E-05
         0.10941E-05
         0.99295E-06
         0.80625E-06
         0.67761E-06
         0.88662E-06
         0.11748E-05
         0.12140E-05
         0.97818E-06
         0.79396E-06
         0.97790E-06
         0.11542E-05
         0.24639E-05
         0.19463E-05
         0.20984E-05
         0.36333E-05
         0.19383E-05
         0.24794E-05
         0.13664E-05
         0.16398E-05
         0.27485E-05
         0.19836E-05
         0.80034E-06
         0.15334E-05
         0.16904E-05
         0.13439E-05
         0.17452E-05
         0.32679E-05
         0.25610E-05
         0.32583E-05
         0.18995E-05
         0.21732E-05
         0.20463E-05
         0.22704E-05
         0.17388E-05
         0.10798E-05
         0.20404E-05
         0.17072E-05
         0.17389E-05
         0.17967E-05
         0.15763E-05
         0.19272E-05
         0.24607E-05
         0.17315E-05
         0.27729E-05
         0.24270E-05
         0.10819E-05
         0.16635E-05
         0.18901E-05
         0.19995E-05
         0.19345E-05
         0.15197E-05
         0.95453E-06
         0.15735E-05
         0.20863E-05
         0.16814E-05
         0.14761E-05
         0.96677E-06
         0.16538E-05
         0.22488E-05
         0.23647E-05
         0.19104E-05
         0.11716E-05
         0.20313E-05
         0.74179E-06
         0.94855E-06
         0.87936E-06
         0.10475E-05
         0.10257E-05
         0.99577E-06
         0.10662E-05
         0.11319E-05
         0.10633E-05
         0.82492E-06
         0.67068E-06
         0.86446E-06
         0.11538E-05
         0.12700E-05
         0.12163E-05
         0.10941E-05
         0.99291E-06
         0.80620E-06
         0.67752E-06
         0.88657E-06
         0.11748E-05
         0.12140E-05
         0.97800E-06
         0.79380E-06
         0.97803E-06
         0.11542E-05
         0.12320E-05
         0.97306E-06
         0.10493E-05
         0.18171E-05
         0.96926E-06
         0.12399E-05
         0.68306E-06
         0.81967E-06
         0.13745E-05
         0.99152E-06
         0.39999E-06
         0.76665E-06
         0.84519E-06
         0.67148E-06
         0.87252E-06
         0.16343E-05
         0.12808E-05
         0.16296E-05
         0.94981E-06
         0.10867E-05
         0.10232E-05
         0.11353E-05
         0.86940E-06
         0.53990E-06
         0.10200E-05
         0.85360E-06
         0.86884E-06
         0.89793E-06
         0.78802E-06
         0.96354E-06
         0.12305E-05
         0.86572E-06
         0.13869E-05
         0.12141E-05
         0.54095E-06
         0.83170E-06
         0.94503E-06
         0.99975E-06
         0.96729E-06
         0.75992E-06
         0.47728E-06
         0.78670E-06
         0.10432E-05
         0.84065E-06
         0.73800E-06
         0.48334E-06
         0.82688E-06
         0.11245E-05
         0.11825E-05
         0.95534E-06
         0.58581E-06
         0.10159E-05
         0.37085E-06
         0.47429E-06
         0.43959E-06
         0.52375E-06
         0.51294E-06
         0.49796E-06
         0.53322E-06
         0.56619E-06
         0.53185E-06
         0.41252E-06
         0.33536E-06
         0.43225E-06
         0.57696E-06
         0.63509E-06
         0.60820E-06
         0.54708E-06
         0.49646E-06
         0.40310E-06
         0.33875E-06
         0.44329E-06
         0.58740E-06
         0.60700E-06
         0.48897E-06
         0.39687E-06
         0.48906E-06
         0.57710E-06
  
SCALARS                 Poissons_ratio  double 1
LOOKUP_TABLE default
         0.30000E+00
         0.30000E+00
         0.30000E+00
         0.30000E+00
         0.30000E+00
         0.30000E+00
         0.30000E+00
         0.30000E+00
         0.30000E+00
         0.30000E+00
         0.30000E+00
         0.30000E+00
         0.30000E+00
         0.30000E+00
         0.30000E+00
         0.30000E+00
         0.30000E+00
         0.30000E+00
         0.30000E+00
         0.30000E+00
         0.30000E+00
         0.30000E+00
         0.30000E+00
         0.30000E+00
         0.30000E+00
         0.30000E+00
         0.30000E+00
         0.30000E+00
         0.30000E+00
         0.30000E+00
         0.30000E+00
         0.30000E+00
         0.30000E+00
         0.30000E+00
         0.30000E+00
         0.30000E+00
         0.30000E+00
         0.30000E+00
         0.30000E+00
         0.30000E+00
         0.30000E+00
         0.30000E+00
         0.30000E+00
         0.30000E+00
         0.30000E+00
         0.30000E+00
         0.30000E+00
         0.30000E+00
         0.30000E+00
         0.30000E+00
         0.30000E+00
         0.30000E+00
         0.30000E+00
         0.30000E+00
         0.30000E+00
         0.30000E+00
         0.30000E+00
         0.30000E+00
         0.30000E+00
         0.30000E+00
         0.30000E+00
         0.30000E+00
         0.30000E+00
         0.30000E+00
         0.30000E+00
         0.30000E+00
         0.30000E+00
         0.30000E+00
         0.30000E+00
         0.30000E+00
         0.30000E+00
         0.30000E+00
         0.30000E+00
         0.30000E+00
         0.30000E+00
         0.30000E+00
         0.30000E+00
         0.30000E+00
         0.30000E+00
         0.30000E+00
         0.30000E+00
         0.30000E+00
         0.30000E+00
         0.30000E+00
         0.30000E+00
         0.30000E+00
         0.30000E+00
         0.30000E+00
         0.30000E+00
         0.30000E+00
         0.30000E+00
         0.30000E+00
         0.30000E+00
         0.30000E+00
         0.30000E+00
         0.30000E+00
         0.30000E+00
         0.30000E+00
         0.30000E+00
         0.30000E+00
         0.30000E+00
         0.30000E+00
         0.30000E+00
         0.30000E+00
         0.30000E+00
         0.30000E+00
         0.30000E+00
         0.30000E+00
         0.30000E+00
         0.30000E+00
         0.30000E+00
         0.30000E+00
         0.30000E+00
         0.30000E+00
         0.30000E+00
         0.30000E+00
         0.30000E+00
         0.30000E+00
         0.30000E+00
         0.30000E+00
         0.30000E+00
         0.30000E+00
         0.30000E+00
         0.30000E+00
         0.30000E+00
         0.30000E+00
         0.30000E+00
         0.30000E+00
         0.30000E+00
         0.30000E+00
         0.30000E+00
         0.30000E+00
         0.30000E+00
         0.30000E+00
         0.30000E+00
         0.30000E+00
         0.30000E+00
         0.30000E+00
         0.30000E+00
         0.30000E+00
         0.30000E+00
         0.30000E+00
         0.30000E+00
         0.30000E+00
         0.30000E+00
         0.30000E+00
         0.30000E+00
         0.30000E+00
         0.30000E+00
         0.30000E+00
         0.30000E+00
         0.30000E+00
         0.30000E+00
         0.30000E+00
         0.30000E+00
         0.30000E+00
         0.30000E+00
         0.30000E+00
         0.30000E+00
         0.30000E+00
         0.30000E+00
         0.30000E+00
         0.30000E+00
         0.30000E+00
         0.30000E+00
         0.30000E+00
         0.30000E+00
         0.30000E+00
         0.30000E+00
         0.30000E+00
         0.30000E+00
         0.30000E+00
         0.30000E+00
         0.30000E+00
         0.30000E+00
         0.30000E+00
         0.30000E+00
         0.30000E+00
         0.30000E+00
         0.30000E+00
         0.30000E+00
         0.30000E+00
         0.30000E+00
         0.30000E+00
         0.30000E+00
         0.30000E+00
         0.30000E+00
         0.30000E+00
         0.30000E+00
         0.30000E+00
         0.30000E+00
         0.30000E+00
         0.30000E+00
         0.30000E+00
         0.30000E+00
         0.30000E+00
         0.30000E+00
         0.30000E+00
         0.30000E+00
         0.30000E+00
         0.30000E+00
         0.30000E+00
         0.30000E+00
         0.30000E+00
         0.30000E+00
         0.30000E+00
         0.30000E+00
         0.30000E+00
         0.30000E+00
         0.30000E+00
         0.30000E+00
         0.30000E+00
         0.30000E+00
         0.30000E+00
         0.30000E+00
         0.30000E+00
         0.30000E+00
         0.30000E+00
         0.30000E+00
         0.30000E+00
         0.30000E+00
         0.30000E+00
         0.30000E+00
         0.30000E+00
         0.30000E+00
         0.30000E+00
         0.30000E+00
         0.30000E+00
         0.30000E+00
         0.30000E+00
         0.30000E+00
         0.30000E+00
         0.30000E+00
         0.30000E+00
         0.30000E+00
         0.30000E+00
         0.30000E+00
         0.30000E+00
         0.30000E+00
         0.30000E+00
         0.30000E+00
         0.30000E+00
         0.30000E+00
         0.30000E+00
         0.30000E+00
         0.30000E+00
         0.30000E+00
         0.30000E+00
         0.30000E+00
         0.30000E+00
         0.30000E+00
         0.30000E+00
         0.30000E+00
         0.30000E+00
         0.30000E+00
         0.30000E+00
         0.30000E+00
         0.30000E+00
         0.30000E+00
         0.30000E+00
         0.30000E+00
         0.30000E+00
         0.30000E+00
         0.30000E+00
         0.30000E+00
         0.30000E+00
         0.30000E+00
         0.30000E+00
         0.30000E+00
         0.30000E+00
         0.30000E+00
         0.30000E+00
         0.30000E+00
         0.30000E+00
         0.30000E+00
         0.30000E+00
         0.30000E+00
         0.30000E+00
         0.30000E+00
         0.30000E+00
         0.30000E+00
         0.30000E+00
         0.30000E+00
         0.30000E+00
         0.30000E+00
         0.30000E+00
         0.30000E+00
         0.30000E+00
         0.30000E+00
         0.30000E+00
         0.30000E+00
         0.30000E+00
         0.30000E+00
         0.30000E+00
         0.30000E+00
         0.30000E+00
         0.30000E+00
         0.30000E+00
         0.30000E+00
         0.30000E+00
         0.30000E+00
         0.30000E+00
         0.30000E+00
         0.30000E+00
         0.30000E+00
         0.30000E+00
         0.30000E+00
         0.30000E+00
         0.30000E+00
         0.30000E+00
         0.30000E+00
         0.30000E+00
         0.30000E+00
         0.30000E+00
         0.30000E+00
         0.30000E+00
         0.30000E+00
         0.30000E+00
         0.30000E+00
         0.30000E+00
         0.30000E+00
         0.30000E+00
         0.30000E+00
         0.30000E+00
         0.30000E+00
         0.30000E+00
         0.30000E+00
         0.30000E+00
         0.30000E+00
         0.30000E+00
         0.30000E+00
         0.30000E+00
         0.30000E+00
         0.30000E+00
         0.30000E+00
         0.30000E+00
         0.30000E+00
         0.30000E+00
         0.30000E+00
         0.30000E+00
         0.30000E+00
         0.30000E+00
         0.30000E+00
         0.30000E+00
         0.30000E+00
         0.30000E+00
         0.30000E+00
         0.30000E+00
         0.30000E+00
         0.30000E+00
         0.30000E+00
         0.30000E+00
         0.30000E+00
         0.30000E+00
         0.30000E+00
         0.30000E+00
         0.30000E+00
         0.30000E+00
         0.30000E+00
         0.30000E+00
         0.30000E+00
         0.30000E+00
         0.30000E+00
         0.30000E+00
         0.30000E+00
         0.30000E+00
         0.30000E+00
         0.30000E+00
         0.30000E+00
         0.30000E+00
         0.30000E+00
         0.30000E+00
         0.30000E+00
         0.30000E+00
         0.30000E+00
         0.30000E+00
         0.30000E+00
         0.30000E+00
         0.30000E+00
         0.30000E+00
         0.30000E+00
         0.30000E+00
         0.30000E+00
         0.30000E+00
         0.30000E+00
         0.30000E+00
         0.30000E+00
         0.30000E+00
         0.30000E+00
         0.30000E+00
         0.30000E+00
         0.30000E+00
         0.30000E+00
         0.30000E+00
         0.30000E+00
         0.30000E+00
         0.30000E+00
         0.30000E+00
         0.30000E+00
         0.30000E+00
         0.30000E+00
         0.30000E+00
         0.30000E+00
         0.30000E+00
         0.30000E+00
         0.30000E+00
         0.30000E+00
         0.30000E+00
         0.30000E+00
         0.30000E+00
         0.30000E+00
         0.30000E+00
         0.30000E+00
         0.30000E+00
         0.30000E+00
         0.30000E+00
         0.30000E+00
         0.30000E+00
         0.30000E+00
         0.30000E+00
         0.30000E+00
         0.30000E+00
         0.30000E+00
         0.30000E+00
         0.30000E+00
         0.30000E+00
         0.30000E+00
         0.30000E+00
         0.30000E+00
         0.30000E+00
         0.30000E+00
         0.30000E+00
         0.30000E+00
         0.30000E+00
         0.30000E+00
         0.30000E+00
         0.30000E+00
         0.30000E+00
         0.30000E+00
         0.30000E+00
         0.30000E+00
         0.30000E+00
         0.30000E+00
         0.30000E+00
         0.30000E+00
         0.30000E+00
         0.30000E+00
         0.30000E+00
         0.30000E+00
         0.30000E+00
         0.30000E+00
         0.30000E+00
         0.30000E+00
         0.30000E+00
         0.30000E+00
         0.30000E+00
         0.30000E+00
         0.30000E+00
         0.30000E+00
         0.30000E+00
         0.30000E+00
         0.30000E+00
         0.30000E+00
         0.30000E+00
         0.30000E+00
         0.30000E+00
         0.30000E+00
         0.30000E+00
         0.30000E+00
         0.30000E+00
         0.30000E+00
         0.30000E+00
         0.30000E+00
         0.30000E+00
         0.30000E+00
         0.30000E+00
         0.30000E+00
         0.30000E+00
         0.30000E+00
         0.30000E+00
         0.30000E+00
         0.30000E+00
         0.30000E+00
         0.30000E+00
         0.30000E+00
         0.30000E+00
         0.30000E+00
         0.30000E+00
         0.30000E+00
         0.30000E+00
         0.30000E+00
         0.30000E+00
         0.30000E+00
         0.30000E+00
         0.30000E+00
         0.30000E+00
         0.30000E+00
         0.30000E+00
         0.30000E+00
         0.30000E+00
         0.30000E+00
         0.30000E+00
         0.30000E+00
         0.30000E+00
         0.30000E+00
         0.30000E+00
         0.30000E+00
         0.30000E+00
         0.30000E+00
         0.30000E+00
         0.30000E+00
         0.30000E+00
         0.30000E+00
         0.30000E+00
         0.30000E+00
         0.30000E+00
         0.30000E+00
         0.30000E+00
         0.30000E+00
         0.30000E+00
         0.30000E+00
         0.30000E+00
         0.30000E+00
         0.30000E+00
         0.30000E+00
         0.30000E+00
         0.30000E+00
         0.30000E+00
         0.30000E+00
         0.30000E+00
         0.30000E+00
         0.30000E+00
         0.30000E+00
         0.30000E+00
         0.30000E+00
         0.30000E+00
         0.30000E+00
         0.30000E+00
         0.30000E+00
         0.30000E+00
         0.30000E+00
         0.30000E+00
         0.30000E+00
         0.30000E+00
         0.30000E+00
         0.30000E+00
         0.30000E+00
         0.30000E+00
         0.30000E+00
         0.30000E+00
         0.30000E+00
         0.30000E+00
         0.30000E+00
         0.30000E+00
         0.30000E+00
         0.30000E+00
         0.30000E+00
         0.30000E+00
         0.30000E+00
         0.30000E+00
         0.30000E+00
         0.30000E+00
         0.30000E+00
         0.30000E+00
         0.30000E+00
         0.30000E+00
         0.30000E+00
         0.30000E+00
         0.30000E+00
         0.30000E+00
         0.30000E+00
         0.30000E+00
         0.30000E+00
         0.30000E+00
         0.30000E+00
         0.30000E+00
         0.30000E+00
         0.30000E+00
         0.30000E+00
         0.30000E+00
         0.30000E+00
         0.30000E+00
         0.30000E+00
         0.30000E+00
         0.30000E+00
         0.30000E+00
         0.30000E+00
         0.30000E+00
         0.30000E+00
         0.30000E+00
         0.30000E+00
         0.30000E+00
         0.30000E+00
         0.30000E+00
         0.30000E+00
         0.30000E+00
         0.30000E+00
         0.30000E+00
         0.30000E+00
         0.30000E+00
         0.30000E+00
         0.30000E+00
         0.30000E+00
         0.30000E+00
         0.30000E+00
         0.30000E+00
         0.30000E+00
         0.30000E+00
         0.30000E+00
         0.30000E+00
         0.30000E+00
         0.30000E+00
         0.30000E+00
         0.30000E+00
         0.30000E+00
         0.30000E+00
         0.30000E+00
         0.30000E+00
         0.30000E+00
         0.30000E+00
         0.30000E+00
         0.30000E+00
         0.30000E+00
         0.30000E+00
         0.30000E+00
         0.30000E+00
         0.30000E+00
         0.30000E+00
         0.30000E+00
         0.30000E+00
         0.30000E+00
         0.30000E+00
         0.30000E+00
         0.30000E+00
         0.30000E+00
         0.30000E+00
         0.30000E+00
         0.30000E+00
         0.30000E+00
         0.30000E+00
         0.30000E+00
         0.30000E+00
         0.30000E+00
         0.30000E+00
         0.30000E+00
         0.30000E+00
         0.30000E+00
         0.30000E+00
         0.30000E+00
         0.30000E+00
         0.30000E+00
         0.30000E+00
         0.30000E+00
         0.30000E+00
         0.30000E+00
         0.30000E+00
         0.30000E+00
         0.30000E+00
         0.30000E+00
         0.30000E+00
         0.30000E+00
         0.30000E+00
         0.30000E+00
         0.30000E+00
         0.30000E+00
         0.30000E+00
         0.30000E+00
         0.30000E+00
         0.30000E+00
         0.30000E+00
         0.30000E+00
         0.30000E+00
         0.30000E+00
         0.30000E+00
         0.30000E+00
         0.30000E+00
         0.30000E+00
         0.30000E+00
         0.30000E+00
         0.30000E+00
         0.30000E+00
         0.30000E+00
         0.30000E+00
         0.30000E+00
         0.30000E+00
         0.30000E+00
         0.30000E+00
         0.30000E+00
         0.30000E+00
         0.30000E+00
         0.30000E+00
         0.30000E+00
         0.30000E+00
         0.30000E+00
         0.30000E+00
         0.30000E+00
         0.30000E+00
         0.30000E+00
         0.30000E+00
         0.30000E+00
         0.30000E+00
         0.30000E+00
         0.30000E+00
         0.30000E+00
         0.30000E+00
         0.30000E+00
         0.30000E+00
         0.30000E+00
         0.30000E+00
         0.30000E+00
         0.30000E+00
         0.30000E+00
         0.30000E+00
         0.30000E+00
         0.30000E+00
         0.30000E+00
         0.30000E+00
         0.30000E+00
         0.30000E+00
         0.30000E+00
         0.30000E+00
         0.30000E+00
         0.30000E+00
         0.30000E+00
         0.30000E+00
         0.30000E+00
         0.30000E+00
         0.30000E+00
         0.30000E+00
         0.30000E+00
         0.30000E+00
         0.30000E+00
         0.30000E+00
         0.30000E+00
         0.30000E+00
         0.30000E+00
         0.30000E+00
         0.30000E+00
         0.30000E+00
         0.30000E+00
         0.30000E+00
         0.30000E+00
         0.30000E+00
         0.30000E+00
         0.30000E+00
         0.30000E+00
         0.30000E+00
         0.30000E+00
         0.30000E+00
         0.30000E+00
         0.30000E+00
         0.30000E+00
         0.30000E+00
         0.30000E+00
         0.30000E+00
         0.30000E+00
         0.30000E+00
         0.30000E+00
         0.30000E+00
         0.30000E+00
         0.30000E+00
         0.30000E+00
         0.30000E+00
         0.30000E+00
         0.30000E+00
         0.30000E+00
         0.30000E+00
         0.30000E+00
         0.30000E+00
         0.30000E+00
         0.30000E+00
         0.30000E+00
         0.30000E+00
         0.30000E+00
         0.30000E+00
         0.30000E+00
         0.30000E+00
         0.30000E+00
         0.30000E+00
         0.30000E+00
         0.30000E+00
         0.30000E+00
         0.30000E+00
         0.30000E+00
         0.30000E+00
         0.30000E+00
         0.30000E+00
         0.30000E+00
         0.30000E+00
         0.30000E+00
         0.30000E+00
         0.30000E+00
         0.30000E+00
         0.30000E+00
         0.30000E+00
         0.30000E+00
         0.30000E+00
         0.30000E+00
         0.30000E+00
         0.30000E+00
         0.30000E+00
         0.30000E+00
         0.30000E+00
         0.30000E+00
         0.30000E+00
         0.30000E+00
         0.30000E+00
         0.30000E+00
         0.30000E+00
         0.30000E+00
         0.30000E+00
         0.30000E+00
         0.30000E+00
         0.30000E+00
         0.30000E+00
         0.30000E+00
         0.30000E+00
         0.30000E+00
         0.30000E+00
         0.30000E+00
         0.30000E+00
         0.30000E+00
         0.30000E+00
         0.30000E+00
         0.30000E+00
         0.30000E+00
         0.30000E+00
         0.30000E+00
         0.30000E+00
         0.30000E+00
         0.30000E+00
         0.30000E+00
         0.30000E+00
         0.30000E+00
         0.30000E+00
         0.30000E+00
         0.30000E+00
         0.30000E+00
         0.30000E+00
         0.30000E+00
         0.30000E+00
         0.30000E+00
         0.30000E+00
         0.30000E+00
         0.30000E+00
         0.30000E+00
         0.30000E+00
         0.30000E+00
         0.30000E+00
         0.30000E+00
         0.30000E+00
         0.30000E+00
         0.30000E+00
         0.30000E+00
         0.30000E+00
         0.30000E+00
         0.30000E+00
         0.30000E+00
         0.30000E+00
         0.30000E+00
         0.30000E+00
         0.30000E+00
         0.30000E+00
         0.30000E+00
         0.30000E+00
         0.30000E+00
         0.30000E+00
         0.30000E+00
         0.30000E+00
         0.30000E+00
         0.30000E+00
         0.30000E+00
         0.30000E+00
         0.30000E+00
         0.30000E+00
         0.30000E+00
         0.30000E+00
         0.30000E+00
         0.30000E+00
         0.30000E+00
         0.30000E+00
         0.30000E+00
         0.30000E+00
         0.30000E+00
         0.30000E+00
         0.30000E+00
         0.30000E+00
         0.30000E+00
         0.30000E+00
         0.30000E+00
         0.30000E+00
         0.30000E+00
         0.30000E+00
         0.30000E+00
         0.30000E+00
         0.30000E+00
         0.30000E+00
         0.30000E+00
         0.30000E+00
         0.30000E+00
         0.30000E+00
         0.30000E+00
         0.30000E+00
         0.30000E+00
         0.30000E+00
         0.30000E+00
         0.30000E+00
         0.30000E+00
         0.30000E+00
         0.30000E+00
         0.30000E+00
         0.30000E+00
         0.30000E+00
         0.30000E+00
         0.30000E+00
         0.30000E+00
         0.30000E+00
         0.30000E+00
         0.30000E+00
         0.30000E+00
         0.30000E+00
         0.30000E+00
         0.30000E+00
         0.30000E+00
         0.30000E+00
         0.30000E+00
         0.30000E+00
         0.30000E+00
         0.30000E+00
         0.30000E+00
         0.30000E+00
         0.30000E+00
         0.30000E+00
         0.30000E+00
         0.30000E+00
         0.30000E+00
         0.30000E+00
         0.30000E+00
         0.30000E+00
         0.30000E+00
         0.30000E+00
         0.30000E+00
         0.30000E+00
         0.30000E+00
         0.30000E+00
         0.30000E+00
         0.30000E+00
         0.30000E+00
         0.30000E+00
         0.30000E+00
         0.30000E+00
         0.30000E+00
         0.30000E+00
         0.30000E+00
         0.30000E+00
         0.30000E+00
         0.30000E+00
         0.30000E+00
         0.30000E+00
         0.30000E+00
         0.30000E+00
         0.30000E+00
         0.30000E+00
         0.30000E+00
         0.30000E+00
         0.30000E+00
         0.30000E+00
         0.30000E+00
         0.30000E+00
         0.30000E+00
         0.30000E+00
         0.30000E+00
         0.30000E+00
         0.30000E+00
         0.30000E+00
         0.30000E+00
         0.30000E+00
         0.30000E+00
         0.30000E+00
         0.30000E+00
         0.30000E+00
         0.30000E+00
         0.30000E+00
         0.30000E+00
         0.30000E+00
         0.30000E+00
         0.30000E+00
         0.30000E+00
         0.30000E+00
         0.30000E+00
         0.30000E+00
         0.30000E+00
         0.30000E+00
         0.30000E+00
         0.30000E+00
         0.30000E+00
         0.30000E+00
         0.30000E+00
         0.30000E+00
         0.30000E+00
         0.30000E+00
         0.30000E+00
         0.30000E+00
         0.30000E+00
         0.30000E+00
         0.30000E+00
         0.30000E+00
         0.30000E+00
         0.30000E+00
         0.30000E+00
         0.30000E+00
         0.30000E+00
         0.30000E+00
         0.30000E+00
         0.30000E+00
         0.30000E+00
         0.30000E+00
         0.30000E+00
         0.30000E+00
         0.30000E+00
         0.30000E+00
         0.30000E+00
         0.30000E+00
         0.30000E+00
         0.30000E+00
         0.30000E+00
         0.30000E+00
         0.30000E+00
         0.30000E+00
         0.30000E+00
         0.30000E+00
         0.30000E+00
         0.30000E+00
         0.30000E+00
         0.30000E+00
         0.30000E+00
         0.30000E+00
         0.30000E+00
         0.30000E+00
         0.30000E+00
         0.30000E+00
         0.30000E+00
         0.30000E+00
         0.30000E+00
         0.30000E+00
         0.30000E+00
         0.30000E+00
         0.30000E+00
         0.30000E+00
         0.30000E+00
         0.30000E+00
         0.30000E+00
         0.30000E+00
         0.30000E+00
         0.30000E+00
         0.30000E+00
         0.30000E+00
         0.30000E+00
         0.30000E+00
         0.30000E+00
         0.30000E+00
         0.30000E+00
         0.30000E+00
         0.30000E+00
         0.30000E+00
         0.30000E+00
         0.30000E+00
         0.30000E+00
         0.30000E+00
         0.30000E+00
         0.30000E+00
         0.30000E+00
         0.30000E+00
         0.30000E+00
         0.30000E+00
         0.30000E+00
         0.30000E+00
         0.30000E+00
         0.30000E+00
         0.30000E+00
         0.30000E+00
         0.30000E+00
         0.30000E+00
         0.30000E+00
         0.30000E+00
         0.30000E+00
         0.30000E+00
         0.30000E+00
         0.30000E+00
         0.30000E+00
         0.30000E+00
         0.30000E+00
         0.30000E+00
         0.30000E+00
         0.30000E+00
         0.30000E+00
         0.30000E+00
         0.30000E+00
         0.30000E+00
         0.30000E+00
         0.30000E+00
         0.30000E+00
         0.30000E+00
         0.30000E+00
         0.30000E+00
         0.30000E+00
         0.30000E+00
         0.30000E+00
         0.30000E+00
         0.30000E+00
         0.30000E+00
         0.30000E+00
         0.30000E+00
         0.30000E+00
         0.30000E+00
         0.30000E+00
         0.30000E+00
         0.30000E+00
         0.30000E+00
         0.30000E+00
         0.30000E+00
         0.30000E+00
         0.30000E+00
         0.30000E+00
         0.30000E+00
         0.30000E+00
         0.30000E+00
         0.30000E+00
         0.30000E+00
         0.30000E+00
         0.30000E+00
         0.30000E+00
         0.30000E+00
         0.30000E+00
         0.30000E+00
         0.30000E+00
         0.30000E+00
         0.30000E+00
         0.30000E+00
         0.30000E+00
         0.30000E+00
         0.30000E+00
         0.30000E+00
         0.30000E+00
         0.30000E+00
         0.30000E+00
         0.30000E+00
         0.30000E+00
         0.30000E+00
         0.30000E+00
         0.30000E+00
         0.30000E+00
         0.30000E+00
         0.30000E+00
         0.30000E+00
         0.30000E+00
         0.30000E+00
         0.30000E+00
         0.30000E+00
         0.30000E+00
         0.30000E+00
         0.30000E+00
         0.30000E+00
         0.30000E+00
         0.30000E+00
         0.30000E+00
         0.30000E+00
         0.30000E+00
         0.30000E+00
         0.30000E+00
         0.30000E+00
         0.30000E+00
         0.30000E+00
         0.30000E+00
         0.30000E+00
         0.30000E+00
         0.30000E+00
         0.30000E+00
         0.30000E+00
         0.30000E+00
         0.30000E+00
         0.30000E+00
         0.30000E+00
         0.30000E+00
         0.30000E+00
         0.30000E+00
         0.30000E+00
         0.30000E+00
         0.30000E+00
         0.30000E+00
         0.30000E+00
         0.30000E+00
         0.30000E+00
         0.30000E+00
         0.30000E+00
         0.30000E+00
         0.30000E+00
         0.30000E+00
         0.30000E+00
         0.30000E+00
         0.30000E+00
         0.30000E+00
         0.30000E+00
         0.30000E+00
         0.30000E+00
         0.30000E+00
         0.30000E+00
         0.30000E+00
         0.30000E+00
         0.30000E+00
         0.30000E+00
         0.30000E+00
         0.30000E+00
         0.30000E+00
         0.30000E+00
         0.30000E+00
         0.30000E+00
         0.30000E+00
         0.30000E+00
         0.30000E+00
         0.30000E+00
         0.30000E+00
         0.30000E+00
         0.30000E+00
         0.30000E+00
         0.30000E+00
         0.30000E+00
         0.30000E+00
         0.30000E+00
         0.30000E+00
         0.30000E+00
         0.30000E+00
         0.30000E+00
         0.30000E+00
         0.30000E+00
         0.30000E+00
         0.30000E+00
         0.30000E+00
         0.30000E+00
         0.30000E+00
         0.30000E+00
         0.30000E+00
         0.30000E+00
         0.30000E+00
         0.30000E+00
         0.30000E+00
         0.30000E+00
         0.30000E+00
         0.30000E+00
         0.30000E+00
         0.30000E+00
         0.30000E+00
         0.30000E+00
         0.30000E+00
         0.30000E+00
         0.30000E+00
         0.30000E+00
         0.30000E+00
         0.30000E+00
         0.30000E+00
         0.30000E+00
         0.30000E+00
         0.30000E+00
         0.30000E+00
         0.30000E+00
         0.30000E+00
         0.30000E+00
         0.30000E+00
         0.30000E+00
         0.30000E+00
         0.30000E+00
         0.30000E+00
         0.30000E+00
         0.30000E+00
         0.30000E+00
         0.30000E+00
         0.30000E+00
         0.30000E+00
         0.30000E+00
         0.30000E+00
         0.30000E+00
         0.30000E+00
         0.30000E+00
         0.30000E+00
         0.30000E+00
         0.30000E+00
         0.30000E+00
         0.30000E+00
         0.30000E+00
         0.30000E+00
         0.30000E+00
         0.30000E+00
         0.30000E+00
         0.30000E+00
         0.30000E+00
         0.30000E+00
         0.30000E+00
         0.30000E+00
         0.30000E+00
         0.30000E+00
         0.30000E+00
         0.30000E+00
         0.30000E+00
         0.30000E+00
         0.30000E+00
         0.30000E+00
         0.30000E+00
         0.30000E+00
         0.30000E+00
         0.30000E+00
         0.30000E+00
         0.30000E+00
         0.30000E+00
         0.30000E+00
         0.30000E+00
         0.30000E+00
         0.30000E+00
         0.30000E+00
         0.30000E+00
         0.30000E+00
         0.30000E+00
         0.30000E+00
         0.30000E+00
         0.30000E+00
         0.30000E+00
         0.30000E+00
         0.30000E+00
         0.30000E+00
         0.30000E+00
         0.30000E+00
         0.30000E+00
         0.30000E+00
         0.30000E+00
         0.30000E+00
         0.30000E+00
         0.30000E+00
         0.30000E+00
         0.30000E+00
         0.30000E+00
         0.30000E+00
         0.30000E+00
         0.30000E+00
         0.30000E+00
         0.30000E+00
         0.30000E+00
         0.30000E+00
         0.30000E+00
         0.30000E+00
         0.30000E+00
         0.30000E+00
         0.30000E+00
         0.30000E+00
         0.30000E+00
         0.30000E+00
         0.30000E+00
         0.30000E+00
         0.30000E+00
         0.30000E+00
         0.30000E+00
         0.30000E+00
         0.30000E+00
         0.30000E+00
         0.30000E+00
         0.30000E+00
         0.30000E+00
         0.30000E+00
         0.30000E+00
         0.30000E+00
         0.30000E+00
         0.30000E+00
         0.30000E+00
         0.30000E+00
         0.30000E+00
         0.30000E+00
         0.30000E+00
         0.30000E+00
         0.30000E+00
         0.30000E+00
         0.30000E+00
         0.30000E+00
         0.30000E+00
         0.30000E+00
         0.30000E+00
         0.30000E+00
         0.30000E+00
         0.30000E+00
         0.30000E+00
         0.30000E+00
         0.30000E+00
         0.30000E+00
         0.30000E+00
         0.30000E+00
         0.30000E+00
         0.30000E+00
         0.30000E+00
         0.30000E+00
         0.30000E+00
         0.30000E+00
         0.30000E+00
         0.30000E+00
         0.30000E+00
         0.30000E+00
         0.30000E+00
         0.30000E+00
         0.30000E+00
         0.30000E+00
         0.30000E+00
         0.30000E+00
         0.30000E+00
         0.30000E+00
         0.30000E+00
         0.30000E+00
         0.30000E+00
         0.30000E+00
         0.30000E+00
         0.30000E+00
         0.30000E+00
         0.30000E+00
         0.30000E+00
         0.30000E+00
         0.30000E+00
         0.30000E+00
         0.30000E+00
         0.30000E+00
         0.30000E+00
         0.30000E+00
         0.30000E+00
         0.30000E+00
         0.30000E+00
         0.30000E+00
         0.30000E+00
         0.30000E+00
         0.30000E+00
         0.30000E+00
         0.30000E+00
         0.30000E+00
         0.30000E+00
         0.30000E+00
         0.30000E+00
         0.30000E+00
         0.30000E+00
         0.30000E+00
         0.30000E+00
         0.30000E+00
         0.30000E+00
         0.30000E+00
         0.30000E+00
         0.30000E+00
         0.30000E+00
         0.30000E+00
         0.30000E+00
         0.30000E+00
         0.30000E+00
         0.30000E+00
         0.30000E+00
         0.30000E+00
         0.30000E+00
         0.30000E+00
         0.30000E+00
         0.30000E+00
         0.30000E+00
         0.30000E+00
         0.30000E+00
         0.30000E+00
         0.30000E+00
         0.30000E+00
         0.30000E+00
         0.30000E+00
         0.30000E+00
         0.30000E+00
         0.30000E+00
         0.30000E+00
         0.30000E+00
         0.30000E+00
         0.30000E+00
         0.30000E+00
         0.30000E+00
         0.30000E+00
         0.30000E+00
         0.30000E+00
         0.30000E+00
         0.30000E+00
         0.30000E+00
         0.30000E+00
         0.30000E+00
         0.30000E+00
         0.30000E+00
         0.30000E+00
         0.30000E+00
         0.30000E+00
         0.30000E+00
         0.30000E+00
         0.30000E+00
         0.30000E+00
         0.30000E+00
         0.30000E+00
         0.30000E+00
         0.30000E+00
         0.30000E+00
         0.30000E+00
         0.30000E+00
         0.30000E+00
         0.30000E+00
         0.30000E+00
         0.30000E+00
         0.30000E+00
         0.30000E+00
         0.30000E+00
         0.30000E+00
         0.30000E+00
         0.30000E+00
         0.30000E+00
         0.30000E+00
         0.30000E+00
         0.30000E+00
         0.30000E+00
         0.30000E+00
         0.30000E+00
         0.30000E+00
         0.30000E+00
         0.30000E+00
         0.30000E+00
         0.30000E+00
         0.30000E+00
         0.30000E+00
         0.30000E+00
         0.30000E+00
         0.30000E+00
         0.30000E+00
         0.30000E+00
         0.30000E+00
         0.30000E+00
         0.30000E+00
         0.30000E+00
         0.30000E+00
         0.30000E+00
         0.30000E+00
         0.30000E+00
         0.30000E+00
         0.30000E+00
         0.30000E+00
         0.30000E+00
         0.30000E+00
         0.30000E+00
         0.30000E+00
         0.30000E+00
         0.30000E+00
         0.30000E+00
         0.30000E+00
         0.30000E+00
         0.30000E+00
         0.30000E+00
         0.30000E+00
         0.30000E+00
         0.30000E+00
         0.30000E+00
         0.30000E+00
         0.30000E+00
         0.30000E+00
         0.30000E+00
         0.30000E+00
         0.30000E+00
         0.30000E+00
         0.30000E+00
         0.30000E+00
         0.30000E+00
         0.30000E+00
         0.30000E+00
         0.30000E+00
         0.30000E+00
         0.30000E+00
         0.30000E+00
         0.30000E+00
         0.30000E+00
         0.30000E+00
         0.30000E+00
         0.30000E+00
         0.30000E+00
         0.30000E+00
         0.30000E+00
         0.30000E+00
         0.30000E+00
         0.30000E+00
         0.30000E+00
         0.30000E+00
         0.30000E+00
         0.30000E+00
         0.30000E+00
         0.30000E+00
         0.30000E+00
         0.30000E+00
         0.30000E+00
         0.30000E+00
         0.30000E+00
         0.30000E+00
         0.30000E+00
         0.30000E+00
         0.30000E+00
         0.30000E+00
         0.30000E+00
         0.30000E+00
         0.30000E+00
         0.30000E+00
         0.30000E+00
         0.30000E+00
         0.30000E+00
         0.30000E+00
         0.30000E+00
         0.30000E+00
         0.30000E+00
         0.30000E+00
         0.30000E+00
         0.30000E+00
         0.30000E+00
         0.30000E+00
         0.30000E+00
         0.30000E+00
         0.30000E+00
         0.30000E+00
         0.30000E+00
         0.30000E+00
         0.30000E+00
         0.30000E+00
         0.30000E+00
         0.30000E+00
         0.30000E+00
         0.30000E+00
         0.30000E+00
         0.30000E+00
         0.30000E+00
         0.30000E+00
         0.30000E+00
         0.30000E+00
         0.30000E+00
         0.30000E+00
         0.30000E+00
         0.30000E+00
         0.30000E+00
         0.30000E+00
         0.30000E+00
         0.30000E+00
         0.30000E+00
         0.30000E+00
         0.30000E+00
         0.30000E+00
         0.30000E+00
         0.30000E+00
         0.30000E+00
         0.30000E+00
         0.30000E+00
         0.30000E+00
         0.30000E+00
         0.30000E+00
         0.30000E+00
         0.30000E+00
         0.30000E+00
         0.30000E+00
         0.30000E+00
         0.30000E+00
         0.30000E+00
         0.30000E+00
         0.30000E+00
         0.30000E+00
         0.30000E+00
         0.30000E+00
         0.30000E+00
         0.30000E+00
         0.30000E+00
         0.30000E+00
         0.30000E+00
         0.30000E+00
         0.30000E+00
         0.30000E+00
         0.30000E+00
         0.30000E+00
         0.30000E+00
         0.30000E+00
         0.30000E+00
         0.30000E+00
         0.30000E+00
         0.30000E+00
         0.30000E+00
         0.30000E+00
         0.30000E+00
         0.30000E+00
         0.30000E+00
         0.30000E+00
         0.30000E+00
         0.30000E+00
         0.30000E+00
         0.30000E+00
         0.30000E+00
         0.30000E+00
         0.30000E+00
         0.30000E+00
         0.30000E+00
         0.30000E+00
         0.30000E+00
         0.30000E+00
         0.30000E+00
         0.30000E+00
         0.30000E+00
         0.30000E+00
         0.30000E+00
         0.30000E+00
         0.30000E+00
         0.30000E+00
         0.30000E+00
         0.30000E+00
         0.30000E+00
         0.30000E+00
         0.30000E+00
         0.30000E+00
         0.30000E+00
         0.30000E+00
         0.30000E+00
         0.30000E+00
         0.30000E+00
         0.30000E+00
         0.30000E+00
         0.30000E+00
         0.30000E+00
         0.30000E+00
         0.30000E+00
         0.30000E+00
         0.30000E+00
         0.30000E+00
         0.30000E+00
         0.30000E+00
         0.30000E+00
         0.30000E+00
         0.30000E+00
         0.30000E+00
         0.30000E+00
         0.30000E+00
         0.30000E+00
         0.30000E+00
         0.30000E+00
         0.30000E+00
         0.30000E+00
         0.30000E+00
         0.30000E+00
         0.30000E+00
         0.30000E+00
         0.30000E+00
         0.30000E+00
         0.30000E+00
         0.30000E+00
         0.30000E+00
         0.30000E+00
         0.30000E+00
         0.30000E+00
         0.30000E+00
         0.30000E+00
         0.30000E+00
         0.30000E+00
         0.30000E+00
         0.30000E+00
         0.30000E+00
         0.30000E+00
         0.30000E+00
         0.30000E+00
         0.30000E+00
         0.30000E+00
         0.30000E+00
         0.30000E+00
         0.30000E+00
         0.30000E+00
         0.30000E+00
         0.30000E+00
         0.30000E+00
         0.30000E+00
         0.30000E+00
         0.30000E+00
         0.30000E+00
         0.30000E+00
         0.30000E+00
         0.30000E+00
         0.30000E+00
         0.30000E+00
         0.30000E+00
         0.30000E+00
         0.30000E+00
         0.30000E+00
         0.30000E+00
         0.30000E+00
         0.30000E+00
         0.30000E+00
         0.30000E+00
         0.30000E+00
         0.30000E+00
         0.30000E+00
         0.30000E+00
         0.30000E+00
         0.30000E+00
         0.30000E+00
         0.30000E+00
         0.30000E+00
         0.30000E+00
         0.30000E+00
         0.30000E+00
         0.30000E+00
         0.30000E+00
         0.30000E+00
         0.30000E+00
         0.30000E+00
         0.30000E+00
         0.30000E+00
         0.30000E+00
         0.30000E+00
         0.30000E+00
         0.30000E+00
         0.30000E+00
         0.30000E+00
         0.30000E+00
         0.30000E+00
         0.30000E+00
         0.30000E+00
         0.30000E+00
         0.30000E+00
         0.30000E+00
         0.30000E+00
         0.30000E+00
         0.30000E+00
         0.30000E+00
         0.30000E+00
         0.30000E+00
         0.30000E+00
         0.30000E+00
         0.30000E+00
         0.30000E+00
         0.30000E+00
         0.30000E+00
         0.30000E+00
         0.30000E+00
         0.30000E+00
         0.30000E+00
         0.30000E+00
         0.30000E+00
         0.30000E+00
         0.30000E+00
         0.30000E+00
         0.30000E+00
         0.30000E+00
         0.30000E+00
         0.30000E+00
         0.30000E+00
         0.30000E+00
         0.30000E+00
         0.30000E+00
         0.30000E+00
         0.30000E+00
         0.30000E+00
         0.30000E+00
         0.30000E+00
         0.30000E+00
         0.30000E+00
         0.30000E+00
         0.30000E+00
         0.30000E+00
         0.30000E+00
         0.30000E+00
         0.30000E+00
         0.30000E+00
         0.30000E+00
         0.30000E+00
         0.30000E+00
         0.30000E+00
         0.30000E+00
         0.30000E+00
         0.30000E+00
         0.30000E+00
         0.30000E+00
         0.30000E+00
         0.30000E+00
         0.30000E+00
         0.30000E+00
         0.30000E+00
         0.30000E+00
         0.30000E+00
         0.30000E+00
         0.30000E+00
         0.30000E+00
         0.30000E+00
         0.30000E+00
         0.30000E+00
         0.30000E+00
         0.30000E+00
         0.30000E+00
         0.30000E+00
         0.30000E+00
         0.30000E+00
         0.30000E+00
         0.30000E+00
         0.30000E+00
         0.30000E+00
         0.30000E+00
         0.30000E+00
         0.30000E+00
         0.30000E+00
         0.30000E+00
         0.30000E+00
         0.30000E+00
         0.30000E+00
         0.30000E+00
         0.30000E+00
         0.30000E+00
         0.30000E+00
         0.30000E+00
         0.30000E+00
         0.30000E+00
         0.30000E+00
         0.30000E+00
         0.30000E+00
         0.30000E+00
         0.30000E+00
         0.30000E+00
         0.30000E+00
         0.30000E+00
         0.30000E+00
         0.30000E+00
         0.30000E+00
         0.30000E+00
         0.30000E+00
         0.30000E+00
         0.30000E+00
         0.30000E+00
         0.30000E+00
         0.30000E+00
         0.30000E+00
         0.30000E+00
         0.30000E+00
         0.30000E+00
         0.30000E+00
         0.30000E+00
         0.30000E+00
         0.30000E+00
         0.30000E+00
         0.30000E+00
         0.30000E+00
         0.30000E+00
         0.30000E+00
         0.30000E+00
         0.30000E+00
         0.30000E+00
         0.30000E+00
         0.30000E+00
         0.30000E+00
         0.30000E+00
         0.30000E+00
  
SCALARS                 Youngs_modulus  double 1
LOOKUP_TABLE default
         0.78200E+11
         0.78200E+11
         0.78200E+11
         0.78200E+11
         0.78200E+11
         0.78200E+11
         0.78200E+11
         0.78200E+11
         0.78200E+11
         0.78200E+11
         0.78200E+11
         0.78200E+11
         0.78200E+11
         0.78200E+11
         0.78200E+11
         0.78200E+11
         0.78200E+11
         0.78200E+11
         0.78200E+11
         0.78200E+11
         0.78200E+11
         0.78200E+11
         0.78200E+11
         0.78200E+11
         0.78200E+11
         0.78200E+11
         0.78200E+11
         0.78200E+11
         0.78200E+11
         0.78200E+11
         0.78200E+11
         0.78200E+11
         0.78200E+11
         0.78200E+11
         0.78200E+11
         0.78200E+11
         0.78200E+11
         0.78200E+11
         0.78200E+11
         0.78200E+11
         0.78200E+11
         0.78200E+11
         0.78200E+11
         0.78200E+11
         0.78200E+11
         0.78200E+11
         0.78200E+11
         0.78200E+11
         0.78200E+11
         0.78200E+11
         0.78200E+11
         0.78200E+11
         0.78200E+11
         0.78200E+11
         0.78200E+11
         0.78200E+11
         0.78200E+11
         0.78200E+11
         0.78200E+11
         0.78200E+11
         0.78200E+11
         0.78200E+11
         0.78200E+11
         0.78200E+11
         0.78200E+11
         0.78200E+11
         0.78200E+11
         0.78200E+11
         0.78200E+11
         0.78200E+11
         0.78200E+11
         0.78200E+11
         0.78200E+11
         0.78200E+11
         0.78200E+11
         0.78200E+11
         0.78200E+11
         0.78200E+11
         0.78200E+11
         0.78200E+11
         0.78200E+11
         0.78200E+11
         0.78200E+11
         0.78200E+11
         0.78200E+11
         0.78200E+11
         0.78200E+11
         0.78200E+11
         0.78200E+11
         0.78200E+11
         0.78200E+11
         0.78200E+11
         0.78200E+11
         0.78200E+11
         0.78200E+11
         0.78200E+11
         0.78200E+11
         0.78200E+11
         0.78200E+11
         0.78200E+11
         0.78200E+11
         0.78200E+11
         0.78200E+11
         0.78200E+11
         0.78200E+11
         0.78200E+11
         0.78200E+11
         0.78200E+11
         0.78200E+11
         0.78200E+11
         0.78200E+11
         0.78200E+11
         0.78200E+11
         0.78200E+11
         0.78200E+11
         0.78200E+11
         0.78200E+11
         0.78200E+11
         0.78200E+11
         0.78200E+11
         0.78200E+11
         0.78200E+11
         0.78200E+11
         0.78200E+11
         0.78200E+11
         0.78200E+11
         0.78200E+11
         0.78200E+11
         0.78200E+11
         0.78200E+11
         0.78200E+11
         0.78200E+11
         0.78200E+11
         0.78200E+11
         0.78200E+11
         0.78200E+11
         0.78200E+11
         0.78200E+11
         0.78200E+11
         0.78200E+11
         0.78200E+11
         0.78200E+11
         0.78200E+11
         0.78200E+11
         0.78200E+11
         0.78200E+11
         0.78200E+11
         0.78200E+11
         0.78200E+11
         0.78200E+11
         0.78200E+11
         0.78200E+11
         0.78200E+11
         0.78200E+11
         0.78200E+11
         0.78200E+11
         0.78200E+11
         0.78200E+11
         0.78200E+11
         0.78200E+11
         0.78200E+11
         0.78200E+11
         0.78200E+11
         0.78200E+11
         0.78200E+11
         0.78200E+11
         0.78200E+11
         0.78200E+11
         0.78200E+11
         0.78200E+11
         0.78200E+11
         0.78200E+11
         0.78200E+11
         0.78200E+11
         0.78200E+11
         0.78200E+11
         0.78200E+11
         0.78200E+11
         0.78200E+11
         0.78200E+11
         0.78200E+11
         0.78200E+11
         0.78200E+11
         0.78200E+11
         0.78200E+11
         0.78200E+11
         0.78200E+11
         0.78200E+11
         0.78200E+11
         0.78200E+11
         0.78200E+11
         0.78200E+11
         0.78200E+11
         0.78200E+11
         0.78200E+11
         0.78200E+11
         0.78200E+11
         0.78200E+11
         0.78200E+11
         0.78200E+11
         0.78200E+11
         0.78200E+11
         0.78200E+11
         0.78200E+11
         0.78200E+11
         0.78200E+11
         0.78200E+11
         0.78200E+11
         0.78200E+11
         0.78200E+11
         0.78200E+11
         0.78200E+11
         0.78200E+11
         0.78200E+11
         0.78200E+11
         0.78200E+11
         0.78200E+11
         0.78200E+11
         0.78200E+11
         0.78200E+11
         0.78200E+11
         0.78200E+11
         0.78200E+11
         0.78200E+11
         0.78200E+11
         0.78200E+11
         0.78200E+11
         0.78200E+11
         0.78200E+11
         0.78200E+11
         0.78200E+11
         0.78200E+11
         0.78200E+11
         0.78200E+11
         0.78200E+11
         0.78200E+11
         0.78200E+11
         0.78200E+11
         0.78200E+11
         0.78200E+11
         0.78200E+11
         0.78200E+11
         0.78200E+11
         0.78200E+11
         0.78200E+11
         0.78200E+11
         0.78200E+11
         0.78200E+11
         0.78200E+11
         0.78200E+11
         0.78200E+11
         0.78200E+11
         0.78200E+11
         0.78200E+11
         0.78200E+11
         0.78200E+11
         0.78200E+11
         0.78200E+11
         0.78200E+11
         0.78200E+11
         0.78200E+11
         0.78200E+11
         0.78200E+11
         0.78200E+11
         0.78200E+11
         0.78200E+11
         0.78200E+11
         0.78200E+11
         0.78200E+11
         0.78200E+11
         0.78200E+11
         0.78200E+11
         0.78200E+11
         0.78200E+11
         0.78200E+11
         0.78200E+11
         0.78200E+11
         0.78200E+11
         0.78200E+11
         0.78200E+11
         0.78200E+11
         0.78200E+11
         0.78200E+11
         0.78200E+11
         0.78200E+11
         0.78200E+11
         0.78200E+11
         0.78200E+11
         0.78200E+11
         0.78200E+11
         0.78200E+11
         0.78200E+11
         0.78200E+11
         0.78200E+11
         0.78200E+11
         0.78200E+11
         0.78200E+11
         0.78200E+11
         0.78200E+11
         0.78200E+11
         0.78200E+11
         0.78200E+11
         0.78200E+11
         0.78200E+11
         0.78200E+11
         0.78200E+11
         0.78200E+11
         0.78200E+11
         0.78200E+11
         0.78200E+11
         0.78200E+11
         0.78200E+11
         0.78200E+11
         0.78200E+11
         0.78200E+11
         0.78200E+11
         0.78200E+11
         0.78200E+11
         0.78200E+11
         0.78200E+11
         0.78200E+11
         0.78200E+11
         0.78200E+11
         0.78200E+11
         0.78200E+11
         0.78200E+11
         0.78200E+11
         0.78200E+11
         0.78200E+11
         0.78200E+11
         0.78200E+11
         0.78200E+11
         0.78200E+11
         0.78200E+11
         0.78200E+11
         0.78200E+11
         0.78200E+11
         0.78200E+11
         0.78200E+11
         0.78200E+11
         0.78200E+11
         0.78200E+11
         0.78200E+11
         0.78200E+11
         0.78200E+11
         0.78200E+11
         0.78200E+11
         0.78200E+11
         0.78200E+11
         0.78200E+11
         0.78200E+11
         0.78200E+11
         0.78200E+11
         0.78200E+11
         0.78200E+11
         0.78200E+11
         0.78200E+11
         0.78200E+11
         0.78200E+11
         0.78200E+11
         0.78200E+11
         0.78200E+11
         0.78200E+11
         0.78200E+11
         0.78200E+11
         0.78200E+11
         0.78200E+11
         0.78200E+11
         0.78200E+11
         0.78200E+11
         0.78200E+11
         0.78200E+11
         0.78200E+11
         0.78200E+11
         0.78200E+11
         0.78200E+11
         0.78200E+11
         0.78200E+11
         0.78200E+11
         0.78200E+11
         0.78200E+11
         0.78200E+11
         0.78200E+11
         0.78200E+11
         0.78200E+11
         0.78200E+11
         0.78200E+11
         0.78200E+11
         0.78200E+11
         0.78200E+11
         0.78200E+11
         0.78200E+11
         0.78200E+11
         0.78200E+11
         0.78200E+11
         0.78200E+11
         0.78200E+11
         0.78200E+11
         0.78200E+11
         0.78200E+11
         0.78200E+11
         0.78200E+11
         0.78200E+11
         0.78200E+11
         0.78200E+11
         0.78200E+11
         0.78200E+11
         0.78200E+11
         0.78200E+11
         0.78200E+11
         0.78200E+11
         0.78200E+11
         0.78200E+11
         0.78200E+11
         0.78200E+11
         0.78200E+11
         0.78200E+11
         0.78200E+11
         0.78200E+11
         0.78200E+11
         0.78200E+11
         0.78200E+11
         0.78200E+11
         0.78200E+11
         0.78200E+11
         0.78200E+11
         0.78200E+11
         0.78200E+11
         0.78200E+11
         0.78200E+11
         0.78200E+11
         0.78200E+11
         0.78200E+11
         0.78200E+11
         0.78200E+11
         0.78200E+11
         0.78200E+11
         0.78200E+11
         0.78200E+11
         0.78200E+11
         0.78200E+11
         0.78200E+11
         0.78200E+11
         0.78200E+11
         0.78200E+11
         0.78200E+11
         0.78200E+11
         0.78200E+11
         0.78200E+11
         0.78200E+11
         0.78200E+11
         0.78200E+11
         0.78200E+11
         0.78200E+11
         0.78200E+11
         0.78200E+11
         0.78200E+11
         0.78200E+11
         0.78200E+11
         0.78200E+11
         0.78200E+11
         0.78200E+11
         0.78200E+11
         0.78200E+11
         0.78200E+11
         0.78200E+11
         0.78200E+11
         0.78200E+11
         0.78200E+11
         0.78200E+11
         0.78200E+11
         0.78200E+11
         0.78200E+11
         0.78200E+11
         0.78200E+11
         0.78200E+11
         0.78200E+11
         0.78200E+11
         0.78200E+11
         0.78200E+11
         0.78200E+11
         0.78200E+11
         0.78200E+11
         0.78200E+11
         0.78200E+11
         0.78200E+11
         0.78200E+11
         0.78200E+11
         0.78200E+11
         0.78200E+11
         0.78200E+11
         0.78200E+11
         0.78200E+11
         0.78200E+11
         0.78200E+11
         0.78200E+11
         0.78200E+11
         0.78200E+11
         0.78200E+11
         0.78200E+11
         0.78200E+11
         0.78200E+11
         0.78200E+11
         0.78200E+11
         0.78200E+11
         0.78200E+11
         0.78200E+11
         0.78200E+11
         0.78200E+11
         0.78200E+11
         0.78200E+11
         0.78200E+11
         0.78200E+11
         0.78200E+11
         0.78200E+11
         0.78200E+11
         0.78200E+11
         0.78200E+11
         0.78200E+11
         0.78200E+11
         0.78200E+11
         0.78200E+11
         0.78200E+11
         0.78200E+11
         0.78200E+11
         0.78200E+11
         0.78200E+11
         0.78200E+11
         0.78200E+11
         0.78200E+11
         0.78200E+11
         0.78200E+11
         0.78200E+11
         0.78200E+11
         0.78200E+11
         0.78200E+11
         0.78200E+11
         0.78200E+11
         0.78200E+11
         0.78200E+11
         0.78200E+11
         0.78200E+11
         0.78200E+11
         0.78200E+11
         0.78200E+11
         0.78200E+11
         0.78200E+11
         0.78200E+11
         0.78200E+11
         0.78200E+11
         0.78200E+11
         0.78200E+11
         0.78200E+11
         0.78200E+11
         0.78200E+11
         0.78200E+11
         0.78200E+11
         0.78200E+11
         0.78200E+11
         0.78200E+11
         0.78200E+11
         0.78200E+11
         0.78200E+11
         0.78200E+11
         0.78200E+11
         0.78200E+11
         0.78200E+11
         0.78200E+11
         0.78200E+11
         0.78200E+11
         0.78200E+11
         0.78200E+11
         0.78200E+11
         0.78200E+11
         0.78200E+11
         0.78200E+11
         0.78200E+11
         0.78200E+11
         0.78200E+11
         0.78200E+11
         0.78200E+11
         0.78200E+11
         0.78200E+11
         0.78200E+11
         0.78200E+11
         0.78200E+11
         0.78200E+11
         0.78200E+11
         0.78200E+11
         0.78200E+11
         0.78200E+11
         0.78200E+11
         0.78200E+11
         0.78200E+11
         0.78200E+11
         0.78200E+11
         0.78200E+11
         0.78200E+11
         0.78200E+11
         0.78200E+11
         0.78200E+11
         0.78200E+11
         0.78200E+11
         0.78200E+11
         0.78200E+11
         0.78200E+11
         0.78200E+11
         0.78200E+11
         0.78200E+11
         0.78200E+11
         0.78200E+11
         0.78200E+11
         0.78200E+11
         0.78200E+11
         0.78200E+11
         0.78200E+11
         0.78200E+11
         0.78200E+11
         0.78200E+11
         0.78200E+11
         0.78200E+11
         0.78200E+11
         0.78200E+11
         0.78200E+11
         0.78200E+11
         0.78200E+11
         0.78200E+11
         0.78200E+11
         0.78200E+11
         0.78200E+11
         0.78200E+11
         0.78200E+11
         0.78200E+11
         0.78200E+11
         0.78200E+11
         0.78200E+11
         0.78200E+11
         0.78200E+11
         0.78200E+11
         0.78200E+11
         0.78200E+11
         0.78200E+11
         0.78200E+11
         0.78200E+11
         0.78200E+11
         0.78200E+11
         0.78200E+11
         0.78200E+11
         0.78200E+11
         0.78200E+11
         0.78200E+11
         0.78200E+11
         0.78200E+11
         0.78200E+11
         0.78200E+11
         0.78200E+11
         0.78200E+11
         0.78200E+11
         0.78200E+11
         0.78200E+11
         0.78200E+11
         0.78200E+11
         0.78200E+11
         0.78200E+11
         0.78200E+11
         0.78200E+11
         0.78200E+11
         0.78200E+11
         0.78200E+11
         0.78200E+11
         0.78200E+11
         0.78200E+11
         0.78200E+11
         0.78200E+11
         0.78200E+11
         0.78200E+11
         0.78200E+11
         0.78200E+11
         0.78200E+11
         0.78200E+11
         0.78200E+11
         0.78200E+11
         0.78200E+11
         0.78200E+11
         0.78200E+11
         0.78200E+11
         0.78200E+11
         0.78200E+11
         0.78200E+11
         0.78200E+11
         0.78200E+11
         0.78200E+11
         0.78200E+11
         0.78200E+11
         0.78200E+11
         0.78200E+11
         0.78200E+11
         0.78200E+11
         0.78200E+11
         0.78200E+11
         0.78200E+11
         0.78200E+11
         0.78200E+11
         0.78200E+11
         0.78200E+11
         0.78200E+11
         0.78200E+11
         0.78200E+11
         0.78200E+11
         0.78200E+11
         0.78200E+11
         0.78200E+11
         0.78200E+11
         0.78200E+11
         0.78200E+11
         0.78200E+11
         0.78200E+11
         0.78200E+11
         0.78200E+11
         0.78200E+11
         0.78200E+11
         0.78200E+11
         0.78200E+11
         0.78200E+11
         0.78200E+11
         0.78200E+11
         0.78200E+11
         0.78200E+11
         0.78200E+11
         0.78200E+11
         0.78200E+11
         0.78200E+11
         0.78200E+11
         0.78200E+11
         0.78200E+11
         0.78200E+11
         0.78200E+11
         0.78200E+11
         0.78200E+11
         0.78200E+11
         0.78200E+11
         0.78200E+11
         0.78200E+11
         0.78200E+11
         0.78200E+11
         0.78200E+11
         0.78200E+11
         0.78200E+11
         0.78200E+11
         0.78200E+11
         0.78200E+11
         0.78200E+11
         0.78200E+11
         0.78200E+11
         0.78200E+11
         0.78200E+11
         0.78200E+11
         0.78200E+11
         0.78200E+11
         0.78200E+11
         0.78200E+11
         0.78200E+11
         0.78200E+11
         0.78200E+11
         0.78200E+11
         0.78200E+11
         0.78200E+11
         0.78200E+11
         0.78200E+11
         0.78200E+11
         0.78200E+11
         0.78200E+11
         0.78200E+11
         0.78200E+11
         0.78200E+11
         0.78200E+11
         0.78200E+11
         0.78200E+11
         0.78200E+11
         0.78200E+11
         0.78200E+11
         0.78200E+11
         0.78200E+11
         0.78200E+11
         0.78200E+11
         0.78200E+11
         0.78200E+11
         0.78200E+11
         0.78200E+11
         0.78200E+11
         0.78200E+11
         0.78200E+11
         0.78200E+11
         0.78200E+11
         0.78200E+11
         0.78200E+11
         0.78200E+11
         0.78200E+11
         0.78200E+11
         0.78200E+11
         0.78200E+11
         0.78200E+11
         0.78200E+11
         0.78200E+11
         0.78200E+11
         0.78200E+11
         0.78200E+11
         0.78200E+11
         0.78200E+11
         0.78200E+11
         0.78200E+11
         0.78200E+11
         0.78200E+11
         0.78200E+11
         0.78200E+11
         0.78200E+11
         0.78200E+11
         0.78200E+11
         0.78200E+11
         0.78200E+11
         0.78200E+11
         0.78200E+11
         0.78200E+11
         0.78200E+11
         0.78200E+11
         0.78200E+11
         0.78200E+11
         0.78200E+11
         0.78200E+11
         0.78200E+11
         0.78200E+11
         0.78200E+11
         0.78200E+11
         0.78200E+11
         0.78200E+11
         0.78200E+11
         0.78200E+11
         0.78200E+11
         0.78200E+11
         0.78200E+11
         0.78200E+11
         0.78200E+11
         0.78200E+11
         0.78200E+11
         0.78200E+11
         0.78200E+11
         0.78200E+11
         0.78200E+11
         0.78200E+11
         0.78200E+11
         0.78200E+11
         0.78200E+11
         0.78200E+11
         0.78200E+11
         0.78200E+11
         0.78200E+11
         0.78200E+11
         0.78200E+11
         0.78200E+11
         0.78200E+11
         0.78200E+11
         0.78200E+11
         0.78200E+11
         0.78200E+11
         0.78200E+11
         0.78200E+11
         0.78200E+11
         0.78200E+11
         0.78200E+11
         0.78200E+11
         0.78200E+11
         0.78200E+11
         0.78200E+11
         0.78200E+11
         0.78200E+11
         0.78200E+11
         0.78200E+11
         0.78200E+11
         0.78200E+11
         0.78200E+11
         0.78200E+11
         0.78200E+11
         0.78200E+11
         0.78200E+11
         0.78200E+11
         0.78200E+11
         0.78200E+11
         0.78200E+11
         0.78200E+11
         0.78200E+11
         0.78200E+11
         0.78200E+11
         0.78200E+11
         0.78200E+11
         0.78200E+11
         0.78200E+11
         0.78200E+11
         0.78200E+11
         0.78200E+11
         0.78200E+11
         0.78200E+11
         0.78200E+11
         0.78200E+11
         0.78200E+11
         0.78200E+11
         0.78200E+11
         0.78200E+11
         0.78200E+11
         0.78200E+11
         0.78200E+11
         0.78200E+11
         0.78200E+11
         0.78200E+11
         0.78200E+11
         0.78200E+11
         0.78200E+11
         0.78200E+11
         0.78200E+11
         0.78200E+11
         0.78200E+11
         0.78200E+11
         0.78200E+11
         0.78200E+11
         0.78200E+11
         0.78200E+11
         0.78200E+11
         0.78200E+11
         0.78200E+11
         0.78200E+11
         0.78200E+11
         0.78200E+11
         0.78200E+11
         0.78200E+11
         0.78200E+11
         0.78200E+11
         0.78200E+11
         0.78200E+11
         0.78200E+11
         0.78200E+11
         0.78200E+11
         0.78200E+11
         0.78200E+11
         0.78200E+11
         0.78200E+11
         0.78200E+11
         0.78200E+11
         0.78200E+11
         0.78200E+11
         0.78200E+11
         0.78200E+11
         0.78200E+11
         0.78200E+11
         0.78200E+11
         0.78200E+11
         0.78200E+11
         0.78200E+11
         0.78200E+11
         0.78200E+11
         0.78200E+11
         0.78200E+11
         0.78200E+11
         0.78200E+11
         0.78200E+11
         0.78200E+11
         0.78200E+11
         0.78200E+11
         0.78200E+11
         0.78200E+11
         0.78200E+11
         0.78200E+11
         0.78200E+11
         0.78200E+11
         0.78200E+11
         0.78200E+11
         0.78200E+11
         0.78200E+11
         0.78200E+11
         0.78200E+11
         0.78200E+11
         0.78200E+11
         0.78200E+11
         0.78200E+11
         0.78200E+11
         0.78200E+11
         0.78200E+11
         0.78200E+11
         0.78200E+11
         0.78200E+11
         0.78200E+11
         0.78200E+11
         0.78200E+11
         0.78200E+11
         0.78200E+11
         0.78200E+11
         0.78200E+11
         0.78200E+11
         0.78200E+11
         0.78200E+11
         0.78200E+11
         0.78200E+11
         0.78200E+11
         0.78200E+11
         0.78200E+11
         0.78200E+11
         0.78200E+11
         0.78200E+11
         0.78200E+11
         0.78200E+11
         0.78200E+11
         0.78200E+11
         0.78200E+11
         0.78200E+11
         0.78200E+11
         0.78200E+11
         0.78200E+11
         0.78200E+11
         0.78200E+11
         0.78200E+11
         0.78200E+11
         0.78200E+11
         0.78200E+11
         0.78200E+11
         0.78200E+11
         0.78200E+11
         0.78200E+11
         0.78200E+11
         0.78200E+11
         0.78200E+11
         0.78200E+11
         0.78200E+11
         0.78200E+11
         0.78200E+11
         0.78200E+11
         0.78200E+11
         0.78200E+11
         0.78200E+11
         0.78200E+11
         0.78200E+11
         0.78200E+11
         0.78200E+11
         0.78200E+11
         0.78200E+11
         0.78200E+11
         0.78200E+11
         0.78200E+11
         0.78200E+11
         0.78200E+11
         0.78200E+11
         0.78200E+11
         0.78200E+11
         0.78200E+11
         0.78200E+11
         0.78200E+11
         0.78200E+11
         0.78200E+11
         0.78200E+11
         0.78200E+11
         0.78200E+11
         0.78200E+11
         0.78200E+11
         0.78200E+11
         0.78200E+11
         0.78200E+11
         0.78200E+11
         0.78200E+11
         0.78200E+11
         0.78200E+11
         0.78200E+11
         0.78200E+11
         0.78200E+11
         0.78200E+11
         0.78200E+11
         0.78200E+11
         0.78200E+11
         0.78200E+11
         0.78200E+11
         0.78200E+11
         0.78200E+11
         0.78200E+11
         0.78200E+11
         0.78200E+11
         0.78200E+11
         0.78200E+11
         0.78200E+11
         0.78200E+11
         0.78200E+11
         0.78200E+11
         0.78200E+11
         0.78200E+11
         0.78200E+11
         0.78200E+11
         0.78200E+11
         0.78200E+11
         0.78200E+11
         0.78200E+11
         0.78200E+11
         0.78200E+11
         0.78200E+11
         0.78200E+11
         0.78200E+11
         0.78200E+11
         0.78200E+11
         0.78200E+11
         0.78200E+11
         0.78200E+11
         0.78200E+11
         0.78200E+11
         0.78200E+11
         0.78200E+11
         0.78200E+11
         0.78200E+11
         0.78200E+11
         0.78200E+11
         0.78200E+11
         0.78200E+11
         0.78200E+11
         0.78200E+11
         0.78200E+11
         0.78200E+11
         0.78200E+11
         0.78200E+11
         0.78200E+11
         0.78200E+11
         0.78200E+11
         0.78200E+11
         0.78200E+11
         0.78200E+11
         0.78200E+11
         0.78200E+11
         0.78200E+11
         0.78200E+11
         0.78200E+11
         0.78200E+11
         0.78200E+11
         0.78200E+11
         0.78200E+11
         0.78200E+11
         0.78200E+11
         0.78200E+11
         0.78200E+11
         0.78200E+11
         0.78200E+11
         0.78200E+11
         0.78200E+11
         0.78200E+11
         0.78200E+11
         0.78200E+11
         0.78200E+11
         0.78200E+11
         0.78200E+11
         0.78200E+11
         0.78200E+11
         0.78200E+11
         0.78200E+11
         0.78200E+11
         0.78200E+11
         0.78200E+11
         0.78200E+11
         0.78200E+11
         0.78200E+11
         0.78200E+11
         0.78200E+11
         0.78200E+11
         0.78200E+11
         0.78200E+11
         0.78200E+11
         0.78200E+11
         0.78200E+11
         0.78200E+11
         0.78200E+11
         0.78200E+11
         0.78200E+11
         0.78200E+11
         0.78200E+11
         0.78200E+11
         0.78200E+11
         0.78200E+11
         0.78200E+11
         0.78200E+11
         0.78200E+11
         0.78200E+11
         0.78200E+11
         0.78200E+11
         0.78200E+11
         0.78200E+11
         0.78200E+11
         0.78200E+11
         0.78200E+11
         0.78200E+11
         0.78200E+11
         0.78200E+11
         0.78200E+11
         0.78200E+11
         0.78200E+11
         0.78200E+11
         0.78200E+11
         0.78200E+11
         0.78200E+11
         0.78200E+11
         0.78200E+11
         0.78200E+11
         0.78200E+11
         0.78200E+11
         0.78200E+11
         0.78200E+11
         0.78200E+11
         0.78200E+11
         0.78200E+11
         0.78200E+11
         0.78200E+11
         0.78200E+11
         0.78200E+11
         0.78200E+11
         0.78200E+11
         0.78200E+11
         0.78200E+11
         0.78200E+11
         0.78200E+11
         0.78200E+11
         0.78200E+11
         0.78200E+11
         0.78200E+11
         0.78200E+11
         0.78200E+11
         0.78200E+11
         0.78200E+11
         0.78200E+11
         0.78200E+11
         0.78200E+11
         0.78200E+11
         0.78200E+11
         0.78200E+11
         0.78200E+11
         0.78200E+11
         0.78200E+11
         0.78200E+11
         0.78200E+11
         0.78200E+11
         0.78200E+11
         0.78200E+11
         0.78200E+11
         0.78200E+11
         0.78200E+11
         0.78200E+11
         0.78200E+11
         0.78200E+11
         0.78200E+11
         0.78200E+11
         0.78200E+11
         0.78200E+11
         0.78200E+11
         0.78200E+11
         0.78200E+11
         0.78200E+11
         0.78200E+11
         0.78200E+11
         0.78200E+11
         0.78200E+11
         0.78200E+11
         0.78200E+11
         0.78200E+11
         0.78200E+11
         0.78200E+11
         0.78200E+11
         0.78200E+11
         0.78200E+11
         0.78200E+11
         0.78200E+11
         0.78200E+11
         0.78200E+11
         0.78200E+11
         0.78200E+11
         0.78200E+11
         0.78200E+11
         0.78200E+11
         0.78200E+11
         0.78200E+11
         0.78200E+11
         0.78200E+11
         0.78200E+11
         0.78200E+11
         0.78200E+11
         0.78200E+11
         0.78200E+11
         0.78200E+11
         0.78200E+11
         0.78200E+11
         0.78200E+11
         0.78200E+11
         0.78200E+11
         0.78200E+11
         0.78200E+11
         0.78200E+11
         0.78200E+11
         0.78200E+11
         0.78200E+11
         0.78200E+11
         0.78200E+11
         0.78200E+11
         0.78200E+11
         0.78200E+11
         0.78200E+11
         0.78200E+11
         0.78200E+11
         0.78200E+11
         0.78200E+11
         0.78200E+11
         0.78200E+11
         0.78200E+11
         0.78200E+11
         0.78200E+11
         0.78200E+11
         0.78200E+11
         0.78200E+11
         0.78200E+11
         0.78200E+11
         0.78200E+11
         0.78200E+11
         0.78200E+11
         0.78200E+11
         0.78200E+11
         0.78200E+11
         0.78200E+11
         0.78200E+11
         0.78200E+11
         0.78200E+11
         0.78200E+11
         0.78200E+11
         0.78200E+11
         0.78200E+11
         0.78200E+11
         0.78200E+11
         0.78200E+11
         0.78200E+11
         0.78200E+11
         0.78200E+11
         0.78200E+11
         0.78200E+11
         0.78200E+11
         0.78200E+11
         0.78200E+11
         0.78200E+11
         0.78200E+11
         0.78200E+11
         0.78200E+11
         0.78200E+11
         0.78200E+11
         0.78200E+11
         0.78200E+11
         0.78200E+11
         0.78200E+11
         0.78200E+11
         0.78200E+11
         0.78200E+11
         0.78200E+11
         0.78200E+11
         0.78200E+11
         0.78200E+11
         0.78200E+11
         0.78200E+11
         0.78200E+11
         0.78200E+11
         0.78200E+11
         0.78200E+11
         0.78200E+11
         0.78200E+11
         0.78200E+11
         0.78200E+11
         0.78200E+11
         0.78200E+11
         0.78200E+11
         0.78200E+11
         0.78200E+11
         0.78200E+11
         0.78200E+11
         0.78200E+11
         0.78200E+11
         0.78200E+11
         0.78200E+11
         0.78200E+11
         0.78200E+11
         0.78200E+11
         0.78200E+11
         0.78200E+11
         0.78200E+11
         0.78200E+11
         0.78200E+11
         0.78200E+11
         0.78200E+11
         0.78200E+11
         0.78200E+11
         0.78200E+11
         0.78200E+11
         0.78200E+11
         0.78200E+11
         0.78200E+11
         0.78200E+11
         0.78200E+11
         0.78200E+11
         0.78200E+11
         0.78200E+11
         0.78200E+11
         0.78200E+11
         0.78200E+11
         0.78200E+11
         0.78200E+11
         0.78200E+11
         0.78200E+11
         0.78200E+11
         0.78200E+11
         0.78200E+11
         0.78200E+11
         0.78200E+11
         0.78200E+11
         0.78200E+11
         0.78200E+11
         0.78200E+11
         0.78200E+11
         0.78200E+11
         0.78200E+11
         0.78200E+11
         0.78200E+11
         0.78200E+11
         0.78200E+11
         0.78200E+11
         0.78200E+11
         0.78200E+11
         0.78200E+11
         0.78200E+11
         0.78200E+11
         0.78200E+11
         0.78200E+11
         0.78200E+11
         0.78200E+11
         0.78200E+11
         0.78200E+11
         0.78200E+11
         0.78200E+11
         0.78200E+11
         0.78200E+11
         0.78200E+11
         0.78200E+11
         0.78200E+11
         0.78200E+11
         0.78200E+11
         0.78200E+11
         0.78200E+11
         0.78200E+11
         0.78200E+11
         0.78200E+11
         0.78200E+11
         0.78200E+11
         0.78200E+11
         0.78200E+11
         0.78200E+11
         0.78200E+11
         0.78200E+11
         0.78200E+11
         0.78200E+11
         0.78200E+11
         0.78200E+11
         0.78200E+11
         0.78200E+11
         0.78200E+11
         0.78200E+11
         0.78200E+11
         0.78200E+11
         0.78200E+11
         0.78200E+11
         0.78200E+11
         0.78200E+11
         0.78200E+11
         0.78200E+11
         0.78200E+11
         0.78200E+11
         0.78200E+11
         0.78200E+11
         0.78200E+11
         0.78200E+11
         0.78200E+11
         0.78200E+11
         0.78200E+11
         0.78200E+11
         0.78200E+11
         0.78200E+11
         0.78200E+11
         0.78200E+11
         0.78200E+11
         0.78200E+11
         0.78200E+11
         0.78200E+11
         0.78200E+11
         0.78200E+11
         0.78200E+11
         0.78200E+11
         0.78200E+11
         0.78200E+11
         0.78200E+11
         0.78200E+11
         0.78200E+11
         0.78200E+11
         0.78200E+11
         0.78200E+11
         0.78200E+11
         0.78200E+11
         0.78200E+11
         0.78200E+11
         0.78200E+11
         0.78200E+11
         0.78200E+11
         0.78200E+11
         0.78200E+11
         0.78200E+11
         0.78200E+11
         0.78200E+11
         0.78200E+11
         0.78200E+11
         0.78200E+11
         0.78200E+11
         0.78200E+11
         0.78200E+11
         0.78200E+11
         0.78200E+11
         0.78200E+11
         0.78200E+11
         0.78200E+11
         0.78200E+11
         0.78200E+11
         0.78200E+11
         0.78200E+11
         0.78200E+11
         0.78200E+11
         0.78200E+11
         0.78200E+11
         0.78200E+11
         0.78200E+11
         0.78200E+11
         0.78200E+11
         0.78200E+11
         0.78200E+11
         0.78200E+11
         0.78200E+11
         0.78200E+11
         0.78200E+11
         0.78200E+11
         0.78200E+11
         0.78200E+11
         0.78200E+11
         0.78200E+11
         0.78200E+11
         0.78200E+11
         0.78200E+11
         0.78200E+11
         0.78200E+11
         0.78200E+11
         0.78200E+11
         0.78200E+11
         0.78200E+11
         0.78200E+11
         0.78200E+11
         0.78200E+11
         0.78200E+11
         0.78200E+11
         0.78200E+11
         0.78200E+11
         0.78200E+11
         0.78200E+11
         0.78200E+11
         0.78200E+11
         0.78200E+11
         0.78200E+11
         0.78200E+11
         0.78200E+11
         0.78200E+11
         0.78200E+11
         0.78200E+11
         0.78200E+11
         0.78200E+11
         0.78200E+11
         0.78200E+11
         0.78200E+11
         0.78200E+11
         0.78200E+11
         0.78200E+11
         0.78200E+11
         0.78200E+11
         0.78200E+11
         0.78200E+11
         0.78200E+11
         0.78200E+11
         0.78200E+11
         0.78200E+11
         0.78200E+11
         0.78200E+11
         0.78200E+11
         0.78200E+11
         0.78200E+11
         0.78200E+11
         0.78200E+11
         0.78200E+11
         0.78200E+11
         0.78200E+11
         0.78200E+11
         0.78200E+11
         0.78200E+11
         0.78200E+11
         0.78200E+11
         0.78200E+11
         0.78200E+11
         0.78200E+11
         0.78200E+11
         0.78200E+11
         0.78200E+11
         0.78200E+11
         0.78200E+11
         0.78200E+11
         0.78200E+11
         0.78200E+11
         0.78200E+11
         0.78200E+11
         0.78200E+11
         0.78200E+11
         0.78200E+11
         0.78200E+11
         0.78200E+11
         0.78200E+11
         0.78200E+11
         0.78200E+11
         0.78200E+11
         0.78200E+11
         0.78200E+11
         0.78200E+11
         0.78200E+11
         0.78200E+11
         0.78200E+11
         0.78200E+11
         0.78200E+11
         0.78200E+11
         0.78200E+11
         0.78200E+11
         0.78200E+11
         0.78200E+11
         0.78200E+11
         0.78200E+11
         0.78200E+11
         0.78200E+11
         0.78200E+11
         0.78200E+11
         0.78200E+11
         0.78200E+11
         0.78200E+11
         0.78200E+11
         0.78200E+11
         0.78200E+11
         0.78200E+11
         0.78200E+11
         0.78200E+11
         0.78200E+11
         0.78200E+11
         0.78200E+11
         0.78200E+11
         0.78200E+11
         0.78200E+11
         0.78200E+11
         0.78200E+11
         0.78200E+11
         0.78200E+11
         0.78200E+11
         0.78200E+11
         0.78200E+11
         0.78200E+11
         0.78200E+11
         0.78200E+11
         0.78200E+11
         0.78200E+11
         0.78200E+11
         0.78200E+11
         0.78200E+11
         0.78200E+11
         0.78200E+11
         0.78200E+11
         0.78200E+11
         0.78200E+11
         0.78200E+11
         0.78200E+11
         0.78200E+11
         0.78200E+11
         0.78200E+11
         0.78200E+11
         0.78200E+11
         0.78200E+11
         0.78200E+11
         0.78200E+11
         0.78200E+11
         0.78200E+11
         0.78200E+11
         0.78200E+11
         0.78200E+11
         0.78200E+11
         0.78200E+11
         0.78200E+11
         0.78200E+11
         0.78200E+11
         0.78200E+11
         0.78200E+11
         0.78200E+11
         0.78200E+11
         0.78200E+11
         0.78200E+11
         0.78200E+11
         0.78200E+11
         0.78200E+11
         0.78200E+11
         0.78200E+11
         0.78200E+11
         0.78200E+11
         0.78200E+11
         0.78200E+11
         0.78200E+11
         0.78200E+11
         0.78200E+11
         0.78200E+11
         0.78200E+11
         0.78200E+11
         0.78200E+11
         0.78200E+11
         0.78200E+11
         0.78200E+11
         0.78200E+11
         0.78200E+11
         0.78200E+11
         0.78200E+11
         0.78200E+11
         0.78200E+11
         0.78200E+11
         0.78200E+11
         0.78200E+11
         0.78200E+11
         0.78200E+11
         0.78200E+11
         0.78200E+11
         0.78200E+11
         0.78200E+11
         0.78200E+11
         0.78200E+11
         0.78200E+11
         0.78200E+11
         0.78200E+11
         0.78200E+11
         0.78200E+11
         0.78200E+11
         0.78200E+11
         0.78200E+11
         0.78200E+11
         0.78200E+11
         0.78200E+11
         0.78200E+11
         0.78200E+11
         0.78200E+11
         0.78200E+11
         0.78200E+11
         0.78200E+11
         0.78200E+11
         0.78200E+11
         0.78200E+11
         0.78200E+11
         0.78200E+11
         0.78200E+11
         0.78200E+11
         0.78200E+11
         0.78200E+11
         0.78200E+11
         0.78200E+11
         0.78200E+11
         0.78200E+11
         0.78200E+11
         0.78200E+11
         0.78200E+11
         0.78200E+11
         0.78200E+11
         0.78200E+11
         0.78200E+11
         0.78200E+11
         0.78200E+11
         0.78200E+11
         0.78200E+11
         0.78200E+11
         0.78200E+11
         0.78200E+11
         0.78200E+11
         0.78200E+11
         0.78200E+11
         0.78200E+11
         0.78200E+11
         0.78200E+11
         0.78200E+11
         0.78200E+11
         0.78200E+11
         0.78200E+11
         0.78200E+11
         0.78200E+11
         0.78200E+11
         0.78200E+11
         0.78200E+11
         0.78200E+11
         0.78200E+11
         0.78200E+11
         0.78200E+11
         0.78200E+11
         0.78200E+11
         0.78200E+11
         0.78200E+11
         0.78200E+11
         0.78200E+11
         0.78200E+11
         0.78200E+11
         0.78200E+11
         0.78200E+11
         0.78200E+11
         0.78200E+11
         0.78200E+11
         0.78200E+11
         0.78200E+11
         0.78200E+11
         0.78200E+11
         0.78200E+11
         0.78200E+11
         0.78200E+11
         0.78200E+11
         0.78200E+11
         0.78200E+11
         0.78200E+11
         0.78200E+11
         0.78200E+11
         0.78200E+11
         0.78200E+11
         0.78200E+11
         0.78200E+11
         0.78200E+11
         0.78200E+11
         0.78200E+11
         0.78200E+11
         0.78200E+11
         0.78200E+11
         0.78200E+11
         0.78200E+11
         0.78200E+11
         0.78200E+11
         0.78200E+11
         0.78200E+11
         0.78200E+11
         0.78200E+11
         0.78200E+11
         0.78200E+11
         0.78200E+11
         0.78200E+11
         0.78200E+11
         0.78200E+11
         0.78200E+11
         0.78200E+11
         0.78200E+11
         0.78200E+11
         0.78200E+11
         0.78200E+11
         0.78200E+11
         0.78200E+11
         0.78200E+11
         0.78200E+11
         0.78200E+11
         0.78200E+11
         0.78200E+11
         0.78200E+11
         0.78200E+11
         0.78200E+11
         0.78200E+11
         0.78200E+11
         0.78200E+11
         0.78200E+11
         0.78200E+11
         0.78200E+11
         0.78200E+11
         0.78200E+11
         0.78200E+11
         0.78200E+11
         0.78200E+11
         0.78200E+11
         0.78200E+11
         0.78200E+11
         0.78200E+11
         0.78200E+11
         0.78200E+11
         0.78200E+11
         0.78200E+11
         0.78200E+11
         0.78200E+11
         0.78200E+11
         0.78200E+11
         0.78200E+11
         0.78200E+11
         0.78200E+11
         0.78200E+11
         0.78200E+11
         0.78200E+11
         0.78200E+11
         0.78200E+11
         0.78200E+11
         0.78200E+11
         0.78200E+11
         0.78200E+11
         0.78200E+11
         0.78200E+11
         0.78200E+11
         0.78200E+11
         0.78200E+11
         0.78200E+11
         0.78200E+11
         0.78200E+11
         0.78200E+11
         0.78200E+11
         0.78200E+11
         0.78200E+11
         0.78200E+11
         0.78200E+11
         0.78200E+11
         0.78200E+11
         0.78200E+11
         0.78200E+11
         0.78200E+11
         0.78200E+11
         0.78200E+11
         0.78200E+11
         0.78200E+11
         0.78200E+11
         0.78200E+11
         0.78200E+11
         0.78200E+11
         0.78200E+11
         0.78200E+11
         0.78200E+11
         0.78200E+11
         0.78200E+11
         0.78200E+11
         0.78200E+11
         0.78200E+11
         0.78200E+11
         0.78200E+11
         0.78200E+11
         0.78200E+11
         0.78200E+11
         0.78200E+11
  
SCALARS                        density  double 1
LOOKUP_TABLE default
         0.27000E+04
         0.27000E+04
         0.27000E+04
         0.27000E+04
         0.27000E+04
         0.27000E+04
         0.27000E+04
         0.27000E+04
         0.27000E+04
         0.27000E+04
         0.27000E+04
         0.27000E+04
         0.27000E+04
         0.27000E+04
         0.27000E+04
         0.27000E+04
         0.27000E+04
         0.27000E+04
         0.27000E+04
         0.27000E+04
         0.27000E+04
         0.27000E+04
         0.27000E+04
         0.27000E+04
         0.27000E+04
         0.27000E+04
         0.27000E+04
         0.27000E+04
         0.27000E+04
         0.27000E+04
         0.27000E+04
         0.27000E+04
         0.27000E+04
         0.27000E+04
         0.27000E+04
         0.27000E+04
         0.27000E+04
         0.27000E+04
         0.27000E+04
         0.27000E+04
         0.27000E+04
         0.27000E+04
         0.27000E+04
         0.27000E+04
         0.27000E+04
         0.27000E+04
         0.27000E+04
         0.27000E+04
         0.27000E+04
         0.27000E+04
         0.27000E+04
         0.27000E+04
         0.27000E+04
         0.27000E+04
         0.27000E+04
         0.27000E+04
         0.27000E+04
         0.27000E+04
         0.27000E+04
         0.27000E+04
         0.27000E+04
         0.27000E+04
         0.27000E+04
         0.27000E+04
         0.27000E+04
         0.27000E+04
         0.27000E+04
         0.27000E+04
         0.27000E+04
         0.27000E+04
         0.27000E+04
         0.27000E+04
         0.27000E+04
         0.27000E+04
         0.27000E+04
         0.27000E+04
         0.27000E+04
         0.27000E+04
         0.27000E+04
         0.27000E+04
         0.27000E+04
         0.27000E+04
         0.27000E+04
         0.27000E+04
         0.27000E+04
         0.27000E+04
         0.27000E+04
         0.27000E+04
         0.27000E+04
         0.27000E+04
         0.27000E+04
         0.27000E+04
         0.27000E+04
         0.27000E+04
         0.27000E+04
         0.27000E+04
         0.27000E+04
         0.27000E+04
         0.27000E+04
         0.27000E+04
         0.27000E+04
         0.27000E+04
         0.27000E+04
         0.27000E+04
         0.27000E+04
         0.27000E+04
         0.27000E+04
         0.27000E+04
         0.27000E+04
         0.27000E+04
         0.27000E+04
         0.27000E+04
         0.27000E+04
         0.27000E+04
         0.27000E+04
         0.27000E+04
         0.27000E+04
         0.27000E+04
         0.27000E+04
         0.27000E+04
         0.27000E+04
         0.27000E+04
         0.27000E+04
         0.27000E+04
         0.27000E+04
         0.27000E+04
         0.27000E+04
         0.27000E+04
         0.27000E+04
         0.27000E+04
         0.27000E+04
         0.27000E+04
         0.27000E+04
         0.27000E+04
         0.27000E+04
         0.27000E+04
         0.27000E+04
         0.27000E+04
         0.27000E+04
         0.27000E+04
         0.27000E+04
         0.27000E+04
         0.27000E+04
         0.27000E+04
         0.27000E+04
         0.27000E+04
         0.27000E+04
         0.27000E+04
         0.27000E+04
         0.27000E+04
         0.27000E+04
         0.27000E+04
         0.27000E+04
         0.27000E+04
         0.27000E+04
         0.27000E+04
         0.27000E+04
         0.27000E+04
         0.27000E+04
         0.27000E+04
         0.27000E+04
         0.27000E+04
         0.27000E+04
         0.27000E+04
         0.27000E+04
         0.27000E+04
         0.27000E+04
         0.27000E+04
         0.27000E+04
         0.27000E+04
         0.27000E+04
         0.27000E+04
         0.27000E+04
         0.27000E+04
         0.27000E+04
         0.27000E+04
         0.27000E+04
         0.27000E+04
         0.27000E+04
         0.27000E+04
         0.27000E+04
         0.27000E+04
         0.27000E+04
         0.27000E+04
         0.27000E+04
         0.27000E+04
         0.27000E+04
         0.27000E+04
         0.27000E+04
         0.27000E+04
         0.27000E+04
         0.27000E+04
         0.27000E+04
         0.27000E+04
         0.27000E+04
         0.27000E+04
         0.27000E+04
         0.27000E+04
         0.27000E+04
         0.27000E+04
         0.27000E+04
         0.27000E+04
         0.27000E+04
         0.27000E+04
         0.27000E+04
         0.27000E+04
         0.27000E+04
         0.27000E+04
         0.27000E+04
         0.27000E+04
         0.27000E+04
         0.27000E+04
         0.27000E+04
         0.27000E+04
         0.27000E+04
         0.27000E+04
         0.27000E+04
         0.27000E+04
         0.27000E+04
         0.27000E+04
         0.27000E+04
         0.27000E+04
         0.27000E+04
         0.27000E+04
         0.27000E+04
         0.27000E+04
         0.27000E+04
         0.27000E+04
         0.27000E+04
         0.27000E+04
         0.27000E+04
         0.27000E+04
         0.27000E+04
         0.27000E+04
         0.27000E+04
         0.27000E+04
         0.27000E+04
         0.27000E+04
         0.27000E+04
         0.27000E+04
         0.27000E+04
         0.27000E+04
         0.27000E+04
         0.27000E+04
         0.27000E+04
         0.27000E+04
         0.27000E+04
         0.27000E+04
         0.27000E+04
         0.27000E+04
         0.27000E+04
         0.27000E+04
         0.27000E+04
         0.27000E+04
         0.27000E+04
         0.27000E+04
         0.27000E+04
         0.27000E+04
         0.27000E+04
         0.27000E+04
         0.27000E+04
         0.27000E+04
         0.27000E+04
         0.27000E+04
         0.27000E+04
         0.27000E+04
         0.27000E+04
         0.27000E+04
         0.27000E+04
         0.27000E+04
         0.27000E+04
         0.27000E+04
         0.27000E+04
         0.27000E+04
         0.27000E+04
         0.27000E+04
         0.27000E+04
         0.27000E+04
         0.27000E+04
         0.27000E+04
         0.27000E+04
         0.27000E+04
         0.27000E+04
         0.27000E+04
         0.27000E+04
         0.27000E+04
         0.27000E+04
         0.27000E+04
         0.27000E+04
         0.27000E+04
         0.27000E+04
         0.27000E+04
         0.27000E+04
         0.27000E+04
         0.27000E+04
         0.27000E+04
         0.27000E+04
         0.27000E+04
         0.27000E+04
         0.27000E+04
         0.27000E+04
         0.27000E+04
         0.27000E+04
         0.27000E+04
         0.27000E+04
         0.27000E+04
         0.27000E+04
         0.27000E+04
         0.27000E+04
         0.27000E+04
         0.27000E+04
         0.27000E+04
         0.27000E+04
         0.27000E+04
         0.27000E+04
         0.27000E+04
         0.27000E+04
         0.27000E+04
         0.27000E+04
         0.27000E+04
         0.27000E+04
         0.27000E+04
         0.27000E+04
         0.27000E+04
         0.27000E+04
         0.27000E+04
         0.27000E+04
         0.27000E+04
         0.27000E+04
         0.27000E+04
         0.27000E+04
         0.27000E+04
         0.27000E+04
         0.27000E+04
         0.27000E+04
         0.27000E+04
         0.27000E+04
         0.27000E+04
         0.27000E+04
         0.27000E+04
         0.27000E+04
         0.27000E+04
         0.27000E+04
         0.27000E+04
         0.27000E+04
         0.27000E+04
         0.27000E+04
         0.27000E+04
         0.27000E+04
         0.27000E+04
         0.27000E+04
         0.27000E+04
         0.27000E+04
         0.27000E+04
         0.27000E+04
         0.27000E+04
         0.27000E+04
         0.27000E+04
         0.27000E+04
         0.27000E+04
         0.27000E+04
         0.27000E+04
         0.27000E+04
         0.27000E+04
         0.27000E+04
         0.27000E+04
         0.27000E+04
         0.27000E+04
         0.27000E+04
         0.27000E+04
         0.27000E+04
         0.27000E+04
         0.27000E+04
         0.27000E+04
         0.27000E+04
         0.27000E+04
         0.27000E+04
         0.27000E+04
         0.27000E+04
         0.27000E+04
         0.27000E+04
         0.27000E+04
         0.27000E+04
         0.27000E+04
         0.27000E+04
         0.27000E+04
         0.27000E+04
         0.27000E+04
         0.27000E+04
         0.27000E+04
         0.27000E+04
         0.27000E+04
         0.27000E+04
         0.27000E+04
         0.27000E+04
         0.27000E+04
         0.27000E+04
         0.27000E+04
         0.27000E+04
         0.27000E+04
         0.27000E+04
         0.27000E+04
         0.27000E+04
         0.27000E+04
         0.27000E+04
         0.27000E+04
         0.27000E+04
         0.27000E+04
         0.27000E+04
         0.27000E+04
         0.27000E+04
         0.27000E+04
         0.27000E+04
         0.27000E+04
         0.27000E+04
         0.27000E+04
         0.27000E+04
         0.27000E+04
         0.27000E+04
         0.27000E+04
         0.27000E+04
         0.27000E+04
         0.27000E+04
         0.27000E+04
         0.27000E+04
         0.27000E+04
         0.27000E+04
         0.27000E+04
         0.27000E+04
         0.27000E+04
         0.27000E+04
         0.27000E+04
         0.27000E+04
         0.27000E+04
         0.27000E+04
         0.27000E+04
         0.27000E+04
         0.27000E+04
         0.27000E+04
         0.27000E+04
         0.27000E+04
         0.27000E+04
         0.27000E+04
         0.27000E+04
         0.27000E+04
         0.27000E+04
         0.27000E+04
         0.27000E+04
         0.27000E+04
         0.27000E+04
         0.27000E+04
         0.27000E+04
         0.27000E+04
         0.27000E+04
         0.27000E+04
         0.27000E+04
         0.27000E+04
         0.27000E+04
         0.27000E+04
         0.27000E+04
         0.27000E+04
         0.27000E+04
         0.27000E+04
         0.27000E+04
         0.27000E+04
         0.27000E+04
         0.27000E+04
         0.27000E+04
         0.27000E+04
         0.27000E+04
         0.27000E+04
         0.27000E+04
         0.27000E+04
         0.27000E+04
         0.27000E+04
         0.27000E+04
         0.27000E+04
         0.27000E+04
         0.27000E+04
         0.27000E+04
         0.27000E+04
         0.27000E+04
         0.27000E+04
         0.27000E+04
         0.27000E+04
         0.27000E+04
         0.27000E+04
         0.27000E+04
         0.27000E+04
         0.27000E+04
         0.27000E+04
         0.27000E+04
         0.27000E+04
         0.27000E+04
         0.27000E+04
         0.27000E+04
         0.27000E+04
         0.27000E+04
         0.27000E+04
         0.27000E+04
         0.27000E+04
         0.27000E+04
         0.27000E+04
         0.27000E+04
         0.27000E+04
         0.27000E+04
         0.27000E+04
         0.27000E+04
         0.27000E+04
         0.27000E+04
         0.27000E+04
         0.27000E+04
         0.27000E+04
         0.27000E+04
         0.27000E+04
         0.27000E+04
         0.27000E+04
         0.27000E+04
         0.27000E+04
         0.27000E+04
         0.27000E+04
         0.27000E+04
         0.27000E+04
         0.27000E+04
         0.27000E+04
         0.27000E+04
         0.27000E+04
         0.27000E+04
         0.27000E+04
         0.27000E+04
         0.27000E+04
         0.27000E+04
         0.27000E+04
         0.27000E+04
         0.27000E+04
         0.27000E+04
         0.27000E+04
         0.27000E+04
         0.27000E+04
         0.27000E+04
         0.27000E+04
         0.27000E+04
         0.27000E+04
         0.27000E+04
         0.27000E+04
         0.27000E+04
         0.27000E+04
         0.27000E+04
         0.27000E+04
         0.27000E+04
         0.27000E+04
         0.27000E+04
         0.27000E+04
         0.27000E+04
         0.27000E+04
         0.27000E+04
         0.27000E+04
         0.27000E+04
         0.27000E+04
         0.27000E+04
         0.27000E+04
         0.27000E+04
         0.27000E+04
         0.27000E+04
         0.27000E+04
         0.27000E+04
         0.27000E+04
         0.27000E+04
         0.27000E+04
         0.27000E+04
         0.27000E+04
         0.27000E+04
         0.27000E+04
         0.27000E+04
         0.27000E+04
         0.27000E+04
         0.27000E+04
         0.27000E+04
         0.27000E+04
         0.27000E+04
         0.27000E+04
         0.27000E+04
         0.27000E+04
         0.27000E+04
         0.27000E+04
         0.27000E+04
         0.27000E+04
         0.27000E+04
         0.27000E+04
         0.27000E+04
         0.27000E+04
         0.27000E+04
         0.27000E+04
         0.27000E+04
         0.27000E+04
         0.27000E+04
         0.27000E+04
         0.27000E+04
         0.27000E+04
         0.27000E+04
         0.27000E+04
         0.27000E+04
         0.27000E+04
         0.27000E+04
         0.27000E+04
         0.27000E+04
         0.27000E+04
         0.27000E+04
         0.27000E+04
         0.27000E+04
         0.27000E+04
         0.27000E+04
         0.27000E+04
         0.27000E+04
         0.27000E+04
         0.27000E+04
         0.27000E+04
         0.27000E+04
         0.27000E+04
         0.27000E+04
         0.27000E+04
         0.27000E+04
         0.27000E+04
         0.27000E+04
         0.27000E+04
         0.27000E+04
         0.27000E+04
         0.27000E+04
         0.27000E+04
         0.27000E+04
         0.27000E+04
         0.27000E+04
         0.27000E+04
         0.27000E+04
         0.27000E+04
         0.27000E+04
         0.27000E+04
         0.27000E+04
         0.27000E+04
         0.27000E+04
         0.27000E+04
         0.27000E+04
         0.27000E+04
         0.27000E+04
         0.27000E+04
         0.27000E+04
         0.27000E+04
         0.27000E+04
         0.27000E+04
         0.27000E+04
         0.27000E+04
         0.27000E+04
         0.27000E+04
         0.27000E+04
         0.27000E+04
         0.27000E+04
         0.27000E+04
         0.27000E+04
         0.27000E+04
         0.27000E+04
         0.27000E+04
         0.27000E+04
         0.27000E+04
         0.27000E+04
         0.27000E+04
         0.27000E+04
         0.27000E+04
         0.27000E+04
         0.27000E+04
         0.27000E+04
         0.27000E+04
         0.27000E+04
         0.27000E+04
         0.27000E+04
         0.27000E+04
         0.27000E+04
         0.27000E+04
         0.27000E+04
         0.27000E+04
         0.27000E+04
         0.27000E+04
         0.27000E+04
         0.27000E+04
         0.27000E+04
         0.27000E+04
         0.27000E+04
         0.27000E+04
         0.27000E+04
         0.27000E+04
         0.27000E+04
         0.27000E+04
         0.27000E+04
         0.27000E+04
         0.27000E+04
         0.27000E+04
         0.27000E+04
         0.27000E+04
         0.27000E+04
         0.27000E+04
         0.27000E+04
         0.27000E+04
         0.27000E+04
         0.27000E+04
         0.27000E+04
         0.27000E+04
         0.27000E+04
         0.27000E+04
         0.27000E+04
         0.27000E+04
         0.27000E+04
         0.27000E+04
         0.27000E+04
         0.27000E+04
         0.27000E+04
         0.27000E+04
         0.27000E+04
         0.27000E+04
         0.27000E+04
         0.27000E+04
         0.27000E+04
         0.27000E+04
         0.27000E+04
         0.27000E+04
         0.27000E+04
         0.27000E+04
         0.27000E+04
         0.27000E+04
         0.27000E+04
         0.27000E+04
         0.27000E+04
         0.27000E+04
         0.27000E+04
         0.27000E+04
         0.27000E+04
         0.27000E+04
         0.27000E+04
         0.27000E+04
         0.27000E+04
         0.27000E+04
         0.27000E+04
         0.27000E+04
         0.27000E+04
         0.27000E+04
         0.27000E+04
         0.27000E+04
         0.27000E+04
         0.27000E+04
         0.27000E+04
         0.27000E+04
         0.27000E+04
         0.27000E+04
         0.27000E+04
         0.27000E+04
         0.27000E+04
         0.27000E+04
         0.27000E+04
         0.27000E+04
         0.27000E+04
         0.27000E+04
         0.27000E+04
         0.27000E+04
         0.27000E+04
         0.27000E+04
         0.27000E+04
         0.27000E+04
         0.27000E+04
         0.27000E+04
         0.27000E+04
         0.27000E+04
         0.27000E+04
         0.27000E+04
         0.27000E+04
         0.27000E+04
         0.27000E+04
         0.27000E+04
         0.27000E+04
         0.27000E+04
         0.27000E+04
         0.27000E+04
         0.27000E+04
         0.27000E+04
         0.27000E+04
         0.27000E+04
         0.27000E+04
         0.27000E+04
         0.27000E+04
         0.27000E+04
         0.27000E+04
         0.27000E+04
         0.27000E+04
         0.27000E+04
         0.27000E+04
         0.27000E+04
         0.27000E+04
         0.27000E+04
         0.27000E+04
         0.27000E+04
         0.27000E+04
         0.27000E+04
         0.27000E+04
         0.27000E+04
         0.27000E+04
         0.27000E+04
         0.27000E+04
         0.27000E+04
         0.27000E+04
         0.27000E+04
         0.27000E+04
         0.27000E+04
         0.27000E+04
         0.27000E+04
         0.27000E+04
         0.27000E+04
         0.27000E+04
         0.27000E+04
         0.27000E+04
         0.27000E+04
         0.27000E+04
         0.27000E+04
         0.27000E+04
         0.27000E+04
         0.27000E+04
         0.27000E+04
         0.27000E+04
         0.27000E+04
         0.27000E+04
         0.27000E+04
         0.27000E+04
         0.27000E+04
         0.27000E+04
         0.27000E+04
         0.27000E+04
         0.27000E+04
         0.27000E+04
         0.27000E+04
         0.27000E+04
         0.27000E+04
         0.27000E+04
         0.27000E+04
         0.27000E+04
         0.27000E+04
         0.27000E+04
         0.27000E+04
         0.27000E+04
         0.27000E+04
         0.27000E+04
         0.27000E+04
         0.27000E+04
         0.27000E+04
         0.27000E+04
         0.27000E+04
         0.27000E+04
         0.27000E+04
         0.27000E+04
         0.27000E+04
         0.27000E+04
         0.27000E+04
         0.27000E+04
         0.27000E+04
         0.27000E+04
         0.27000E+04
         0.27000E+04
         0.27000E+04
         0.27000E+04
         0.27000E+04
         0.27000E+04
         0.27000E+04
         0.27000E+04
         0.27000E+04
         0.27000E+04
         0.27000E+04
         0.27000E+04
         0.27000E+04
         0.27000E+04
         0.27000E+04
         0.27000E+04
         0.27000E+04
         0.27000E+04
         0.27000E+04
         0.27000E+04
         0.27000E+04
         0.27000E+04
         0.27000E+04
         0.27000E+04
         0.27000E+04
         0.27000E+04
         0.27000E+04
         0.27000E+04
         0.27000E+04
         0.27000E+04
         0.27000E+04
         0.27000E+04
         0.27000E+04
         0.27000E+04
         0.27000E+04
         0.27000E+04
         0.27000E+04
         0.27000E+04
         0.27000E+04
         0.27000E+04
         0.27000E+04
         0.27000E+04
         0.27000E+04
         0.27000E+04
         0.27000E+04
         0.27000E+04
         0.27000E+04
         0.27000E+04
         0.27000E+04
         0.27000E+04
         0.27000E+04
         0.27000E+04
         0.27000E+04
         0.27000E+04
         0.27000E+04
         0.27000E+04
         0.27000E+04
         0.27000E+04
         0.27000E+04
         0.27000E+04
         0.27000E+04
         0.27000E+04
         0.27000E+04
         0.27000E+04
         0.27000E+04
         0.27000E+04
         0.27000E+04
         0.27000E+04
         0.27000E+04
         0.27000E+04
         0.27000E+04
         0.27000E+04
         0.27000E+04
         0.27000E+04
         0.27000E+04
         0.27000E+04
         0.27000E+04
         0.27000E+04
         0.27000E+04
         0.27000E+04
         0.27000E+04
         0.27000E+04
         0.27000E+04
         0.27000E+04
         0.27000E+04
         0.27000E+04
         0.27000E+04
         0.27000E+04
         0.27000E+04
         0.27000E+04
         0.27000E+04
         0.27000E+04
         0.27000E+04
         0.27000E+04
         0.27000E+04
         0.27000E+04
         0.27000E+04
         0.27000E+04
         0.27000E+04
         0.27000E+04
         0.27000E+04
         0.27000E+04
         0.27000E+04
         0.27000E+04
         0.27000E+04
         0.27000E+04
         0.27000E+04
         0.27000E+04
         0.27000E+04
         0.27000E+04
         0.27000E+04
         0.27000E+04
         0.27000E+04
         0.27000E+04
         0.27000E+04
         0.27000E+04
         0.27000E+04
         0.27000E+04
         0.27000E+04
         0.27000E+04
         0.27000E+04
         0.27000E+04
         0.27000E+04
         0.27000E+04
         0.27000E+04
         0.27000E+04
         0.27000E+04
         0.27000E+04
         0.27000E+04
         0.27000E+04
         0.27000E+04
         0.27000E+04
         0.27000E+04
         0.27000E+04
         0.27000E+04
         0.27000E+04
         0.27000E+04
         0.27000E+04
         0.27000E+04
         0.27000E+04
         0.27000E+04
         0.27000E+04
         0.27000E+04
         0.27000E+04
         0.27000E+04
         0.27000E+04
         0.27000E+04
         0.27000E+04
         0.27000E+04
         0.27000E+04
         0.27000E+04
         0.27000E+04
         0.27000E+04
         0.27000E+04
         0.27000E+04
         0.27000E+04
         0.27000E+04
         0.27000E+04
         0.27000E+04
         0.27000E+04
         0.27000E+04
         0.27000E+04
         0.27000E+04
         0.27000E+04
         0.27000E+04
         0.27000E+04
         0.27000E+04
         0.27000E+04
         0.27000E+04
         0.27000E+04
         0.27000E+04
         0.27000E+04
         0.27000E+04
         0.27000E+04
         0.27000E+04
         0.27000E+04
         0.27000E+04
         0.27000E+04
         0.27000E+04
         0.27000E+04
         0.27000E+04
         0.27000E+04
         0.27000E+04
         0.27000E+04
         0.27000E+04
         0.27000E+04
         0.27000E+04
         0.27000E+04
         0.27000E+04
         0.27000E+04
         0.27000E+04
         0.27000E+04
         0.27000E+04
         0.27000E+04
         0.27000E+04
         0.27000E+04
         0.27000E+04
         0.27000E+04
         0.27000E+04
         0.27000E+04
         0.27000E+04
         0.27000E+04
         0.27000E+04
         0.27000E+04
         0.27000E+04
         0.27000E+04
         0.27000E+04
         0.27000E+04
         0.27000E+04
         0.27000E+04
         0.27000E+04
         0.27000E+04
         0.27000E+04
         0.27000E+04
         0.27000E+04
         0.27000E+04
         0.27000E+04
         0.27000E+04
         0.27000E+04
         0.27000E+04
         0.27000E+04
         0.27000E+04
         0.27000E+04
         0.27000E+04
         0.27000E+04
         0.27000E+04
         0.27000E+04
         0.27000E+04
         0.27000E+04
         0.27000E+04
         0.27000E+04
         0.27000E+04
         0.27000E+04
         0.27000E+04
         0.27000E+04
         0.27000E+04
         0.27000E+04
         0.27000E+04
         0.27000E+04
         0.27000E+04
         0.27000E+04
         0.27000E+04
         0.27000E+04
         0.27000E+04
         0.27000E+04
         0.27000E+04
         0.27000E+04
         0.27000E+04
         0.27000E+04
         0.27000E+04
         0.27000E+04
         0.27000E+04
         0.27000E+04
         0.27000E+04
         0.27000E+04
         0.27000E+04
         0.27000E+04
         0.27000E+04
         0.27000E+04
         0.27000E+04
         0.27000E+04
         0.27000E+04
         0.27000E+04
         0.27000E+04
         0.27000E+04
         0.27000E+04
         0.27000E+04
         0.27000E+04
         0.27000E+04
         0.27000E+04
         0.27000E+04
         0.27000E+04
         0.27000E+04
         0.27000E+04
         0.27000E+04
         0.27000E+04
         0.27000E+04
         0.27000E+04
         0.27000E+04
         0.27000E+04
         0.27000E+04
         0.27000E+04
         0.27000E+04
         0.27000E+04
         0.27000E+04
         0.27000E+04
         0.27000E+04
         0.27000E+04
         0.27000E+04
         0.27000E+04
         0.27000E+04
         0.27000E+04
         0.27000E+04
         0.27000E+04
         0.27000E+04
         0.27000E+04
         0.27000E+04
         0.27000E+04
         0.27000E+04
         0.27000E+04
         0.27000E+04
         0.27000E+04
         0.27000E+04
         0.27000E+04
         0.27000E+04
         0.27000E+04
         0.27000E+04
         0.27000E+04
         0.27000E+04
         0.27000E+04
         0.27000E+04
         0.27000E+04
         0.27000E+04
         0.27000E+04
         0.27000E+04
         0.27000E+04
         0.27000E+04
         0.27000E+04
         0.27000E+04
         0.27000E+04
         0.27000E+04
         0.27000E+04
         0.27000E+04
         0.27000E+04
         0.27000E+04
         0.27000E+04
         0.27000E+04
         0.27000E+04
         0.27000E+04
         0.27000E+04
         0.27000E+04
         0.27000E+04
         0.27000E+04
         0.27000E+04
         0.27000E+04
         0.27000E+04
         0.27000E+04
         0.27000E+04
         0.27000E+04
         0.27000E+04
         0.27000E+04
         0.27000E+04
         0.27000E+04
         0.27000E+04
         0.27000E+04
         0.27000E+04
         0.27000E+04
         0.27000E+04
         0.27000E+04
         0.27000E+04
         0.27000E+04
         0.27000E+04
         0.27000E+04
         0.27000E+04
         0.27000E+04
         0.27000E+04
         0.27000E+04
         0.27000E+04
         0.27000E+04
         0.27000E+04
         0.27000E+04
         0.27000E+04
         0.27000E+04
         0.27000E+04
         0.27000E+04
         0.27000E+04
         0.27000E+04
         0.27000E+04
         0.27000E+04
         0.27000E+04
         0.27000E+04
         0.27000E+04
         0.27000E+04
         0.27000E+04
         0.27000E+04
         0.27000E+04
         0.27000E+04
         0.27000E+04
         0.27000E+04
         0.27000E+04
         0.27000E+04
         0.27000E+04
         0.27000E+04
         0.27000E+04
         0.27000E+04
         0.27000E+04
         0.27000E+04
         0.27000E+04
         0.27000E+04
         0.27000E+04
         0.27000E+04
         0.27000E+04
         0.27000E+04
         0.27000E+04
         0.27000E+04
         0.27000E+04
         0.27000E+04
         0.27000E+04
         0.27000E+04
         0.27000E+04
         0.27000E+04
         0.27000E+04
         0.27000E+04
         0.27000E+04
         0.27000E+04
         0.27000E+04
         0.27000E+04
         0.27000E+04
         0.27000E+04
         0.27000E+04
         0.27000E+04
         0.27000E+04
         0.27000E+04
         0.27000E+04
         0.27000E+04
         0.27000E+04
         0.27000E+04
         0.27000E+04
         0.27000E+04
         0.27000E+04
         0.27000E+04
         0.27000E+04
         0.27000E+04
         0.27000E+04
         0.27000E+04
         0.27000E+04
         0.27000E+04
         0.27000E+04
         0.27000E+04
         0.27000E+04
         0.27000E+04
         0.27000E+04
         0.27000E+04
         0.27000E+04
         0.27000E+04
         0.27000E+04
         0.27000E+04
         0.27000E+04
         0.27000E+04
         0.27000E+04
         0.27000E+04
         0.27000E+04
         0.27000E+04
         0.27000E+04
         0.27000E+04
         0.27000E+04
         0.27000E+04
         0.27000E+04
         0.27000E+04
         0.27000E+04
         0.27000E+04
         0.27000E+04
         0.27000E+04
         0.27000E+04
         0.27000E+04
         0.27000E+04
         0.27000E+04
         0.27000E+04
         0.27000E+04
         0.27000E+04
         0.27000E+04
         0.27000E+04
         0.27000E+04
         0.27000E+04
         0.27000E+04
         0.27000E+04
         0.27000E+04
         0.27000E+04
         0.27000E+04
         0.27000E+04
         0.27000E+04
         0.27000E+04
         0.27000E+04
         0.27000E+04
         0.27000E+04
         0.27000E+04
         0.27000E+04
         0.27000E+04
         0.27000E+04
         0.27000E+04
         0.27000E+04
         0.27000E+04
         0.27000E+04
         0.27000E+04
         0.27000E+04
         0.27000E+04
         0.27000E+04
         0.27000E+04
         0.27000E+04
         0.27000E+04
         0.27000E+04
         0.27000E+04
         0.27000E+04
         0.27000E+04
         0.27000E+04
         0.27000E+04
         0.27000E+04
         0.27000E+04
         0.27000E+04
         0.27000E+04
         0.27000E+04
         0.27000E+04
         0.27000E+04
         0.27000E+04
         0.27000E+04
         0.27000E+04
         0.27000E+04
         0.27000E+04
         0.27000E+04
         0.27000E+04
         0.27000E+04
         0.27000E+04
         0.27000E+04
         0.27000E+04
         0.27000E+04
         0.27000E+04
         0.27000E+04
         0.27000E+04
         0.27000E+04
         0.27000E+04
         0.27000E+04
         0.27000E+04
         0.27000E+04
         0.27000E+04
         0.27000E+04
         0.27000E+04
         0.27000E+04
         0.27000E+04
         0.27000E+04
         0.27000E+04
         0.27000E+04
         0.27000E+04
         0.27000E+04
         0.27000E+04
         0.27000E+04
         0.27000E+04
         0.27000E+04
         0.27000E+04
         0.27000E+04
         0.27000E+04
         0.27000E+04
         0.27000E+04
         0.27000E+04
         0.27000E+04
         0.27000E+04
         0.27000E+04
         0.27000E+04
         0.27000E+04
         0.27000E+04
         0.27000E+04
         0.27000E+04
         0.27000E+04
         0.27000E+04
         0.27000E+04
         0.27000E+04
         0.27000E+04
         0.27000E+04
         0.27000E+04
         0.27000E+04
         0.27000E+04
         0.27000E+04
         0.27000E+04
         0.27000E+04
         0.27000E+04
         0.27000E+04
         0.27000E+04
         0.27000E+04
         0.27000E+04
         0.27000E+04
         0.27000E+04
         0.27000E+04
         0.27000E+04
         0.27000E+04
         0.27000E+04
         0.27000E+04
         0.27000E+04
         0.27000E+04
         0.27000E+04
         0.27000E+04
         0.27000E+04
         0.27000E+04
         0.27000E+04
         0.27000E+04
         0.27000E+04
         0.27000E+04
         0.27000E+04
         0.27000E+04
         0.27000E+04
         0.27000E+04
         0.27000E+04
         0.27000E+04
         0.27000E+04
         0.27000E+04
         0.27000E+04
         0.27000E+04
         0.27000E+04
         0.27000E+04
         0.27000E+04
         0.27000E+04
         0.27000E+04
         0.27000E+04
         0.27000E+04
         0.27000E+04
         0.27000E+04
         0.27000E+04
         0.27000E+04
         0.27000E+04
         0.27000E+04
         0.27000E+04
         0.27000E+04
         0.27000E+04
         0.27000E+04
         0.27000E+04
         0.27000E+04
         0.27000E+04
         0.27000E+04
         0.27000E+04
         0.27000E+04
         0.27000E+04
         0.27000E+04
         0.27000E+04
         0.27000E+04
         0.27000E+04
         0.27000E+04
         0.27000E+04
         0.27000E+04
         0.27000E+04
         0.27000E+04
         0.27000E+04
         0.27000E+04
         0.27000E+04
         0.27000E+04
         0.27000E+04
         0.27000E+04
         0.27000E+04
         0.27000E+04
         0.27000E+04
         0.27000E+04
         0.27000E+04
         0.27000E+04
         0.27000E+04
         0.27000E+04
         0.27000E+04
         0.27000E+04
         0.27000E+04
         0.27000E+04
         0.27000E+04
         0.27000E+04
         0.27000E+04
         0.27000E+04
         0.27000E+04
         0.27000E+04
         0.27000E+04
         0.27000E+04
         0.27000E+04
         0.27000E+04
         0.27000E+04
         0.27000E+04
         0.27000E+04
         0.27000E+04
         0.27000E+04
         0.27000E+04
         0.27000E+04
         0.27000E+04
         0.27000E+04
         0.27000E+04
         0.27000E+04
         0.27000E+04
         0.27000E+04
         0.27000E+04
         0.27000E+04
         0.27000E+04
         0.27000E+04
         0.27000E+04
         0.27000E+04
         0.27000E+04
         0.27000E+04
         0.27000E+04
         0.27000E+04
         0.27000E+04
         0.27000E+04
         0.27000E+04
         0.27000E+04
         0.27000E+04
         0.27000E+04
         0.27000E+04
         0.27000E+04
         0.27000E+04
         0.27000E+04
         0.27000E+04
         0.27000E+04
         0.27000E+04
         0.27000E+04
         0.27000E+04
         0.27000E+04
         0.27000E+04
         0.27000E+04
         0.27000E+04
         0.27000E+04
         0.27000E+04
         0.27000E+04
         0.27000E+04
         0.27000E+04
         0.27000E+04
         0.27000E+04
         0.27000E+04
         0.27000E+04
         0.27000E+04
         0.27000E+04
         0.27000E+04
         0.27000E+04
         0.27000E+04
         0.27000E+04
         0.27000E+04
         0.27000E+04
         0.27000E+04
         0.27000E+04
         0.27000E+04
         0.27000E+04
         0.27000E+04
         0.27000E+04
         0.27000E+04
         0.27000E+04
         0.27000E+04
         0.27000E+04
         0.27000E+04
         0.27000E+04
         0.27000E+04
         0.27000E+04
         0.27000E+04
         0.27000E+04
         0.27000E+04
         0.27000E+04
         0.27000E+04
         0.27000E+04
         0.27000E+04
         0.27000E+04
         0.27000E+04
         0.27000E+04
         0.27000E+04
         0.27000E+04
         0.27000E+04
         0.27000E+04
         0.27000E+04
         0.27000E+04
         0.27000E+04
         0.27000E+04
         0.27000E+04
         0.27000E+04
         0.27000E+04
         0.27000E+04
         0.27000E+04
         0.27000E+04
         0.27000E+04
         0.27000E+04
         0.27000E+04
         0.27000E+04
         0.27000E+04
         0.27000E+04
         0.27000E+04
         0.27000E+04
         0.27000E+04
         0.27000E+04
         0.27000E+04
         0.27000E+04
         0.27000E+04
         0.27000E+04
         0.27000E+04
         0.27000E+04
         0.27000E+04
         0.27000E+04
         0.27000E+04
         0.27000E+04
         0.27000E+04
         0.27000E+04
         0.27000E+04
         0.27000E+04
         0.27000E+04
         0.27000E+04
         0.27000E+04
         0.27000E+04
         0.27000E+04
         0.27000E+04
         0.27000E+04
         0.27000E+04
         0.27000E+04
         0.27000E+04
         0.27000E+04
         0.27000E+04
         0.27000E+04
         0.27000E+04
         0.27000E+04
         0.27000E+04
         0.27000E+04
         0.27000E+04
         0.27000E+04
         0.27000E+04
         0.27000E+04
         0.27000E+04
         0.27000E+04
         0.27000E+04
         0.27000E+04
         0.27000E+04
         0.27000E+04
         0.27000E+04
         0.27000E+04
         0.27000E+04
         0.27000E+04
         0.27000E+04
         0.27000E+04
         0.27000E+04
         0.27000E+04
         0.27000E+04
         0.27000E+04
         0.27000E+04
         0.27000E+04
         0.27000E+04
         0.27000E+04
         0.27000E+04
         0.27000E+04
         0.27000E+04
         0.27000E+04
         0.27000E+04
         0.27000E+04
         0.27000E+04
         0.27000E+04
         0.27000E+04
         0.27000E+04
         0.27000E+04
         0.27000E+04
         0.27000E+04
         0.27000E+04
         0.27000E+04
         0.27000E+04
         0.27000E+04
         0.27000E+04
         0.27000E+04
         0.27000E+04
         0.27000E+04
         0.27000E+04
         0.27000E+04
         0.27000E+04
         0.27000E+04
         0.27000E+04
         0.27000E+04
         0.27000E+04
         0.27000E+04
         0.27000E+04
         0.27000E+04
         0.27000E+04
         0.27000E+04
         0.27000E+04
         0.27000E+04
         0.27000E+04
         0.27000E+04
         0.27000E+04
         0.27000E+04
         0.27000E+04
         0.27000E+04
         0.27000E+04
         0.27000E+04
         0.27000E+04
         0.27000E+04
         0.27000E+04
         0.27000E+04
         0.27000E+04
         0.27000E+04
         0.27000E+04
         0.27000E+04
         0.27000E+04
         0.27000E+04
         0.27000E+04
         0.27000E+04
         0.27000E+04
         0.27000E+04
         0.27000E+04
         0.27000E+04
         0.27000E+04
         0.27000E+04
         0.27000E+04
         0.27000E+04
         0.27000E+04
         0.27000E+04
         0.27000E+04
         0.27000E+04
         0.27000E+04
         0.27000E+04
         0.27000E+04
         0.27000E+04
         0.27000E+04
         0.27000E+04
         0.27000E+04
         0.27000E+04
         0.27000E+04
         0.27000E+04
         0.27000E+04
         0.27000E+04
         0.27000E+04
         0.27000E+04
         0.27000E+04
         0.27000E+04
         0.27000E+04
         0.27000E+04
         0.27000E+04
         0.27000E+04
         0.27000E+04
         0.27000E+04
         0.27000E+04
         0.27000E+04
         0.27000E+04
         0.27000E+04
         0.27000E+04
         0.27000E+04
         0.27000E+04
         0.27000E+04
         0.27000E+04
         0.27000E+04
         0.27000E+04
         0.27000E+04
         0.27000E+04
         0.27000E+04
         0.27000E+04
         0.27000E+04
         0.27000E+04
         0.27000E+04
         0.27000E+04
         0.27000E+04
         0.27000E+04
         0.27000E+04
         0.27000E+04
         0.27000E+04
         0.27000E+04
         0.27000E+04
         0.27000E+04
         0.27000E+04
         0.27000E+04
         0.27000E+04
         0.27000E+04
         0.27000E+04
         0.27000E+04
         0.27000E+04
         0.27000E+04
         0.27000E+04
         0.27000E+04
         0.27000E+04
         0.27000E+04
         0.27000E+04
         0.27000E+04
         0.27000E+04
         0.27000E+04
         0.27000E+04
         0.27000E+04
         0.27000E+04
         0.27000E+04
         0.27000E+04
         0.27000E+04
         0.27000E+04
         0.27000E+04
         0.27000E+04
         0.27000E+04
         0.27000E+04
         0.27000E+04
         0.27000E+04
         0.27000E+04
         0.27000E+04
         0.27000E+04
         0.27000E+04
         0.27000E+04
         0.27000E+04
         0.27000E+04
         0.27000E+04
         0.27000E+04
         0.27000E+04
         0.27000E+04
         0.27000E+04
         0.27000E+04
         0.27000E+04
         0.27000E+04
         0.27000E+04
         0.27000E+04
         0.27000E+04
         0.27000E+04
         0.27000E+04
         0.27000E+04
         0.27000E+04
         0.27000E+04
         0.27000E+04
         0.27000E+04
         0.27000E+04
         0.27000E+04
         0.27000E+04
         0.27000E+04
         0.27000E+04
         0.27000E+04
         0.27000E+04
         0.27000E+04
         0.27000E+04
         0.27000E+04
         0.27000E+04
         0.27000E+04
         0.27000E+04
         0.27000E+04
         0.27000E+04
         0.27000E+04
         0.27000E+04
         0.27000E+04
         0.27000E+04
         0.27000E+04
         0.27000E+04
         0.27000E+04
         0.27000E+04
         0.27000E+04
         0.27000E+04
         0.27000E+04
         0.27000E+04
         0.27000E+04
         0.27000E+04
         0.27000E+04
         0.27000E+04
         0.27000E+04
         0.27000E+04
         0.27000E+04
         0.27000E+04
         0.27000E+04
         0.27000E+04
         0.27000E+04
         0.27000E+04
         0.27000E+04
         0.27000E+04
         0.27000E+04
         0.27000E+04
         0.27000E+04
         0.27000E+04
         0.27000E+04
         0.27000E+04
         0.27000E+04
         0.27000E+04
         0.27000E+04
         0.27000E+04
         0.27000E+04
         0.27000E+04
         0.27000E+04
         0.27000E+04
         0.27000E+04
         0.27000E+04
         0.27000E+04
         0.27000E+04
         0.27000E+04
         0.27000E+04
         0.27000E+04
         0.27000E+04
         0.27000E+04
         0.27000E+04
         0.27000E+04
         0.27000E+04
         0.27000E+04
         0.27000E+04
         0.27000E+04
         0.27000E+04
         0.27000E+04
         0.27000E+04
         0.27000E+04
         0.27000E+04
         0.27000E+04
         0.27000E+04
         0.27000E+04
         0.27000E+04
         0.27000E+04
         0.27000E+04
         0.27000E+04
         0.27000E+04
         0.27000E+04
         0.27000E+04
         0.27000E+04
         0.27000E+04
         0.27000E+04
         0.27000E+04
         0.27000E+04
         0.27000E+04
         0.27000E+04
         0.27000E+04
         0.27000E+04
         0.27000E+04
         0.27000E+04
         0.27000E+04
         0.27000E+04
         0.27000E+04
         0.27000E+04
         0.27000E+04
         0.27000E+04
